x,y,z,stresses_full_xx,stresses_full_xy,stresses_full_yy,stresses_full_xz,stresses_full_yz,stresses_full_zz,stresses_full_max_shear,stresses_full_cfs_1,stresses_full_cfs_2,stresses_full_cfs_3,stresses_full_cfs_4,von_mises,aftershocksyn
352154.6038362722,4580833.5216966402,-2500.0,420.04030589195582,3.9623545719034152,-1388.7495380590597,7.0315355793869667,-41.942189267538943,-0.87930152899878833,905.09457401247494,-284.20048966156355,19.072731119681151,-19.072731119681151,284.20048966156355,1641.0398454728672,0.0
357154.6038362722,4580833.5216966402,-2500.0,441.3013173937286,113.4307933339955,-1266.2562112410583,10.24532451274686,-37.07337471530245,-0.75426311255187994,861.90506614143737,-154.97144955994861,-17.835684304386945,17.835684304386945,154.97144955994861,1548.9894626097889,0.0
362154.6038362722,4580833.5216966402,-2500.0,447.81738545435218,211.00381912941788,-1115.2456665258878,12.866296720655521,-31.388198737615944,-0.61469946625489125,810.06358686631449,-31.045841109802545,-51.400949521942444,51.400949521942444,31.045841109802545,1442.3418224837158,0.0
367154.6038362722,4580833.5216966402,-2500.0,441.21442106348491,291.55825922731509,-942.06798439178056,14.743747327767975,-25.126379643092807,-0.46648405130213616,751.05098674597184,82.382901246387959,-80.278121509224334,80.278121509224334,-82.382901246387959,1324.8198386961794,0.0
372154.6038362722,4580833.5216966402,-2500.0,424.24523583361423,351.34706071111356,-754.85064960500779,15.78256147338983,-18.575826052168068,-0.31619703793352988,686.69095430845073,181.00223649499947,-103.50992944959927,103.50992944959927,-181.00223649499947,1200.8487005518325,0.0
377154.6038362722,4580833.5216966402,-2500.0,400.4084528614726,388.44102046420812,-562.73153673103081,15.955160582999055,-12.046126183157952,-0.17052799171372851,619.01690378824787,261.80330013794776,-120.61761020011181,120.61761020011181,-261.80330013794776,1075.2426851912483,0.0
382154.6038362722,4580833.5216966402,-2500.0,373.44939619660994,402.91235083667198,-374.93066824392872,15.304396154366737,-5.8382757353397396,-0.035648865079760242,550.11349716871371,323.3194180003203,-131.62329805465302,131.62329805465302,-323.3194180003203,952.82477666764532,0.0
387154.6038362722,4580833.5216966402,-2500.0,346.84382678875352,396.72519059780666,-199.82173694027171,13.936773610475681,-0.21569526136478112,0.083338253036398219,481.95866847316597,365.64251181844236,-137.00177496502891,137.00177496502891,-365.64251181844236,838.02119790988377,0.0
392154.6038362722,4580833.5216966402,-2500.0,323.36565456310711,373.36137588492011,-44.158732908611618,12.007332450062359,4.6188637114981805,0.18279260907244069,416.2879243762726,390.22796306806049,-137.57438702267939,137.57438702267939,-390.22796306806049,734.46336537498291,0.0
397154.6038362722,4580833.5216966402,-2500.0,304.81512853754322,337.26589385695769,87.42384661206296,9.6991619300735294,8.5371328283478398,0.26073670303363516,354.50356263701389,399.54189469911557,-134.3692075968066,134.3692075968066,-399.54189469911557,644.63214006173666,0.0
402154.6038362722,4580833.5216966402,-2500.0,291.94083099198349,293.22796426300113,192.58341096822684,7.2014394706976823,11.488568131602255,0.31682243292790935,297.71461644301877,396.63183461694445,-128.47610886357899,128.47610886357899,-396.63183461694445,569.59714802339136,0.0
342154.6038362722,4585833.5216966402,-2500.0,369.12060541535396,-292.98587221101326,-1762.4115723971099,-1.4660704951746233,-57.542098990770064,-1.269107074527184,1106.2604814074107,-645.63423414188571,121.33224932475741,-121.33224932475741,645.63423414188571,2039.2602249757185,0.0
347154.6038362722,4585833.5216966402,-2500.0,433.474086700312,-154.57930726497665,-1704.7628942521417,3.3180709483945257,-54.278063851634741,-1.1605423230493448,1081.1403542257867,-499.12260963784888,74.66411810635671,-74.66411810635671,499.12260963784888,1977.9202336325636,0.0
352154.6038362722,4585833.5216966402,-2500.0,480.44418906266554,-14.572738434304814,-1603.7634379801523,7.8881427182938282,-49.586925628645943,-1.0217247546674784,1043.0408322024805,-344.19007346215358,27.643651390340295,-27.643651390340295,344.19007346215358,1892.2093650373752,0.0
357154.6038362722,4585833.5216966402,-2500.0,508.3591745727274,119.1187525362803,-1460.9267903720136,11.964148343881337,-43.583136612663075,-0.85708715858503215,992.57223538526955,-187.81926551331392,-17.504096351898255,17.504096351898255,187.81926551331392,1784.1781579024075,0.0
362154.6038362722,4585833.5216966402,-2500.0,517.35458580683621,238.56389875632598,-1281.16611180892,15.28367881505733,-36.491548553779168,-0.67329958929994116,931.02055260145971,-37.393493853368696,-58.622127283965469,58.622127283965469,37.393493853368696,1657.3411203504741,0.0
367154.6038362722,4585833.5216966402,-2500.0,509.43878028400383,336.77742552963394,-1072.6284561040325,17.634375278115947,-28.635612763954484,-0.47880107735857097,860.29248906685461,100.09074079562862,-93.867319995390773,93.867319995390773,-100.09074079562862,1516.5351275431808,0.0
372154.6038362722,4585833.5216966402,-2500.0,488.23871938339579,408.63100045501801,-846.02514483017285,18.882365125469935,-20.410037230848765,-0.28304212929017314,782.7838825003405,218.81027736701455,-121.92527639498215,121.92527639498215,-218.81027736701455,1367.6088114462202,0.0
377154.6038362722,4585833.5216966402,-2500.0,458.45356317374672,451.52372310273677,-613.53027523376954,18.990841403718317,-12.241234765136941,-0.095552587131227343,701.18638390033084,314.74929565954722,-142.15007846597402,142.15007846597402,-314.74929565954722,1216.9683304800233,0.0
382154.6038362722,4585833.5216966402,-2500.0,425.1222049706322,465.66322368940388,-387.42572595526684,18.024569466386584,-4.5417630602097594,0.075040216261375137,618.25906157902386,386.05557430419719,-154.60003602629681,154.60003602629681,-386.05557430419719,1071.0234777489513,0.0
387154.6038362722,4585833.5216966402,-2500.0,392.86156387524375,453.89392692400583,-178.74052061391069,16.139080757519739,2.3331726515894227,0.22183512656209042,536.59797876781533,433.0542278415636,-159.96393508965795,159.96393508965795,-433.0542278415636,935.58433277851861,0.0
392154.6038362722,4585833.5216966402,-2500.0,365.24146130588326,421.12119674605106,3.8613459053026151,13.556893897847328,8.1194954035454217,0.34023168498850864,458.44350901518249,457.93810194990351,-159.39927845093317,159.39927845093317,-457.93810194990351,815.2660795687143,0.0
397154.6038362722,4585833.5216966402,-2500.0,344.41667026458754,373.47250881324288,154.75891756762655,10.535850420306828,12.662967270233258,0.42815791335434988,385.57320634303414,464.22616144646747,-154.32246128778445,154.32246128778445,-464.22616144646747,712.96373032002271,0.0
402154.6038362722,4585833.5216966402,-2500.0,331.06024742792442,317.38456128000905,271.54556753498713,7.3360207909940973,15.921160816251229,0.48594347336751015,320.15970622978597,456.12259465595338,-146.19692969936563,146.19692969936563,-456.12259465595338,629.49831181836601,0.0
407154.6038362722,4585833.5216966402,-2500.0,324.56374126311857,258.7969051126077,354.737765803331,4.191114050561306,17.950561165890221,0.51592879870675612,300.13713490904183,437.90990288040166,-136.35836331601578,136.35836331601578,-437.90990288040166,563.59751747367113,0.0
412154.6038362722,4585833.5216966402,-2500.0,323.41231758448117,202.57708680731764,407.15563476629222,1.2885260466629398,18.883460814749338,0.52188731267259414,286.60325779310017,413.47478461032472,-125.89990230872584,125.89990230872584,-413.47478461032472,512.34583371402016,0.0
417154.6038362722,4585833.5216966402,-2500.0,325.62270796899753,152.22592924579595,433.14659576023814,-1.2405250204106053,18.900228011792972,0.50840841790428504,270.88431266265172,386.01354362176983,-115.62188902586212,115.62188902586212,-386.01354362176983,472.03042364927188,0.0
332154.6038362722,4590833.5216966402,-2500.0,196.78051618928902,-665.76626043848421,-1998.3967648873618,-14.33484573809039,-70.544618571807476,-1.6599184587885842,1284.9380338652099,-1066.3329351506206,253.05755517752937,-253.05755517752937,1066.3329351506206,2401.6349017538078,0.0
337154.6038362722,4590833.5216966402,-2500.0,307.89719123230952,-532.61543734253235,-2038.8824889572002,-8.8995223068436715,-70.336627399947815,-1.6033605146288354,1289.8153480439239,-937.12479828886103,206.2005831857914,-206.2005831857914,937.12479828886103,2396.4458669612118,0.0
342154.6038362722,4590833.5216966402,-2500.0,407.87771126988514,-379.28575695865715,-2033.5089587006212,-3.0150173021754365,-68.396815289512574,-1.5033350199465749,1279.425216222804,-782.51256467672556,153.42633609599039,-153.42633609599039,782.51256467672556,2360.961453376317,0.0
347154.6038362722,4590833.5216966402,-2500.0,490.91718070228455,-212.61965059082897,-1975.9630936849735,3.017742882624181,-64.581292171918335,-1.3592537170684138,1252.7323019345429,-607.78286713834007,96.878024062322453,-96.878024062322453,607.78286713834007,2293.8195761861903,0.0
352154.6038362722,4590833.5216966402,-2500.0,552.35584108661874,-41.682028379925121,-1863.1179844720546,8.8369610418436846,-58.871517708589643,-1.1738339377403533,1209.468082513896,-420.43992007027703,39.242540884570076,-39.242540884570076,420.43992007027703,2195.3852687633625,0.0
357154.6038362722,4590833.5216966402,-2500.0,589.46948608036655,123.00665131898334,-1696.0576442005827,14.053639986338407,-51.401252217464481,-0.95340089435498498,1150.2676484298408,-229.66065531938767,-16.490866226741659,16.490866226741659,229.66065531938767,2068.0223914599187,0.0
362154.6038362722,4590833.5216966402,-2500.0,602.04114926465309,270.64808342684898,-1480.6441223819447,18.296750318388717,-42.465599783878915,-0.7076685801075715,1076.7185624021038,-45.385952624619541,-67.362160456777218,67.362160456777218,45.385952624619541,1916.1715587647075,0.0
367154.6038362722,4590833.5216966402,-2500.0,592.53737828610224,391.58533456999356,-1227.4009837280098,21.262948832370693,-32.506326733855275,-0.44901502351665046,991.2976441275332,122.83079976442073,-110.80885677943354,110.80885677943354,-122.83079976442073,1746.1825117689173,0.0
372154.6038362722,4590833.5216966402,-2500.0,565.78785166589421,478.68895219561517,-950.61157097465286,22.76120281891696,-22.072159372949315,-0.19125533527654956,897.1894540520733,267.00864545818166,-144.99734314431993,144.99734314431993,-267.00864545818166,1565.8844989478298,0.0
377154.6038362722,4590833.5216966402,-2500.0,528.19419112330127,528.39664362033841,-666.71875336051301,22.74226051705865,-11.758843961482487,0.051837545283285838,798.00472927864985,381.7093236994354,-169.04283470672436,169.04283470672436,-381.7093236994354,1383.9229159022238,0.0
382154.6038362722,4590833.5216966402,-2500.0,486.63325111219876,541.15140450910849,-392.3078916791971,21.305693146834777,-2.139274945889754,0.26808836085730381,697.44205357775559,464.57950853172269,-183.06706005064837,183.06706005064837,-464.57950853172269,1208.9302324976509,0.0
387154.6038362722,4590833.5216966402,-2500.0,447.31293157506633,521.12814207975237,-142.07760078206917,18.682298896707614,6.302853652040457,0.44819118245007733,598.94762915706087,516.35542633264754,-188.08344573032076,188.08344573032076,-516.35542633264754,1048.6092374082486,0.0
392154.6038362722,4590833.5216966402,-2500.0,414.85454173582008,475.33109595090781,72.783335359583162,15.196008956236621,13.223020970645162,0.58649865774012366,505.44241338516383,540.36336642431309,-185.74580574693982,185.74580574693982,-540.36336642431309,908.82220799099741,0.0
397154.6038362722,4590833.5216966402,-2500.0,391.79401752188943,412.30210586086582,245.51875432192952,11.214098436769307,18.440963909164235,0.68126501970363262,419.2603971306645,541.67332863642002,-178.02778889225087,178.02778889225087,-541.67332863642002,792.80014627508456,0.0
402154.6038362722,4590833.5216966402,-2500.0,378.56090725235396,340.75667727830881,373.92787803758063,7.096716236483025,21.93879926256351,0.73429163384473783,360.18126474690979,526.12961704532415,-166.90949863105644,166.90949863105644,-526.12961704532415,700.68844495517067,0.0
407154.6038362722,4590833.5216966402,-2500.0,373.85793207859081,268.43604749215666,459.79218201807714,3.1553765130513147,23.836395700656407,0.75016360392412007,345.13998730557364,499.47308431135866,-154.13238338344979,154.13238338344979,-499.47308431135866,629.73404203816062,0.0
412154.6038362722,4590833.5216966402,-2500.0,375.27522410866197,201.35700449239178,507.84867828369693,-0.37352606230062729,24.352437200758459,0.73528704700825609,327.45065145757559,466.70112457560947,-141.05388596755782,141.05388596755782,-466.70112457560947,575.25942871131372,0.0
417154.6038362722,4590833.5216966402,-2500.0,379.95327405278675,143.50669106298903,524.59675929407501,-3.3387708690329454,23.760839674096513,0.69688517672185346,307.09719962977061,431.71936262497707,-128.60206194788907,128.60206194788907,-431.71936262497707,532.09378687545848,0.0
422154.6038362722,4590833.5216966402,-2500.0,385.14660773155776,96.918898234271424,517.18499192985348,-5.6702201735049345,22.350793662196391,0.64213007164943658,284.76833554337287,397.25958064764859,-117.30827739991767,117.30827739991767,-397.25958064764859,495.80452278767382,0.0
427154.6038362722,4590833.5216966402,-2500.0,388.60684665576525,62.005107980778767,492.5351907125322,-7.3651819859000796,20.395636620276498,0.57752598845794978,261.2252942903342,364.98964231574246,-107.38617107700776,107.38617107700776,-364.98964231574246,463.29222212547285,0.0
322154.6038362722,4595833.5216966402,-2500.0,-101.81896247933709,-1032.2845951122188,-2024.6344795817704,-29.516198434314372,-77.678814358966292,-1.9750908233136495,1412.0582852333487,-1464.2158632180501,391.18721987858794,-391.18721987858794,1464.2158632180501,2667.7180746198856,0.0
327154.6038362722,4595833.5216966402,-2500.0,37.525746543009532,-946.74488383442349,-2167.0773187809991,-24.94929058195159,-81.264280826592156,-2.0010379860263656,1454.5239105310311,-1392.137593212351,357.44998278349829,-357.44998278349829,1392.137593212351,2735.9372888486487,0.0
332154.6038362722,4595833.5216966402,-2500.0,180.84680578037745,-826.96127791767242,-2278.1110951373003,-19.264699173506372,-83.378628242223627,-1.9802791418588026,1483.196273049193,-1282.9960379926792,312.91547879479765,-312.91547879479765,1282.9960379926792,2775.5899976160822,0.0
337154.6038362722,4595833.5216966402,-2500.0,320.72794050760359,-674.14503753843974,-2345.3222864874724,-12.609728764211649,-83.614860360522599,-1.9050113045468671,1495.265130347786,-1136.5858889532319,258.26827834636049,-258.26827834636049,1136.5858889532319,2781.4791254567408,0.0
342154.6038362722,4595833.5216966402,-2500.0,448.87563376388329,-492.8512202928261,-2356.8290681285384,-5.255236879689976,-81.620268848929612,-1.7700403301271213,1488.3318928610756,-955.68451823037651,195.1601061249047,-195.1601061249047,955.68451823037651,2749.4466978912537,0.0
347154.6038362722,4595833.5216966402,-2500.0,557.07225758957588,-291.29761228457522,-2302.9483127314616,2.4053421644992956,-77.155297636794884,-1.5741248124314684,1460.7203572516985,-746.4501807362069,126.23858897367086,-126.23858897367086,746.4501807362069,2677.0323815124621,0.0
352154.6038362722,4595833.5216966402,-2500.0,638.38208131303213,-81.112941684102708,-2178.0395361912501,9.8788348531164107,-70.152461316815192,-1.3210348168761867,1411.7733945820287,-518.35747672320531,55.012162469048263,-55.012162469048263,518.35747672320531,2564.0928073736245,0.0
357154.6038362722,4595833.5216966402,-2500.0,688.39503547405741,123.6241776397905,-1982.1814113149967,16.619222499417447,-60.762944915991,-1.020054200205303,1342.0857402752695,-283.5417753711086,-14.468684151723835,14.468684151723835,283.5417753711086,2413.2736764518345,0.0
362154.6038362722,4595833.5216966402,-2500.0,706.2031655892315,308.04092908167786,-1722.2331050371577,22.095054838834258,-49.376742816026145,-0.68570240356953982,1253.6105718718252,-55.539091788067516,-78.089851276333775,78.089851276333775,55.539091788067516,2230.2032262457747,0.0
367154.6038362722,4595833.5216966402,-2500.0,694.79733352136793,458.5874475783686,-1411.8724205161418,25.866771324430218,-36.605337770523604,-0.33655145935945557,1149.5949802188838,152.4155512032234,-132.23291331629258,132.23291331629258,-152.4155512032234,2023.3105305896156,0.0
372154.6038362722,4595833.5216966402,-2500.0,660.68093439896757,565.18281846791638,-1070.3880289384251,27.657871646014645,-23.223303055549525,0.006769576557856611,1034.3274421022634,329.20483837009954,-174.29560645577621,174.29560645577621,-329.20483837009954,1803.2263474592598,0.0
377154.6038362722,4595833.5216966402,-2500.0,612.70959278953933,622.86103617270749,-720.3215669039397,27.402545928097336,-10.075844473379462,0.32407834919877843,912.72125785644528,467.34465779239099,-203.04527303056105,203.04527303056105,-467.34465779239099,1581.7977102519151,0.0
382154.6038362722,4595833.5216966402,-2500.0,560.41673678759923,632.47099218124185,-384.40698592742586,25.256792655736536,2.0304109667400003,0.59805460510633146,789.80418147527598,563.82867998266568,-218.71429419230151,218.71429419230151,-563.82867998266568,1370.8185893343277,0.0
387154.6038362722,4595833.5216966402,-2500.0,512.25993442332015,600.23348317661691,-82.483877230034395,21.569139146291587,12.43044586254997,0.81624862325756153,670.20904147698479,620.11027434437392,-222.81759438341095,222.81759438341095,-620.11027434437392,1180.6001915671998,0.0
392154.6038362722,4595833.5216966402,-2500.0,474.25030610146962,536.29582266769103,170.91187814425075,16.818275803452863,20.67561303720008,0.97216414534820639,557.79642340311011,641.28040910279844,-217.75347005273923,217.75347005273923,-641.28040910279844,1018.5350206646569,0.0
397154.6038362722,4595833.5216966402,-2500.0,449.2806320922956,452.70573644352089,367.79976008150038,11.533427772147938,26.5664275187677,1.0653506197644302,456.36373112148158,634.72067780362624,-206.30490539559864,206.30490539559864,-634.72067780362624,887.89579094320607,0.0
402154.6038362722,4595833.5216966402,-2500.0,437.22397796770986,361.34626768253759,506.72315111301441,6.2164818901642418,30.141323979840429,1.1005958252104238,418.88926205410706,608.61704868525408,-191.17033583977974,191.17033583977974,-608.61704868525408,787.33649835815243,0.0
407154.6038362722,4595833.5216966402,-2500.0,435.63645090551148,272.29762325002957,591.66094805665091,1.2817153086399464,31.630362691887708,1.0865060498231573,399.45813376484625,570.68363678332491,-174.62010738102495,174.62010738102495,-570.68363678332491,711.63339558779501,0.0
412154.6038362722,4595833.5216966402,-2500.0,440.76277835829416,192.8853998891046,630.32661112152289,-2.9781665858725455,31.389589147667042,1.0337936561487142,376.11899710601466,527.31135874382505,-158.32007658157829,158.32007658157829,-527.31135874382505,653.64332645307729,0.0
417154.6038362722,4595833.5216966402,-2500.0,448.53514431454852,127.43625692378394,632.33596681050835,-6.3992490567863305,29.832548702887028,0.95373873309025459,349.58508261085922,483.19001885361507,-143.30976566910073,143.30976566910073,-483.19001885361507,606.53975981816041,0.0
422154.6038362722,4595833.5216966402,-2500.0,455.3464741634416,77.585248047243027,607.61955634358173,-8.9326326939547247,27.371800394126083,0.85689844177044594,320.82463232492904,441.32458000013423,-130.08938522929031,130.08938522929031,-441.32458000013423,565.24315900754357,0.0
427154.6038362722,4595833.5216966402,-2500.0,458.50481760758106,42.900948269719251,565.28145725031106,-10.618242801993654,24.377353739457583,0.75230706917967094,290.8385547901396,403.30250003382287,-118.76027505639414,118.76027505639414,-403.30250003382287,526.74317080989488,0.0
432154.6038362722,4595833.5216966402,-2500.0,456.38401627560842,21.606314388964925,512.94423157838958,-11.554658217359288,21.153342901018949,0.64706097576381993,260.66735995970606,369.6683177387016,-109.17251686053567,109.17251686053567,-369.6683177387016,489.70933346824364,0.0
317154.6038362722,4600833.5216966402,-2500.0,-348.66449770486992,-1290.2661448178374,-2048.6877204888806,-41.490641134204324,-84.182838945555318,-2.2673684349320831,1546.7102600882065,-1760.7329265612746,495.8508021461123,-495.8508021461123,1760.7329265612746,2935.9390214459881,0.0
322154.6038362722,4600833.5216966402,-2500.0,-196.97705828787099,-1245.9383802112279,-2256.093282085762,-37.823459898843026,-90.427451136849427,-2.3503343542230177,1617.9870991281716,-1735.3231055103829,473.99861917531189,-473.99861917531189,1735.3231055103829,3060.1484907724412,0.0
327154.6038362722,4600833.5216966402,-2500.0,-29.056687568484364,-1160.7855053863891,-2445.0914726202004,-32.613336453300541,-95.474821268344456,-2.3836030431335327,1677.1047335038593,-1667.3656230709757,438.57857698502391,-438.57857698502391,1667.3656230709757,3158.3515982603617,0.0
332154.6038362722,4600833.5216966402,-2500.0,148.06257709762886,-1031.311937362919,-2600.5746331833229,-25.856810211587227,-98.756227612709154,-2.3536168660179482,1720.0492511648902,-1552.1593968396814,388.91899760744775,-388.91899760744775,1552.1593968396814,3222.7735004514129,0.0
337154.6038362722,4600833.5216966402,-2500.0,324.94034936168259,-857.35553164770101,-2705.6879872210357,-17.699336661925997,-99.685471832103502,-2.2484404052155638,1742.842480395514,-1387.8441698329486,325.4182314356317,-325.4182314356317,1387.8441698329486,3245.9359056127723,0.0
342154.6038362722,4600833.5216966402,-2500.0,490.39964480263063,-643.26323683631676,-2743.4584062950694,-8.4658139561840393,-97.729010922100059,-2.0598636143141364,1741.9286477650994,-1176.5292798125038,249.82057887777762,-249.82057887777762,1176.5292798125038,3221.4966677441394,0.0
347154.6038362722,4600833.5216966402,-2500.0,632.78719683172585,-398.65274661143707,-2699.1358452962127,1.3308182810777691,-92.494858280906726,-1.7855882690400158,1714.6341863461241,-925.11503496272928,165.34434000868475,-165.34434000868475,925.11503496272928,3145.2327959101435,0.0
352154.6038362722,4600833.5216966402,-2500.0,741.73297911351165,-138.37660319601537,-2562.9904883263675,11.014409447203217,-83.827340257679523,-1.4310777670210091,1659.6363818556799,-645.4773759229206,76.569688368542245,-76.569688368542245,645.4773759229206,3016.0284458643127,0.0
357154.6038362722,4600833.5216966402,-2500.0,810.11133698869889,118.61719990424206,-2333.0538591164304,19.810379803936268,-71.88752149587603,-1.0104588499747869,1577.3582857275621,-353.74281044375596,-10.970439046140513,10.970439046140513,353.74281044375596,2836.6894684178087,0.0
362154.6038362722,4600833.5216966402,-2500.0,835.71273309928404,351.60102972407356,-2017.067614602774,26.947119311492909,-57.194683390173843,-0.54614907138946245,1470.1841699510342,-68.555745195363073,-91.481472900103626,91.481472900103626,68.555745195363073,2614.3610529243247,0.0
367154.6038362722,4600833.5216966402,-2500.0,822.07269034369745,541.25944765202576,-1632.8990158748779,31.777974203026492,-40.607914342865584,-0.066790412718732289,1342.4114834895636,191.46178296303881,-159.76773435483008,159.76773435483008,-191.46178296303881,2360.366949523494,0.0
372154.6038362722,4600833.5216966402,-2500.0,778.0486417875386,673.07150605566483,-1206.9493562520229,33.896835504016487,-23.239105701526455,0.39615279176366724,1199.8975806097201,410.5454118270747,-212.06582098913015,212.06582098913015,-410.5454118270747,2089.3694559125706,0.0
377154.6038362722,4600833.5216966402,-2500.0,716.09834066174506,739.97750297937864,-770.63032973820714,33.216635436711812,-6.3075356363870112,0.81256670306498546,1049.4347459774337,578.21013828564958,-246.62628479658875,246.62628479658875,-578.21013828564958,1817.8805006151254,0.0
382154.6038362722,4600833.5216966402,-2500.0,649.66816563078385,743.52736642127752,-355.61912861626894,29.987019527178539,9.034506631019358,1.1577321480644027,897.96393466910445,690.59983297967096,-263.87556208809065,263.87556208809065,-690.59983297967096,1562.2645077407117,0.0
387154.6038362722,4600833.5216966402,-2500.0,590.44406412315357,693.14700065554564,10.938600931169812,24.744328178059259,21.864536742980366,1.4153609780362526,751.80302808866509,750.41679886803956,-266.11856654440896,266.11856654440896,-750.41679886803956,1336.4375617042247,0.0
392154.6038362722,4600833.5216966402,-2500.0,546.26646082936554,603.76959768240727,310.06984454123705,18.207192996524842,31.602892147782747,1.5789906596382621,616.20640941434124,765.53893601721973,-256.88948335084876,256.88948335084876,-765.53893601721973,1149.5320176405296,0.0
397154.6038362722,4600833.5216966402,-2500.0,520.24171215409774,492.59570123481257,532.65405696220432,11.146957614867082,38.053371190791296,1.6516522467735932,514.13693381295116,746.83555940309088,-240.16130637981888,240.16130637981888,-746.83555940309088,1004.0892146468606,0.0
402154.6038362722,4600833.5216966402,-2500.0,511.11483517389689,375.92272141357091,679.00736681885724,4.2661764084526235,41.37086978318419,1.6440253618101628,491.74405615337542,705.85459322482336,-219.63420665294731,219.63420665294731,-705.85459322482336,895.78327574226796,0.0
407154.6038362722,4600833.5216966402,-2500.0,514.55694125644231,266.81265302307247,756.85307908210291,-1.8883335170001545,41.975130028690728,1.5717765648991966,465.70448795107797,652.96400669611603,-198.25766657357659,198.25766657357659,-652.96400669611603,815.48692769307104,0.0
412154.6038362722,4600833.5216966402,-2500.0,524.81114536181974,173.95010572258732,778.50042784093557,-6.9661582766256229,40.439885785765064,1.4526950900751012,434.68092031258476,596.25151200375683,-178.03395901224897,178.03395901224897,-596.25151200375683,752.90132305477596,0.0
417154.6038362722,4600833.5216966402,-2500.0,536.18358448662593,101.6206601167859,758.04101767660859,-10.810615113244243,37.385604827963142,1.3042195416602522,399.884260993829,541.18973883955232,-160.05907108870556,160.05907108870556,-541.18973883955232,699.64816365706815,0.0
422154.6038362722,4600833.5216966402,-2500.0,544.06828946184999,50.465884990589736,709.12173421538682,-13.425614114489266,33.395433469709978,1.1416552883722431,362.67330779035649,490.87246380572429,-144.70961361814381,144.70961361814381,-490.87246380572429,650.50042571494077,0.0
427154.6038362722,4600833.5216966402,-2500.0,545.42690369258628,18.593949441199079,643.52393132864927,-14.92797370524158,28.962311571383822,0.97723503768298403,324.37241058917994,446.55636394158103,-131.88113240333499,131.88113240333499,-446.55636394158103,603.05849406249342,0.0
432154.6038362722,4600833.5216966402,-2500.0,538.81353157493572,2.6977043949077557,570.51219683719467,-15.498890013352014,24.465883952306612,0.81982960459421261,286.18410185426637,408.27724689390749,-121.20908099319848,121.20908099319848,-408.27724689390749,556.80690463191149,0.0
437154.6038362722,4600833.5216966402,-2500.0,524.11109549798221,-1.0307720355208794,496.76711530667359,-15.343256529978664,20.172144785022983,0.67520209312988377,262.62326243192626,375.39215197034468,-112.237105461504,112.237105461504,-375.39215197034468,512.20131527363549,0.0
312154.6038362722,4605833.5216966402,-2500.0,-652.98132804701788,-1520.8407756583133,-1979.5579254167219,-54.264110769445885,-87.871530997536965,-2.5305317932245686,1660.9903847300864,-2029.5078725682047,598.04461123801275,-598.04461123801275,2029.5078725682047,3164.906397483855,0.0
317154.6038362722,4605833.5216966402,-2500.0,-506.62916592030962,-1533.8002745299036,-2242.704524588316,-52.297449464691574,-96.854205447047974,-2.6828747589409696,1764.3391273757268,-2066.6446471666304,594.29237366856728,-594.29237366856728,2066.6446471666304,3352.1314683303863,0.0
322154.6038362722,4605833.5216966402,-2500.0,-330.60507162642648,-1505.3394114951527,-2506.235310039724,-48.499499267454638,-105.18381464752451,-2.7879909286157707,1859.3216528858679,-2061.5770786851963,575.78908733862374,-575.78908733862374,2061.5770786851963,3520.2879806076621,0.0
327154.6038362722,4605833.5216966402,-2500.0,-129.20661910420435,-1426.6373947608761,-2755.1594542057883,-42.651678415766398,-112.19637496721843,-2.826018524011324,1941.0268355318524,-2004.6327297600974,540.14407187563302,-540.14407187563302,2004.6327297600974,3659.586614612253,0.0
332154.6038362722,4605833.5216966402,-2500.0,89.592749696646351,-1290.9697768512251,-2970.2082546611614,-34.669478591307907,-117.10943245348712,-2.7765467529305852,2004.0082651246598,-1887.7497200420212,485.78887951430886,-485.78887951430886,1887.7497200420212,3759.3671378469312,0.0
337154.6038362722,4605833.5216966402,-2500.0,314.02090866573718,-1095.5986528855153,-3128.6930114160541,-24.669631588684879,-119.0801241958865,-2.6211021233909548,2042.6459801392825,-1706.1953733252863,412.50493288028417,-412.50493288028417,1706.1953733252863,3808.9117428751838,0.0
342154.6038362722,4605833.5216966402,-2500.0,529.13624594232795,-843.7492035938435,-3206.4859290120726,-13.028284715546619,-117.30286145833293,-2.3466293932837337,2051.6783424119199,-1460.4148419158969,321.92177181403213,-321.92177181403213,1460.4148419158969,3798.6122616419257,0.0
347154.6038362722,4605833.5216966402,-2500.0,718.41841456357247,-546.17526745356906,-3181.2428542102821,-0.41019154952121384,-111.14335289916177,-1.9491419415984352,2026.8812148805548,-1157.5995149893185,217.84126319291931,-217.84126319291931,1157.5995149893185,3721.4351097448848,0.0
352154.6038362722,4605833.5216966402,-2500.0,866.29851499794756,-221.654629927439,-3036.6151412229842,12.252882158556437,-100.2912844048082,-1.4370310455100537,1965.8077038823672,-812.41691282066733,106.21823180439264,-106.21823180439264,812.41691282066733,3574.495883700652,0.0
357154.6038362722,4605833.5216966402,-2500.0,961.24854588591211,104.21163977931486,-2766.7270518997093,23.850033220300755,-84.899236049338541,-0.83278801904636146,1868.4577668488316,-446.35790494023684,-5.335510689587494,5.335510689587494,446.35790494023684,3360.4608501731232,0.0
362154.6038362722,4605833.5216966402,-2500.0,998.65455755588073,402.19483191634981,-2379.7175233615249,33.244825461815303,-65.66474330612138,-0.17229182720810093,1737.6977846836485,-85.398987337119337,-108.54574685665108,108.54574685665108,85.398987337119337,3088.3940049490493,0.0
367154.6038362722,4605833.5216966402,-2500.0,982.48741449487159,644.29292198680162,-1898.9961241402998,39.470739771794634,-43.815488461811739,0.49882066413630477,1579.2706622568242,243.82028465853205,-195.81636070191928,195.81636070191928,-243.82028465853205,2773.7048023423631,0.0
372154.6038362722,4605833.5216966402,-2500.0,924.94981336036437,809.162379827819,-1361.2225381252354,41.92253427512599,-20.977633609452294,1.131242578655989,1401.3036361080881,518.50573634225509,-261.59154051574012,261.59154051574012,-518.50573634225509,2436.9735839499426,0.0
377154.6038362722,4605833.5216966402,-2500.0,843.8919278782588,886.54575722756829,-810.95990482452203,40.488021264050424,1.0579228302322214,1.679288641882585,1213.3518059637647,723.6741917828632,-303.33713750065056,303.33713750065056,-723.6741917828632,2101.6495722403097,0.0
382154.6038362722,4605833.5216966402,-2500.0,758.64403657184653,879.21206056235428,-293.15306767991814,35.576334385588858,20.620140242286123,2.1077080569552908,1025.1645426716639,854.37023929356894,-321.82339971520412,321.82339971520412,-854.37023929356894,1790.8142798326812,0.0
387154.6038362722,4605833.5216966402,-2500.0,685.59680933267771,801.71177744482441,154.51212615308853,28.029813076734289,36.420107815874893,2.3962453556640506,845.51342800216855,915.48216272755712,-320.62663069158748,320.62663069158748,-915.48216272755712,1523.3312845744206,0.0
392154.6038362722,4605833.5216966402,-2500.0,634.97092512330357,676.40032938910531,507.21317240442926,18.945265085686497,47.723017238563791,2.5411700132658224,682.49558818906087,919.36312924646086,-305.04712130518811,305.04712130518811,-919.36312924646086,1309.9439222297035,0.0
397154.6038362722,4605833.5216966402,-2500.0,609.68186974905939,528.13966248002976,755.19068792905125,9.459018086373181,54.392536916108362,2.5536273280069328,610.99609539300911,882.20847835872814,-280.82796132560549,280.82796132560549,-882.20847835872814,1150.6774545854901,0.0
402154.6038362722,4605833.5216966402,-2500.0,606.31452891597553,379.37185569042845,902.45637560675027,0.55595999891242254,56.812720379194367,2.4557332050842566,582.93415950101723,820.40994746579622,-253.06551277088289,253.06551277088289,-820.40994746579622,1035.6767328449225,0.0
407154.6038362722,4605833.5216966402,-2500.0,617.47138592069621,246.8306231428854,963.03924014487188,-7.0539107412571447,55.727823149188175,2.2755697013396299,547.63430474583538,747.85752987924252,-225.55657024875796,225.55657024875796,-747.85752987924252,950.11422768944431,0.0
412154.6038362722,4605833.5216966402,-2500.0,634.46175754517299,140.32754419732842,956.30063190554074,-12.977046747961337,52.054903811087861,2.0423521012412245,506.15429877544346,674.59561055868369,-200.62113626153953,200.62113626153953,-674.59561055868369,880.21674844547988,0.0
417154.6038362722,4605833.5216966402,-2500.0,649.48952067819107,63.296408896050771,902.67846148984859,-17.108409004972962,46.717464139888044,1.7826951918234581,460.39014008542176,606.7076080309489,-179.28479464670323,179.28479464670323,-606.7076080309489,816.74104838239248,0.0
422154.6038362722,4605833.5216966402,-2500.0,656.92947074277481,14.376075559639608,820.65238840852578,-19.561351502406932,40.528304200189616,1.5182866780222879,412.41834704020795,546.99552803550341,-161.64243038728341,161.64243038728341,-546.99552803550341,755.22872673072607,0.0
427154.6038362722,4605833.5216966402,-2500.0,653.70205308967536,-10.704801682264508,725.11497978984107,-20.584141028229737,34.128181950876225,1.2650172901383618,364.7528719798957,495.97848168210646,-147.24664123260433,147.24664123260433,-495.97848168210646,694.60451145194293,0.0
432154.6038362722,4605833.5216966402,-2500.0,639.00291910625958,-17.460050167405051,626.91730242061726,-20.48448101449797,27.97147025199612,1.0331512045619973,326.96295058270931,452.85703693394487,-135.42524968668215,135.42524968668215,-452.85703693394487,635.57992432293645,0.0
437154.6038362722,4605833.5216966402,-2500.0,613.70597887945769,-11.440017736895214,533.18696023885207,-19.573003903109427,22.343130595097445,0.82821919569937597,308.41339019644653,416.26056262445672,-125.49356515575923,125.49356515575923,-416.26056262445672,579.47710984873527,0.0
442154.6038362722,4605833.5216966402,-2500.0,579.69905884875573,2.4834751714294034,448.02892378962372,-18.128027207505543,17.391474307956507,0.65211104094755767,290.44450223945563,384.73301810275768,-116.86841365332791,116.86841365332791,-384.73301810275768,527.54238844143958,0.0
447154.6038362722,4605833.5216966402,-2500.0,539.31055070958212,20.431537864910204,373.32383999319597,-16.378506644534372,13.164888529717498,0.50421743278023923,271.34454976021135,356.99371518989955,-109.10969866867492,109.10969866867492,-356.99371518989955,480.63105857627914,0.0
307154.6038362722,4610833.5216966402,-2500.0,-996.16279082718836,-1695.1018264959591,-1816.5479140666587,-66.779859711756728,-88.09510604822303,-2.7410437981878086,1745.9704937171007,-2241.5867393723061,687.73687344335895,-687.73687344335895,2241.5867393723061,3336.4170061543668,0.0
312154.6038362722,4610833.5216966402,-2500.0,-877.48454023149782,-1774.983523081878,-2116.4410250584574,-67.265674797758095,-99.521568930774137,-2.9699306360562403,1882.1232477524984,-2351.0696589874628,706.95530781460047,-706.95530781460047,2351.0696589874628,3588.6294992694102,0.0
317154.6038362722,4610833.5216966402,-2500.0,-717.89079885656861,-1820.5766616425635,-2438.1813900092448,-65.884353922621628,-111.06368633885016,-3.1607175665810754,2015.8765343421119,-2426.1298842893771,712.61299959426242,-712.61299959426242,2426.1298842893771,3833.1851058178559,0.0
322154.6038362722,4610833.5216966402,-2500.0,-516.69837613357538,-1818.779385021734,-2770.4036874169992,-62.182743189825537,-122.07790014356175,-3.2880708962859075,2142.0710779441856,-2453.1437162064267,700.69294037902023,-700.69294037902023,2453.1437162064267,4059.561279167272,0.0
327154.6038362722,4610833.5216966402,-2500.0,-277.15519499641675,-1756.2175587354122,-3095.6699887384775,-55.773929531386869,-131.6990536051245,-3.3224394036749119,2254.3638119567941,-2417.8712470310975,667.35970502688428,-667.35970502688428,2417.8712470310975,4255.0062455732022,0.0
332154.6038362722,4610833.5216966402,-2500.0,-7.6367530170141569,-1621.2160058941552,-3389.9187970533767,-46.428723070004878,-138.85617564758815,-3.2324581292902415,2345.4122326452934,-2307.2024529041591,609.59441311432261,-609.59441311432261,2307.2024529041591,4405.0064467110578,0.0
337154.6038362722,4610833.5216966402,-2500.0,277.66094719325042,-1406.5374139575056,-3622.994792997863,-34.18435463931133,-142.33973437257453,-2.9889682021253248,2407.3023692992624,-2111.6195590540697,526.00207131509114,-526.00207131509114,2111.6195590540697,4494.2731198563242,0.0
342154.6038362722,4610833.5216966402,-2500.0,559.05058946166344,-1112.5877591992441,-3760.8471712330602,-19.450457906326232,-140.93488262938217,-2.5708002541942534,2432.2641832050249,-1828.1394197179825,417.67169150060499,-417.67169150060499,1828.1394197179825,4508.3329196692466,0.0
347154.6038362722,4610833.5216966402,-2500.0,813.19396936830253,-750.38594025636905,-3769.8122809014376,-3.0795150893563616,-133.62250159906731,-1.9712452684576443,2413.6648520778112,-1463.1606253524824,288.86769827977298,-288.86769827977298,1463.1606253524824,4435.6920418945001,0.0
352154.6038362722,4610833.5216966402,-2500.0,1016.6463337222755,-343.2055052546051,-3622.8733654657194,13.63858795166283,-119.82579126071793,-1.2041477550180357,2347.1751089334916,-1034.3008549791577,147.25251305211572,-147.25251305211572,1034.3008549791577,4270.3428472037313,0.0
357154.6038362722,4610833.5216966402,-2500.0,1150.6974052861976,74.332729150892604,-3306.9498858973352,29.092103832929521,-99.650916406911108,-0.30707537017725706,2231.90362368567,-570.18044081890298,3.354645450026112,-3.354645450026112,570.18044081890298,4014.170488725721,0.0
362154.6038362722,4610833.5216966402,-2500.0,1206.3270082320084,460.54341060377186,-2829.3037412309914,41.581631217326581,-74.045973493388232,0.65992862887388293,2071.2003393741147,-107.39206432521929,-130.84459912760147,130.84459912760147,107.39206432521929,3678.6217156260959,0.0
367154.6038362722,4610833.5216966402,-2500.0,1187.5170330030342,774.10237772901576,-2220.5884678654829,49.638486814727848,-44.800897152707961,1.621229897563496,1872.8175909692541,315.27865762657564,-244.02257233639591,244.02257233639591,-315.27865762657564,3284.9643413204285,0.0
372154.6038362722,4610833.5216966402,-2500.0,1111.2646620262055,982.93823458172881,-1532.4861355248315,52.347855740318749,-14.344526660775673,2.497094126526636,1648.2315180380783,664.15998859265619,-327.79013196957158,327.79013196957158,-664.15998859265619,2862.659526836811,0.0
377154.6038362722,4610833.5216966402,-2500.0,1003.6684927910895,1071.7797762776252,-829.47795109228196,49.574351020127651,14.640772444955358,3.2170239762095543,1411.1502140329926,917.36144953938617,-378.39297638277787,378.39297638277787,-917.36144953938617,2445.7118689338508,0.0
382154.6038362722,4610833.5216966402,-2500.0,893.10992064321022,1045.5422857965759,-176.62075168971344,42.00659645670823,39.694633010066596,3.73130953381078,1175.5417393800644,1068.5297873404356,-397.22061478469726,397.22061478469726,-1068.5297873404356,2067.2249790193096,0.0
387154.6038362722,4610833.5216966402,-2500.0,802.94925741688814,927.15960876279723,372.95157891647136,30.996967064906453,59.00915696911553,4.0177611392477974,953.95495744742493,1126.4230798825629,-389.94573001551032,389.94573001551032,-1126.4230798825629,1752.670633251942,0.0
392154.6038362722,4610833.5216966402,-2500.0,746.41734725242236,750.72039524828847,786.82725534331098,18.247839025550665,71.69061167985312,4.0823496666453227,774.702677567813,1110.7074449082095,-364.6684432914472,364.6684432914472,-1110.7074449082095,1513.2259633509207,0.0
397154.6038362722,4610833.5216966402,-2500.0,725.28467375870559,552.60325003958337,1056.037314658553,5.4487839572442924,77.79148949517473,3.9542339618133897,737.47937064740961,1045.8109668903371,-329.7937302910683,329.7937302910683,-1045.8109668903371,1342.6285904450551,0.0
402154.6038362722,4610833.5216966402,-2500.0,732.12384622026195,363.73669810159384,1191.8464653199487,-6.0248275415591666,78.135175195405694,3.6774572292167669,699.10575323351952,955.10419791742879,-292.35088884896822,292.35088884896822,-955.10419791742879,1221.5562529222129,0.0
407154.6038362722,4610833.5216966402,-2500.0,754.5897882981626,205.07264966713012,1218.8175726480172,-15.280739661375669,74.018340109096755,3.3017408353375255,650.91418007042705,857.02868043767762,-257.13570664997127,257.13570664997127,-857.02868043767762,1127.8346393247907,0.0
412154.6038362722,4610833.5216966402,-2500.0,779.79352588121913,86.691060566110565,1167.0389784379629,-21.933818691648224,66.895175001933524,2.8745052149512822,595.28797432699355,763.65252625152471,-226.65941088677101,226.65941088677101,-763.65252625152471,1044.9089689661037,0.0
417154.6038362722,4610833.5216966402,-2500.0,797.40964563315913,9.6032182602581067,1065.7647642172321,-26.020876422410247,58.123960660849448,2.4355230749246912,535.39520179407737,681.1585079404831,-201.62385440241457,201.62385440241457,-681.1585079404831,964.24934948323244,0.0
422154.6038362722,4610833.5216966402,-2500.0,801.07546433962852,-31.192787287271749,939.48879942116207,-27.862425548809416,48.812911771556074,2.0143182402013835,475.30385890435065,611.36003109412536,-181.58696365145187,181.58696365145187,-611.36003109412536,883.54609386002392,0.0
427154.6038362722,4610833.5216966402,-2500.0,788.36235661902845,-43.647818110339017,806.38382848182027,-27.92182280615442,39.762720141197995,1.6300462997616232,422.94957070487357,553.42330974744925,-165.56965535973907,165.56965535973907,-553.42330974744925,803.89556419057124,0.0
432154.6038362722,4610833.5216966402,-2500.0,759.91053838220876,-36.29801738618842,678.43993080952691,-26.692884452210819,31.479651417595573,1.2928580309188427,388.2110643110322,505.2957662151494,-152.486781333377,152.486781333377,-505.2957662151494,727.59623095917459,0.0
437154.6038362722,4610833.5216966402,-2500.0,718.29060125011563,-16.803004286641787,562.52089476630624,-24.626839950592583,24.227637128688592,1.0060033763057503,360.9671787930381,464.6640764967986,-141.38934421287712,141.38934421287712,-464.6640764967986,656.85431134189082,0.0
442154.6038362722,4610833.5216966402,-2500.0,666.96428604415473,8.7309678328856997,461.71714148177551,-22.095420022874364,18.093126419198139,0.76804358120803107,334.35567728218518,429.47418160876202,-131.55978807117256,131.55978807117256,-429.47418160876202,593.1984011827534,0.0
447154.6038362722,4610833.5216966402,-2500.0,609.51488054935305,35.88332025672608,376.61708242973174,-19.380619501635643,13.046170143743305,0.57472151061658572,307.98942957241371,398.13438398727556,-122.51613665105552,122.51613665105552,-398.13438398727556,537.33504478430962,0.0
452154.6038362722,4610833.5216966402,-2500.0,549.17149690766826,61.744303932866465,306.32577260188179,-16.680677469650636,8.989763475994236,0.42041583430719448,282.40109017650678,369.52919112352413,-113.97168348126073,113.97168348126073,-369.52919112352413,489.23838851321312,0.0
302154.6038362722,4615833.5216966402,-2500.0,-1349.1890235260596,-1789.059019010323,-1573.0813938159256,-77.84087235324624,-84.619127367890641,-2.8783347190072521,1794.5906831936345,-2372.0985344929777,755.14957956052353,-755.14957956052353,2372.0985344929777,3435.980830915084,0.0
307154.6038362722,4615833.5216966402,-2500.0,-1280.8429516837707,-1935.5477932240155,-1883.8824605282443,-81.307033841156155,-97.818519632646584,-3.1832896540094344,1961.1800391147376,-2554.2882128529986,799.48292271530124,-799.48292271530124,2554.2882128529986,3748.8830050342694,0.0
312154.6038362722,4615833.5216966402,-2500.0,-1166.1937711607661,-2062.2226595173847,-2236.1712820634343,-83.194742692578174,-112.0065216180911,-3.4660039617030485,2133.0340615395835,-2716.983778227152,834.06617902837161,-834.06617902837161,2716.983778227152,4069.0991223155434,0.0
317154.6038362722,4615833.5216966402,-2500.0,-998.52168490818281,-2154.4393858992312,-2625.1642972304398,-82.865164486957383,-126.69588049003589,-3.6978618084270756,2305.6435079790972,-2845.171532473636,853.91633992265224,-853.91633992265224,2845.171532473636,4387.1911397879803,0.0
322154.6038362722,4615833.5216966402,-2500.0,-773.80854833192097,-2194.5355893249316,-3039.8482433716481,-79.633588175141526,-141.1100774953313,-3.8414688357384934,2472.7816720379328,-2920.6605065578046,853.35402467848053,-853.35402467848053,2920.6605065578046,4690.3391364021991,0.0
327154.6038362722,4615833.5216966402,-2500.0,-492.73758619182814,-2162.9921869123991,-3460.9545069783871,-72.854401075011339,-154.13554971869422,-3.851751612972373,2626.3812971812654,-2923.0713327701669,826.48319587584274,-826.48319587584274,2923.0713327701669,4962.1812190695764,0.0
332154.6038362722,4615833.5216966402,-2500.0,-162.85433865995614,-2040.8043086235512,-3859.3577118224775,-62.05224369660808,-164.31526913372443,-3.6791579418465368,2756.6378826999244,-2831.916716122003,768.01904903295735,-768.01904903295735,2831.916716122003,5183.151759552381,0.0
337154.6038362722,4615833.5216966402,-2500.0,199.66748773404717,-1813.2655333207754,-4195.7333926569854,-47.093989846788254,-169.91712329875634,-3.2763235374222339,2852.4673788783539,-2629.9740432028361,674.47526066906221,-674.47526066906221,2629.9740432028361,5331.5832905563602,0.0
342154.6038362722,4615833.5216966402,-2500.0,569.51927965245181,-1474.9678433472759,-4422.5534303723343,-28.375660069327267,-169.10992190310716,-2.6078523454275047,2902.4297491011976,-2307.8130722940923,545.59000379355086,-545.59000379355086,2307.8130722940923,5385.7979541631385,0.0
347154.6038362722,4615833.5216966402,-2500.0,914.012744311701,-1035.1318804887655,-4489.4407459870545,-6.9722822841121594,-160.26277604025083,-1.6623694510785394,2896.156698933135,-1868.7620427172087,385.67671953493664,-385.67671953493664,1868.7620427172087,5327.2558589456567,0.0
352154.6038362722,4615833.5216966402,-2500.0,1197.8113094740181,-521.55087181178715,-4352.2616759108723,15.322657845312815,-142.34472825801791,-0.46409418707125449,2826.1825805555741,-1332.8899559745964,204.39183251202132,-204.39183251202132,1332.8899559745964,5144.5305413992346,0.0
357154.6038362722,4615833.5216966402,-2500.0,1390.4240498065212,19.147033672342779,-3984.9186217631473,36.140823820322652,-115.3440600639201,0.92070442761527926,2689.8707241144707,-738.06522812009916,16.335756602438892,-16.335756602438892,738.06522812009916,4837.4479655727055,0.0
362154.6038362722,4615833.5216966402,-2500.0,1474.7662573637604,526.89984364259396,-3390.8942322764633,52.898620475881678,-80.572817701588178,2.3862524513329073,2490.9331211061144,-136.34771819753385,-160.89864123215418,160.89864123215418,136.34771819753385,4420.3161344373129,0.0
367154.6038362722,4615833.5216966402,-2500.0,1453.6839065647107,939.5776156133885,-2610.0538641740727,63.325527422873648,-40.70593040113107,3.8012226751473874,2239.9478647112514,414.737278392338,-310.07997495381005,310.07997495381005,-414.737278392338,3922.9581967661229,0.0
372154.6038362722,4615833.5216966402,-2500.0,1351.0835487802299,1207.8163494261096,-1716.4214050549515,66.021587689917595,0.54035494055767086,5.0317282495959121,1953.4456388811709,864.26853363908276,-418.22340183089074,418.22340183089074,-864.26853363908276,3388.5040867110283,0.0
377154.6038362722,4615833.5216966402,-2500.0,1205.981335876791,1308.2536098490198,-805.3529469017584,60.850478599458661,39.062706959671601,5.966943629058818,1651.5394885857381,1179.4619814469143,-479.62835381125382,479.62835381125382,-1179.4619814469143,2867.4271747051985,0.0
382154.6038362722,4615833.5216966402,-2500.0,1061.035989233274,1249.647875898399,26.874315067481209,49.006626323140402,71.185633240518115,6.539264829703475,1354.7328507833679,1352.2538227585401,-496.82426799061017,496.82426799061017,-1352.2538227585401,2407.9452204737031,0.0
387154.6038362722,4615833.5216966402,-2500.0,950.10611303038991,1068.996395946104,704.11572808683161,32.713062498684913,94.38009571542085,6.733131429519684,1082.5872462133311,1398.3613847054221,-479.03375939672833,479.03375939672833,-1398.3613847054221,2043.6722568511345,0.0
392154.6038362722,4615833.5216966402,-2500.0,889.99594678483834,819.31998011857411,1184.4689427914534,14.656269830353471,107.65683071256476,6.5814007145319238,943.72956306822584,1349.6335540645034,-438.88863230878906,438.88863230878906,-1349.6335540645034,1782.2871321649068,0.0
397154.6038362722,4615833.5216966402,-2500.0,879.23344292537888,554.46669241792142,1463.1879321532624,-2.6357478426154097,111.53814017218635,6.1521476669352815,904.04053242177974,1243.3691315222068,-388.83244812378695,388.83244812378695,-1243.3691315222068,1603.981479347101,0.0
402154.6038362722,4615833.5216966402,-2500.0,903.06467569843244,316.84964392464894,1565.3353990353705,-17.267594325021044,107.67707214900784,5.5312255174840299,850.67340838585858,1112.9235150314328,-338.52050152608973,338.52050152608973,-1112.9235150314328,1474.9364691606149,0.0
407154.6038362722,4615833.5216966402,-2500.0,941.27419557425821,131.55394699895589,1532.9516186117528,-28.189562958960678,98.305300516524227,4.8055829776535282,784.52064546482416,982.32718879503454,-293.79224318873429,293.79224318873429,-982.32718879503454,1365.4442663063746,0.0
412154.6038362722,4615833.5216966402,-2500.0,975.20821771669546,6.7797574956029196,1412.2134614752642,-35.155753619395426,85.705252086545741,4.0507887148766129,709.94743762911446,865.22737115848577,-256.99884636430897,256.99884636430897,-865.22737115848577,1258.7307381029459,0.0
417154.6038362722,4615833.5216966402,-2500.0,991.92380950522045,-61.742436677450769,1244.2115059572518,-38.517682248886096,71.837064312643648,3.3241359469714133,632.73979861924067,766.77106154953003,-228.05395217022124,228.05395217022124,-766.77106154953003,1149.6777127182436,0.0
422154.6038362722,4615833.5216966402,-2500.0,985.26259908504437,-85.184870713806461,1060.3670049500943,-38.965084815065474,58.158352660707173,2.6630861610973184,561.00783492318362,686.6140298055202,-205.59156436235986,205.59156436235986,-686.6140298055202,1039.9093370348692,0.0
427154.6038362722,4615833.5216966402,-2500.0,954.80729271940504,-76.882646974532562,881.64330814089112,-37.298153966409956,45.604096509997021,2.0873119216131046,503.96048552640707,621.71383716634682,-187.86470783457025,187.86470783457025,-621.71383716634682,933.52505183783694,0.0
432154.6038362722,4615833.5216966402,-2500.0,903.9370467818286,-49.231200017298228,720.01333646734258,-34.270774356302738,34.66453881740744,1.6028118448359938,459.68950178505548,568.29893398431955,-173.28013622692384,173.28013622692384,-568.29893398431955,834.55007289342518,0.0
437154.6038362722,4615833.5216966402,-2500.0,837.88793452476864,-12.170209734682075,580.79247133166291,-30.507466983446403,25.501845889904281,1.2063028326887266,420.32278534342555,522.96109274637172,-160.62465650313763,160.62465650313763,-522.96109274637172,745.79800846605485,0.0
442154.6038362722,4615833.5216966402,-2500.0,762.27436827777149,27.190530393815916,464.94109431023259,-26.477089319780212,18.065397285795012,0.88914691527465795,383.17455802487774,483.08732028136222,-149.09356605055615,149.09356605055615,-483.08732028136222,668.60266963449851,0.0
447154.6038362722,4615833.5216966402,-2500.0,682.17567120507158,64.297042830763985,370.91870304096801,-22.501557108466795,12.185672269967167,0.64027794947473016,348.07738425418125,446.89818943201266,-138.22223070932529,138.22223070932529,-446.89818943201266,602.99710901693152,0.0
452154.6038362722,4615833.5216966402,-2500.0,601.70035878896283,96.609024979426991,295.99205248272227,-18.781231623207262,7.6413135146610944,0.44819824446869322,315.30761231984229,413.30380752853341,-127.78857223502339,127.78857223502339,-413.30380752853341,548.07593777139664,0.0
297154.6038362722,4620833.5216966402,-2500.0,-1677.3421525076637,-1789.5616488240785,-1274.8109506263161,-86.334772139504182,-77.71044266232542,-2.9287114985780383,1802.9021092290745,-2405.8834138580069,792.83778338661318,-792.83778338661318,2405.8834138580069,3455.3955760849713,0.0
302154.6038362722,4620833.5216966402,-2500.0,-1676.9148819074276,-1991.3764766765489,-1569.0737981251903,-92.939668549376762,-91.733857296190109,-3.3005145751857246,1994.465008032696,-2650.5132875381278,860.87229796630004,-860.87229796630004,2650.5132875381278,3818.380523986737,0.0
307154.6038362722,4620833.5216966402,-2500.0,-1633.1161820387376,-2192.411764722769,-1918.2933280920024,-98.570154430140946,-107.55689234049132,-3.6711359798456504,2199.7241364140873,-2895.2360451720197,925.07420351049882,-925.07420351049882,2895.2360451720197,4205.3488999404117,0.0
312154.6038362722,4620833.5216966402,-2500.0,-1534.0863880360992,-2380.0671931761754,-2325.428971795252,-102.51640590210597,-124.95858175768724,-4.0120191153666447,2415.7447309130998,-3127.0254221146024,980.57486771922254,-980.57486771922254,3127.0254221146024,4609.8477174139571,0.0
317154.6038362722,4620833.5216966402,-2500.0,-1368.1932001329703,-2536.7357262607597,-2788.9346071320938,-103.89955203787315,-143.42709407183926,-4.2814641090272687,2637.660538641846,-3327.7930484507719,1021.0192604750159,-1021.0192604750159,3327.7930484507719,5021.5247711659031,0.0
322154.6038362722,4620833.5216966402,-2500.0,-1126.0138345389018,-2639.5257665177824,-3299.9370625562801,-101.71253046281041,-162.05053063554286,-4.4228436603225392,2858.2037504905738,-3474.0518556930037,1038.6428859174421,-1038.6428859174421,3474.0518556930037,5425.2435443831037,0.0
327154.6038362722,4620833.5216966402,-2500.0,-803.20348397312796,-2661.0296439692315,-3838.8642094298502,-94.921309627440877,-179.41551574911617,-4.365101431355523,3067.3375069787071,-3537.5212631360937,1024.7172883952708,-1024.7172883952708,3537.5212631360937,5800.4497541621395,0.0
332154.6038362722,4620833.5216966402,-2500.0,-404.06890174903424,-2571.8235911587817,-4372.0938671922586,-82.645909954612563,-193.55225732820907,-4.0273535678244681,3252.1547617597494,-3487.2918871723032,970.53924825276863,-970.53924825276863,3487.2918871723032,6121.1386553009334,0.0
337154.6038362722,4620833.5216966402,-2500.0,54.815452361384821,-2345.3400598326343,-4849.7843863767848,-64.425878889717495,-201.98378606172648,-3.3292874637984098,3397.2640574629809,-3294.1360573100142,869.0855130117975,-869.0855130117975,3294.1360573100142,6356.886669370836,0.0
342154.6038362722,4620833.5216966402,-2500.0,542.25540189859794,-1965.3013532228831,-5206.6967597245957,-40.5420318115942,-201.94669413064526,-2.2088693401832526,3485.898806592892,-2937.1738615606819,717.27785275592191,-717.27785275592191,2937.1738615606819,6475.438197373438,0.0
347154.6038362722,4620833.5216966402,-2500.0,1013.2203708793621,-1434.8478999172632,-5368.1668542814668,-12.315666709697037,-190.83346703430499,-0.64552306940550674,3501.9197259694729,-2412.2185414305031,518.47361192712583,-518.47361192712583,2412.2185414305031,6447.1876702744476,0.0
352154.6038362722,4620833.5216966402,-2500.0,1414.5996129738171,-784.85953637572231,-5262.7915127416818,17.746193114130346,-166.84359734344443,1.3165083452104893,3432.6590010250216,-1739.7428733608328,284.36577654321241,-284.36577654321241,1739.7428733608328,6251.4275117124607,0.0
357154.6038362722,4620833.5216966402,-2500.0,1696.5178245278985,-77.361544501267559,-4841.2617152185039,46.110250358002382,-129.72151687027917,3.5538625605782421,3272.1959467054317,-969.02994716377339,35.159890387888424,-35.159890387888424,969.02994716377339,5883.4750821137359,0.0
362154.6038362722,4620833.5216966402,-2500.0,1827.0908833039837,600.4028201888467,-4097.0838931015978,68.774211230947898,-81.338565790655437,5.8692945973556476,3024.2162925523298,-174.71533603324565,-202.96126395819948,202.96126395819948,174.71533603324565,5360.8719497138018,0.0
367154.6038362722,4620833.5216966402,-2500.0,1805.2687776749506,1153.2194828820454,-3081.1588260262856,82.164066730740259,-25.821191346413606,8.0217790312327448,2703.3325322118808,556.22948949251156,-403.1867342951349,403.1867342951349,-556.22948949251156,4726.2197035214549,0.0
372154.6038362722,4620833.5216966402,-2500.0,1664.910769874454,1503.098916352209,-1901.2457999788112,84.118777657893304,30.980739188400896,9.7759267320452725,2333.9164585598674,1144.7950672507554,-544.86558080752661,544.86558080752661,-1144.7950672507554,4044.3170519520136,0.0
377154.6038362722,4620833.5216966402,-2500.0,1465.7876444144174,1613.1970973614179,-701.79060343493018,74.585767477427979,82.645557066350918,10.954391100676453,1946.2710651878706,1540.4989026257022,-619.10621901594959,619.10621901594959,-1540.4989026257022,3392.0296196541763,0.0
382154.6038362722,4620833.5216966402,-2500.0,1273.7154820423095,1499.3056712294449,371.17705423648886,55.708672903593808,123.61472030524794,11.473663773429671,1571.5710456179127,1733.3650329783263,-630.59561600525865,630.59561600525865,-1733.3650329783263,2840.336763231182,0.0
387154.6038362722,4620833.5216966402,-2500.0,1138.6265890898958,1222.6779261143927,1206.6849400720066,31.233626231262477,150.40718061941612,11.351940153679855,1256.3611296822896,1751.8808651015675,-594.74744652518677,594.74744652518677,-1751.8808651015675,2430.5797740814223,0.0
392154.6038362722,4620833.5216966402,-2500.0,1080.9383025291077,867.54782613499606,1751.9342752781317,5.465334876005107,162.18672410034532,10.690579642239378,1183.5469470745197,1648.6155216940717,-531.6878435261176,531.6878435261176,-1648.6155216940717,2156.5524796917502,0.0
397154.6038362722,4620833.5216966402,-2500.0,1091.4624457759362,514.39802042292388,2014.0969562817177,-17.811366225479684,160.54373022104051,9.6406323606156654,1129.542079348395,1481.1680860916108,-460.0135208500709,460.0135208500709,-1481.1680860916108,1972.7669876895645,0.0
402154.6038362722,4620833.5216966402,-2500.0,1142.2240754876145,220.50314304028026,2044.0562552450444,-36.064109940548697,148.68317673909326,8.3669103888078205,1054.4296035239447,1296.9195153141716,-392.80335566145078,392.80335566145078,-1296.9195153141716,1826.9014914635104,0.0
407154.6038362722,4620833.5216966402,-2500.0,1200.7569985082409,13.215467831082961,1912.5913653979578,-48.231089911242059,130.4033862687518,7.0190489065511406,962.73415046178036,1126.053148332094,-336.66092018889822,336.66092018889822,-1126.053148332094,1685.2240044322316,0.0
412154.6038362722,4620833.5216966402,-2500.0,1241.0872329559672,-105.8050899715485,1689.4315236242062,-54.497907028345715,109.2305100382497,5.7136049667547031,862.25575494728059,982.20877029187773,-292.98951424266693,292.98951424266693,-982.20877029187773,1536.008283320708,0.0
417154.6038362722,4620833.5216966402,-2500.0,1248.580262791206,-151.032127505766,1430.6391496230358,-55.84681367152524,87.905311277993519,4.527887661164014,762.84864650932013,867.30192420273022,-260.12166203833783,260.12166203833783,-867.30192420273022,1381.4026504169574,0.0
422154.6038362722,4620833.5216966402,-2500.0,1219.5242796636496,-143.45774881820051,1174.4451129804715,-53.59270521183511,68.228651753442492,3.5026282330270679,674.87346961158812,777.03308105167025,-235.22801632137413,235.22801632137413,-777.03308105167025,1228.920625307313,0.0
427154.6038362722,4620833.5216966402,-2500.0,1157.9365723533149,-103.7567890716583,942.76482579251694,-49.035908258044373,51.1563922356194,2.6498536177810208,602.53266991762212,705.10230770520013,-215.54545291184047,215.54545291184047,-705.10230770520013,1086.1685532582273,0.0
432154.6038362722,4620833.5216966402,-2500.0,1071.847325927796,-48.732546794110249,745.23753824896528,-43.266850415337615,37.01044750172143,1.9622939243565174,541.27496594683987,645.63599649272851,-198.93726968701526,198.93726968701526,-645.63599649272851,958.51081163842559,0.0
437154.6038362722,4620833.5216966402,-2500.0,970.32948942863482,9.7222920352376239,583.55774438475066,-37.096845307573325,25.7045701427019,1.4218268619761614,486.55114051821039,594.16822539218072,-184.00129270647776,184.00129270647776,-594.16822539218072,848.54145766050863,0.0
442154.6038362722,4620833.5216966402,-2500.0,861.65138025314707,64.214233222258173,455.00807202686627,-31.068695806858994,16.931418816146202,1.0058008169822616,436.69682770889762,547.75160172454059,-169.95293628537414,169.95293628537414,-547.75160172454059,756.45227314599811,0.0
447154.6038362722,4620833.5216966402,-2500.0,752.41320922338582,110.84354033740372,354.90825786803305,-25.505193972744991,10.294518520883921,0.69121858790095247,391.30587487223858,504.67539427586792,-156.44002806190883,156.44002806190883,-504.67539427586792,680.74317597297386,0.0
452154.6038362722,4620833.5216966402,-2500.0,647.35244781018025,148.1245691169205,278.10651603757736,-20.56723763292424,5.3896902273183533,0.45707363837808973,350.2421116520897,464.08576891475059,-143.37121649425976,143.37121649425976,-464.08576891475059,618.97620476238615,0.0
457154.6038362722,4620833.5216966402,-2500.0,549.5187545209219,176.07393453787569,219.77314551823096,-16.3066233135036,1.8484690004957947,0.28533657370470633,313.34405021940938,425.64960432073929,-130.78769461920925,130.78769461920925,-425.64960432073929,568.4155749418295,0.0
292154.6038362722,4625833.5216966402,-2500.0,-1947.209420642859,-1697.6414068135032,-954.25330834034241,-91.460104939013007,-68.098736741635904,-2.8880902357142126,1770.7688580614417,-2340.9978132974084,797.34087386939382,-797.34087386939382,2340.9978132974084,3394.2138606950175,0.0
297154.6038362722,4625833.5216966402,-2500.0,-2022.6897310322165,-1934.7031540388764,-1208.7421579544043,-100.93267976990127,-81.897583714672578,-3.3096084922114026,1979.394541239461,-2628.8667128745838,884.20590597170599,-884.20590597170599,2628.8667128745838,3791.6553013296657,0.0
302154.6038362722,4625833.5216966402,-2500.0,-2066.1267301899388,-2190.2432464415119,-1522.9126157116191,-110.25126114567408,-98.086234680195588,-3.7532010312146369,2209.7397876661835,-2937.0700608530506,974.08643486307869,-974.08643486307869,2937.0700608530506,4229.0638353398508,0.0
307154.6038362722,4625833.5216966402,-2500.0,-2063.2592072680604,-2456.7533511539823,-1906.336879623092,-118.78218644422275,-116.75306450825822,-4.19419496529291,2461.1278750897886,-3257.535369243622,1063.3513431171993,-1063.3513431171993,3257.535369243622,4704.4014082755111,0.0
312154.6038362722,4625833.5216966402,-2500.0,-1997.2902556870918,-2721.3524409818706,-2367.0236122295642,-125.63285038867198,-137.76481382314955,-4.5915910721997966,2731.1669221072784,-3576.7208764009169,1146.5088254499401,-1146.5088254499401,3576.7208764009169,5212.0901262287662,0.0
317154.6038362722,4625833.5216966402,-2500.0,-1849.9257916858833,-2964.1524508836833,-2908.9008182756907,-129.62454411424815,-160.62506985354545,-4.8829642412816998,3015.0315410192661,-3874.0053190279737,1215.8104357533753,-1215.8104357533753,3874.0053190279737,5741.5915460823408,0.0
322154.6038362722,4625833.5216966402,-2500.0,-1603.5845809215584,-3156.9303629878341,-3528.0266374176363,-129.31235754243315,-184.29688674282994,-4.9798220950504168,3304.6524847465116,-4120.3531260503751,1261.0457960282852,-1261.0457960282852,4120.3531260503751,6275.836650873448,0.0
327154.6038362722,4625833.5216966402,-2500.0,-1245.1621486732206,-3262.8610152425113,-4207.4623526007972,-123.09122527431917,-207.01194480616684,-4.7662406118218517,3587.9352150963769,-4277.939378439949,1269.7755589566191,-1269.7755589566191,4277.939378439949,6789.7740579337515,0.0
332154.6038362722,4625833.5216966402,-2500.0,-771.46382300802725,-3238.4651073577979,-4911.2523401484359,-109.43266238621075,-226.12025088731733,-4.104242180488674,3848.2357554897949,-4301.7735399342919,1228.3381972036195,-1228.3381972036195,4301.7735399342919,7249.5298092538105,0.0
337154.6038362722,4625833.5216966402,-2500.0,-195.75102207803269,-3039.1890434183497,-5578.9092145660261,-87.283543613404646,-238.07610436412313,-2.8507045194466141,4064.453584015675,-4144.5981990327327,1123.9788947505738,-1123.9788947505738,4144.5981990327327,7612.9443484719513,0.0
342154.6038362722,4625833.5216966402,-2500.0,446.3238868240324,-2629.7482258576961,-6123.1467936515965,-56.609365687822496,-238.69129246690937,-0.88942329006352638,4212.1984790982297,-3766.1047154838925,948.26602920611526,-948.26602920611526,3766.1047154838925,7832.4486396026523,0.0
347154.6038362722,4625833.5216966402,-2500.0,1094.5558927246655,-1998.9840221417126,-6434.9123804931678,-18.971210683344605,-223.78201067642721,1.8221859616899951,4266.4724328469783,-3146.3496945883617,701.45800785529741,-701.45800785529741,3146.3496945883617,7861.19468674371,0.0
352154.6038362722,4625833.5216966402,-2500.0,1669.8303181012857,-1176.1083499520616,-6399.8740320450906,22.095797891701231,-190.2413105645177,5.2020556498512658,4206.0256089036347,-2300.8322857441035,396.63131949462695,-396.63131949462695,2300.8322857441035,7662.7534290301046,0.0
357154.6038362722,4625833.5216966402,-2500.0,2090.4077214465497,-241.4170380147888,-5927.7643615477855,61.212928609194499,-137.35986945715976,9.0091945543174177,4018.9123842200502,-1291.4804716702788,61.476526516565627,-61.476526516565627,1291.4804716702788,7223.3636656460931,0.0
362154.6038362722,4625833.5216966402,-2500.0,2297.1314592494796,677.82500118289147,-4989.3357958380302,92.036175105102956,-67.947257323408664,12.852969536662634,3707.8764731030096,-225.68650455014617,-264.55710151955549,264.55710151955549,225.68650455014617,6563.8262865372199,0.0
367154.6038362722,4625833.5216966402,-2500.0,2278.7276408005591,1432.8876234313091,-3646.9406464300814,108.82896645872789,11.353980458862198,16.26187941070901,3293.4273147179433,762.48727490597719,-538.75946134321805,538.75946134321805,-762.48727490597719,5746.3982765838082,0.0
372154.6038362722,4625833.5216966402,-2500.0,2083.2256335285797,1897.0424891463881,-2059.9972317793145,108.25177749068217,91.011212238583965,18.798265642673222,2812.5366270216155,1546.9798567363496,-727.29793758097878,727.29793758097878,-1546.9798567363496,4871.4565045398376,0.0
377154.6038362722,4625833.5216966402,-2500.0,1804.6832241292741,2010.1822468636663,-453.19135609989934,90.604822581137356,160.72634888245852,20.173675095141853,2312.3986387788127,2047.5942094820862,-815.8965247823636,815.8965247823636,-2047.5942094820862,4059.2976951458445,0.0
382154.6038362722,4625833.5216966402,-2500.0,1547.6523362421062,1801.3128053861562,945.84030073116003,59.887086543591934,212.03612237305805,20.313745698979861,1844.0441008991877,2252.7148137288664,-813.46585221984924,813.46585221984924,-2252.7148137288664,3414.0285528507789,0.0
387154.6038362722,4625833.5216966402,-2500.0,1387.0414157501982,1374.8263275627992,1972.6266092595467,22.574139281257718,240.36659600853974,19.349014885434116,1573.7555960589723,2214.8386947593972,-746.57403852844914,746.57403852844914,-2214.8386947593972,2976.5235277190009,0.0
392154.6038362722,4625833.5216966402,-2500.0,1345.1203394083302,867.56552441050212,2564.5509041010869,-14.354841330183,245.76002679476517,17.549642058588923,1522.3931116549877,2022.5472696758841,-648.00873792936432,648.00873792936432,-2022.5472696758841,2703.3603381465214,0.0
397154.6038362722,4625833.5216966402,-2500.0,1395.5698326724641,400.52503650086362,2757.4499274934901,-45.290664936896704,232.13158835794584,15.242044242957736,1445.5478420018021,1765.5980464221188,-545.70028868094516,545.70028868094516,-1765.5980464221188,2507.7745126097329,0.0
402154.6038362722,4625833.5216966402,-2500.0,1486.8244404287295,48.322421236877886,2650.0361928295756,-67.073843738201887,205.56048032899184,12.737585182573007,1337.0292949822635,1510.2581423463764,-456.78914861116868,456.78914861116868,-1510.2581423463764,2321.1927959043319,0.0
407154.6038362722,4625833.5216966402,-2500.0,1568.0999467190845,-165.60958405866336,2359.653577606241,-79.068250449043418,172.42184245332265,10.286663305013303,1206.1484499309486,1291.7436450064538,-387.56407293721998,387.56407293721998,-1291.7436450064538,2115.8107146507896,0.0
412154.6038362722,4625833.5216966402,-2500.0,1605.6341809854839,-255.46181977325091,1989.0517901407654,-82.497758782832548,138.02077742905581,8.0588749801039938,1066.5116272943039,1119.8008975542321,-336.89957840811451,336.89957840811451,-1119.8008975542321,1893.4475158681196,0.0
417154.6038362722,4625833.5216966402,-2500.0,1586.4620151529807,-253.86667864503147,1611.1411918295689,-79.525269480204997,105.98206886625401,6.1448732235381867,932.83039829190295,989.27868951687174,-300.29683502092035,300.29683502092035,-989.27868951687174,1668.2405493777517,0.0
422154.6038362722,4625833.5216966402,-2500.0,1513.9020997988755,-196.34288861497564,1268.2863735103506,-72.466633249983502,78.273962312572067,4.5718280528537862,815.8554548994108,889.46580167000013,-272.8100947361462,272.8100947361462,-889.46580167000013,1455.1549647257896,0.0
427154.6038362722,4625833.5216966402,-2500.0,1400.3273773230469,-112.53280894961853,979.08006962232878,-63.309937113422784,55.579098196922111,3.3239482357966703,717.29863686996612,809.80821949822416,-250.50057633027541,250.50057633027541,-809.80821949822416,1264.8582505270324,0.0
432154.6038362722,4625833.5216966402,-2500.0,1260.9077917204061,-23.261731270746683,746.80741556887108,-53.525961927256503,37.752581148887764,2.3618668186595833,633.04458821118112,742.30900511613163,-230.801560586634,230.801560586634,-742.30900511613163,1102.593438591957,0.0
437154.6038362722,4625833.5216966402,-2500.0,1109.6477311726217,58.934880884277881,566.5386944756691,-44.071720855479334,24.214267257630723,1.6371963648068606,559.42739720020393,681.8665511284571,-212.32307437541516,212.32307437541516,-681.8665511284571,968.96343547418644,0.0
442154.6038362722,4625833.5216966402,-2500.0,957.56544823828301,127.86585593645954,429.96755745126137,-35.486583355707921,14.223225925461263,1.1018754577382812,494.50048739490524,625.70138222525077,-194.48353383615404,194.48353383615404,-625.70138222525077,861.38711472279374,0.0
447154.6038362722,4625833.5216966402,-2500.0,812.31625348521982,181.56431091891685,328.22942625158845,-28.011488348211373,7.0409269442711526,0.71306644508320716,437.1950192681997,572.5770550422593,-177.16800983375984,177.16800983375984,-572.5770550422593,775.59836843652602,0.0
452154.6038362722,4625833.5216966402,-2500.0,678.57516880415801,220.54382250051444,253.29051224462768,-21.695383293598397,2.0121817944433698,0.43504976476783475,386.73830712001188,522.13502966880219,-160.48103263106589,160.48103263106589,-522.13502966880219,706.88147596023123,0.0
457154.6038362722,4625833.5216966402,-2500.0,558.70188170467168,246.56392237763188,198.46694476875226,-16.476377756082826,-1.4058721089439712,0.23933597814991056,342.44960431668557,474.43131468600654,-144.59471066328979,144.59471066328979,-474.43131468600654,650.90210537643725,0.0
462154.6038362722,4625833.5216966402,-2500.0,453.41969144498347,261.8464067069728,158.47981565378484,-12.237477556471905,-3.6434314112675015,0.10390429808865381,304.09939005241176,429.65647011608064,-129.66879183537617,129.66879183537617,-429.65647011608064,604.12212731970305,0.0
287154.6038362722,4630833.5216966402,-2500.0,-2133.6771840753918,-1527.966737722978,-643.7485166681754,-92.879605464784333,-56.82137577772037,-2.7627460020239232,1701.8183863341771,-2188.8026264508007,769.81731145361778,-769.81731145361778,2188.8026264508007,3259.6604411513517,0.0
292154.6038362722,4630833.5216966402,-2500.0,-2281.5374263686863,-1776.0556886197137,-843.78247788509759,-104.57024514099162,-69.448786648995565,-3.2115670669727088,1918.2918135109808,-2495.8607960995787,868.2267959007055,-868.2267959007055,2495.8607960995787,3673.2314618365281,0.0
297154.6038362722,4630833.5216966402,-2500.0,-2414.603864539607,-2057.8335343781741,-1099.5471101935757,-116.98439380049973,-84.737302847092508,-3.7042302233370861,2162.9917014286175,-2840.0388146838391,975.99807321664787,-975.99807321664787,2840.0388146838391,4139.8037765132758,0.0
302154.6038362722,4630833.5216966402,-2500.0,-2519.758801331704,-2372.2225491261311,-1424.363889224443,-129.69360343195055,-103.04647660342026,-4.2230536125356251,2437.7396901448656,-3219.680267938189,1091.4841036048585,-1091.4841036048585,3219.680267938189,4662.2893026205575,0.0
307154.6038362722,4630833.5216966402,-2500.0,-2579.453266314305,-2714.0976249630476,-1832.9485528015143,-141.98644191422795,-124.62892958479367,-4.733217756538286,2743.2497607587134,-3628.8481931225015,1211.3584806868314,-1211.3584806868314,3628.8481931225015,5241.2276497342446,0.0
312154.6038362722,4630833.5216966402,-2500.0,-2571.3527290311217,-3072.054512146532,-2340.0702535516702,-152.77786921104922,-149.49872299562145,-5.174381483181941,3078.3613014135435,-4055.1065103876235,1329.9064378503097,-1329.9064378503097,4055.1065103876235,5873.2342391086959,0.0
317154.6038362722,4630833.5216966402,-2500.0,-2468.7930355451113,-3425.6336740626671,-2957.8819905560918,-160.52858489446334,-177.23170598099114,-5.4503180679614012,3439.0055272791092,-4476.7891790764716,1438.2306066424524,-1438.2306066424524,4476.7891790764716,6548.9311176956116,0.0
322154.6038362722,4630833.5216966402,-2500.0,-2242.7395359646443,-3742.3435857377744,-3691.3029695075602,-163.2129872139873,-206.68978385525153,-5.4182378765934613,3816.9157387618093,-4860.0820936005184,1523.5367478706739,-1523.5367478706739,4860.0820936005184,7250.4019483300044,0.0
327154.6038362722,4630833.5216966402,-2500.0,-1866.121143382725,-3975.3639421975104,-4530.9001216903107,-158.40064869256139,-235.68571703878658,-4.881929274898245,4198.1922290657649,-5156.7292674505943,1568.8353962737531,-1568.8353962737531,5156.7292674505943,7948.428809120599,0.0
332154.6038362722,4630833.5216966402,-2500.0,-1321.3191481354609,-4063.6086924203573,-5443.2077360122094,-143.54093409401835,-260.65630214933498,-3.5952282492235801,4562.0029890125998,-5303.8862149071192,1553.6144962389319,-1553.6144962389319,5303.8862149071192,8600.1312190823755,0.0
337154.6038362722,4630833.5216966402,-2500.0,-610.87709738348372,-3936.7367046230625,-6359.7203133704361,-116.54186972019507,-276.49418026837623,-1.288053244792505,4879.9593773753204,-5228.4500051327159,1456.2262473965641,-1456.2262473965641,5228.4500051327159,9148.1697474199518,0.0
342154.6038362722,4630833.5216966402,-2500.0,230.29468178325732,-3528.1112558262116,-7168.1603668479529,-76.673955099477283,-276.7846775003207,2.2747953781072399,5116.9817174631216,-4858.5627860089689,1258.6792926494918,-1258.6792926494918,4858.5627860089689,9523.2509341706373,0.0
347154.6038362722,4630833.5216966402,-2500.0,1125.9120328796187,-2797.469361739224,-7712.8213182733907,-25.664368665028462,-254.73956509813036,7.1967055361930274,5234.6268460925421,-4143.9444877497081,953.90147742500358,-953.90147742500358,4143.9444877497081,9651.9874621409472,0.0
352154.6038362722,4630833.5216966402,-2500.0,1960.3489658993064,-1760.6752612342109,-7813.1276203162743,31.419611049263054,-204.9975359791905,13.330247412087189,5197.5921076734448,-3083.0066295802535,554.03667703638962,-554.03667703638962,3083.0066295802535,9471.6181450214717,0.0
357154.6038362722,4630833.5216966402,-2500.0,2599.9208297649452,-516.04646325584577,-7307.3818279714706,86.144092637931934,-126.05892924935189,20.186446566644346,4983.1030886479057,-1748.0502435484145,96.166539064076005,-96.166539064076005,1748.0502435484145,8950.9950821497114,0.0
362154.6038362722,4630833.5216966402,-2500.0,2935.0299196072438,751.22718559639077,-6117.8072538825436,128.13644166592923,-22.49864811517141,26.944259309065693,4591.0832508783615,-293.0616482085814,-359.66093347453199,359.66093347453199,293.0616482085814,8113.4579182859698,0.0
367154.6038362722,4630833.5216966402,-2500.0,2929.9918208526578,1804.5571857470823,-4313.866966005924,147.9764598114065,94.351634008381012,32.614432849559009,4051.0513038656632,1071.4042787695616,-743.69314796573008,743.69314796573008,-1071.4042787695616,7052.7846204118405,0.0
372154.6038362722,4630833.5216966402,-2500.0,2652.3154415710055,2431.7603632091195,-2134.9848854333109,140.57720585705781,208.26180316613161,36.326316562706985,3421.2213474757446,2138.0803389026528,-998.67596778173549,998.67596778173549,-2138.0803389026528,5930.2527863594432,0.0
377154.6038362722,4630833.5216966402,-2500.0,2254.4311532113884,2531.0385265435857,59.012954589672077,107.40594071592277,302.28559089829463,37.60621814359552,2778.6066714726039,2775.0532469874624,-1100.9830340559686,1100.9830340559686,-2775.0532469874624,4939.0810852032646,0.0
382154.6038362722,4630833.5216966402,-2500.0,1907.9255732095924,2157.0098997212649,1902.3272272538914,56.258517846626553,363.61695205393954,36.494949143191498,2228.6018667234594,2970.8047674963523,-1068.1349167378653,1068.1349167378653,-2970.8047674963523,4225.6394846870098,0.0
387154.6038362722,4630833.5216966402,-2500.0,1726.9253976203697,1493.4191245131358,3147.355846934166,-1.3955676438163203,386.97564683338368,33.457667059230054,2080.7515885223725,2824.2685167807663,-947.52475331960488,947.52475331960488,-2824.2685167807663,3798.8244347623258,0.0
392154.6038362722,4630833.5216966402,-2500.0,1728.5716863849739,767.71974750417542,3730.7208526906488,-54.197592377761531,375.19419264578465,29.174069885156477,2019.5293553027423,2487.992220582797,-793.75188249298071,793.75188249298071,-2487.992220582797,3535.2943413481639,1.0
397154.6038362722,4630833.5216966402,-2500.0,1849.6887673998542,161.45584576966505,3752.9275922218562,-94.094103870739289,337.11487529458481,24.335805434618596,1903.660426558818,2102.4311282556305,-648.59113302368814,648.59113302368814,-2102.4311282556305,3297.5776678139232,0.0
402154.6038362722,4630833.5216966402,-2500.0,1997.3400872674108,-235.81738369123224,3400.4852314061018,-117.75316219702198,284.05826188183266,19.516409416287942,1737.0370759339023,1756.9385104621081,-532.88699251961839,532.88699251961839,-1756.9385104621081,3017.6598070579421,0.0
407154.6038362722,4630833.5216966402,-2500.0,2095.5013326716648,-420.44627245971378,2864.1367850117199,-126.0606250647176,226.49173006083521,15.114172455905541,1539.1137365468519,1486.1896403544952,-449.7555176137588,449.7555176137588,-1486.1896403544952,2692.538779651697,0.0
412154.6038362722,4630833.5216966402,-2500.0,2106.1524376052889,-439.81917633600409,2289.23079154877,-122.46677265240871,172.03094334883022,11.348026772830021,1334.5900002708386,1287.9394527828213,-392.64320844997224,392.64320844997224,-1287.9394527828213,2349.3270393738999,0.0
417154.6038362722,4630833.5216966402,-2500.0,2026.5253786429739,-356.41311919540362,1762.7996973818542,-111.21232284702609,124.97781543283162,8.2879651156376148,1145.3204780315407,1144.0009849311284,-352.47006982897341,352.47006982897341,-1144.0009849311284,2018.8180441542891,0.0
422154.6038362722,4630833.5216966402,-2500.0,1875.3138031724741,-225.050882082404,1323.3844107077291,-96.099161430027394,86.895927408473113,5.9016503663189157,983.08169281479775,1034.5461513219605,-321.60321779671062,321.60321779671062,-1034.5461513219605,1723.3240813099374,0.0
427154.6038362722,4630833.5216966402,-2500.0,1678.8288353846617,-84.215693063305466,978.0864444002134,-79.943193549093237,57.560521574776345,4.1007805972551541,847.92420200971696,944.45832881803506,-295.06847836224426,295.06847836224426,-944.45832881803506,1473.9709111936068,0.0
432154.6038362722,4630833.5216966402,-2500.0,1461.9141515886963,43.703153015389404,717.68100908914596,-64.525268431212154,35.828340560517013,2.7770918800250941,734.58942174735478,864.43450141235076,-270.26024968216262,270.26024968216262,-864.43450141235076,1272.4375063775296,0.0
437154.6038362722,4630833.5216966402,-2500.0,1243.8151693808275,148.47224643120356,526.80216856285472,-50.787902234403489,20.24665446496752,1.8249155864843156,638.29883895232035,789.77330472943345,-246.17059742952711,246.17059742952711,-789.77330472943345,1114.1024696923282,0.0
442154.6038362722,4630833.5216966402,-2500.0,1037.3906340752187,227.60791795802106,389.58644360408124,-39.093970609448405,9.4017631788313807,1.152437691174879,555.85020914014058,718.68441043980874,-222.66811336108023,222.66811336108023,-718.68441043980874,991.17440993580396,0.0
447154.6038362722,4630833.5216966402,-2500.0,849.99167697597909,282.860845202718,292.20326543712758,-29.453945498429615,2.0776476692710544,0.68535374966349993,485.04369016441672,650.90415015575797,-199.99631782039057,199.99631782039057,-650.90415015575797,895.1883855363094,0.0
452154.6038362722,4630833.5216966402,-2500.0,684.87505310306665,317.85725222835845,223.60743841479095,-21.691978538088808,-2.6994297621049244,0.36627429301270298,424.23699535518483,586.79064769804461,-178.4847491215445,178.4847491215445,-586.79064769804461,818.60340454804123,0.0
457154.6038362722,4630833.5216966402,-2500.0,542.56553069703682,336.70608180624396,175.43225702347942,-15.55352854864762,-5.6740835441666384,0.15227666295881673,383.86222848036687,526.82310130034602,-158.41140750250264,158.41140750250264,-526.82310130034602,755.51062477752168,0.0
462154.6038362722,4630833.5216966402,-2500.0,421.9422073422362,343.27623081575069,141.55352659893975,-10.768336999805502,-7.3979697765081198,0.011987069865354937,370.93134254034635,471.3712690077698,-139.95530856921019,139.95530856921019,-471.3712690077698,701.68813463320839,0.0
467154.6038362722,4630833.5216966402,-2500.0,321.01473054597039,340.88663097974535,117.59139731814143,-7.0833530557804512,-8.2705582999219232,-0.07714982054900392,355.85638131131731,420.62070780244994,-123.19506331480207,123.19506331480207,-420.62070780244994,654.31665207280059,0.0
282154.6038362722,4635833.5216966402,-2500.0,-2224.537688817305,-1304.7217626616464,-369.18568387642415,-90.75298051924031,-45.004709175912652,-2.5677058526282277,1602.6741350741315,-1970.7140490284989,715.47907110983829,-715.47907110983829,1970.7140490284989,3065.0654838802966,0.0
287154.6038362722,4635833.5216966402,-2500.0,-2431.0587212904802,-1540.8700396068689,-510.1764764876674,-103.77644624912193,-55.774937346721401,-3.0198182496276598,1817.8036921416003,-2273.0676212053436,817.32788408756016,-817.32788408756016,2273.0676212053436,3476.4446370836208,0.0
292154.6038362722,4635833.5216966402,-2500.0,-2641.9179759146632,-1819.1870975686845,-696.6424060755802,-118.29270560027457,-69.148719593200781,-3.532809299006757,2065.3948818794292,-2623.0581642579477,933.20154082445981,-933.20154082445981,2623.0581642579477,3949.3589781541746,0.0
297154.6038362722,4635833.5216966402,-2500.0,-2848.1064260929902,-2144.3430828908395,-942.31560896586302,-134.14729583099702,-85.65708650965442,-4.0975417785367005,2349.5193788281204,-3025.032197420308,1063.5732264572111,-1063.5732264572111,3025.032197420308,4491.209060923441,0.0
302154.6038362722,4635833.5216966402,-2500.0,-3035.83376090296,-2519.2510586149751,-1264.2547663559635,-150.94834701424057,-105.84250858677628,-4.6893814872883528,2673.9641717568766,-3481.2349517450257,1207.8528637365364,-1207.8528637365364,3481.2349517450257,5108.6454643124507,0.0
307154.6038362722,4635833.5216966402,-2500.0,-3185.0599923186983,-2943.1773637091455,-1682.8736619796846,-167.94289991815842,-130.17062413327719,-5.2579118663131341,3041.6282196072275,-3989.8493096750317,1363.6522328719575,-1363.6522328719575,3989.8493096750317,5806.3221089841227,0.0
312154.6038362722,4635833.5216966402,-2500.0,-3268.096694396228,-3408.8556647309024,-2221.1718862892562,-183.86140102644046,-158.86769148407836,-5.7119746888107592,3453.5769562598466,-4542.0699868334832,1525.755678163064,-1525.755678163064,4542.0699868334832,6584.9644509304608,0.0
317154.6038362722,4635833.5216966402,-2500.0,-3248.8127406230724,-3898.398589867455,-2902.4364734059282,-196.74727054808835,-191.6488514688302,-5.8994982727113996,3907.648781690873,-5118.0344538784693,1684.7895714413896,-1684.7895714413896,5118.0344538784693,7438.5513133110953,0.0
322154.6038362722,4635833.5216966402,-2500.0,-3083.4264285291674,-4378.0732031917096,-3745.3367768156327,-203.81939379636046,-227.30421935471017,-5.5837634125795965,4396.5425097012894,-5681.6954841481711,1825.709525829498,-1825.709525829498,5681.6954841481711,8350.4910196111687,0.0
327154.6038362722,4635833.5216966402,-2500.0,-2724.414133907158,-4792.6723807044682,-4755.0605624040882,-201.46599248701608,-263.13572136629665,-4.4213309315781579,4905.4217591603883,-6175.3360649399056,1926.4754241810319,-1926.4754241810319,6175.3360649399056,9288.9096208850879,0.0
332154.6038362722,4635833.5216966402,-2500.0,-2129.49170528884,-5061.5027705610364,-5909.3083214618782,-185.53428791775605,-294.31261906255645,-1.9553521237065059,5409.3187245088948,-6515.5963462403051,1957.702697126299,-1957.702697126299,6515.5963462403051,10201.699927146063,0.0
337154.6038362722,4635833.5216966402,-2500.0,-1277.3191396688669,-5079.979833137003,-7139.2771618148226,-152.13116725552266,-313.36514053037081,2.3519320280392648,5871.0546750027661,-6594.6368390224652,1884.6181260792205,-1884.6181260792205,6594.6368390224652,11012.905980478887,0.0
342154.6038362722,4635833.5216966402,-2500.0,-189.48010586576271,-4732.9255858134538,-8309.2336899978091,-99.106452450502715,-310.26219180991671,9.0137676294310545,6241.0105713035828,-6291.9117232463304,1673.0391132773452,-1673.0391132773452,6291.9117232463304,11623.318260199034,0.0
347154.6038362722,4635833.5216966402,-2500.0,1046.7954929281514,-3926.0073074858774,-9204.5631297389918,-28.126088482735089,-273.72363547878916,18.313844537556147,6460.6825021524483,-5502.3272228106343,1300.6731054654197,-1300.6731054654197,5502.3272228106343,11919.418658174627,0.0
352154.6038362722,4635833.5216966402,-2500.0,2268.5529504810615,-2636.6600370665342,-9545.828651968357,53.332082058058198,-194.32996391801362,30.017800276597747,6472.027979776165,-4182.2192505011972,772.79096830604499,-772.79096830604499,4182.2192505011972,11794.977641468175,0.0
357154.6038362722,4635833.5216966402,-2500.0,3259.1570047176833,-971.50468468850977,-9048.8422189365137,131.43269419287805,-69.228057865390625,43.110943344246152,6233.2222474711962,-2402.4619272143973,136.71824584601814,-136.71824584601814,2402.4619272143973,11186.794447925573,0.0
362154.6038362722,4635833.5216966402,-2500.0,3815.6914970553621,803.77346369544421,-7536.2811010053601,188.42124296220527,93.276348688272378,55.770639557537784,5737.975772640807,-380.28743872127063,-515.51429863261376,515.51429863261376,380.28743872127063,10118.919539430657,0.0
367154.6038362722,4635833.5216966402,-2500.0,3846.5790371640187,2306.8247056522373,-5067.3330007986387,208.3392010166902,272.29656107490962,65.764777190540826,5030.8003124479637,1548.041821599352,-1066.9505930575285,1066.9505930575285,-1548.041821599352,8738.8506756357237,0.0
372154.6038362722,4635833.5216966402,-2500.0,3443.8278925200539,3171.140308515337,-2006.0996885169143,183.80554777898746,438.56782252148082,71.22343322215302,4208.3478970426549,3030.7601142599897,-1417.2311653690779,1417.2311653690779,-3030.7601142599897,7317.273578777591,0.0
377154.6038362722,4635833.5216966402,-2500.0,2862.4989528437045,3217.1520117435057,1052.618760178085,119.91970872634975,563.45129504603597,71.375718662270572,3406.7660760529598,3842.3919492156706,-1526.0632372297237,1526.0632372297237,-3842.3919492156706,6169.2959127150871,0.0
382154.6038362722,4635833.5216966402,-2500.0,2394.5736424033717,2550.949101775811,3500.9658866041559,32.654137145243595,628.30526662558884,66.757921719914492,2913.3858226163638,3977.3892641772618,-1429.3820989358039,1429.3820989358039,-3977.3892641772618,5470.6336423270432,0.0
387154.6038362722,4635833.5216966402,-2500.0,2215.7792350907162,1507.696682826022,4961.6187524564202,-57.281339246108963,629.49234963968945,58.795041267241686,2868.017758723217,3627.3942086819434,-1214.9695257090641,1214.9695257090641,-3627.3942086819434,5112.0466623184366,0.0
392154.6038362722,4635833.5216966402,-2500.0,2316.8425449101851,473.95718353462826,5402.1477962186709,-131.6524578639885,577.41477028443819,49.145908033280847,2777.8112911949465,3060.8796614236981,-975.51701610905116,975.51701610905116,-3060.8796614236981,4835.7232828265151,0.0
397154.6038362722,4635833.5216966402,-2500.0,2556.5123751806677,-282.73859025491987,5064.7696686422823,-179.77898269430426,491.08770507618794,39.235860772933229,2582.0637351933078,2496.3352579194825,-772.0672199293416,772.0672199293416,-2496.3352579194825,4472.39299016307,0.0
402154.6038362722,4635833.5216966402,-2500.0,2771.7493426668389,-676.17172222351235,4294.9000954735957,-199.84958115619932,391.11756636690529,30.071985364105778,2303.06808000203,2044.6238116433153,-625.54362751424082,625.54362751424082,-2044.6238116433153,3995.3890785857839,0.0
407154.6038362722,4635833.5216966402,-2500.0,2858.0720037508027,-758.58037428809632,3392.8976806424876,-196.75937410214115,294.0520427505781,22.228894816966989,1985.5689128970389,1724.0963712706493,-529.41726239652564,529.41726239652564,-1724.0963712706493,3456.3856080648875,0.0
412154.6038362722,4635833.5216966402,-2500.0,2787.658852541791,-640.25260325721047,2549.6658292745888,-178.37417534784197,209.88948438960372,15.913399273445226,1674.6751005355738,1505.6621064842761,-466.93920280315763,466.93920280315763,-1505.6621064842761,2921.8043176922588,0.0
417154.6038362722,4635833.5216966402,-2500.0,2586.2035988499947,-427.80693480746538,1852.0263500179499,-152.33367517440271,142.53907373110002,11.070369494150714,1401.2534473785802,1350.3868326830961,-422.51845473057745,422.51845473057745,-1350.3868326830961,2441.177642191501,0.0
422154.6038362722,4635833.5216966402,-2500.0,2301.0688911348921,-197.01833230163126,1317.3122774491533,-124.38584849806547,91.762487171630937,7.4981764612395665,1175.8249268629722,1227.8465156928487,-385.86200397374989,385.86200397374989,-1227.8465156928487,2039.6209423633554,0.0
427154.6038362722,4635833.5216966402,-2500.0,1978.7931252113515,9.4996497534033182,927.70626781991893,-98.073838740464836,55.208527020698241,4.9431991735581384,993.46861870773876,1119.9809690600382,-351.7473468816587,351.7473468816587,-1119.9809690600382,1721.7576788034346,0.0
432154.6038362722,4635833.5216966402,-2500.0,1654.8604293538658,173.9654563316987,653.37750252510511,-75.142718365065619,29.871324606572031,3.1600721225963802,844.77111139318606,1018.4474116030524,-318.32202385607462,318.32202385607462,-1018.4474116030524,1478.9660331679495,0.0
437154.6038362722,4635833.5216966402,-2500.0,1351.8830077303091,293.64218294314588,464.61331509538127,-56.137790552091985,12.896335527872608,1.9405850624348615,721.97411074359945,920.70738556310744,-285.47784537357529,285.47784537357529,-920.70738556310744,1296.3254025732565,0.0
442154.6038362722,4635833.5216966402,-2500.0,1081.7337976099659,373.29605118748015,336.64864694117875,-40.92333512267232,1.9123715086439539,1.1213960217975074,619.6689218915875,826.96353790072658,-253.76834414588603,253.76834414588603,-826.96353790072658,1157.9342577300949,0.0
447154.6038362722,4635833.5216966402,-2500.0,848.73366392456535,420.4608057654869,250.64253353705593,-29.04384746858879,-4.9055592889883659,0.58073521038829257,534.3829979085607,738.31263287038519,-223.83408187233584,223.83408187233584,-738.31263287038519,1050.127774690558,0.0
452154.6038362722,4635833.5216966402,-2500.0,652.52120307629889,442.89043405825169,193.01578154797124,-19.941609305842825,-8.895880933239642,0.23088643383251103,499.24150515793201,655.83236168827466,-196.16256411236117,196.16256411236117,-655.83236168827466,962.69578573430329,0.0
457154.6038362722,4635833.5216966402,-2500.0,490.18700841792349,447.41039297300932,154.3138223901656,-13.071911727630203,-11.008730400633317,0.010140733467780653,478.07901668535578,580.23624536828947,-171.02962555090451,171.02962555090451,-580.23624536828947,888.73577216382512,0.0
462154.6038362722,4635833.5216966402,-2500.0,357.68678268753615,439.55001851722898,128.1041375877476,-7.9545787650865334,-11.90311150820706,-0.12422550374437624,454.47326103032145,511.81804368545863,-148.52163025844746,148.52163025844746,-511.81804368545863,823.90366263520718,0.0
467154.6038362722,4635833.5216966402,-2500.0,250.69610776128985,423.55965236409889,110.07992147548818,-4.1899242908248988,-12.028049119289493,-0.20144208892105439,429.53804938891307,450.51815046630833,-128.58386317868479,128.58386317868479,-450.51815046630833,765.59601708991374,0.0
282154.6038362722,4640833.5216966402,-2500.0,-2466.4984272190045,-1262.3651764666663,-232.52639032527713,-99.067383129601922,-42.217217990641046,-2.7571138979471499,1687.5090844374586,-1991.1164214830228,740.06274177481748,-740.06274177481748,1991.1164214830228,3220.5916469557601,0.0
287154.6038362722,4640833.5216966402,-2500.0,-2732.9033968991193,-1512.5915355294826,-351.04358540429848,-114.51958911142037,-53.065727559041704,-3.2618495177018718,1927.4641072818345,-2320.3423021923045,854.42961538154691,-854.42961538154691,2320.3423021923045,3678.8812457827207,0.0
292154.6038362722,4640833.5216966402,-2500.0,-3017.1344178840836,-1814.6215036970452,-513.46956586940507,-132.12037785339717,-66.781962165639854,-3.8368787574210734,2207.2905833874288,-2709.1682437450572,987.39037434502666,-987.39037434502666,2709.1682437450572,4212.8746827232317,0.0
297154.6038362722,4640833.5216966402,-2500.0,-3312.0025808972773,-2177.2585265404005,-735.2053380201271,-151.83733598661871,-84.045367894013523,-4.4692496903828944,2533.2161202665116,-3166.2629901091036,1140.817780861596,-1140.817780861596,3166.2629901091036,4834.1014340760521,0.0
302154.6038362722,4640833.5216966402,-2500.0,-3604.7819262365688,-2608.8220138228871,-1036.4741650787907,-173.37347523473224,-105.59831458592087,-5.1236627115514768,2911.6906233074706,-3699.3260040951573,1315.7699955714834,-1315.7699955714834,3699.3260040951573,5554.2955549516755,0.0
307154.6038362722,4640833.5216966402,-2500.0,-3874.8088259566907,-3115.284264864641,-1443.1753871929977,-195.99082296089614,-132.15472463266653,-5.7255145936851317,3348.7827248525637,-4313.0492407456313,1511.6333212507225,-1511.6333212507225,4313.0492407456313,6384.1267584557881,0.0
312154.6038362722,4640833.5216966402,-2500.0,-4090.617730757433,-3697.0117170938747,-1987.1839966893178,-218.26397884324658,-164.20744652754391,-6.1347925567680939,3849.1128014681153,-5005.6898654005754,1724.7828816829051,-1724.7828816829051,5005.6898654005754,7330.9952807573191,0.0
317154.6038362722,4640833.5216966402,-2500.0,-4207.0553080872287,-4343.50229111108,-2705.221823865118,-237.76789327097043,-201.66968873645573,-6.1073394128432712,4414.1106420240458,-5763.6963390320252,1946.625697008993,-1946.625697008993,5763.6963390320252,8395.4745242272311,0.0
322154.6038362722,4640833.5216966402,-2500.0,-4163.4807637785743,-5025.5918750499213,-3634.7609288212211,-250.74623559122543,-243.27014521243683,-5.2434186159632601,5039.3722183144127,-6553.9343183411365,2160.9885501926019,-2160.9885501926019,6553.9343183411365,9565.9721470471814,0.0
327154.6038362722,4640833.5216966402,-2500.0,-3885.2360216665998,-5685.1844675700386,-4804.561192764244,-251.89271192318637,-285.63391546577606,-2.9286651099038585,5710.9684306492018,-7313.6286734128444,2341.1077499686417,-2341.1077499686417,7313.6286734128444,10811.366674137913,0.0
332154.6038362722,4640833.5216966402,-2500.0,-3291.9760158490035,-6224.1813821778451,-6216.7525302876966,-234.5215181658721,-322.07300007866553,1.7105512188990222,6400.847762604998,-7939.6534501543356,2447.11886994922,-2447.11886994922,7939.6534501543356,12072.012329894027,0.0
337154.6038362722,4640833.5216966402,-2500.0,-2317.5130233168534,-6497.5896326508655,-7817.8582887134044,-191.58014902751901,-341.36261161860131,9.7877915212868185,7062.1299775060816,-8281.8025994576838,2426.0489139944525,-2426.0489139944525,8281.8025994576838,13250.916662657677,0.0
342154.6038362722,4640833.5216966402,-2500.0,-944.70823121567855,-6320.9426829047088,-9459.939393494571,-118.03822528124891,-327.27023279223977,22.48661948702301,7626.2547786080295,-8149.2511626146952,2217.7166161514383,-2217.7166161514383,8149.2511626146952,14209.383556100134,0.0
347154.6038362722,4640833.5216966402,-2500.0,747.7402530236285,-5507.1991751497444,-10863.121985898526,-14.851742481619167,-260.25031774410439,40.63387020494779,8005.5250495061573,-7343.7838464051447,1770.6696850891176,-1770.6696850891176,7343.7838464051447,14774.761833593577,0.0
352154.6038362722,4640833.5216966402,-2500.0,2545.3459181522408,-3946.4123793417725,-11608.434305902068,106.47780710402736,-122.97225565382598,63.984117757516572,8105.7636971613138,-5731.6618078354186,1069.9580207678791,-1069.9580207678791,5731.6618078354186,14770.507524685889,0.0
357154.6038362722,4640833.5216966402,-2500.0,4104.4890396665942,-1720.3925640927823,-11207.218941375037,221.72062712021895,89.978337637235043,90.429535986647949,7852.5916809227911,-3347.9491953252373,170.06183021209949,-170.06183021209949,3347.9491953252373,14076.575868934377,0.0
362154.6038362722,4640833.5216966402,-2500.0,5050.7410149521766,802.95714671091321,-9283.9130421486716,298.29658171099237,361.71714866100967,115.73197012705609,7228.573527746832,-487.00833014863326,-787.7007301661364,787.7007301661364,487.00833014863326,12715.685383033127,0.0
367154.6038362722,4640833.5216966402,-2500.0,5167.283184582202,2998.7252559569583,-5837.506726960095,307.76683193206492,649.8837008160699,134.4908372478493,6307.2523628273902,2307.3613001104177,-1601.6269496793432,1601.6269496793432,-2307.3613001104177,10935.165503189777,0.0
372154.6038362722,4640833.5216966402,-2500.0,4569.8594256888191,4213.6693472149427,-1425.8314279557162,240.81857439685876,897.5572138564238,142.35884315122465,5262.5537138700356,4418.4774865251029,-2088.980571507951,2088.980571507951,-4418.4774865251029,9212.0020185819631,0.0
377154.6038362722,4640833.5216966402,-2500.0,3700.2985331797572,4117.1876337151962,2934.0613938070469,113.83714011386674,1055.0872029863824,138.18340958786882,4372.3947723178235,5444.7309458324098,-2179.266975508529,2179.266975508529,-5444.7309458324098,8048.5131757260415,0.0
382154.6038362722,4640833.5216966402,-2500.0,3075.5477700863362,2923.1817424479414,6194.7038616137552,-38.60038967141459,1098.8499663133855,124.31074715419201,4134.7577688882684,5403.8439320075331,-1950.0911671951837,1950.0911671951837,-5403.8439320075331,7543.6172914756262,0.0
387154.6038362722,4640833.5216966402,-2500.0,2965.7346963230325,1267.252249511811,7778.7264679599766,-178.94771200807679,1035.661224910808,104.87382935057782,4140.3743793376743,4678.9602504460345,-1570.650108836553,1570.650108836553,-4678.9602504460345,7297.2836499264713,0.0
392154.6038362722,4640833.5216966402,-2500.0,3275.2945220938791,-180.97245198399406,7777.6971694354743,-279.51167746283613,894.83279271770539,83.778383049319189,3964.50967364506,3751.7643307407416,-1200.0900205210244,1200.0900205210244,-3751.7643307407416,6896.4995597369953,0.0
397154.6038362722,4640833.5216966402,-2500.0,3699.5536176937981,-1048.0526759638915,6739.6187567031839,-328.83536779893524,715.49039657765979,63.789210814554821,3588.5990910783589,2953.000764529485,-921.77202038206769,921.77202038206769,-2953.000764529485,6218.4532123085874,0.0
402154.6038362722,4640833.5216966402,-2500.0,3965.4834415245145,-1313.2569759619566,5289.4236968791483,-331.32076005941877,533.83138326344942,46.518767344042992,3090.3409020810263,2393.1768778339865,-744.25817767893591,744.25817767893591,-2393.1768778339865,5353.2940175962176,0.0
407154.6038362722,4640833.5216966402,-2500.0,3956.1559571964144,-1159.7851855336114,3873.3070218449675,-301.1041262707385,374.31818966794725,32.644277170746442,2566.6130101826816,2037.8802839805223,-638.42949776194132,638.42949776194132,-2037.8802839805223,4450.0997201779619,0.0
412154.6038362722,4640833.5216966402,-2500.0,3693.874524829786,-804.96886695890089,2706.1997730828084,-254.20175320997467,247.69286878966699,22.144488889081927,2091.3166007216564,1808.1155044913517,-570.85543366360298,570.85543366360298,-1808.1155044913517,3626.632503633371,0.0
417154.6038362722,4640833.5216966402,-2500.0,3266.5090433679152,-409.54065528879346,1836.3082596853283,-203.23997798861498,154.36714938207717,14.57232127284253,1699.666004900683,1638.0859707951813,-518.59517759478911,518.59517759478911,-1638.0859707951813,2944.184443800486,0.0
422154.6038362722,4640833.5216966402,-2500.0,2767.0217776076361,-61.274910550199351,1228.3359894944583,-155.89407233038912,89.345965991725961,9.3136860398502641,1392.0390326109325,1489.9578625939075,-470.3150136281082,470.3150136281082,-1489.9578625939075,2416.0675609032305,0.0
427154.6038362722,4640833.5216966402,-2500.0,2265.3023636149746,206.86353520010672,821.03233169101702,-115.66673417676053,46.034043714774917,5.7668024750021409,1151.7751727166387,1348.0418565574303,-422.35628272648592,422.35628272648592,-1348.0418565574303,2025.5638045894343,0.0
432154.6038362722,4640833.5216966402,-2500.0,1803.3705370618304,393.20951364795314,555.68643301998725,-83.368453266056349,18.302609978887219,3.4290857100441645,961.55707032296345,1209.0077627552021,-374.77596132487724,374.77596132487724,-1209.0077627552021,1742.5393921462041,0.0
437154.6038362722,4640833.5216966402,-2500.0,1400.9353595381003,509.9656832670633,385.90308581696866,-58.403543728111643,1.2547279094730102,1.9182136230170961,808.82595743751551,1074.6121016808895,-328.84037511711068,328.84037511711068,-1074.6121016808895,1535.5535079518895,0.0
442154.6038362722,4640833.5216966402,-2500.0,1063.083242393132,573.12953490542316,278.39274813183044,-39.61656601779147,-8.708298595142713,0.95993846335391175,697.20341535013097,947.7240457766037,-285.82009038819035,285.82009038819035,-947.7240457766037,1378.686090396491,0.0
447154.6038362722,4640833.5216966402,-2500.0,786.67949705237982,597.71349597519497,210.57057797295445,-25.757704068042081,-14.098367658498255,0.36489636019795535,663.88237106520296,830.65082915066114,-246.57267319324598,246.57267319324598,-830.65082915066114,1253.6188507375634,0.0
452154.6038362722,4640833.5216966402,-2500.0,564.72949903561357,596.01187768727175,167.64179218072456,-15.697037510885206,-16.610395372650007,0.005550589285058416,628.50006842740049,724.69152030853502,-211.50090910971119,211.50090910971119,-724.69152030853502,1148.7402791256077,0.0
457154.6038362722,4640833.5216966402,-2500.0,388.99898257182434,577.36236471926611,140.13694784156596,-8.4979650099444655,-17.361171591917586,-0.20259266757683958,590.90038080239856,630.22212579512518,-180.64880516561075,180.64880516561075,-630.22212579512518,1057.2206298650947,0.0
462154.6038362722,4640833.5216966402,-2500.0,251.42240417060901,548.51662767958101,122.09324422069122,-3.421457840737216,-17.073161128349749,-0.31488776430083798,552.59625440867308,546.94429506872552,-153.82243337472133,153.82243337472133,-546.94429506872552,975.22397089438675,0.0
467154.6038362722,4640833.5216966402,-2500.0,144.75962236668289,514.17959984054312,109.80280408572075,0.0982398874411574,-16.20623401765798,-0.36730388018212334,514.75158396894312,474.13707750704958,-130.69264607322071,130.69264607322071,-474.13707750704958,900.63342485751673,0.0
472154.6038362722,4640833.5216966402,-2500.0,62.824769764784229,477.52605276412095,100.98477407968349,2.4859420540551143,-15.048219192336383,-0.38304823749740086,478.17000833583205,410.85675102900126,-110.86942624880027,110.86942624880027,-410.85675102900126,832.25879654428525,0.0
277154.6038362722,4645833.5216966402,-2500.0,-2399.1264646617747,-973.60890222280057,-21.841538307287596,-91.367386687051308,-29.838000826417275,-2.450543384343113,1538.1751286179499,-1682.4763603682723,646.86345924207001,-646.86345924207001,1682.4763603682723,2927.3563759962967,0.0
282154.6038362722,4645833.5216966402,-2500.0,-2694.4227270779547,-1180.0774970415107,-82.646058652525255,-106.65157794812816,-37.981356669671378,-2.9230191164858086,1762.1373325899247,-1972.1121543493589,752.03989575330684,-752.03989575330684,1972.1121543493589,3354.4227563072077,0.0
287154.6038362722,4645833.5216966402,-2500.0,-3024.8563130224388,-1435.1255269079959,-171.12284587008944,-124.55677256814818,-48.474334598079821,-3.4754830442609839,2026.2176362944115,-2320.5585625461226,876.99031027117348,-876.99031027117348,2320.5585625461226,3857.8063087530136,0.0
292154.6038362722,4645833.5216966402,-2500.0,-3390.2923841598617,-1750.1933368152834,-298.64750558978113,-145.355763809943,-61.984086580759737,-4.1056060232026255,2338.1064642702922,-2739.9163715673926,1025.2001881265255,-1025.2001881265255,2739.9163715673926,4451.9751869245783,0.0
297154.6038362722,4645833.5216966402,-2500.0,-3787.2290425874494,-2138.6470070384239,-481.11992644290763,-169.1903700396239,-79.321390975936893,-4.7943108546886304,2706.6516252524093,-3243.857182626245,1200.2894641501107,-1200.2894641501107,3243.857182626245,5153.4661049776623,0.0
302154.6038362722,4645833.5216966402,-2500.0,-4206.5261059337472,-2615.2919324444292,-740.55295689885725,-195.92500666390561,-101.41870124838071,-5.4900477133162235,3141.6969629855812,-3846.891765467014,1405.5593020006293,-1405.5593020006293,3846.891765467014,5980.490650080802,0.0
307154.6038362722,4645833.5216966402,-2500.0,-4630.0831269876935,-3194.979533536155,-1106.9387196084681,-224.90756866386064,-129.24164051640349,-6.0815915324529524,3653.5930418667308,-4562.6502252346081,1643.1205597906544,-1643.1205597906544,4562.6502252346081,6951.8669919086879,0.0
312154.6038362722,4645833.5216966402,-2500.0,-5026.2541713931269,-3889.5740941567828,-1620.0854607252174,-254.60087150969548,-163.56831258736949,-6.352833220417299,4252.1377501308571,-5400.4521807278215,1912.3489845817198,-1912.3489845817198,5400.4521807278215,8084.7914230097813,0.0
317154.6038362722,4645833.5216966402,-2500.0,-5344.0657209882893,-4702.1768052935413,-2330.6069339790743,-282.05596745184209,-204.52721866723309,-5.9104578392989762,4944.5924765683321,-6359.1163607416765,2207.3324267136172,-2207.3324267136172,6359.1163607416765,9390.7446760577677,0.0
322154.6038362722,4645833.5216966402,-2500.0,-5507.0492749473206,-5617.1614537643682,-3298.2766712469434,-302.24360826835812,-250.7305694376933,-4.0761854048359343,5732.3048218550648,-7416.6823846037933,2512.960836121425,-2512.960836121425,7416.6823846037933,10868.612261210797,0.0
327154.6038362722,4645833.5216966402,-2500.0,-5409.0832172246519,-6584.6382768554013,-4584.3481424748525,-307.38569909262299,-297.80341136561054,0.2572217048733596,6605.4383108427919,-8514.8554579615557,2799.5239399802258,-2799.5239399802258,8514.8554579615557,12494.069848015253,0.0
332154.6038362722,4645833.5216966402,-2500.0,-4917.4225578043506,-7499.2914215102483,-6232.240392392353,-286.6980248605181,-336.17437656434322,8.780845972208958,7535.5415397413872,-9538.3266554026359,3016.4367925982174,-3016.4367925982174,9538.3266554026359,14204.824123747101,0.0
337154.6038362722,4645833.5216966402,-2500.0,-3891.9121577245965,-8177.7444836937011,-8229.1469798664166,-227.41007628344275,-348.35038973343495,23.845506116546126,8466.5300323318497,-10293.09266230492,3087.4887022989346,-3087.4887022989346,10293.09266230492,15883.13662382929,0.0
342154.6038362722,4645833.5216966402,-2500.0,-2232.1934431704976,-8347.7768302432887,-10442.762208401107,-118.43765510402415,-306.85432755860177,48.253106282782895,9306.5977422546766,-10496.250450871008,2913.1950621882734,-2913.1950621882734,10496.250450871008,17341.23220291215,0.0
347154.6038362722,4645833.5216966402,-2500.0,39.768904484222432,-7677.1964415987159,-12539.289850367455,41.991967590857556,-175.76228980518562,84.424630642518963,9926.9845533168955,-9802.5364320902936,2389.701752369599,-2389.701752369599,9802.5364320902936,18322.457341395071,0.0
352154.6038362722,4645833.5216966402,-2500.0,2678.1368622783425,-5881.9610043541379,-13920.847008165598,235.57986209298093,79.453971205507344,132.63797876759813,10177.679385334861,-7902.8134916599065,1454.1697347966492,-1454.1697347966492,7902.8134916599065,18539.982830971174,0.0
357154.6038362722,4645833.5216966402,-2500.0,5160.4220033439306,-2935.0613351508855,-13772.237708632447,416.34434792058039,470.57965924312805,188.61986299557358,9931.2864376223297,-4713.4356421796183,154.24275628629221,-154.24275628629221,4713.4356421796183,17778.163595610305,0.0
362154.6038362722,4645833.5216966402,-2500.0,6802.6361562806842,692.20212395213377,-11335.113533887712,518.31551183156546,960.36709274531006,242.13931660972383,9156.4766657197761,-598.59802308786595,-1294.1205534677329,1294.1205534677329,598.59802308786595,16063.490660331447,0.0
367154.6038362722,4645833.5216966402,-2500.0,7111.5079756814148,3974.6938655403205,-6422.2339999291707,486.0818878166487,1453.5381309592449,279.2964192742192,7995.9722995601169,3557.5317552557217,-2531.9769178139732,2531.9769178139732,-3557.5317552557217,13849.823766403928,0.0
372154.6038362722,4645833.5216966402,-2500.0,6203.393045783976,5712.8712270946253,112.76858098108181,312.96589260458882,1828.2221806513176,289.2953871185162,6799.8499084600462,6639.3273381917652,-3212.6990156003094,3212.6990156003094,-6639.3273381917652,12011.803967254911,0.0
377154.6038362722,4645833.5216966402,-2500.0,4873.0003164521868,5272.0363188994161,6469.293212316069,51.346536764192145,1996.802928881347,271.19295660689431,6144.4951999682098,7901.2000281968285,-3211.6495891060026,3211.6495891060026,-7901.2000281968285,11243.811206056023,0.0
382154.6038362722,4645833.5216966402,-2500.0,4074.7901578356459,3102.7222858473315,10772.922452347035,-219.49676067478944,1945.1238313886838,233.76079646438373,6258.8600970056686,7433.4014189966438,-2707.0987921145988,2707.0987921145988,-7433.4014189966438,11212.57860577529,0.0
387154.6038362722,4645833.5216966402,-2500.0,4210.3703846142753,460.60127205441961,12152.358702122689,-434.24901270301615,1719.2839981167281,188.51446106286727,6262.0016288269244,6028.1636726062652,-2037.9752159935913,2037.9752159935913,-6028.1636726062652,11011.90382603702,0.0
392154.6038362722,4645833.5216966402,-2500.0,4933.6493453864878,-1481.8523632629058,11078.483941979175,-557.63231696056505,1391.540013162695,143.81910658808707,5833.7701487665881,4559.9010265193119,-1474.8829407619276,1474.8829407619276,-4559.9010265193119,10171.718242565634,0.0
397154.6038362722,4645833.5216966402,-2500.0,5605.169247774068,-2278.1575255084927,8749.5220722335253,-585.08536728385911,1037.202649962529,104.26534044353008,5062.6011250890806,3492.1110040246176,-1111.2654145156155,1111.2654145156155,-3492.1110040246176,8790.2234912347449,0.0
402154.6038362722,4645833.5216966402,-2500.0,5811.5063639425571,-2145.3028933963697,6252.6150013129609,-538.15978392118609,716.47594359020479,72.05897635097898,4156.1056387279559,2856.7947764978712,-910.38567731238493,910.38567731238493,-2856.7947764978712,7203.0124022425134,0.0
407154.6038362722,4645833.5216966402,-2500.0,5502.3217197834965,-1536.6076794726478,4175.7038398446412,-450.55470329343353,461.43106740560205,47.709233087604701,3296.2872124575138,2495.8531219448337,-798.74352648076319,798.74352648076319,-2495.8531219448337,5710.3213499878757,0.0
412154.6038362722,4645833.5216966402,-2500.0,4840.442217852109,-822.99342420504729,2672.8009617291855,-352.18310522493539,277.28073056680887,30.433210613037204,2583.0337451362748,2255.4092229413536,-721.01274051874793,721.01274051874793,-2255.4092229413536,4476.9619673229054,0.0
417154.6038362722,4645833.5216966402,-2500.0,4026.0495597387257,-204.19965808269066,1674.247640304472,-261.60555459229545,153.54131607973184,18.776662327832987,2036.0822733006039,2048.4388076163978,-650.19323647357601,650.19323647357601,-2048.4388076163978,3544.8590885457052,0.0
422154.6038362722,4645833.5216966402,-2500.0,3208.5848023217604,252.97070717704742,1045.9045432409837,-186.76864048008224,74.872176146790864,11.202196423080938,1627.4376348596159,1843.202309688515,-578.37676015197246,578.37676015197246,-1843.202309688515,2880.7937844573289,0.0
427154.6038362722,4645833.5216966402,-2500.0,2471.6938216890703,552.77644645990904,664.20570132129137,-128.89528545177248,27.162634917340913,6.4162394993425895,1319.2702932085631,1636.5033714782166,-506.24900455841771,506.24900455841771,-1636.5033714782166,2420.2040675582534,0.0
432154.6038362722,4645833.5216966402,-2500.0,1848.9292272422069,726.37946585220561,437.56756410215382,-86.015616071915531,-0.40464917957029911,3.458554803327123,1083.1522071279169,1434.8397428380595,-436.77715842516164,436.77715842516164,-1434.8397428380595,2097.1778953075764,0.0
437154.6038362722,4645833.5216966402,-2500.0,1343.9174797705432,808.90062807568677,304.86203422874001,-55.158090979069598,-15.361558044723225,1.6673782244225823,962.84680928314253,1245.3630898057086,-372.53859692444615,372.53859692444615,-1245.3630898057086,1859.9449272550746,0.0
442154.6038362722,4645833.5216966402,-2500.0,945.5959501427692,830.29946871104346,227.62098246185209,-33.420600391329764,-22.663375598762624,0.60692217039840524,905.12932779373148,1072.876966411334,-315.02487056285298,315.02487056285298,-1072.876966411334,1674.2452535351442,0.0
447154.6038362722,4645833.5216966402,-2500.0,637.50091821639523,813.19928830189883,182.49289478706066,-18.371833654685787,-25.455468203068129,-0.0019320564028969534,844.87961323191939,919.5663896682812,-264.74220215513208,264.74220215513208,-919.5663896682812,1519.9371817748856,0.0
452154.6038362722,4645833.5216966402,-2500.0,402.65991474925147,773.53448466484247,155.63840340803867,-8.1240954184785359,-25.685727200837018,-0.33494052014338804,783.7805409137992,785.63184948323374,-221.52166764252917,221.52166764252917,-785.63184948323374,1386.0447870286309,0.0
457154.6038362722,4645833.5216966402,-2500.0,225.79258236235697,722.00777460644736,139.00148232305258,-1.2731218378810307,-24.537199273210646,-0.50157200495813448,723.7514378831886,670.03152384841587,-184.80931055408877,184.80931055408877,-670.03152384841587,1266.8062935964099,0.0
462154.6038362722,4645833.5216966402,-2500.0,94.051083391582154,665.53516423220435,127.96668980514947,3.1994252664665663,-22.715082110804193,-0.56952972814715952,666.17470381667931,571.072706064768,-153.87629790155353,153.87629790155353,-571.072706064768,1159.1817124935601,0.0
467154.6038362722,4645833.5216966402,-2500.0,-2.9523565063530799,608.41588521115659,119.93436518508294,6.0205351757716024,-20.630466153968275,-0.58041830415804585,611.90808985884905,486.81199095361865,-127.95150595137935,127.95150595137935,-486.81199095361865,1061.4662264121296,0.0
472154.6038362722,4645833.5216966402,-2500.0,-73.418756105371472,553.19755781470997,113.47108815457398,7.7041362396195536,-18.515583567361528,-0.55964413873995533,561.40061943588989,415.29833606775787,-106.29639837829632,106.29639837829632,-415.29833606775787,972.57842437630927,0.0
272154.6038362722,4650833.5216966402,-2500.0,-2251.0480601525137,-701.43547427312399,122.78246819511925,-81.769365076246231,-19.305210694358589,-2.1267267748302592,1380.1440179272197,-1375.4513440184455,547.81874279888279,-547.81874279888279,1375.4513440184455,2617.5126281248981,0.0
277154.6038362722,4650833.5216966402,-2500.0,-2549.9852456890371,-858.11327675798668,105.14446821893863,-96.01443960615174,-24.91607723769372,-2.5501775788739107,1582.5226994549444,-1615.7398841887161,638.92313297759745,-638.92313297759745,1615.7398841887161,3002.3262011517636,0.0
282154.6038362722,4650833.5216966402,-2500.0,-2894.082050149952,-1054.8238752080338,73.708449511729469,-113.01059006422462,-32.259383197617119,-3.0548165779191345,1822.7547269272727,-1907.9965689685589,748.59180626486864,-748.59180626486864,1907.9965689685589,3459.0825610295219,0.0
287154.6038362722,4650833.5216966402,-2500.0,-3288.7701171960307,-1302.6943103857116,21.646370621472407,-133.22637983043035,-41.887608049955261,-3.6461041136173513,2108.9752905709224,-2264.8172001071853,880.92248523098078,-880.92248523098078,2264.8172001071853,4003.1634148030926,0.0
292154.6038362722,4650833.5216966402,-2500.0,-3738.5986168892487,-1615.869654965006,-61.09300551457207,-157.12148542924584,-54.51455136232947,-4.3188229183996478,2451.0606647359004,-2701.7339712949743,1040.7731890604914,-1040.7731890604914,2701.7339712949743,4653.1859432620695,0.0
297154.6038362722,4650833.5216966402,-2500.0,-4245.8246340279684,-2012.0499318029665,-189.27194909212255,-185.05579212841917,-71.037434678648339,-5.0444935582220545,2860.850330496135,-3237.5467431195557,1233.7082718274371,-1233.7082718274371,3237.5467431195557,5431.3716954928259,0.0
302154.6038362722,4650833.5216966402,-2500.0,-4808.0045153457922,-2512.787462855003,-384.46424825961395,-217.11584624746897,-92.529978820839304,-5.7479250981269185,3352.2386350300108,-3894.2886264225212,1465.7195986422016,-1465.7195986422016,3894.2886264225212,6363.6316059880692,0.0
307154.6038362722,4650833.5216966402,-2500.0,-5414.0536375595584,-3143.104333241426,-677.90340056405796,-252.80376241982182,-120.1606824279018,-6.2643478823827294,3940.9589706019005,-4696.3391981661134,1742.5064484979871,-1742.5064484979871,4696.3391981661134,7479.0080283164489,0.0
312154.6038362722,4650833.5216966402,-2500.0,-6038.0956529717541,-3929.5765308186419,-1114.0688835305746,-290.5095698135284,-154.94462793303416,-6.2633198042067413,4643.7461696288319,-5667.7912907522659,2067.945713802666,-2067.945713802666,5667.7912907522659,8807.8410023477736,0.0
317154.6038362722,4650833.5216966402,-2500.0,-6630.4270515490698,-4895.3518316985756,-1754.5551144454705,-326.67029372274152,-197.15678949710986,-5.117783957036977,5476.3539260755651,-6826.5352066326013,2441.1687446596425,-2441.1687446596425,6826.5352066326013,10377.613021088797,0.0
322154.6038362722,4650833.5216966402,-2500.0,-7105.4103488781429,-6049.5942679089112,-2680.6887168318249,-354.54012693602016,-245.10931431053214,-1.6894403454327369,6449.6246357897789,-8172.6462194727656,2851.4186237518634,-2851.4186237518634,8172.6462194727656,12204.881357353568,0.0
327154.6038362722,4650833.5216966402,-2500.0,-7327.7792514074481,-7367.800368638761,-3991.0931130299241,-362.63683640088925,-292.83770918656074,5.9985669296354605,7562.5350369946109,-9667.7995455216333,3269.7607089900621,-3269.7607089900621,9667.7995455216333,14281.193286971427,0.0
332154.6038362722,4650833.5216966402,-2500.0,-7102.8484938708243,-8759.2617587588047,-5786.3222398708567,-333.35361069192527,-326.15466268134901,21.195418233033397,8791.1143134317754,-11202.527689619408,3637.2269067596817,-3637.2269067596817,11202.527689619408,16550.914063904002,0.0
337154.6038362722,4650833.5216966402,-2500.0,-6183.8078205805405,-10021.20269017793,-8126.7506726589709,-243.1858071804854,-316.85560069198715,48.839278467792454,10072.954604796569,-12551.541201914832,3851.1175079892346,-3851.1175079892346,12551.541201914832,18880.749837248037,0.0
342154.6038362722,4650833.5216966402,-2500.0,-4320.4777384247282,-10791.010685439212,-10944.893753740842,-67.669658103756348,-216.41977227880312,95.532300781013745,11289.878392956869,-13328.703235434106,3756.6600465761539,-3756.6600465761539,13328.703235434106,21026.875773139167,0.0
347154.6038362722,4650833.5216966402,-2500.0,-1381.6190352461047,-10535.749012457361,-13899.573207251007,204.33033808833179,45.314258642358148,168.12498758900676,12257.861255757001,-12978.592719277571,3161.391665771409,-3161.391665771409,12978.592719277571,22619.415165134196,0.0
352154.6038362722,4650833.5216966402,-2500.0,2437.1962713302119,-8662.1800034192183,-16201.54702250361,544.65783229229555,544.0785436812389,269.53300933590759,12744.390419374809,-10880.048108490282,1900.7025992869194,-1900.7025992869194,10880.048108490282,23207.264047833625,0.0
357154.6038362722,4650833.5216966402,-2500.0,6402.7117608165781,-4852.683997551957,-16551.435330694385,859.52765562235902,1312.5618766311768,391.46448924565379,12543.995749735135,-6653.7809415521797,-25.275617561804211,25.275617561804211,6653.7809415521797,22429.341357609985,0.0
362154.6038362722,4650833.5216966402,-2500.0,9291.756882846008,390.53721156097441,-13481.230802709353,998.94255096608322,2266.4408616544774,508.2979457910613,11631.927000913187,-656.73007624245793,-2291.0004144285081,2291.0004144285081,656.73007624245793,20361.581371657179,0.0
367154.6038362722,4650833.5216966402,-2500.0,10010.199113587571,5397.9591184980245,-6323.9609580469987,838.40499118213427,3170.2505243947826,582.32168094691053,10347.47536361848,5681.0977744923084,-4232.9781358990776,4232.9781358990776,-5681.0977744923084,17926.720862865393,0.0
372154.6038362722,4650833.5216966402,-2500.0,8588.237177935669,7907.9130329157679,3631.6152478929885,393.61211491958255,3733.1462645541037,586.09721358083766,9427.7798055282256,10283.705774279821,-5164.0245049747236,5164.0245049747236,-10283.705774279821,16697.843056188045,0.0
377154.6038362722,4650833.5216966402,-2500.0,6518.6847120294933,6659.8374191820212,13089.824895091713,-163.51833856974889,3803.2918273522801,525.16500349602734,9542.0146313415753,11717.484722237481,-4871.5925456434752,4871.5925456434752,-11717.484722237481,17176.20517633987,0.0
382154.6038362722,4650833.5216966402,-2500.0,5636.86769349326,2651.5345995040934,18577.796595312822,-641.9828851767229,3453.7040017599938,431.67774595783521,10038.08308648437,10287.338003146257,-3795.9120262168676,3795.9120262168676,-10287.338003146257,17889.499253204245,0.0
387154.6038362722,4650833.5216966402,-2500.0,6465.6383341081064,-1536.0963001766881,18851.475260826959,-950.35137275566024,2855.5483900388804,334.58254755625518,9833.7262156795605,7682.8912769677354,-2634.2921036242096,2634.2921036242096,-7682.8912769677354,17354.763240760069,0.0
392154.6038362722,4650833.5216966402,-2500.0,7960.3161992396363,-3868.6218414512373,15434.316803826487,-1069.3329452648768,2156.7060953600253,246.07479689325837,8752.9699346941488,5479.9447416384319,-1816.5662863868124,1816.5662863868124,-5479.9447416384319,15339.808264816786,0.0
397154.6038362722,4650833.5216966402,-2500.0,8832.8158813718201,-4075.128688832247,10869.798713438462,-1017.3215679025325,1484.3054750384645,170.64038867629813,7170.2676720803038,4195.2786123657479,-1379.3242856411866,1379.3242856411866,-4195.2786123657479,12504.464216040426,0.0
402154.6038362722,4650833.5216966402,-2500.0,8613.0658405437862,-3030.5355761261162,6906.6305458911347,-854.5262898608953,934.07490812232834,111.46699034495278,5545.7069148645223,3573.756741987143,-1170.2997115745045,1170.2997115745045,-3573.756741987143,9645.8409204288819,0.0
407154.6038362722,4650833.5216966402,-2500.0,7563.7975725398228,-1665.1196344469736,4111.9356704274387,-654.58501682789642,539.89813571906677,69.107586508822862,4172.2665959570058,3229.2155004081069,-1046.9153474447101,1046.9153474447101,-3229.2155004081069,7258.9860560365132,0.0
412154.6038362722,4650833.5216966402,-2500.0,6153.3490479328184,-494.23809236750992,2365.0726791292022,-469.0369066316174,284.33100990592186,41.041174352225632,3138.9226462713114,2937.1811195232563,-937.85935285176265,937.85935285176265,-2937.1811195232563,5494.6853427930555,0.0
417154.6038362722,4650833.5216966402,-2500.0,4736.5474772335974,327.87025402324412,1350.7106207044956,-319.80812954848909,130.3357163477817,23.459601390402661,2401.5144247835101,2626.9722212247661,-823.97818365067064,823.97818365067064,-2626.9722212247661,4289.4792845780294,0.0
422154.6038362722,4650833.5216966402,-2500.0,3495.4509625624437,827.87234632413436,788.58366065701136,-209.31864926384853,42.839080441407418,12.860515211359569,1875.9478520362336,2300.9312733609113,-708.03558700569886,708.03558700569886,-2300.9312733609113,3495.9580836868963,0.0
427154.6038362722,4650833.5216966402,-2500.0,2488.2084127060625,1087.8104158319143,486.62815832846434,-131.54622902175907,-4.0347429801314671,6.6417083771991505,1507.2113021007569,1980.0310111544218,-597.2255121277376,597.2255121277376,-1980.0310111544218,2966.3780066575896,0.0
432154.6038362722,4650833.5216966402,-2500.0,1707.6101644440673,1188.2294745465538,327.88048270997183,-78.56565975360401,-27.210939162769275,3.0737171662076022,1375.7088937186948,1681.9723731586384,-496.86348256785436,496.86348256785436,-1681.9723731586384,2591.08197703224,0.0
437154.6038362722,4650833.5216966402,-2500.0,1120.2710221583332,1190.9625676551516,245.48953311637538,-43.30536534696445,-37.054912540566761,1.0752600405113635,1269.5912332872085,1416.4592569039269,-409.40990128591551,409.40990128591551,-1416.4592569039269,2302.9786904135699,0.0
442154.6038362722,4650833.5216966402,-2500.0,687.21249739557129,1138.443259445884,202.67589177634594,-20.291862875745863,-39.671732825192294,-0.0071360219166114736,1164.6783952027788,1186.560290978171,-335.18616611556581,335.18616611556581,-1186.560290978171,2065.9572748328401,0.0
447154.6038362722,4650833.5216966402,-2500.0,372.78396788713883,1057.9262594901716,179.73767575381362,-5.5718251379927706,-38.564583579195734,-0.56122071264353612,1063.0479104922679,991.19221385895059,-273.28243558483575,273.28243558483575,-991.19221385895059,1861.9235550888327,0.0
452154.6038362722,4650833.5216966402,-2500.0,147.54753204270531,966.08697428224923,166.36779511998736,3.6055390517912902,-35.70066931259904,-0.81467809508553368,966.83826960125282,827.14861003465717,-222.2338625577043,222.2338625577043,-827.14861003465717,1681.9609098495571,0.0
457154.6038362722,4650833.5216966402,-2500.0,-11.55791420644533,872.66660780539496,157.31866285325475,9.1146755187148845,-32.158585906324831,-0.90041890935498015,877.40716122056881,690.41354878788684,-180.43156805523057,180.43156805523057,-690.41354878788684,1521.4551784943405,0.0
462154.6038362722,4650833.5216966402,-2500.0,-122.07103069179686,783.03567548246235,150.01973418793824,12.217761560849075,-28.510035805183932,-0.89558203095453137,795.37785853841774,576.90713074733901,-146.33990378642105,146.33990378642105,-576.90713074733901,1377.7035413805684,0.0
467154.6038362722,4650833.5216966402,-2500.0,-197.10268225052468,699.89059969314508,143.28926819175487,13.758833892618448,-25.041226333890329,-0.84462678344613262,720.83983126430348,482.85716770894328,-118.59324869901988,118.59324869901988,-482.85716770894328,1248.8270105049892,0.0
472154.6038362722,4650833.5216966402,-2500.0,-246.3556801290907,624.3379717421958,136.64670068677231,14.299859528196453,-21.880087047993975,-0.77289099276811535,653.54039492942422,404.95037759428652,-96.025353767209992,96.025353767209992,-404.95037759428652,1133.3076892692125,0.0
477154.6038362722,4650833.5216966402,-2500.0,-276.96908044063434,556.57091646287495,129.95049534006651,14.213726114388061,-19.068812173130848,-0.69452816130587958,593.02996212021242,340.36356546916249,-77.664363366405979,77.664363366405979,-340.36356546916249,1029.8058796483933,0.0
272154.6038362722,4655833.5216966402,-2500.0,-2331.5228003364277,-572.19407671824047,220.96557008556169,-83.963199830405671,-14.366683481232197,-2.1736021749168506,1400.137606888306,-1279.9329860030637,526.08344497574467,-526.08344497574467,1279.9329860030637,2645.6406927265239,0.0
277154.6038362722,4655833.5216966402,-2500.0,-2662.2848878389232,-710.25744885474592,227.85692996750234,-99.214666150516862,-18.981037322361022,-2.6149560590002805,1612.0061371727347,-1511.1292947783927,616.90043176311656,-616.90043176311656,1511.1292947783927,3046.9573350935943,0.0
282154.6038362722,4655833.5216966402,-2500.0,-3049.7694593112537,-886.66409762572687,227.89538413267991,-117.62043744565572,-25.131964364475483,-3.1420157363355026,1865.5431693701914,-1795.3802101447186,727.47870675451088,-727.47870675451088,1795.3802101447186,3527.1972099506602,0.0
287154.6038362722,4655833.5216966402,-2500.0,-3503.6411303069754,-1113.3451138236967,216.29224513726842,-139.79998527005597,-33.350033133205336,-3.7590990557963746,2170.4508955884639,-2146.8958720000046,862.7170307983755,-862.7170307983755,2146.8958720000046,4104.671896930352,0.0
292154.6038362722,4655833.5216966402,-2500.0,-4034.1727675179509,-1406.1359942046374,185.53768674549292,-166.40865384281994,-44.338480438877021,-4.4561790524678155,2538.8365820555523,-2583.9099645195438,1028.7067430402435,-1028.7067430402435,2583.9099645195438,4802.183192097661,0.0
297154.6038362722,4655833.5216966402,-2500.0,-4651.236164306044,-1785.9341959636665,123.89674546595853,-198.04465495760729,-59.006156526405803,-5.1913938284904377,2985.7100838022188,-3129.6380631998109,1232.8849806486996,-1232.8849806486996,3129.6380631998109,5647.9144933347761,0.0
302154.6038362722,4655833.5216966402,-2500.0,-5362.236936742278,-2279.976041295185,13.104241098112697,-235.04989553056834,-78.473400874313185,-5.8569559366837325,3529.4434604468061,-3813.179010224364,1484.0357925025871,-1484.0357925025871,3813.179010224364,6676.2130907213104,0.0
307154.6038362722,4655833.5216966402,-2500.0,-6168.2203186877668,-2922.9357126388218,-175.09902760184212,-277.11703534244754,-103.99588240905828,-6.2137735551452291,4192.0169552498901,-4669.9600472174516,1791.9113326693725,-1791.9113326693725,4669.9600472174516,7927.9039711416117,0.0
312154.6038362722,4655833.5216966402,-2500.0,-7056.9422460312999,-3757.0967319192623,-483.98519982915184,-322.55812485312583,-136.68455147422065,-5.7683378174932614,4998.6891492913701,-5740.8408589426645,2166.0268775506411,-2166.0268775506411,5740.8408589426645,9449.4053453992383,0.0
317154.6038362722,4655833.5216966402,-2500.0,-7991.1948470269126,-4829.9476381097711,-978.63087734147359,-367.0148189418403,-176.76737117982802,-3.545892518410366,5976.4038460141664,-7068.0798725353934,2612.8067476073529,-2612.8067476073529,7068.0798725353934,11289.274214566049,0.0
322154.6038362722,4655833.5216966402,-2500.0,-8890.3953130231148,-6185.9206903142476,-1753.8847450432211,-401.32716233860469,-221.89411313540296,2.3148019845333478,7149.7338967037067,-8684.7952386043726,3129.6756634498561,-3129.6756634498561,8684.7952386043726,13489.807351823547,0.0
327154.6038362722,4655833.5216966402,-2500.0,-9604.2342612408556,-7846.385295897484,-2940.5704469097063,-408.3386190387248,-263.58480762178294,15.248504516354942,8532.4573564770035,-10592.17498754396,3693.9552372179073,-3693.9552372179073,10592.17498754396,16069.96588867627,0.0
332154.6038362722,4655833.5216966402,-2500.0,-9881.0904280994037,-9768.8289590110307,-4701.4904685707352,-358.91056568618035,-280.41073033475851,41.3265996423997,10112.234786328341,-12716.05231328328,4244.0031719816707,-4244.0031719816707,12716.05231328328,18994.758834600496,0.0
337154.6038362722,4655833.5216966402,-2500.0,-9344.7838165768571,-11774.946342091001,-7197.9835782110667,-209.05307205282611,-226.29897112305571,90.620069052860373,11826.203063077221,-14834.149441032081,4651.426148964204,-4651.426148964204,14834.149441032081,22127.189106364644,0.0
342154.6038362722,4655833.5216966402,-2500.0,-7516.2258200656597,-13446.114296146132,-10491.156955331659,95.938948034243197,-14.049269553973293,178.14690004094359,13528.953678397727,-16474.90448833946,4690.1282529063656,-4690.1282529063656,16474.90448833946,25166.763593540047,0.0
347154.6038362722,4655833.5216966402,-2500.0,-3952.2538562880109,-14021.692849794401,-14328.103310631155,597.45606390374769,498.04072523381194,322.06787866848089,14966.044314506949,-16824.666041934739,4027.2153814338626,-4027.2153814338626,16824.666041934739,27602.833243948662,0.0
352154.6038362722,4655833.5216966402,-2500.0,1404.8672093699429,-12429.068229975133,-17790.214189208749,1262.5965780532113,1487.7842873984057,534.2402571379173,15792.698151828774,-14765.236773710578,2297.4878658105763,-2297.4878658105763,14765.236773710578,28763.962762152209,0.0
357154.6038362722,4655833.5216966402,-2500.0,7679.4825953982381,-7719.5990458857332,-18948.792991556194,1894.6192061700235,3062.0870654769933,798.52182129601385,15718.193564278597,-9286.8664483704633,-648.25589396438227,648.25589396438227,9286.8664483704633,28122.216623166081,0.0
362154.6038362722,4655833.5216966402,-2500.0,12764.451306267916,-158.42760255529899,-15098.388649892697,2115.6187075114613,5036.5067924842897,1046.4468051590502,14856.643756214642,-481.48536363015819,-4332.2461659898945,4332.2461659898945,481.48536363015819,26014.507940096715,0.0
367154.6038362722,4655833.5216966402,-2500.0,14278.947676253798,7591.1552463906974,-4452.5722046265346,1593.7849485997676,6785.2142713094954,1169.9839049933282,14090.258006755135,9380.1910920130213,-7463.8421295135186,7463.8421295135186,-9380.1910920130213,24408.57874066494,0.0
372154.6038362722,4655833.5216966402,-2500.0,11940.630762594354,11161.828139204737,11089.97053461478,439.81436965883637,7541.5527379740279,1105.1144969232785,14527.040963335639,16338.094178760941,-8613.2127877174207,8613.2127877174207,-16338.094178760941,25571.063298108849,0.0
377154.6038362722,4655833.5216966402,-2500.0,8730.8426822209876,8023.5430409886458,25323.032742219442,-757.83741697811888,7091.9415536447068,913.29680685335552,15932.661830733798,17598.057659035152,-7489.2970672037236,7489.2970672037236,-17598.057659035152,28493.272678158472,0.0
382154.6038362722,4655833.5216966402,-2500.0,8284.3288217386671,520.09103024424155,31686.64170522683,-1535.2590780999251,5962.016968638146,715.85729500092134,16738.170192672434,14113.444942313556,-5272.9144504925816,5272.9144504925816,-14113.444942313556,29943.099916659867,0.0
387154.6038362722,4655833.5216966402,-2500.0,10924.205435860502,-5885.3831315069574,28677.041595191138,-1915.4581911368921,4653.118295038088,556.68889379918255,15776.328930371967,9547.8647683392628,-3371.4592540033295,3371.4592540033295,-9547.8647683392628,28045.963830166933,0.0
392154.6038362722,4655833.5216966402,-2500.0,13694.603352004819,-7857.1380221438067,20551.778945618789,-1972.5635195749458,3300.8543099650919,412.77414297312299,13213.897479571997,6587.0629911335873,-2299.152590397,2299.152590397,-6587.0629911335873,23325.253934104046,0.0
397154.6038362722,4655833.5216966402,-2500.0,14241.936910405999,-6253.6740881000278,12474.598516982511,-1726.0482499880341,2076.024415085119,279.0223136365359,10070.064840791383,5347.368082377232,-1834.0935945183887,1834.0935945183887,-5347.368082377232,17680.552949018664,0.0
402154.6038362722,4655833.5216966402,-2500.0,12620.077037110284,-3485.3479003868283,6800.8522067243975,-1317.8437704643943,1160.7919332446072,171.92862137552368,7261.4007112055297,4856.0170977880143,-1612.9081160351609,1612.9081160351609,-4856.0170977880143,12730.93093849278,0.0
407154.6038362722,4655833.5216966402,-2500.0,10002.755029630109,-1096.4226024451073,3495.2424444882895,-911.81932529321296,578.73306389214304,98.719127976376399,5165.3608649164607,4451.5904396354235,-1430.9183167760186,1430.9183167760186,-4451.5904396354235,9115.5074354878925,0.0
412154.6038362722,4655833.5216966402,-2500.0,7354.1644238440385,478.87472527325622,1766.7299864704839,-589.24418812533543,247.56178049927524,53.822975828836285,3738.7704134694764,3953.5951146866773,-1234.7458340493931,1234.7458340493931,-3953.5951146866773,6755.5665410872753,0.0
417154.6038362722,4655833.5216966402,-2500.0,5122.572569279012,1344.4905305706034,921.094076076075,-361.4320065456543,73.549016200738748,28.026474669685914,2789.1676827548335,3395.4881011083053,-1033.3300167433772,1033.3300167433772,-3395.4881011083053,5294.6470712990022,0.0
422154.6038362722,4655833.5216966402,-2500.0,3408.5186254203813,1728.5922977647133,526.39930683579155,-210.72582866677695,-11.378017608090357,13.765875811488591,2265.1574664252157,2844.4893294813869,-844.57052322595291,844.57052322595291,-2844.4893294813869,4375.4512926325797,0.0
427154.6038362722,4655833.5216966402,-2500.0,2158.2077060786737,1825.9505520512014,349.40125739180422,-114.82139354082096,-48.714961692945458,6.087861536500208,2040.1975286678451,2344.8878198705156,-679.29920240026752,679.29920240026752,-2344.8878198705156,3749.6119660918316,0.0
432154.6038362722,4655833.5216966402,-2500.0,1274.1415169088482,1768.5800199689115,272.82413517879701,-55.38162273619286,-61.728492789172471,2.057913644180883,1839.4652198445203,1914.9920373163127,-540.83829638579937,540.83829638579937,-1914.9920373163127,3278.9224180610477,0.0
437154.6038362722,4655833.5216966402,-2500.0,662.04228995006611,1636.9005607227682,240.19423799310616,-19.382538952223406,-62.897940652686117,0.017438696970822787,1651.6764087064118,1556.5461799153059,-427.97546139542465,427.97546139542465,-1556.5461799153059,2896.2535502120027,0.0
442154.6038362722,4655833.5216966402,-2500.0,245.38257227124126,1476.7589614736401,225.27331838773699,1.8343281433071916,-58.7296737822832,-0.95083022103601167,1478.0054609239182,1263.1598477545508,-337.48500463390371,337.48500463390371,-1263.1598477545508,2570.7858050116733,0.0
447154.6038362722,4655833.5216966402,-2500.0,-33.3803446293538,1312.8305240191883,216.39227750367414,13.841531390385708,-52.529244238543825,-1.3493618846387865,1319.9130166297355,1025.4980064772087,-265.61641467918702,265.61641467918702,-1025.4980064772087,2287.9765223745535,0.0
452154.6038362722,4655833.5216966402,-2500.0,-215.88500841025174,1157.4696715378197,208.72240981740271,20.168097301142499,-45.91822729479756,-1.4521156368010175,1177.8455683400234,833.96530282184176,-208.81887661005931,208.81887661005931,-833.96530282184176,2040.0923893204094,0.0
457154.6038362722,4655833.5216966402,-2500.0,-331.66330063761495,1016.1164280200668,200.54471899453677,23.031224003754204,-39.644591247223644,-1.4077955010768419,1051.3423208047761,679.88426533379516,-164.0224673430086,164.0224673430086,-679.88426533379516,1822.1782637909005,0.0
462154.6038362722,4655833.5216966402,-2500.0,-401.44412226652202,890.46862532687192,191.48160963461766,23.818071011205387,-34.010795805684197,-1.2965257443296569,939.37100719893397,555.88365768171241,-128.69684033904971,128.69684033904971,-555.88365768171241,1630.4589655386203,0.0
467154.6038362722,4655833.5216966402,-2500.0,-439.7037418399666,780.29479333820746,181.6773805049701,23.393813422069567,-29.098309499852629,-1.1607675609430879,840.61586744045644,455.91175518360325,-100.81166382734233,100.81166382734233,-455.91175518360325,1461.7434637585468,0.0
472154.6038362722,4655833.5216966402,-2500.0,-456.52952413203337,684.44844218608262,171.431760392369,22.295891909839494,-24.88448381474328,-1.0223685254910873,753.67339401561844,375.09515750038901,-78.762643890143863,78.762643890143863,-375.09515750038901,1313.2171671702927,0.0
477154.6038362722,4655833.5216966402,-2500.0,-458.9444206721123,601.42157630618146,161.04700541432413,20.855910191802558,-21.302596878897056,-0.89193051382163324,677.16966347864741,309.55135880728807,-61.292797484827076,61.292797484827076,-309.55135880728807,1182.3717189514459,0.0
272154.6038362722,4660833.5216966402,-2500.0,-2370.6041412276904,-422.27485067556472,308.51183753528335,-84.726785124704492,-8.858309573796868,-2.1885460021390601,1406.0483564636775,-1156.1134646601674,492.89921988927745,-492.89921988927745,1156.1134646601674,2645.4705131011997,0.0
277154.6038362722,4660833.5216966402,-2500.0,-2724.7867139152063,-534.10263532509816,338.99164748212189,-100.6214172898845,-12.225131245013799,-2.6384217999676691,1624.1749486787501,-1369.5521796339362,580.20195024542716,-580.20195024542716,1369.5521796339362,3056.6958277972035,0.0
282154.6038362722,4660833.5216966402,-2500.0,-3145.7599767384932,-679.64473854641153,370.07523810898016,-119.98010154181104,-16.82159824073694,-3.1754458762987445,1886.993088723568,-1634.2016310448457,687.46583020675689,-687.46583020675689,1634.2016310448457,3552.1698885381638,0.0
287154.6038362722,4660833.5216966402,-2500.0,-3647.4636792265464,-870.47378071315075,399.59060408957532,-143.55333999444156,-23.106887559665225,-3.8015525696961152,2205.6038659381711,-1964.8577042995778,820.08320410484725,-820.08320410484725,1964.8577042995778,4152.7607595975787,0.0
292154.6038362722,4660833.5216966402,-2500.0,-4246.2742736236669,-1122.5230315584411,423.58393870162172,-172.17152689247851,-31.703165710170211,-4.4997585918590293,2594.1793372784691,-2381.1022848910607,984.99963340292845,-984.99963340292845,2381.1022848910607,4885.064938262839,0.0
297154.6038362722,4660833.5216966402,-2500.0,-4960.7234709149843,-1457.7627469259462,435.09578330528865,-206.65145754388666,-43.43210794566906,-5.2105759245875412,3070.7796127231277,-2908.8485118305407,1191.0876595604134,-1191.0876595604134,2908.8485118305407,5782.8982163787341,0.0
302154.6038362722,4660833.5216966402,-2500.0,-5810.3457785286,-1906.4127190329234,422.12469408591289,-247.57055756024243,-59.325458757662339,-5.784324328111186,3658.2726502743976,-3582.2207776183459,1449.4833894584408,-1449.4833894584408,3582.2207776183459,6888.9421856171084,0.0
307154.6038362722,4660833.5216966402,-2500.0,-6812.7693184703467,-2509.6680298605938,364.26958301763796,-294.77889064905668,-80.546145787645699,-5.8856955019360111,4385.2168243682718,-4445.5849505102742,1773.6903754741354,-1773.6903754741354,4445.5849505102742,8256.2540645498029,0.0
312154.6038362722,4660833.5216966402,-2500.0,-7977.444431124929,-3322.5733323986606,227.29137593970404,-346.40913744940337,-108.06632931178343,-4.8040327071214008,5286.3441802582465,-5555.1037543187103,2178.9974875496823,-2178.9974875496823,5555.1037543187103,9948.9089827016705,0.0
317154.6038362722,4660833.5216966402,-2500.0,-9293.2701913398232,-4415.8164310144484,-45.398981286569438,-396.96360896107387,-141.7498671479361,-1.0817986220363929,6401.8470102405954,-6978.206375922613,2680.2406978879881,-2680.2406978879881,6978.206375922613,12040.193070726244,0.0
322154.6038362722,4660833.5216966402,-2500.0,-10705.815109296354,-5873.2396649440243,-545.2005480192513,-433.79874412612537,-178.0696996425948,8.2007410871820685,7773.8578591722735,-8787.2872313698517,3285.9631699696497,-3285.9631699696497,8787.2872313698517,14605.195700043505,0.0
327154.6038362722,4660833.5216966402,-2500.0,-12078.426624038548,-7777.8547872079616,-1414.1604386575814,-431.08382840137944,-204.87900014857854,28.753695233727044,9437.1779462739123,-11040.004101093538,3985.37672265743,-3985.37672265743,11040.004101093538,17702.109935401033,0.0
332154.6038362722,4660833.5216966402,-2500.0,-13132.606655978188,-10172.051205672571,-2858.3957103640923,-340.50830825284146,-190.26233148335746,71.392672291526395,11399.574821504075,-13732.028562132156,4722.2729390592076,-4722.2729390592076,13732.028562132156,21333.369367549967,0.0
337154.6038362722,4660833.5216966402,-2500.0,-13372.887122345155,-12968.047835882644,-5139.4236306519997,-79.997195637183921,-60.704436902657264,155.5832737447883,13606.017567739329,-16700.110691988619,5348.5618958101959,-5348.5618958101959,16700.110691988619,25376.451938429047,0.0
342154.6038362722,4660833.5216966402,-2500.0,-12033.531478788909,-15779.871020474933,-8494.1672916679454,471.03578799399247,336.38299900696427,313.31706480425709,15885.424955875636,-19451.803354123495,5554.8999980156887,-5554.8999980156887,19451.803354123495,29483.721732911432,0.0
347154.6038362722,4660833.5216966402,-2500.0,-8159.5216693623388,-17674.786461215852,-12886.804959850635,1441.7860283688979,1280.8704302622543,588.20671757891512,17899.502666530956,-20928.91424135914,4802.1920102149306,-4802.1920102149306,20928.91424135914,32993.564627885309,0.0
352154.6038362722,4660833.5216966402,-2500.0,-1060.2845254585181,-16970.047204604572,-17458.25884663071,2842.1536574770298,3187.7960358288701,1014.4154235510558,19176.514237611485,-19337.566128130104,2357.6519498716443,-2357.6519498716443,19337.566128130104,35012.654391234522,0.0
357154.6038362722,4660833.5216966402,-2500.0,8580.0440229106935,-11560.262853404522,-19662.819857105249,4279.761134415462,6402.9864410433838,1550.5675233628413,19448.040288605815,-12500.619135054845,-2310.0648619744079,2310.0648619744079,12500.619135054845,35034.313979200895,0.0
362154.6038362722,4660833.5216966402,-2500.0,17342.380619686242,-763.73364235411293,-14856.445959817655,4742.8412916823154,10551.41408438279,1985.5225359818523,19497.140710900931,417.15483532558392,-8536.8360915885914,8536.8360915885914,-417.15483532558392,34370.848525759982,0.0
367154.6038362722,4660833.5216966402,-2500.0,20082.922286222398,11331.733807877867,1195.798139844936,3219.6467772274709,13869.667372890108,1983.6393269244079,21101.420528955325,15929.255448278931,-13624.549505126375,13624.549505126375,-15929.255448278931,36549.829909873908,0.0
372154.6038362722,4660833.5216966402,-2500.0,15774.288028321833,15994.673324975245,25753.253999851997,213.38567731963434,14205.923353570806,1458.7165822252232,24256.906792749593,26225.956841150342,-14429.534067480023,14429.534067480023,-26225.956841150342,42666.380765836308,0.0
377154.6038362722,4660833.5216966402,-2500.0,11110.919582188078,8365.1261019644444,46808.431956966509,-2155.5740868622083,11715.467727989477,885.71160832039379,27133.480664147552,26070.709416880534,-11041.648556241445,11041.648556241445,-26070.709416880534,48780.157967476633,0.0
382154.6038362722,4660833.5216966402,-2500.0,13238.861304246233,-5586.4011958756219,52382.350984763129,-2929.1645579478291,9086.0703068020903,715.94330021103576,27956.664495338035,18582.153112771579,-6943.4966966386128,6943.4966966386128,-18582.153112771579,50460.485949030801,0.0
387154.6038362722,4660833.5216966402,-2500.0,20408.592909719086,-14361.312601986541,41562.082184648178,-3353.4445587153145,7198.0407680985445,755.97123242333089,25311.55659607608,11465.657607047015,-4412.8687309672496,4412.8687309672496,-11465.657607047015,45357.81313124633,0.0
392154.6038362722,4660833.5216966402,-2500.0,24628.529135183191,-13444.504420652485,25000.755027442345,-3470.1788085059957,4978.7003196139622,670.31872347396938,19768.167171468074,8435.7813094931771,-3242.8060259203985,3242.8060259203985,-8435.7813094931771,35154.020472080432,0.0
397154.6038362722,4660833.5216966402,-2500.0,22762.289978929908,-7698.6844564974435,12373.292555020376,-2854.5572156740354,2807.8896542541002,459.48966217838876,13820.03101542687,7763.2369285747345,-2729.8407250346763,2729.8407250346763,-7763.2369285747345,24485.707772339534,0.0
402154.6038362722,4660833.5216966402,-2500.0,17570.522827919831,-2387.0557639494782,5479.0445865955289,-1952.5852437023616,1330.7446894377808,264.53023987439678,9225.4729492442802,7276.0354072042464,-2363.4220958698384,2363.4220958698384,-7276.0354072042464,16440.520370195631,0.0
407154.6038362722,4660833.5216966402,-2500.0,12142.686174923438,866.10006870317932,2337.9655568725739,-1191.787412709913,527.03966469259683,137.97658368706175,6229.2681115959886,6404.1462006569636,-1976.4507799498974,1976.4507799498974,-6404.1462006569636,11396.821804688714,0.0
412154.6038362722,4660833.5216966402,-2500.0,7802.1448075210619,2413.9469123792396,1049.6696155335862,-675.42616646852446,142.11193957631829,67.682218180410175,4415.4474602735654,5332.9080199709824,-1587.8052666365743,1587.8052666365743,-5332.9080199709824,8491.2704598873679,0.0
417154.6038362722,4660833.5216966402,-2500.0,4714.3020791114986,2940.9319273438487,562.21028242128045,-358.2369397132876,-25.116850700484569,31.306396566918146,3618.7723641420293,4289.8360451634544,-1239.597332081175,1239.597332081175,-4289.8360451634544,6786.7681838079816,0.0
422154.6038362722,4660833.5216966402,-2500.0,2641.603906384466,2947.1090538057729,394.06089679827875,-172.99398198992017,-88.406383541352326,13.144066522046158,3158.2652204682099,3386.7730850387475,-951.11194021622077,951.11194021622077,-3386.7730850387475,5676.4652130606009,0.0
427154.6038362722,4660833.5216966402,-2500.0,1294.8647501517178,2721.74858336744,343.15608565443955,-68.17133863822589,-104.77047424377258,4.316856371065068,2765.3694658107106,2650.8016403610836,-722.82211433495002,722.82211433495002,-2650.8016403610836,4859.3884635830591,0.0
432154.6038362722,4660833.5216966402,-2500.0,439.41891788703919,2415.1380188619441,329.44940515344217,-10.580990343501927,-101.31238173857109,0.18240252326129941,2417.9016640348118,2069.3904981901273,-546.68844293905704,546.68844293905704,-2069.3904981901273,4205.5347820697161,0.0
437154.6038362722,4660833.5216966402,-2500.0,-92.133052902584467,2099.569384623715,323.37523490040718,19.76578791739956,-90.517932940933775,-1.6189477525501497,2111.8990614578611,1617.0235364773134,-412.55990047367197,412.55990047367197,-1617.0235364773134,3659.7210180321758,0.0
442154.6038362722,4660833.5216966402,-2500.0,-412.92833029536712,1806.6541979105132,315.43313048890434,34.580485330348125,-77.944731182190253,-2.2764064107848592,1844.9363828880801,1267.2583718260262,-311.00991204106379,311.00991204106379,-1267.2583718260262,3195.9120968400766,0.0
447154.6038362722,4660833.5216966402,-2500.0,-597.62130191445704,1547.7664892571001,303.66517719147078,40.651552863627877,-65.919053153018837,-2.3881666878735652,1613.7862630029447,997.11629379366241,-234.24187945176681,234.24187945176681,-997.11629379366241,2799.0857708818926,0.0
452154.6038362722,4660833.5216966402,-2500.0,-694.97895990740415,1324.6962557460861,288.64029042546383,41.898445035941961,-55.28543521998634,-2.2543338277657043,1414.5813814178978,788.0640806612505,-176.15182707962924,176.15182707962924,-788.0640806612505,2458.6364812443871,0.0
457154.6038362722,4660833.5216966402,-2500.0,-736.75012848298968,1135.0413809393131,271.53065326048539,40.578901307018974,-46.229718716555354,-2.0240968353713074,1243.2907677722453,625.68680782133038,-132.09273435993492,132.09273435993492,-625.68680782133038,2166.09109932212,0.0
462154.6038362722,4660833.5216966402,-2500.0,-743.5941076720178,974.85794366351502,253.43767344623888,37.987873222889874,-38.663474116550404,-1.769999889250593,1096.0606827168292,498.9714743790895,-98.575753268083048,98.575753268083048,-498.9714743790895,1914.3173789077596,0.0
467154.6038362722,4660833.5216966402,-2500.0,-728.95822281175663,839.9150607125506,235.20729390279351,34.861176178830171,-32.40099233611987,-1.525598669204105,969.39546035860917,399.57238892273642,-72.997592272502743,72.997592272502743,-399.57238892273642,1697.2257421212535,0.0
472154.6038362722,4660833.5216966402,-2500.0,-701.59173623724735,726.24701436554119,217.42323147119444,31.609128412258446,-27.238080747347659,-1.3048195637572741,860.22442025703776,321.1808359591563,-53.418662329744137,53.418662329744137,-321.1808359591563,1509.6169865806401,0.0
477154.6038362722,4660833.5216966402,-2500.0,-667.17340128221406,630.35997200729628,200.45474033378972,28.452524328462935,-22.984655430161006,-1.1118416848006643,765.90323532127832,259.02384649121336,-38.392021785834928,38.392021785834928,-259.02384649121336,1347.0699479414016,0.0
267154.6038362722,4665833.5216966402,-2500.0,-2055.5784904219036,-197.66995243750188,336.11957303792184,-70.729170870467527,-1.662220839226334,-1.797953651195753,1213.3037654017055,-855.84609887462761,383.24406790647362,-383.24406790647362,855.84609887462761,2271.2215993755503,0.0
272154.6038362722,4665833.5216966402,-2500.0,-2361.8793018888091,-257.62951312177745,380.37301804250683,-83.879869343190393,-3.0087257325343839,-2.1684037508281806,1396.6194472326736,-1007.4823009501611,448.82931601284872,-448.82931601284872,1007.4823009501611,2614.8640838488209,0.0
277154.6038362722,4665833.5216966402,-2500.0,-2728.1000872910226,-336.83007335494125,431.49385113583986,-99.961800690942567,-4.9405326431395613,-2.6159276112456817,1617.1450595981842,-1194.8753256902312,529.2769553280425,-529.2769553280425,1194.8753256902312,3028.2483941275209,0.0
282154.6038362722,4665833.5216966402,-2500.0,-3168.2767774784147,-442.27822809774148,490.33864127397982,-119.67672490420608,-7.6996409075848167,-3.1484582653409259,1884.2781795089209,-1428.4960976567372,628.71632574506657,-628.71632574506657,1428.4960976567372,3528.9505933668279,0.0
287154.6038362722,4665833.5216966402,-2500.0,-3699.9859336560112,-583.86061788649079,557.56740754951977,-143.86217228868398,-11.625446878315444,-3.7641744534994155,2210.1867135692332,-1722.4230216157839,752.58991694311453,-752.58991694311453,1722.4230216157839,4139.7015032405252,0.0
292154.6038362722,4665833.5216966402,-2500.0,-4345.0883537546461,-775.64325721173009,633.29996402983875,-173.46725741157553,-17.186763743125642,-4.4370671988479113,2610.6902208694278,-2095.7221617423565,908.08677962977345,-908.08677962977345,2095.7221617423565,4890.0084240894321,0.0
297154.6038362722,4665833.5216966402,-2500.0,-5130.3840456721127,-1037.7786767260063,716.45259443870953,-209.45561878063958,-25.011624682959592,-5.0864442296743437,3106.3973937824126,-2574.3593933122756,1104.6878780704235,-1104.6878780704235,2574.3593933122756,5818.2335678738445,0.0
302154.6038362722,4665833.5216966402,-2500.0,-6087.8247574514253,-1399.2794895326729,803.48253079974654,-252.54680768054288,-35.889940531934265,-5.5132993783952244,3724.1177175152025,-3193.7982090153146,1354.7966612015143,-1354.7966612015143,3193.7982090153146,6974.1454485020258,0.0
307154.6038362722,4665833.5216966402,-2500.0,-7253.4950602974714,-1901.9553562580652,886.04993754743975,-302.61391109425853,-50.679089363542595,-5.2681225966863403,4498.4790515475979,-4002.3779406483118,1674.3256651241591,-1674.3256651241591,4002.3779406483118,8421.784275187887,0.0
312154.6038362722,4665833.5216966402,-2500.0,-8663.7031343571834,-2605.7246160622753,946.72910373230661,-357.3706201105793,-69.930656116953145,-3.3761601262066736,5473.4579941627489,-5065.3108396582229,2082.8570300391011,-2082.8570300391011,5065.3108396582229,10242.040814826176,0.0
317154.6038362722,4665833.5216966402,-2500.0,-10344.858159045318,-3595.0055658244082,951.30865525398963,-409.62972954060331,-92.786985151330029,2.2314932974361281,6703.0065421245108,-6468.3507853398005,2602.4023458755801,-2602.4023458755801,6468.3507853398005,12533.339981403919,0.0
322154.6038362722,4665833.5216966402,-2500.0,-12290.853128145862,-4984.2580550359025,835.47357315072941,-441.79253689628325,-114.067557698846,15.885433487833613,8248.8485499752715,-8318.1509988976486,3252.4861145474274,-3252.4861145474274,8318.1509988976486,15406.721161357647,0.0
327154.6038362722,4665833.5216966402,-2500.0,-14417.07653669691,-6916.3872819324206,483.34210913230669,-415.27844502694523,-117.07339264279881,46.521195756332155,10171.381210540567,-10731.55270713366,4036.6158796248051,-4036.6158796248051,10731.55270713366,18967.66195524155,0.0
332154.6038362722,4665833.5216966402,-2500.0,-16475.131419141831,-9537.6296266797617,-302.25606977200778,-251.66772501127616,-56.810192604937363,112.1578311690344,12506.155089801323,-13795.982758126236,4910.3605729534029,-4910.3605729534029,13795.982758126236,23270.898760534808,0.0
337154.6038362722,4665833.5216966402,-2500.0,-17913.635665195281,-12912.827654849825,-1826.0684517261316,196.71717213901178,176.55374573725078,247.614766483908,15214.920347256957,-17465.125625582539,5714.3492621849809,-5714.3492621849809,17465.125625582539,28229.478561145588,0.0
342154.6038362722,4665833.5216966402,-2500.0,-17699.352094259943,-16816.409498253546,-4475.8605613737591,1179.6236098324209,829.81862265047812,514.74266963419416,18104.497433210556,-21331.076071495008,6051.7067750097904,-6051.7067750097904,21331.076071495008,33472.007202434979,0.0
347154.6038362722,4665833.5216966402,-2500.0,-14218.358974912595,-20320.522327760158,-8519.6569816893516,3039.8896202931696,2405.9240292436189,1004.3655715571631,20746.283353338094,-24212.433750588953,5111.017726395934,-5111.017726395934,24212.433750588953,38227.161251434467,0.0
352154.6038362722,4665833.5216966402,-2500.0,-5647.7092268079077,-21192.570287309176,-13466.647357632646,6000.8614118979658,5773.6781925302612,1784.00924186412,22581.638514117793,-23606.204327138803,1556.1886461003141,-1556.1886461003141,23606.204327138803,41591.905205439391,0.0
357154.6038362722,4665833.5216966402,-2500.0,8312.9239403275278,-15609.149643600191,-16615.574796986853,9393.4790080695984,11879.179990322256,2679.6161993925161,23874.677320075611,-15536.927476464765,-5988.8756767288633,5988.8756767288633,15536.927476464765,43951.428345788983,0.0
362154.6038362722,4665833.5216966402,-2500.0,22638.480380845514,-371.05235705243604,-10976.478118891897,10471.49802341828,19962.101246997023,2890.9023391029273,27584.477770465386,3209.77542458669,-16706.763221398483,16706.763221398483,-3209.77542458669,48794.923586524288,0.0
367154.6038362722,4665833.5216966402,-2500.0,26006.720915163707,18886.735841864134,12826.13462086628,5935.3474225806885,24706.709493963906,1267.6953126946794,33952.070986149927,27713.280812983066,-24399.698149845412,24399.698149845412,-27713.280812983066,58879.098859013735,0.0
372154.6038362722,4665833.5216966402,-2500.0,15829.072332935846,23224.688215728562,51129.079291172144,-1674.2765633256295,20052.046192366575,-1680.135811388609,39638.807176665767,41223.329385520505,-21671.314235120015,21671.314235120015,-41223.329385520505,70735.844761393673,0.0
377154.6038362722,4665833.5216966402,-2500.0,10941.484588556987,4463.2993413474169,78987.429373955863,-4338.4255992117141,10446.35420085939,-2810.170864732745,43044.172672626635,35153.631179459509,-12374.293011175538,12374.293011175538,-35153.631179459509,78731.892511652928,0.0
382154.6038362722,4665833.5216966402,-2500.0,23891.121250039203,-19645.113273809315,79167.703084530673,-1939.762702323605,8292.9811522381315,-1339.325647603659,44222.998648473265,21842.918718762376,-8091.78970334317,8091.78970334317,-21842.918718762376,80387.367704377946,0.0
387154.6038362722,4665833.5216966402,-2500.0,41484.756602017253,-27925.004785570418,54125.367274047829,-4008.5109261154034,10583.422751977523,468.96640885744807,39768.2786478052,14270.854560378921,-7274.5520823828083,7274.5520823828083,-14270.854560378921,71303.529971289288,0.0
392154.6038362722,4665833.5216966402,-2500.0,44336.632242325148,-17948.126860193719,25406.093621998378,-5954.2545505779099,7635.3080606211433,1099.1647278726286,28879.727632622016,13364.812661114112,-5681.7256497077606,5681.7256497077606,-13364.812661114112,51546.041007640582,0.0
397154.6038362722,4665833.5216966402,-2500.0,33940.546826556201,-5208.4601905795307,9315.6119976009395,-4635.8544742073254,3598.7211654967446,781.25676157558792,18269.281904616262,13218.371608268561,-4445.0573364713346,4445.0573364713346,-13218.371608268561,32773.32102471259,0.0
402154.6038362722,4665833.5216966402,-2500.0,21562.467476288843,2096.2416682735493,3156.1218905893352,-2722.0800071953777,1305.4528378424491,404.10928304167277,11357.838009085723,11479.752955127204,-3451.8031158894664,3451.8031158894664,-11479.752955127204,20917.602485721352,0.0
407154.6038362722,4665833.5216966402,-2500.0,12304.458659879621,4877.8465261592191,1214.5460375824407,-1403.3418643654222,320.44346401599313,185.4602489127515,7693.3501561511803,9071.2893771596682,-2585.5078224968493,2585.5078224968493,-9071.2893771596682,14596.368329548523,0.0
412154.6038362722,4665833.5216966402,-2500.0,6405.9819881332032,5391.2202209744682,690.12332384105753,-659.94594519165673,-47.576047885712242,79.641778042219201,6137.0112585179813,6843.3135448575058,-1882.982889347707,1882.982889347707,-6843.3135448575058,11182.231308049548,0.0
417154.6038362722,4665833.5216966402,-2500.0,2889.4041466526919,4997.7018669012286,580.61003661926259,-271.27361793161037,-162.49084741319086,31.406590199605645,5136.7232286981762,5067.3720070085101,-1350.7579262935478,1350.7579262935478,-5067.3720070085101,9062.6266697634856,0.0
422154.6038362722,4665833.5216966402,-2500.0,864.33011487626902,4327.5584371842724,568.58395452159016,-75.996476292843809,-180.59994206324748,10.037865281814138,4334.1220865248579,3735.4892755530141,-962.62636616930331,962.62636616930331,-3735.4892755530141,7540.7618234913234,0.0
427154.6038362722,4665833.5216966402,-2500.0,-267.92884313457222,3638.4427573224289,564.01998419801703,18.137856415238247,-165.02220046083741,0.89343839049021323,3665.9270920893614,2760.3583654848176,-684.51325124768255,684.51325124768255,-2760.3583654848176,6351.2391632535491,0.0
432154.6038362722,4665833.5216966402,-2500.0,-874.85746395253307,3022.1254306523215,547.46384393669337,60.246200658700758,-140.42172843155919,-2.7337481072403116,3108.332145886397,2051.3561365943892,-486.42283151293998,486.42283151293998,-2051.3561365943892,5386.3649606917816,0.0
437154.6038362722,4665833.5216966402,-2500.0,-1175.17499254266,2501.4223862963722,519.25266705599108,75.938414319528746,-115.94685746097696,-3.8992190405033149,2644.3536291552728,1535.1292518198841,-345.29975854029908,345.29975854029908,-1535.1292518198841,4592.0913293545682,0.0
442154.6038362722,4665833.5216966402,-2500.0,-1297.9571302298207,2072.6209634766183,483.79734062745797,78.513502044157107,-94.564582829905788,-3.9996588316716783,2258.9153463643124,1157.1839894622108,-244.42527338959559,244.42527338959559,-1157.1839894622108,3933.9616022731457,0.0
447154.6038362722,4665833.5216966402,-2500.0,-1319.3753814973475,1723.371556420602,445.17957849718516,74.874737839156708,-76.848424877986858,-3.6739496418280946,1938.5953035403618,878.40438623415105,-171.98125259220808,171.98125259220808,-878.40438623415105,3386.3935479994411,0.0
452154.6038362722,4665833.5216966402,-2500.0,-1284.4788077870032,1439.8993320422217,406.26895711755458,68.59157805886305,-62.513632341351602,-3.2113240379058001,1671.8309317410815,671.0633506871734,-119.6938153100503,119.6938153100503,-671.0633506871734,2929.1197945326644,0.0
457154.6038362722,4665833.5216966402,-2500.0,-1219.9372689140739,1209.6595624087281,368.8308229328577,61.485168495040881,-51.03061615314806,-2.7383819902393078,1448.9363442804899,515.54841666395282,-81.778451853574154,81.778451853574154,-515.54841666395282,2545.7597779432181,0.0
462154.6038362722,4665833.5216966402,-2500.0,-1141.4936406011868,1022.0894313085552,333.82861084756814,54.455458212104482,-41.85889411575986,-2.3061672973297123,1261.941280615225,397.93932495172407,-54.178238941365152,54.178238941365152,-397.93932495172407,2223.0178419505273,0.0
467154.6038362722,4665833.5216966402,-2500.0,-1058.3533768691368,868.61574126513858,301.69914288197072,47.917211126508391,-34.525932648269936,-1.9309614332301466,1104.3576311646229,308.29474360493987,-34.032118898783978,34.032118898783978,-308.29474360493987,1950.1090799348895,0.0
472154.6038362722,4665833.5216966402,-2500.0,-975.79044668861673,742.40279811442861,272.55438607245685,42.031778652243325,-28.644163588741787,-1.6137148575409093,970.93198766636533,239.46000542885105,-19.308639064476608,19.308639064476608,-239.46000542885105,1718.2909696737806,0.0
477154.6038362722,4665833.5216966402,-2500.0,-896.7090222219656,638.04426729688385,246.31744058566511,36.831128136651635,-23.905167506997806,-1.3491708027472575,857.41866392686325,186.24261627171884,-8.5547787363250904,8.5547787363250904,-186.24261627171884,1520.4749858171335,0.0
267154.6038362722,4670833.5216966402,-2500.0,-1998.4618634480821,-55.490010361080842,376.56274801011961,-68.4891754568539,3.0658360390572543,-1.751721831553638,1190.0062682960731,-714.77878821520846,337.89832532911021,-337.89832532911021,714.77878821520846,2215.5576024208403,0.0
272154.6038362722,4670833.5216966402,-2500.0,-2301.5454917850761,-86.097815675363293,432.53852493627465,-81.330823635667201,2.8992884018912313,-2.1118394419273607,1371.215029963123,-839.62493917235952,395.27731181447547,-395.27731181447547,839.62493917235952,2553.0126445962596,0.0
277154.6038362722,4670833.5216966402,-2500.0,-2666.1575033325007,-128.45359569961417,499.53229313773591,-97.081298430019984,2.4961084397208935,-2.5454469493302305,1589.8463394187534,-993.98212674346996,465.75282172889871,-465.75282172889871,993.98212674346996,2960.0752645277994,0.0
282154.6038362722,4670833.5216966402,-2500.0,-3107.7164668202186,-187.34791795427827,580.13998338154329,-116.45501201857739,1.7303293729624625,-3.0580682940355501,1855.6361997577405,-1186.6700497580816,553.05354181941425,-553.05354181941425,1186.6700497580816,3454.8004988469906,0.0
287154.6038362722,4670833.5216966402,-2500.0,-3646.0651664583902,-269.75313222214135,677.59997706909928,-140.31037245315068,0.41941042275308593,-3.6429806054920304,2181.3322609965917,-1429.6808367084627,662.15301043015143,-662.15301043015143,1429.6808367084627,4060.7964239745756,0.0
292154.6038362722,4670833.5216966402,-2500.0,-4306.7643487616542,-385.92964042203846,795.90205707506186,-169.62445111097378,-1.6941734019161094,-4.26369320139775,2583.7335183282794,-1739.4910889240109,799.72119645591795,-799.72119645591795,1739.4910889240109,4809.1206909493058,0.0
297154.6038362722,4670833.5216966402,-2500.0,-5122.6416801699361,-551.14076108365339,939.83823611891819,-205.38371031410784,-4.9559906534581435,-4.8164881620831368,3085.0890827299099,-2138.9619143975233,974.72672593408447,-974.72672593408447,2138.9619143975233,5740.8165356708632,0.0
302154.6038362722,4670833.5216966402,-2500.0,-6135.4463494412757,-788.32012857391771,1114.8758733688599,-248.27986734186311,-9.7824131732787478,-5.0502712814925772,3714.9385967879211,-2660.0803712688803,1199.2013049356956,-1199.2013049356956,2660.0803712688803,6910.220193982982,0.0
307154.6038362722,4670833.5216966402,-2500.0,-7397.114839312716,-1132.2061872559484,1326.5857416234958,-297.96939146830243,-16.541492162746639,-4.3948325919227962,4512.4224434063672,-3347.8548952002861,1489.1040631497303,-1489.1040631497303,3347.8548952002861,8389.054523323508,0.0
312154.6038362722,4670833.5216966402,-2500.0,-8969.3446972182246,-1635.6498415570268,1579.0456921426198,-351.3760286631109,-25.13669818986812,-1.5905585499402843,5528.8939165113434,-4265.6462822788671,1865.0044855296833,-1865.0044855296833,4265.6462822788671,10270.935918473275,0.0
317154.6038362722,4670833.5216966402,-2500.0,-10918.367011525555,-2378.8526307886464,1871.0130971613937,-398.9288026450738,-33.776515428292669,6.114818285101264,6830.1253581157735,-5501.8404252432229,2351.7161823942101,-2351.7161823942101,5501.8404252432229,12674.891354453555,0.0
322154.6038362722,4670833.5216966402,-2500.0,-13297.973390228382,-3481.6498143971921,2187.4571577100019,-416.43804930644694,-35.590702452754549,24.707818060642769,8496.0755261018385,-7176.3663042477356,2974.5441616158323,-2974.5441616158323,7176.3663042477356,15744.035619902117,0.0
327154.6038362722,4670833.5216966402,-2500.0,-16106.307756299298,-5115.9260803748894,2482.0603862787234,-348.09063266048935,-9.7241424121609619,67.133240464097213,10613.268947967796,-9441.3605143118821,3746.3362659119807,-3746.3362659119807,9441.3605143118821,19630.375249132376,0.0
332154.6038362722,4670833.5216966402,-2500.0,-19189.093195754736,-7505.4900212546945,2644.1662972125851,-72.634338190086851,101.13415615853914,160.9304759651834,13249.321090918269,-12459.2530339443,4632.0058542553161,-4632.0058542553161,12459.2530339443,24447.580680611085,0.0
337154.6038362722,4670833.5216966402,-2500.0,-22047.077631280437,-10874.864940938682,2446.0344118317248,657.69497649487607,444.12555539649492,362.35832054525378,16391.952152763686,-16316.098569586717,5463.2476143680897,-5463.2476143680897,16316.098569586717,30164.482834429156,0.0
342154.6038362722,4670833.5216966402,-2500.0,-23512.55870636999,-15253.520043395802,1490.23137941549,2306.9529426449653,1370.9480194620594,776.12867524517628,19838.500394323724,-20780.085005566354,5758.3766834485859,-5758.3766834485859,20780.085005566354,36433.626046986603,0.0
347154.6038362722,4670833.5216966402,-2500.0,-21367.42031393258,-19963.225004908982,-738.7588555966388,5618.3282419517936,3645.9692796026161,1555.7851175879609,23089.574413826747,-24757.90414776358,4405.6406467806628,-4405.6406467806628,24757.90414776358,42524.194841147,0.0
352154.6038362722,4670833.5216966402,-2500.0,-12357.66788500322,-22591.403976680878,-4434.9139632766883,11356.248438473716,8704.2321847583717,2754.0354355972677,25564.484438264662,-25315.990920144552,-710.82229979631302,710.82229979631302,25315.990920144552,48132.172303846448,0.0
357154.6038362722,4670833.5216966402,-2500.0,5882.3372590740291,-17514.011541865806,-8027.6807623024515,18596.009241048156,18352.088505253181,3574.7699177551513,29932.791612858859,-16443.90882410232,-12393.199089757965,12393.199089757965,16443.90882410232,55989.008765521663,0.0
362154.6038362722,4670833.5216966402,-2500.0,27240.289279267734,3706.5290214043503,-4000.2683019360002,20020.033513879949,30537.016992027624,726.12100457391909,40213.33373652475,10033.542344620255,-29763.554289157466,29763.554289157466,-10033.542344620255,69941.437465527619,0.0
367154.6038362722,4670833.5216966402,-2500.0,26470.560518360926,36888.85246737182,26602.17393499257,4633.5063402082524,28186.540511250249,-9634.2871220428406,50086.641428138726,49510.527341690788,-37096.769034209006,37096.769034209006,-49510.527341690788,88535.545842633219,0.0
372154.6038362722,4670833.5216966402,-2500.0,-5687.0544983695117,35583.316133497246,84189.537883939192,-11848.886097427214,-4221.0131620912252,-20122.183725043447,63166.757498996114,59652.138558331499,-15936.806400717585,15936.806400717585,-59652.138558331499,117714.53335209051,0.0
377154.6038362722,4670833.5216966402,-2500.0,-1660.648062079714,-14619.828187051451,103636.83509008757,-636.16941939152889,-29536.15200752841,-14253.239416332774,67220.788145361963,27111.531479942874,6698.6889922504506,-6698.6889922504506,-27111.531479942874,125824.03021937204,0.0
382154.6038362722,4670833.5216966402,-2500.0,53127.802299028786,-42732.6754870363,89179.74243563955,20743.073969501904,-9765.4453620644981,-6484.3492525966431,66871.751467724476,18747.543853194838,-10274.920655052925,10274.920655052925,-18747.543853194838,118564.94635723346,0.0
387154.6038362722,4670833.5216966402,-2500.0,87544.331536228274,-38723.548644710172,56871.672978751798,-52.889316156779273,19202.78008269706,-1671.872438512024,61937.711042976633,26082.322678774253,-20180.381736686155,20180.381736686155,-26082.322678774253,108483.33149292984,0.0
392154.6038362722,4670833.5216966402,-2500.0,72696.7675169711,-10724.330846845523,17940.083551145755,-11432.317029692304,12260.095733353874,2167.9891463836916,41036.589382217491,28019.762641406654,-11183.075068223532,11183.075068223532,-28019.762641406654,72792.432753409914,0.0
397154.6038362722,4670833.5216966402,-2500.0,41264.293979585687,6822.1433875607954,4712.2858482975807,-7334.8213779652378,3957.2704234233365,1385.5220100649624,23480.576633257857,23669.223511099939,-6749.5686133758354,6749.5686133758354,-23669.223511099939,42623.001509568414,0.0
402154.6038362722,4670833.5216966402,-2500.0,19473.367101113909,11213.076649431936,1961.1566729369906,-3379.5886324284379,853.97165458014297,593.37375564504418,14888.481496330442,16989.736668946407,-4398.513997740517,4398.513997740517,-16989.736668946407,27315.804418489457,0.0
407154.6038362722,4670833.5216966402,-2500.0,7739.1183210070949,10616.749498834357,1485.5925547057514,-1360.7776543619975,-75.920722353150367,230.93504308065852,11151.533372160891,11533.934557531964,-2875.4423326367087,2875.4423326367087,-11533.934557531964,19805.184476878341,0.0
412154.6038362722,4670833.5216966402,-2500.0,1893.7601741218118,8817.0443407160237,1382.2375513921147,-451.886853139339,-301.29993262003347,83.952138194519534,8835.1362763602156,7752.4104535956039,-1873.323250311686,1873.323250311686,-7752.4104535956039,15385.612292595459,0.0
417154.6038362722,4670833.5216966402,-2500.0,-890.33016922656748,7018.1243370145075,1296.5172410653768,-62.191529597229746,-313.32757784380397,25.923390929000675,7109.8798377974399,5245.7210580216424,-1219.8703930204877,1219.8703930204877,-5245.7210580216424,12316.105267443942,0.0
422154.6038362722,4670833.5216966402,-2500.0,-2127.5266460859752,5519.5005236897123,1186.7071373034162,94.735787182121044,-268.79910769829377,3.5701760180194455,5769.7627825319632,3593.0466048038288,-794.42095721961596,794.42095721961596,-3593.0466048038288,10005.054109533879,0.0
427154.6038362722,4670833.5216966402,-2500.0,-2589.981297753769,4342.825403210687,1063.9129704473794,148.59265794064865,-216.67305139451472,-4.4520058875617492,4718.1012319290603,2493.8974027970226,-516.0718413734412,516.0718413734412,-2493.8974027970226,8208.2965832366717,0.0
432154.6038362722,4670833.5216966402,-2500.0,-2669.6761251507914,3437.3129883390411,941.25957284267417,157.69054176321063,-170.87078249597391,-6.7380710053879742,3888.5755077112553,1752.7965934611188,-332.54774266615425,332.54774266615425,-1752.7965934611188,6791.3142135547023,0.0
437154.6038362722,4670833.5216966402,-2500.0,-2566.820474959924,2743.3234850699614,826.59629703297605,148.372883992971,-134.01101282622255,-6.7990289423893024,3230.6812712516748,1245.5406179683237,-210.54039847208367,210.54039847208367,-1245.5406179683237,5663.8466703234035,0.0
442154.6038362722,4670833.5216966402,-2500.0,-2384.1340857011646,2209.7354749295928,723.41760756337794,132.53546814418246,-105.31336388595537,-6.0797419832933475,2705.5106872124338,893.16445025322673,-128.83113380563458,128.83113380563458,-893.16445025322673,4759.9217911396054,0.0
447154.6038362722,4670833.5216966402,-2500.0,-2174.1118269340286,1796.7256528550961,632.60072958070259,115.45576943812441,-83.225923194769734,-5.1680403820352119,2283.2481887460913,644.95284446075686,-73.809115830632095,73.809115830632095,-644.95284446075686,4029.8622489952577,0.0
452154.6038362722,4670833.5216966402,-2500.0,-1963.0537661089897,1474.388523216378,553.662415308307,99.351872424298591,-66.252321871675136,-4.291530665990301,1941.1431945237698,467.87720868890261,-36.653325561774693,36.653325561774693,-467.87720868890261,3435.870525153141,0.0
457154.6038362722,4670833.5216966402,-2500.0,-1763.4941564158548,1220.5664786884383,485.51015239322885,85.029689896687643,-53.164087563107657,-3.5264477292072076,1661.8491221246325,340.09864610111964,-11.579892134895374,11.579892134895374,-340.09864610111964,2949.0420051713654,0.0
462154.6038362722,4670833.5216966402,-2500.0,-1580.7303164929126,1018.8844398134577,426.85118546642406,72.656074474853995,-43.011852815891224,-2.8869513257842927,1432.107939034842,246.9551394629454,5.2490490236684622,-5.2490490236684622,-246.9551394629454,2547.1724123263903,0.0
467154.6038362722,4670833.5216966402,-2500.0,-1416.3010721117266,857.2065339221358,376.40061686014366,62.124396812151673,-35.080325625987662,-2.3635097915267052,1241.7431206888173,178.45675734261926,16.409801822652227,-16.409801822652227,-178.45675734261926,2213.1221961027577,0.0
472154.6038362722,4670833.5216966402,-2500.0,-1269.8507096648787,726.48598280784631,332.97599350557306,53.226438866796485,-28.835734361334296,-1.939254398340345,1082.897576933291,127.7009279156734,23.650678699020872,-23.650678699020872,-127.7009279156734,1933.5847203564917,0.0
477154.6038362722,4670833.5216966402,-2500.0,-1140.1336373660693,619.92993449659809,295.53289146669141,45.731604018797519,-23.880456286424746,-1.59668738761207,949.46613775592539,89.855276322140369,28.170016019398673,-28.170016019398673,-89.855276322140369,1698.1665748695432,0.0
267154.6038362722,4675833.5216966402,-2500.0,-1900.4378277707228,83.89061177394413,399.55547573175915,-64.962433496804593,7.5664443932557433,-1.6784877308851374,1154.2021338823333,-565.1679884269538,287.08861379193388,-287.08861379193388,565.1679884269538,2135.8996866101957,0.0
272154.6038362722,4675833.5216966402,-2500.0,-2189.2163208048009,83.230805582726134,462.64158125429014,-77.09889998996438,8.5522457098064368,-2.0197244405910633,1329.9427505154929,-659.87473684683903,334.44430389463719,-334.44430389463719,659.87473684683903,2460.6663632618151,0.0
277154.6038362722,4675833.5216966402,-2500.0,-2537.5009482056553,79.005031611867423,539.44188644879671,-91.980292733432591,9.6558366768828279,-2.4280606006826124,1542.220819121801,-776.36836129570702,392.41319375496096,-392.41319375496096,776.36836129570702,2852.7677104380668,0.0
282154.6038362722,4675833.5216966402,-2500.0,-2960.7126344554067,69.12715062505778,633.77327158018431,-110.27731719819231,10.876244246045763,-2.9058106588248824,1800.6912750825195,-921.07688319974477,463.99492838046336,-463.99492838046336,921.07688319974477,3329.9142664137817,0.0
287154.6038362722,4675833.5216966402,-2500.0,-3478.9959222203747,50.363602536687566,750.74108648992888,-132.78915276235188,12.203650774246194,-3.4405735771795869,2118.0810227655275,-1102.7479325366246,553.19554284879564,-553.19554284879564,1102.7479325366246,3915.4093275532323,0.0
292154.6038362722,4675833.5216966402,-2500.0,-4118.8052318381042,17.661068441863954,897.24004173518688,-160.40728503285538,13.618685992824775,-3.9850770388671819,2511.303504071951,-1333.4317228122839,665.40041520640875,-665.40041520640875,1333.4317228122839,4640.1524264736172,0.0
297154.6038362722,4675833.5216966402,-2500.0,-4914.9877521191374,-36.953871256324327,1082.6631477487904,-193.98139282910799,15.101473826609814,-4.4136277884418122,3002.997424513951,-1629.9314575512128,807.87862262885778,-807.87862262885778,1629.9314575512128,5545.3865963701792,0.0
302154.6038362722,4675833.5216966402,-2500.0,-5913.4050305581832,-126.19325918333233,1319.8966478081131,-233.95415059496642,16.672972890536233,-4.4275731441356303,3623.6246353550878,-2015.9516185729503,990.43516755361952,-990.43516755361952,2015.9516185729503,6686.408828074249,0.0
307154.6038362722,4675833.5216966402,-2500.0,-7173.9334076444638,-270.53651145447054,1626.6811122608181,-279.46402236532248,18.532496372038953,-3.3484113870279124,4414.2454588279388,-2525.272261833029,1226.1688342991083,-1226.1688342991083,2525.272261833029,8137.4106123500287,0.0
312154.6038362722,4675833.5216966402,-2500.0,-8773.0949523727322,-503.27851304199879,2027.3664842503715,-326.23589545370959,21.469699267524565,0.34153705539181733,5429.9511273985854,-3206.3615974510603,1532.10194505458,-1532.10194505458,3206.3615974510603,9997.3262832998425,0.0
317154.6038362722,4675833.5216966402,-2500.0,-10804.033222249116,-878.85072531974743,2554.8557560449494,-361.72113175308931,28.046580836290506,10.031402606367328,6743.4526496065419,-4128.7829465543091,1928.8969900787822,-1928.8969900787822,4128.7829465543091,12395.646085345472,0.0
322154.6038362722,4675833.5216966402,-2500.0,-13367.784818373186,-1486.0465969310808,3251.8000341678853,-354.03804703407474,45.925277284998643,33.31856021855976,8446.9959996587877,-5391.1092224587555,2437.3788947263438,-2437.3788947263438,5391.1092224587555,15494.733214567173,0.0
327154.6038362722,4675833.5216966402,-2500.0,-16541.117047150834,-2467.1182707165135,4168.0603027856823,-227.21889704352265,97.123271015187598,87.256219301947752,10647.530566343439,-7127.4888516255278,3065.7042495090054,-3065.7042495090054,7127.4888516255278,19479.632818398819,0.0
332154.6038362722,4675833.5216966402,-2500.0,-20288.008761682308,-4038.3806942194383,5346.3131798837385,192.21013335755308,243.22393743632509,209.6361872707219,13443.396555739075,-9501.7594544327167,3771.6102795382662,-3771.6102795382662,9501.7594544327167,24516.169030733017,0.0
337154.6038362722,4675833.5216966402,-2500.0,-24250.635819912113,-6486.8363074418985,6776.6139584260181,1281.0975534687132,650.59328272723349,480.26527523447322,16861.760258870905,-12654.657924615938,4364.2224856525963,-4364.2224856525963,12654.657924615938,30649.737939900195,0.0
342154.6038362722,4675833.5216966402,-2500.0,-27329.197940223188,-10053.495567735967,8284.6665690892823,3790.3588360619565,1739.2706444486016,1046.5654765468707,20743.597348828938,-16512.407050101796,4280.2787308947263,-4280.2787308947263,16512.407050101796,37661.049745496173,0.0
347154.6038362722,4675833.5216966402,-2500.0,-27042.623113066486,-14472.623450845316,9325.293897999396,8981.6291584579631,4434.0451199183262,2087.3407383732906,24654.302611321549,-20258.599675686259,2173.8983181819003,-2173.8983181819003,20258.599675686259,45179.041798957231,0.0
352154.6038362722,4675833.5216966402,-2500.0,-19122.487422305254,-17771.099764139792,8745.659521086005,18224.884381165066,10310.959041170352,3403.0378552596403,28004.855045684904,-21176.752130711837,-4567.1272262055954,4567.1272262055954,21176.752130711837,54028.798583015181,0.0
357154.6038362722,4675833.5216966402,-2500.0,1067.5956918355864,-13782.742725692884,4599.0772092374846,29831.027700574512,20816.274502225071,2392.0159427032522,37129.466116038035,-12407.908127369752,-19644.394694993287,19644.394694993287,12407.908127369752,67446.740244971457,0.0
362154.6038362722,4675833.5216966402,-2500.0,29101.448492826155,13107.96903174324,-3746.5769632085689,25072.92080481071,29634.668573616567,-11391.083952474666,46119.313831708183,21221.31930740528,-40985.268933408704,40985.268933408704,-21221.31930740528,80153.53764819201,0.0
367154.6038362722,4675833.5216966402,-2500.0,15700.07358757126,76257.048716802237,9552.8562065765709,-32992.194510569541,-13168.101855313209,-44247.235065752306,84410.56283690696,84261.227794737468,-25713.537380902966,25713.537380902966,-84261.227794737468,156505.66383004861,0.0
372154.6038362722,4675833.5216966402,-2500.0,-89639.671757978256,67916.108616807513,91499.673405055888,-47431.03070138632,-147386.60797362891,-43717.531449469883,173816.13504300843,63003.20370357603,70807.85102727238,-70807.85102727238,-63003.20370357603,335197.45970352035,0.0
377154.6038362722,4675833.5216966402,-2500.0,-55144.76182116376,-87581.70536999419,53581.95661550112,63800.77691021013,-128299.99506961125,3173.3125331612214,155779.39038221227,-78945.563258096459,73938.676192916086,-73938.676192916086,78945.563258096459,305757.60530604422,0.0
382154.6038362722,4675833.5216966402,-2500.0,155111.72539750198,-52326.468216477675,-42320.402979637634,119853.65677336193,-56159.985817540655,-21870.469931817628,167059.50156821334,2642.9815195615483,-41037.465110718811,41037.465110718811,-2642.9815195615483,310049.79962150648,0.0
387154.6038362722,4675833.5216966402,-2500.0,170006.96716625441,3514.2027194504294,38435.335190790836,7048.4278992863028,50172.64914787365,-26346.984120968747,112131.33200591312,92063.866507836443,-76918.150560909911,76918.150560909911,-92063.866507836443,194343.33728858002,0.0
392154.6038362722,4675833.5216966402,-2500.0,77374.672928699496,30465.238034106602,11805.972467538189,-24990.760041158217,15766.300578564011,6014.780430801944,57720.868428298039,58672.424691052627,-14752.208417012487,14752.208417012487,-58672.424691052627,100579.56288864622,0.0
397154.6038362722,4675833.5216966402,-2500.0,25445.320471947274,28871.327329829513,7647.7584292660622,-9945.6706974202716,2484.4041466741314,2339.0770871123732,32364.375943847517,34517.737264283271,-6673.6594035923281,6673.6594035923281,-34517.737264283271,57055.616830619831,0.0
402154.6038362722,4675833.5216966402,-2500.0,4067.7797349458447,21656.837434568573,5804.411506138501,-3245.6577860333673,-129.51952820724142,772.17971761211493,21923.332143047381,19667.192095730556,-3769.2070506655646,3769.2070506655646,-19667.192095730556,38187.814095557776,0.0
407154.6038362722,4675833.5216966402,-2500.0,-3803.6773537252816,15548.943260901851,4493.3244290707407,-825.0075243243125,-563.76799554109846,249.99689942533169,16123.636026068658,11434.007106539819,-2169.3344210576843,2169.3344210576843,-11434.007106539819,27927.468484008947,0.0
412154.6038362722,4675833.5216966402,-2500.0,-6279.7232787305111,11174.399092385507,3514.0494708149581,16.824742538982299,-535.95165669952519,73.178782989346189,12212.706136123179,6842.2960495619518,-1241.0371382734425,1241.0371382734425,-6842.2960495619518,21201.948900077557,0.0
417154.6038362722,4675833.5216966402,-2500.0,-6640.7389631016167,8141.8916710394069,2777.6090878561963,282.09868514849961,-427.02330142737679,12.93428871870268,9418.4061387564398,4204.8196203842544,-696.62161572221657,696.62161572221657,-4204.8196203842544,16430.673233351532,0.0
422154.6038362722,4675833.5216966402,-2500.0,-6212.2808472554752,6036.271387800567,2219.7499087553047,336.70429114572232,-324.28791619928109,-6.5692515294722469,7375.1881454524037,2640.3236991607891,-374.7393772025523,374.7393772025523,-2640.3236991607891,12932.461565374613,0.0
427154.6038362722,4675833.5216966402,-2500.0,-5535.6335473215731,4555.5052402501797,1793.3180037678917,317.5008609328554,-243.58137880299222,-11.615666875618519,5857.2332269315039,1684.31678979462,-183.15985938346182,183.15985938346182,-1684.31678979462,10318.979843220057,0.0
432154.6038362722,4675833.5216966402,-2500.0,-4829.4125932916359,3496.9864562187031,1464.073317010557,276.42088045376261,-183.48692708933697,-11.660384796390995,4713.2254493853743,1084.7442446280456,-68.836860883617589,68.836860883617589,-1084.7442446280456,8337.5785629739439,0.0
437154.6038362722,4675833.5216966402,-2500.0,-4176.6488959419667,2727.2326153227691,1207.2272573847645,232.86801918968857,-139.40219663108903,-10.171393528867242,3839.1157044881384,700.28666586530767,-0.92486600592002333,0.92486600592002333,-700.28666586530767,6815.2940522373729,0.0
442154.6038362722,4675833.5216966402,-2500.0,-3603.0781552101125,2158.0288214173333,1004.790199124131,193.53162802421426,-107.05554051541878,-8.4070062532619545,3162.3835025062535,449.16894244444808,38.772050860478373,-38.772050860478373,-449.16894244444808,5631.0169001794911,0.0
447154.6038362722,4675833.5216966402,-2500.0,-3110.7428240600952,1730.4101933802617,843.63264639121655,160.13860573793497,-83.160636694486328,-6.7928043365975874,2631.8885204556263,282.67384646099822,61.15499768332576,-61.15499768332576,-282.67384646099822,4698.7281015652943,0.0
452154.6038362722,4675833.5216966402,-2500.0,-2692.6150033967924,1404.3837503802624,714.10050337637858,132.55658404507045,-65.338185850207253,-5.4410547356726795,2211.1359061311973,171.00380371842044,72.853461981580111,-72.853461981580111,-171.00380371842044,3956.5868306735183,0.0
457154.6038362722,4675833.5216966402,-2500.0,-2338.9349759352726,1152.395563376605,609.03375901321056,110.04398551678196,-51.900864067629392,-4.3510181590468129,1873.7605253900681,95.497454291104091,77.954238328697969,-77.954238328697969,-95.497454291104091,3359.6098196504431,0.0
462154.6038362722,4675833.5216966402,-2500.0,-2039.8774144476806,955.16362710578721,523.07444432801435,91.744021029257368,-41.657147347123839,-3.486519312189178,1600.4827303311238,44.218300932977911,79.006076099901222,-79.006076099901222,-44.218300932977911,2874.7013396017182,0.0
467154.6038362722,4675833.5216966402,-2500.0,-1786.567498493195,798.98703069649935,452.17517596611162,76.86611656735451,-33.762600034869713,-2.8052183606618213,1377.0316897661994,9.3856989919259561,77.613096878536425,-77.613096878536425,-9.3856989919259561,2477.2318546354686,0.0
472154.6038362722,4675833.5216966402,-2500.0,-1571.3756196372126,673.98952937426941,393.25058264743643,64.739706155841603,-27.614393870526076,-2.2687447444801871,1192.7215362461359,-14.157757808865405,74.791166466241975,-74.791166466241975,14.157757808865405,2148.6719221333424,0.0
477154.6038362722,4675833.5216966402,-2500.0,-1387.9030808425482,572.95410507739257,343.92730721718578,54.817581542316667,-22.778226245066811,-1.8453666833549898,1039.4613717063119,-29.882153641069255,71.18539047026583,-71.18539047026583,29.882153641069255,1874.9336721836323,0.0
482154.6038362722,4675833.5216966402,-2500.0,-1230.8508996188557,490.53892122873259,302.36367729703932,46.661525075217391,-18.93806949215265,-1.5099333144485121,911.0601007786878,-40.153467781249915,67.204757008535807,-67.204757008535807,40.153467781249915,1645.1978013843509,0.0
267154.6038362722,4680833.5216966402,-2500.0,-1764.4934133711824,213.42989390376752,405.06227983499025,-60.261667665964346,11.612455907868958,-1.5805858625915465,1106.6583616218873,-413.41847274297191,232.98828116713179,-232.98828116713179,413.41847274297191,2034.2202176194687,0.0
272154.6038362722,4680833.5216966402,-2500.0,-2028.3655414493619,240.94660730358942,470.37421953552388,-71.324704353793166,13.637530465557933,-1.8952152808947824,1273.7119831861899,-476.66789866274701,269.16528262633778,-269.16528262633778,476.66789866274701,2340.2234481547634,0.0
277154.6038362722,4680833.5216966402,-2500.0,-2346.0682232958666,272.82535475526481,550.41441732321584,-84.83346354267583,16.103531331775162,-2.2681270891392424,1475.3303229579888,-553.26309629281536,312.98903561394792,-312.98903561394792,553.26309629281536,2709.2256144530024,0.0
282154.6038362722,4680833.5216966402,-2500.0,-2731.5220492074759,309.74113765025737,649.53082446329722,-101.35903315066336,19.125442283129104,-2.6979415143607803,1720.6490853652128,-646.82564027631997,366.49390237374621,-366.49390237374621,646.82564027631997,3157.7583789322057,0.0
287154.6038362722,4680833.5216966402,-2500.0,-3202.9534174367013,352.3723207639427,773.67966760912645,-121.56090432712259,22.854470584227215,-3.1664544826502441,2021.7320924951637,-762.17847360339329,432.34951862644743,-432.34951862644743,762.17847360339329,3707.5956491467173,0.0
292154.6038362722,4680833.5216966402,-2500.0,-3784.3873879588446,401.28447199513596,931.14680532166221,-146.12994713005872,27.493858681765985,-3.6166843856517534,2394.653986941792,-905.81105741156125,514.0714053105828,-514.0714053105828,905.81105741156125,4387.6592409707473,0.0
297154.6038362722,4680833.5216966402,-2500.0,-4507.653412066793,456.68793533994216,1133.6491366020473,-175.6174565295523,33.326953025562254,-3.9054212866580862,2861.01264373085,-1086.5417983848765,616.28554754023514,-616.28554754023514,1086.5417983848765,5236.657668063317,0.0
302154.6038362722,4680833.5216966402,-2500.0,-5415.0055709029339,517.9512121102199,1398.0444876954248,-209.99868882635383,40.773394063821321,-3.6996824492331637,3450.0265185565827,-1316.4588734092542,745.02666207383322,-745.02666207383322,1316.4588734092542,6306.7020502203732,0.0
307154.6038362722,4680833.5216966402,-2500.0,-6562.334978964569,582.64554882742948,1749.0259527877481,-247.62333447508024,50.515757771308614,-2.2472160737069551,4201.3824972559551,-1612.2369747480902,907.97650934249259,-907.97650934249259,1612.2369747480902,7668.1320954138509,0.0
312154.6038362722,4680833.5216966402,-2500.0,-8022.5244632795293,644.69485628424968,2223.4135467139749,-282.74686016355702,63.814171143071789,2.1412854489208142,5168.9157578324393,-1996.910394908793,1114.3426381411568,-1114.3426381411568,1996.910394908793,9415.5842490164378,0.0
317154.6038362722,4680833.5216966402,-2500.0,-9887.2778159549071,690.84260122613603,2877.0110519625005,-299.75199655357306,83.346856892321497,13.282659810909875,6424.8426173446869,-2502.0433592342702,1373.5210143984255,-1373.5210143984255,2502.0433592342702,11674.619417520975,0.0
322154.6038362722,4680833.5216966402,-2500.0,-12262.539896670089,694.06222436905375,3795.3878802952722,-259.60020346488761,115.57549831453008,39.892302692798246,8063.1758288144929,-3169.7178358365773,1690.1963337455791,-1690.1963337455791,3169.7178358365773,14606.256596746867,0.0
327154.6038362722,4680833.5216966402,-2500.0,-15244.712796303225,601.86292733580115,5109.8113051023392,-68.139330856233215,177.63041357855971,101.99835191629217,10198.280319052526,-4052.1789246901035,2049.6301692700445,-2049.6301692700445,4052.1789246901035,18402.404627234391,0.0
332154.6038362722,4680833.5216966402,-2500.0,-18847.015656834847,317.93307483535398,7016.2941636942187,496.36337154910217,317.5819730512859,245.00029341715484,12949.632558367864,-5202.5329959334158,2377.0428543484581,-2377.0428543484581,5202.5329959334158,23258.935773942732,0.0
337154.6038362722,4680833.5216966402,-2500.0,-22812.05785846775,-317.15392456512865,9779.2739487133167,1936.1171163096835,672.2202515680508,564.73091544903184,16402.276924144076,-6638.1776206600152,2433.0806913011515,-2433.0806913011515,6638.1776206600152,29320.496778339962,0.0
342154.6038362722,4680833.5216966402,-2500.0,-26215.050600130067,-1506.2230150296032,13638.533228377604,5283.0032296799036,1609.5732719752348,1218.0310165847961,20568.091406090021,-8228.6844679797287,1576.8757582815169,-1576.8757582815169,8228.6844679797287,36686.293954557405,0.0
347154.6038362722,4680833.5216966402,-2500.0,-26866.95214998033,-3284.9045528516049,18354.123408472147,12163.294872298949,3922.9754425829678,2231.4851064360332,25469.199984966624,-9391.629072957985,-1604.6535054012566,1604.6535054012566,9391.629072957985,45805.898362639055,0.0
352154.6038362722,4680833.5216966402,-2500.0,-21192.824353445936,-4817.8111785518277,21808.638982345663,23412.878615815014,8299.5067349902019,2512.4284089837201,31109.547634618255,-8494.4801634515698,-9148.124912719717,9148.124912719717,8494.4801634515698,57554.081567222122,0.0
357154.6038362722,4680833.5216966402,-2500.0,-5970.9257898637834,-3579.3506575226652,16241.974475852256,33835.950686318058,12543.738664699962,-2918.1025493901775,36506.224343284783,-2669.4167888225966,-21449.312980930186,21449.312980930186,2669.4167888225966,66181.618889061298,0.0
362154.6038362722,4680833.5216966402,-2500.0,21206.040029482338,10855.198118199392,-24538.730187387155,7063.2389299205024,10772.854175989067,-30266.152628976455,31904.298011718034,17796.743736863136,-31859.617969699699,31859.617969699699,-17796.743736863136,56909.789719651424,0.0
367154.6038362722,4680833.5216966402,-2500.0,13703.177542370946,94684.32606109888,-122799.93234356247,-167635.08322634085,-53963.977312118201,-52972.641174960103,193457.94447043742,72175.002915973018,48598.650418286845,-48598.650418286845,-72175.002915973018,365942.02810406947,1.0
372154.6038362722,4680833.5216966402,-2500.0,-214230.71722557701,144056.23168963564,-75064.554981369438,-128729.74604055699,-317421.75470987119,195214.91088990425,390646.17894783174,-56546.956117082096,355976.76288177288,-355976.76288177288,56546.956117082096,737748.13702665176,0.0
377154.6038362722,4680833.5216966402,-2500.0,-85663.18260947548,-86444.920817495295,-68714.228423285094,357179.63785764412,-35651.170192516278,47200.833325471867,374394.89356189279,-179201.99014280178,-58512.720548972415,58512.720548972415,179201.99014280178,651652.72927638574,0.0
382154.6038362722,4680833.5216966402,-2500.0,-729400.46037533705,-589834.3220326124,-620693.62552862382,220591.05589183437,68602.929553086826,734166.99406811746,1028038.0431629908,-1202456.8048818901,593175.1395837504,-593175.1395837504,1202456.8048818901,1788452.1223903392,0.0
387154.6038362722,4680833.5216966402,-2500.0,-430624.53629486036,53653.703077854159,145963.74461374336,-74373.839889987503,85997.148672800904,13449.335232492826,319528.87422005145,-81152.944751779185,39639.404691245552,-39639.404691245552,81152.944751779185,566590.63825256203,0.0
392154.6038362722,4680833.5216966402,-2500.0,-31263.169684648499,59816.021477656395,49072.987075817684,-35913.065433782896,5169.0224792335621,14627.158020485274,79785.421399413288,47116.07796070422,10059.188715497887,-10059.188715497887,-47116.07796070422,139844.33546837111,0.0
397154.6038362722,4680833.5216966402,-2500.0,-26411.902334610793,37215.134013789473,24989.697344061249,-8695.7829275418044,-656.19228379207721,3010.6740970522796,46033.933258685065,25058.546782773701,655.9318682084413,-655.9318682084413,-25058.546782773701,79865.419577246867,0.0
402154.6038362722,4680833.5216966402,-2500.0,-24550.146213156255,23629.94876810634,14733.104797246462,-1646.9965892311766,-1065.3144276060484,801.50193563043774,30797.257299729419,12304.618779712615,-145.74237739291766,145.74237739291766,-12304.618779712615,53634.41647099176,0.0
407154.6038362722,4680833.5216966402,-2500.0,-20730.501753526616,15583.216755779005,9464.1438193449867,266.28998356782159,-857.27681470107893,216.23086639453467,21718.041375227898,6142.4940313886054,-2.4162868369216994,2.4162868369216994,-6142.4940313886054,38064.819668605713,0.0
412154.6038362722,4680833.5216966402,-2500.0,-16825.405880202296,10652.205664083705,6453.0915743594142,710.62790856240031,-623.27696744238096,43.293212572846443,15801.596780322487,3094.4001959518091,169.24154995192453,-169.24154995192453,-3094.4001959518091,27872.070950491288,0.0
417154.6038362722,4680833.5216966402,-2500.0,-13495.20299806539,7517.5454888864606,4600.6777997394156,723.20871136995663,-444.77061803042051,-7.3494588084636714,11786.759868275401,1531.465315104499,267.23329433812989,-267.23329433812989,-1531.465315104499,20904.820756016736,0.0
422154.6038362722,4680833.5216966402,-2500.0,-10829.621314264699,5455.8701377422622,3396.2098464649325,622.25482240456836,-318.96848404626991,-19.62114809658183,8984.2142376999218,705.82084519021919,306.83845052782618,-306.83845052782618,-705.82084519021919,16006.733625195331,0.0
427154.6038362722,4680833.5216966402,-2500.0,-8742.8821393741455,4057.7731341908775,2578.3267394784598,506.63583941288255,-231.745411969413,-19.976119820796942,6980.5375033347673,261.10768292434506,311.78799026014377,-311.78799026014377,-261.10768292434506,12483.2986298306,0.0
432154.6038362722,4680833.5216966402,-2500.0,-7117.3080193582337,3083.4617839245361,2003.1601985830093,404.6746591762589,-171.01771528681823,-17.078009844511627,5517.0375366360258,20.099091919452434,298.60897877145317,-298.60897877145317,-20.099091919452434,9896.5155582945554,0.0
437154.6038362722,4680833.5216966402,-2500.0,-5847.1896666817856,2387.8053674312619,1586.8132879403911,321.81821375069723,-128.23222343196355,-13.743238734542583,4427.1928230607409,-108.92444371309422,277.09826742925566,-277.09826742925566,108.92444371309422,7961.9415968566555,0.0
442154.6038362722,4680833.5216966402,-2500.0,-4848.1406567538024,1880.259028238934,1278.0080575933678,256.52976279191193,-97.642400026941203,-10.807144300555684,3601.2407926557767,-175.11740018592201,252.6751440009711,-252.6751440009711,175.11740018592201,6490.5635976456033,0.0
447154.6038362722,4680833.5216966402,-2500.0,-4055.7281275764385,1502.7426333392314,1044.1545099310551,205.62462036568982,-75.433269228326964,-8.4365879386704794,2965.2528443082283,-205.61568727646591,228.18670488045893,-228.18670488045893,205.61568727646591,5354.1835162077932,0.0
452154.6038362722,4680833.5216966402,-2500.0,-3421.5675063740814,1217.04736880819,863.84471033422915,165.98220270148062,-59.06323155786982,-6.5876036429209224,2468.4294402860032,-215.7710346202345,205.03215322124646,-205.03215322124646,215.7710346202345,4464.1883442311209,0.0
457154.6038362722,4680833.5216966402,-2500.0,-2909.4679314251985,997.45307541999318,722.61233496612476,135.00513016056973,-46.821701750089979,-5.1646516360456731,2075.2082074433561,-214.43814471845039,183.81650314518677,-183.81650314518677,214.43814471845039,3758.233076344955,0.0
462154.6038362722,4680833.5216966402,-2500.0,-2492.2938445209343,826.28093787705563,610.43868154858023,110.65973335097837,-37.542345911787422,-4.0732701383377332,1760.2595302108364,-206.79673999852616,164.72036713833222,-164.72036713833222,206.79673999852616,3191.7226422107683,0.0
467154.6038362722,4680833.5216966402,-2500.0,-2149.5855646883115,691.14650958884556,520.23472025087233,91.394133291037917,-30.418684769510854,-3.2347176345359392,1505.25230201111,-195.90261887128364,147.70639659601144,-147.70639659601144,195.90261887128364,2732.265786405223,0.0
472154.6038362722,4680833.5216966402,-2500.0,-1865.8025746015201,583.222002100689,446.88759603958954,76.035699877178743,-24.885113988658258,-2.587526160742752,1296.7216582112385,-183.56170462951826,132.63303265516271,-132.63303265516271,183.56170462951826,2355.9950795071104,0.0
477154.6038362722,4680833.5216966402,-2500.0,-1629.04514307204,496.11429806261037,386.64672575170562,63.700130521971445,-20.539439287624468,-2.0850289280760417,1124.6410665466178,-170.83390707682324,119.3164797302326,-119.3164797302326,170.83390707682324,2045.0891339713614,0.0
482154.6038362722,4680833.5216966402,-2500.0,-1430.1256272067164,425.12574388131884,336.71868826640963,53.719078598866666,-17.091851385967082,-1.692265994896625,981.44966288004889,-158.32943422951854,107.56364031773929,-107.56364031773929,158.32943422951854,1786.0768866297969,0.0
267154.6038362722,4685833.5216966402,-2500.0,-1596.3126052946213,326.7163704645622,394.5889501679232,-54.580225490711847,15.004207404184388,-1.4618243958662394,1048.6983578830004,-266.04116666437267,178.00715764667419,-178.00715764667419,266.04116666437267,1913.6066101491463,0.0
272154.6038362722,4685833.5216966402,-2500.0,-1826.2635288557033,378.40388321691597,457.59723305324457,-64.265036751291433,17.878512630298683,-1.7435803964364216,1204.210849356969,-298.68136250310152,202.63749970420446,-202.63749970420446,298.68136250310152,2195.6458975653027,0.0
277154.6038362722,4685833.5216966402,-2500.0,-2101.2194651283939,441.18588533763682,534.73716071655394,-75.985147243485002,21.451049558892475,-2.0730443956503302,1391.3418387888937,-336.38140321015737,231.77430726154503,-231.77430726154503,336.38140321015737,2534.5730881771055,0.0
282154.6038362722,4685833.5216966402,-2500.0,-2432.2651045574426,518.08635916252774,630.18986658130814,-90.166534188389662,25.926121388361274,-2.4450497089636105,1618.3070115217124,-379.95672913431412,266.39274015839845,-266.39274015839845,379.95672913431412,2945.0107593822431,0.0
287154.6038362722,4685833.5216966402,-2500.0,-2833.7020293395167,613.12891395625491,749.70463272852112,-107.26428590138769,31.576830292678029,-2.8361717401697919,1895.9124223104363,-430.26958905002152,307.67451226768731,-307.67451226768731,430.26958905002152,3446.1210949477895,0.0
292154.6038362722,4685833.5216966402,-2500.0,-3324.0555214234241,731.72231251904384,901.32367926084373,-127.67804571752583,38.770440560414343,-3.1822313583057347,2238.4972895471201,-488.12987920044446,357.01612191904798,-357.01612191904798,488.12987920044446,4063.2187966521305,0.0
297154.6038362722,4685833.5216966402,-2500.0,-3927.3506088403783,881.21230757443698,1096.5101335792699,-151.53906400213904,48.003441719101794,-3.3300118879811973,2665.2460540052261,-554.07315482382842,415.98357770822963,-415.98357770822963,554.07315482382842,4829.9888222567643,0.0
302154.6038362722,4685833.5216966402,-2500.0,-4674.6259754321954,1071.6752695720711,1351.9430953593451,-178.20770496378717,59.950173728821362,-2.9324851872963107,3202.0015615425796,-627.89006776761687,486.13157041961819,-486.13157041961819,627.89006776761687,5791.5016199464599,0.0
307154.6038362722,4685833.5216966402,-2500.0,-5605.4569654474335,1317.0613093536517,1692.442087720859,-205.11508579389181,75.531713099391254,-1.2165734760739273,3883.7220735186447,-707.65062370708324,568.49773377571523,-568.49773377571523,707.65062370708324,7008.2054409844186,0.0
312154.6038362722,4685833.5216966402,-2500.0,-6768.7290835580852,1636.831306361317,2155.8419327727697,-225.09937854428554,96.021547525013872,3.5422475548478238,4757.6650601883939,-787.69671597512422,662.33139044112238,-662.33139044112238,787.69671597512422,8560.9187679391071,0.0
317154.6038362722,4685833.5216966402,-2500.0,-8220.5529572384257,2058.269042452032,2801.2906201260571,-220.22860468757312,123.24182307488003,15.235172546955772,5887.1228831096842,-854.5043694428839,762.01659390363943,-762.01659390363943,854.5043694428839,10556.332477189999,0.0
322154.6038362722,4685833.5216966402,-2500.0,-10013.915914916164,2619.6543888113551,3723.5594132736251,-147.29525054663557,160.05194831343036,42.770678551992461,7354.8211157470132,-878.13133274000859,849.69444556540009,-849.69444556540009,878.13133274000859,13131.313512828519,0.0
327154.6038362722,4685833.5216966402,-2500.0,-12167.054483088834,3374.4241692178052,5077.5566491412155,96.506469003946151,211.90142288045897,106.70671309851194,9263.7690747913584,-794.59868960068377,877.54524745891183,-877.54524745891183,794.59868960068377,16452.61227285504,0.0
332154.6038362722,4685833.5216966402,-2500.0,-14581.874916362804,4396.387125598174,7117.740217657054,753.58794322566246,292.29965791669372,253.52666278843924,11733.59043881455,-470.37623472834309,725.2905434786868,-725.2905434786868,470.37623472834309,20711.943251708919,0.0
337154.6038362722,4685833.5216966402,-2500.0,-16861.628803368425,5786.8116211920269,10246.224698706827,2377.1311798001207,441.4882846432086,576.96174315545409,14909.033093619928,364.96376987142048,101.11213487525993,-101.11213487525993,-364.96376987142048,26157.522126403637,0.0
342154.6038362722,4685833.5216966402,-2500.0,-17998.166792467997,7690.4068023745685,14990.841413803253,6084.7706051083678,775.76369372328293,1182.7217118274166,19091.870785749641,2231.4957168569549,-1661.5555306282845,1661.5555306282845,-2231.4957168569549,33372.570416582588,0.0
347154.6038362722,4685833.5216966402,-2500.0,-16232.894886395114,10360.948984917331,21519.072679755172,13243.641234536948,1470.3136780812404,1668.6033270461178,25065.237949866809,6053.5343808480575,-5797.3249704354021,5797.3249704354021,-6053.5343808480575,43869.958644265782,0.0
352154.6038362722,4685833.5216966402,-2500.0,-11074.915449354929,14325.206361924065,27569.728825470218,21406.439568087259,1302.1813525753691,-906.22992235389529,32272.811553997752,12931.662457325194,-12507.782339492351,12507.782339492351,-12931.662457325194,56562.125731340071,0.0
357154.6038362722,4685833.5216966402,-2500.0,-14845.014126810591,16821.996750468446,24388.868243186171,17397.828019640765,-9591.1435317206815,-10546.17896293492,33532.69832844138,15797.884868897207,-10401.686342165805,10401.686342165805,-15797.884868897207,58498.543593844464,0.0
362154.6038362722,4685833.5216966402,-2500.0,-51836.276428478108,-16224.946834209655,-21660.122624513202,-7381.1250101526548,-24834.592259453431,-34034.000516731256,34084.602327265675,-28032.844636651436,9109.9284561240456,-9109.9284561240456,28032.844636651436,59108.186461015845,0.0
367154.6038362722,4685833.5216966402,-2500.0,-85744.798560078052,-97219.72252865661,-224158.88211452222,-173482.05405073485,89261.21947157837,-83015.162285204889,205753.84057898552,-131166.62348637596,14129.138021962659,-14129.138021962659,131166.62348637596,402603.42525508424,1.0
372154.6038362722,4685833.5216966402,-2500.0,-63831.253709343189,230527.07901755176,-310517.46536850627,-157610.26806853339,177533.97329952978,456797.17907722719,511440.12632022786,-88752.375329505579,215903.62328369386,-215903.62328369386,88752.375329505579,888170.04854040698,0.0
377154.6038362722,4685833.5216966402,-2500.0,-229301.53553251101,-217622.98567553159,-309543.83080231922,470978.36225804768,385724.61954170302,715866.84365988127,856256.12184507283,-644930.07538742258,127558.83325369548,-127558.83325369548,644930.07538742258,1493156.4426840115,0.0
382154.6038362722,4685833.5216966402,-2500.0,-252136.69969695821,-80464.138728965423,-393405.27952269121,-98792.704660980526,91103.090653850944,-11476.764332635257,243888.91535644396,-273993.63952856197,57776.622003044555,-57776.622003044555,273993.63952856197,430667.4484475691,0.0
387154.6038362722,4685833.5216966402,-2500.0,-144437.46809845406,-76483.375056607358,-4619.4977252184772,-95642.180595286016,-20487.63717897085,71895.29835123154,159794.38933591964,-128911.49259749404,133391.55584496394,-133391.55584496394,128911.49259749404,286970.99555109622,0.0
392154.6038362722,4685833.5216966402,-2500.0,-110588.44423580397,2410.6989872579825,53117.799559838226,-22884.127981778023,-4302.2775309266799,12057.700307559553,84223.498732801498,-26713.529727419856,33517.505058815121,-33517.505058815121,26713.529727419856,152996.35458061882,0.0
397154.6038362722,4685833.5216966402,-2500.0,-75288.018487255889,13683.504277679383,34219.997790711059,-3485.4727133823785,-1810.8635208801845,2533.0542187409715,56577.722030916309,-9473.8461232988029,11385.673200918403,-11385.673200918403,9473.8461232988029,100668.22635629938,0.0
402154.6038362722,4685833.5216966402,-2500.0,-51951.306226012442,11902.950942097254,20662.642064182801,842.64578958318214,-1079.5860834825107,620.09908675009433,38237.370328846417,-5697.7931852029214,5384.58825634813,-5384.58825634813,5697.7931852029214,68189.35571943059,0.0
407154.6038362722,4685833.5216966402,-2500.0,-36791.516699955129,8952.1272445866925,13014.358188458677,1585.1322166780471,-703.19864361920872,130.90424317435753,26505.970390846964,-4194.8930742372595,3160.4637853791464,-3160.4637853791464,4194.8930742372595,47480.311789953041,0.0
412154.6038362722,4685833.5216966402,-2500.0,-26726.833997164707,6586.8617153902933,8614.2555922358933,1459.3878840838074,-478.00630664011294,-0.80020647660172806,18901.89951060446,-3265.5903342169959,2118.0905518685931,-2118.0905518685931,3265.5903342169959,33999.727819942971,0.0
417154.6038362722,4685833.5216966402,-2500.0,-19878.025457218868,4879.7699981414344,5958.3405013965048,1171.5038115172197,-334.69628593171228,-31.63118516462723,13845.478667217447,-2589.8704923077821,1535.9529172593138,-1535.9529172593138,2589.8704923077821,24990.563423710486,0.0
422154.6038362722,4685833.5216966402,-2500.0,-15104.51841816245,3669.089203185255,4277.305004841869,902.54300025753946,-240.03447248153412,-33.673961256138547,10390.222746877154,-2076.8911568373737,1168.6642635681369,-1168.6642635681369,2076.8911568373737,18806.600802221881,0.0
427154.6038362722,4685833.5216966402,-2500.0,-11701.131521262623,2805.0370294358122,3167.6918417330558,688.4026696930689,-175.76510833149692,-28.451216099864126,7966.8646340638152,-1682.1998702647211,917.5480698567668,-917.5480698567668,1682.1998702647211,14453.145855234328,0.0
432154.6038362722,4685833.5216966402,-2500.0,-9222.8374511416041,2179.7636186378645,2408.2736412713357,526.31305248664171,-131.12296765095041,-22.372851052245572,6226.0784628870997,-1375.9986470764829,736.57240257324429,-736.57240257324429,1375.9986470764829,11316.199561738851,0.0
437154.6038362722,4685833.5216966402,-2500.0,-7382.8049875827355,1719.9798736694602,1872.1298682852287,405.47725902953283,-99.482642797354998,-17.154690480636287,4948.2136357394866,-1136.4658772573721,601.38501182992366,-601.38501182992366,1136.4658772573721,9007.5483858641364,0.0
442154.6038362722,4685833.5216966402,-2500.0,-5992.2321773196036,1376.3929391973995,1483.3542320923791,315.46912537382366,-76.643544190363485,-13.065681446922762,3991.6867274225815,-947.40147141661384,497.75919065317146,-497.75919065317146,947.40147141661384,7275.7546638683516,0.0
447154.6038362722,4685833.5216966402,-2500.0,-4924.2601842441327,1115.6480712156515,1194.8316083683301,248.04299887785811,-59.878816418889592,-9.9684744638526706,3263.0264174914478,-796.77685366735147,416.74335576474971,-416.74335576474971,796.77685366735147,5954.1489374786543,0.0
452154.6038362722,4685833.5216966402,-2500.0,-4091.9570537488389,914.89620890473373,976.33965071937939,197.09594566153427,-47.381642340916059,-7.6494061394338786,2699.1243398145371,-675.65271635471345,352.39109955262552,-352.39109955262552,675.65271635471345,4929.8172551441658,0.0
457154.6038362722,4685833.5216966402,-2500.0,-3434.6384834201353,758.25614278524984,807.91971200195326,158.21883879211811,-37.932391923144507,-5.915135947785541,2256.4787821324658,-577.36162633332697,300.59176368282061,-300.59176368282061,577.36162633332697,4124.7010598979368,0.0
462154.6038362722,4685833.5216966402,-2500.0,-2909.1992679417031,634.52144857348765,676.04586356447248,128.24692961830686,-30.693486586727246,-4.613165642129827,1904.5221221010279,-496.90042665616085,258.41670921741269,-258.41670921741269,496.90042665616085,3483.8154942068927,0.0
467154.6038362722,4685833.5216966402,-2500.0,-2484.5252281250177,535.6666788644884,571.3388656428441,104.90472808655446,-25.080439107042608,-3.6294053675531028,1621.3954656197425,-430.48731927337394,223.7300046283514,-223.7300046283514,430.48731927337394,2967.7579823077172,0.0
472154.6038362722,4685833.5216966402,-2500.0,-2137.8180589509311,455.86189622229148,487.15950855414076,86.54628355387517,-20.679194395696008,-2.8803144704123791,1391.2123596609183,-375.24002246404348,194.94387953218722,-194.94387953218722,375.24002246404348,2547.8395918006395,0.0
477154.6038362722,4685833.5216966402,-2500.0,-1852.1411224459416,390.81495535501426,418.72086330626757,71.971433668804252,-17.192302340188601,-2.3051611335901461,1202.2553007327601,-328.94326727206948,170.85928104174513,-170.85928104174513,328.94326727206948,2202.8664174745077,0.0
267154.6038362722,4690833.5216966402,-2500.0,-1403.8177218622361,418.67196030938663,370.9922076863532,-48.176743986064864,17.590917947937676,-1.3272044962065952,982.1209752196753,-129.01330604246638,124.5574244734696,-124.5574244734696,129.01330604246638,1778.0679934189516,0.0
272154.6038362722,4690833.5216966402,-2500.0,-1593.3547579592882,488.76409107159321,428.09120853945922,-56.271175072541169,21.067033810500249,-1.5717573072324531,1123.7966097434269,-133.89549400552107,138.08068035855814,-138.08068035855814,133.89549400552107,2032.1947238799544,0.0
277154.6038362722,4690833.5216966402,-2500.0,-1816.8915447579552,574.73945389078074,497.47212822861019,-65.91830381034643,25.40731524707963,-1.8525500876170324,1293.3789512458943,-136.5286206397584,153.12540895102262,-153.12540895102262,136.5286206397584,2335.7940901557668,0.0
282154.6038362722,4690833.5216966402,-2500.0,-2081.7817784729391,681.17669780270967,582.61257113657075,-77.372528836266895,30.865863468852861,-2.1609528717217925,1497.8532039523948,-135.32701846150911,169.67354461260646,-169.67354461260646,135.32701846150911,2701.0577116326181,0.0
287154.6038362722,4690833.5216966402,-2500.0,-2397.0667828361579,814.26537278077376,688.24014736904633,-90.849359054960715,37.778577320046928,-2.4695592901365004,1746.3075790642777,-127.79608181066421,187.51807907019179,-187.51807907019179,127.79608181066421,3143.7674978430591,0.0
292154.6038362722,4690833.5216966402,-2500.0,-2773.7416040708508,982.47563002465574,820.88922360868901,-106.41341723681958,46.587285850043557,-2.7104966643549542,2050.6526026750639,-109.98260244174142,206.08877639740339,-206.08877639740339,109.98260244174142,3684.4820538124354,0.0
297154.6038362722,4690833.5216966402,-2500.0,-3224.8753272638446,1197.5463130706328,989.75923194585141,-123.72984888119603,57.864505516796058,-2.729816841323653,2426.5956383233274,-75.556332947758079,224.1307656774915,-224.1307656774915,75.556332947758079,4350.1176972982475,0.0
302154.6038362722,4690833.5216966402,-2500.0,-3765.2900589176265,1475.9584830549488,1208.0691047791418,-141.52207741272511,72.326673620181651,-2.1897837888676785,2894.9418939701936,-14.244411110171498,239.10442075458769,-239.10442075458769,14.244411110171498,5176.0134354560405,0.0
307154.6038362722,4690833.5216966402,-2500.0,-4410.1221612357749,1841.1507197520386,1495.2493095637153,-156.38934877894036,90.800115420684818,-0.35566888370324029,3483.2773692134706,90.893179371900175,246.04654994644224,-246.04654994644224,-90.893179371900175,6208.5230349114618,0.0
312154.6038362722,4690833.5216966402,-2500.0,-5170.7374836530716,2326.8626974575545,1880.5824863861194,-160.20261766361321,114.04294321262716,4.3806968290502493,4228.0080913132615,268.30710386479774,235.36731061132019,-235.36731061132019,-268.30710386479774,7508.0243327889148,0.0
317154.6038362722,4690833.5216966402,-2500.0,-6044.5717372957597,2982.1622967214939,2409.3966411089846,-134.27979498484717,142.16590710708419,15.586857628159205,5176.5071100759251,566.74646303952306,188.49700224945801,-188.49700224945801,-566.74646303952306,9151.9023665306322,0.0
322154.6038362722,4690833.5216966402,-2500.0,-6991.2640406461578,3878.8660582459188,3153.7876756415089,-36.150969116637924,172.9752525250733,41.295313738356342,6388.7165748279813,1071.4716963655044,69.111745881234356,-69.111745881234356,-1071.4716963655044,11236.715478114507,0.0
327154.6038362722,4690833.5216966402,-2500.0,-7878.5023488260831,5121.9981693322234,4231.121265725882,230.70676129666401,197.46280409478067,99.68049484473984,7937.6223486635499,1934.3888355860327,-194.79295834096547,194.79295834096547,-1934.3888355860327,13880.304083638923,0.0
332154.6038362722,4690833.5216966402,-2500.0,-8364.1969671228453,6863.0927615261598,5833.9522145531464,884.27720728207009,187.89033433448287,230.53410774592172,9914.0248690659773,3429.3300788502847,-747.33515824220922,747.33515824220922,-3429.3300788502847,17239.067320715785,0.0
337154.6038362722,4690833.5216966402,-2500.0,-7662.5633109810351,9313.8167033980026,8265.1905638718708,2394.8197613035427,67.722483008147364,507.31212189458779,12482.079959836357,6048.2723256690479,-1874.8507892903958,1874.8507892903958,-6048.2723256690479,21628.065836512917,0.0
342154.6038362722,4690833.5216966402,-2500.0,-4189.954598096665,12757.435633532888,11902.73663308584,5593.5950482515236,-355.25965393390874,963.43740054127989,16173.394154702517,10652.079838277929,-4113.8654843812228,4113.8654843812228,-10652.079838277929,28019.64044584251,0.0
347154.6038362722,4690833.5216966402,-2500.0,4456.2893403311591,17602.399036233706,16680.074753571171,10709.374545714214,-1487.1524555064216,886.13218567588933,22235.681135225335,18695.71360376861,-8229.2212308960843,8229.2212308960843,-18695.71360376861,38549.294664614266,0.0
352154.6038362722,4690833.5216966402,-2500.0,18580.13979899538,24908.767219864803,19692.583028225228,10017.811155174955,-3960.8678166478462,-3483.3420786348211,29595.482534080184,32288.289308776286,-13194.368407454424,13194.368407454424,-32288.289308776286,52173.309549770063,0.0
357154.6038362722,4690833.5216966402,-2500.0,15667.337439213545,39064.108293335172,11855.920308251962,-26011.348001272989,-9845.7689400500003,-5123.8000300089325,47169.447276898507,43765.414514554126,1334.697168978073,-1334.697168978073,-43765.414514554126,85241.752933293857,0.0
362154.6038362722,4690833.5216966402,-2500.0,-103460.8328084551,52317.117945594749,-9083.1011264287863,-60941.48934798791,-14327.142433283347,56212.01031153887,113710.54867151342,-17593.30587764371,72310.520208886795,-72310.520208886795,17593.30587764371,198246.4406130538,1.0
367154.6038362722,4690833.5216966402,-2500.0,-514100.93514882546,93910.555382899562,-70821.287351902443,-164159.08719650051,-37974.303203669515,261655.80349808009,432773.68103746488,-228812.11008357172,311457.22630894656,-311457.22630894656,228812.11008357172,752360.63686207705,0.0
372154.6038362722,4690833.5216966402,-2500.0,-2351543.1851626104,-2080457.6905722029,-1588040.8239580595,950360.79201831005,215163.44243991145,5099788.9652767619,4693045.5464668013,-4807504.1829490075,3500045.257328501,-3500045.257328501,4807504.1829490075,8139381.5743853943,0.0
377154.6038362722,4690833.5216966402,-2500.0,-1085182.6209180041,-161451.91301895274,-68194.49561512201,-196107.23325975935,-18377.105877928669,-5104.7254081073952,587411.2197465552,-554524.50118547282,297381.86157099082,-297381.86157099082,554524.50118547282,1138856.5180761996,0.0
382154.6038362722,4690833.5216966402,-2500.0,-183628.88560419928,-67924.666467801391,5265.8108752618737,-147230.94032291861,-84757.593890164149,84245.580253563254,224526.47619488725,-133628.56198979015,201748.44601465869,-201748.44601465869,133628.56198979015,396562.16331036686,0.0
387154.6038362722,4690833.5216966402,-2500.0,-136470.39893243549,-59431.017278529303,14301.836464359358,-45293.665670186194,-22061.822267409672,23885.035488834488,105871.13765892075,-96962.005582941725,79069.214920906757,-79069.214920906757,96962.005582941725,206106.38735456095,0.0
392154.6038362722,4690833.5216966402,-2500.0,-120856.22912049835,-37581.747365469513,26673.899830513972,-8342.9357019780018,-3941.0544605530094,6147.3930368203983,83146.402742636739,-68829.163621116779,35457.2469989647,-35457.2469989647,68829.163621116779,153788.07138252785,0.0
397154.6038362722,4690833.5216966402,-2500.0,-91571.429395620667,-16450.52982491731,24513.926158144095,1309.1629771940989,-737.57432868864942,1534.5174273124528,60352.756749799861,-41710.383819560106,17837.114147325403,-17837.114147325403,41710.383819560106,110249.3706651597,0.0
402154.6038362722,4690833.5216966402,-2500.0,-65051.992903043785,-5960.008823755119,17890.911196721649,2929.5987224255114,-235.9303163336987,340.18605086987418,41967.046940075241,-25231.764919016336,9991.6305979422177,-9991.6305979422177,25231.764919016336,76578.880456023355,0.0
407154.6038362722,4690833.5216966402,-2500.0,-46005.151943426252,-1561.882697075225,12405.321078696345,2643.4853665319224,-154.51665298339563,26.701699640426206,29324.32940927281,-15962.595676721237,6138.6143701045849,-6138.6143701045849,15962.595676721237,53575.429691452795,0.0
412154.6038362722,4690833.5216966402,-2500.0,-33053.346112701991,177.31979581402635,8637.4829664254685,2050.5687473171315,-132.68087205798085,-46.916758017663213,20910.549621253638,-10595.50242926693,4054.1763065986479,-4054.1763065986479,10595.50242926693,38265.465362989686,0.0
417154.6038362722,4690833.5216966402,-2500.0,-24256.805638161608,809.0996811125716,6139.6331470145769,1525.0747731413917,-115.82999254910094,-54.673281953175717,15268.180214841181,-7335.4426137748533,2828.0257577323073,-2828.0257577323073,7335.4426137748533,27982.312317009138,0.0
422154.6038362722,4690833.5216966402,-2500.0,-18189.271053400975,982.674615736443,4472.2146457117942,1125.1017905952749,-98.602068224493379,-46.255449021818151,11408.420110980062,-5262.2763711311554,2056.5133060819744,-2056.5133060819744,5262.2763711311554,20935.32751300621,0.0
427154.6038362722,4690833.5216966402,-2500.0,-13918.277476001709,970.67257379136242,3336.5861444090815,834.22642598684502,-82.237127269745727,-35.791809155144016,8707.1251365594435,-3889.9225039607509,1544.7209763118215,-1544.7209763118215,3889.9225039607509,15995.250411191215,0.0
432154.6038362722,4690833.5216966402,-2500.0,-10848.234339661594,889.27618101874248,2544.7683772069063,625.03314911481459,-67.805332682733976,-26.879150757377502,6773.4966211399624,-2949.5925084718911,1190.7773303941119,-1190.7773303941119,2949.5925084718911,12453.996901941078,0.0
437154.6038362722,4690833.5216966402,-2500.0,-8596.7322851911649,788.15718853847875,1979.6305629898704,474.16902638024629,-55.641645389162939,-20.034729809810788,5359.8292901858913,-2285.8540137560972,937.68424606604538,-937.68424606604538,2285.8540137560972,9861.8608134785081,0.0
442154.6038362722,4690833.5216966402,-2500.0,-6914.4836969098696,688.03567421493653,1567.3406568109242,364.40680646761513,-45.643517947007723,-14.96797496362181,4306.0941294031827,-1805.1340070442525,751.68774148128125,-751.68774148128125,1805.1340070442525,7927.7353201554415,0.0
447154.6038362722,4690833.5216966402,-2500.0,-5635.927323864451,596.84775209212614,1260.456439662011,283.63244271204974,-37.529884452540209,-11.260135392051826,3506.7079713208159,-1449.0598769325247,611.83974028934892,-611.83974028934892,1449.0598769325247,6459.2086050055723,0.0
452154.6038362722,4690833.5216966402,-2500.0,-4648.9660351682733,516.89861039278367,1027.8313294870004,223.45313052813944,-30.981070719918119,-8.5474588958609541,2890.5387227940146,-1180.0579467980065,504.62542379140677,-504.62542379140677,1180.0579467980065,5326.4456106136868,0.0
457154.6038362722,4690833.5216966402,-2500.0,-3876.25449125461,448.08814920287148,848.57123912020438,178.05796635515219,-25.70015479416212,-6.5525535868017215,2408.6954169206388,-973.26156376334438,421.03758559010856,-421.03758559010856,973.26156376334438,4440.0842745620057,0.0
462154.6038362722,4690833.5216966402,-2500.0,-3263.459893349022,389.37872023375962,708.36741507289514,143.39922050085545,-21.433962510174027,-5.0739291324800693,2026.9382619929631,-811.80196938431527,354.90549704923018,-354.90549704923018,811.80196938431527,3737.4671266187179,0.0
467154.6038362722,4690833.5216966402,-2500.0,-2771.7675320700623,339.45660450106431,597.22906537503229,116.63096611126569,-17.975566653455207,-3.9679465491321162,1720.8665975925614,-683.98033079628408,301.90031326414208,-301.90031326414208,683.98033079628408,3173.8959185758372,0.0
472154.6038362722,4690833.5216966402,-2500.0,-2373.0101340129127,297.01968705692923,508.05336594723684,95.730483665630928,-15.159516693351042,-3.132734838141995,1472.8084685212928,-581.52033782471597,258.92188498606072,-258.92188498606072,581.52033782471597,2716.9694508081907,0.0
477154.6038362722,4690833.5216966402,-2500.0,-2046.4496456428046,260.89148529129386,435.70633132170747,79.243758395847976,-12.855021870745286,-2.4958864255951587,1269.7743196872229,-498.46136780675556,223.70950235795303,-223.70950235795303,498.46136780675556,2342.8531322955814,0.0
267154.6038362722,4695833.5216966402,-2500.0,-1196.4003475097825,486.08365874266121,338.08131270810236,-41.351051516909777,19.286180517530457,-1.1824777225097254,909.07072201687106,-7.2091728818096357,74.816790164524519,-74.816790164524519,7.2091728818096357,1632.2430545730883,0.0
272154.6038362722,4695833.5216966402,-2500.0,-1342.1503587775401,567.78930916152228,386.98152033022825,-47.753235675453929,23.08698765615047,-1.3877066951605426,1035.3104162613195,11.245656825931412,78.388959916709979,-78.388959916709979,-11.245656825931412,1856.0119452408994,0.0
277154.6038362722,4695833.5216966402,-2500.0,-1509.9784719027641,667.82101029584874,445.61398141673726,-55.201003805783671,27.814832328202488,-1.6177299766700135,1185.2535925245738,37.662198567514871,80.940287117648097,-80.940287117648097,-37.662198567514871,2121.1252296843522,0.0
282154.6038362722,4695833.5216966402,-2500.0,-1703.2244491582489,791.32688283637094,516.49373271167167,-63.774345652958047,33.72913633870531,-1.8611501296822326,1364.4725375216262,75.328317012418168,81.663240970074455,-81.663240970074455,-75.328317012418168,2437.0982756731019,0.0
287154.6038362722,4695833.5216966402,-2500.0,-1925.2954396725531,945.18380086942329,602.95370793437826,-73.450750636147234,41.16261392213427,-2.0882438120828479,1580.074974755745,129.03213437488358,79.276763631464561,-79.276763631464561,-129.03213437488358,2815.9914932255347,0.0
292154.6038362722,4695833.5216966402,-2500.0,-2179.1692959584252,1138.660699861915,709.47501866553409,-83.973521611548591,50.533201157425829,-2.2313925801702545,1841.1593071991956,205.8386054407602,71.740064228057278,-71.740064228057278,-205.8386054407602,3273.1308180661704,0.0
297154.6038362722,4695833.5216966402,-2500.0,-2466.3433490191337,1384.3541496594128,842.18183738874677,-94.585979264282116,62.342605059293518,-2.1449502708660408,2159.3868418640932,316.32203489739334,55.777376406076797,-55.777376406076797,-316.32203489739334,3827.9967018793018,0.0
302154.6038362722,4695833.5216966402,-2500.0,-2784.6961279059833,1699.4985168214851,1009.6030201017725,-103.4934620772557,77.132941754449632,-1.5216484623432538,2549.6669524875224,476.55422980572212,26.076275856558595,-26.076275856558595,-476.55422980572212,4505.2676324180147,0.0
307154.6038362722,4695833.5216966402,-2500.0,-3124.2052766878046,2107.761330459366,1223.879453006748,-106.76374287905713,95.328945972103739,0.28491719841329527,3030.8956765723451,711.36336029929259,-26.086108477051425,26.086108477051425,-711.36336029929259,5335.9313602142302,0.0
312154.6038362722,4695833.5216966402,-2500.0,-3458.4056312826697,2641.5781613417903,1502.7429169725483,-96.049169550630211,116.78318610684246,4.6446266937486342,3626.5630893659372,1059.7521085693279,-115.22982033214066,115.22982033214066,-1059.7521085693279,6358.2546395414474,0.0
317154.6038362722,4695833.5216966402,-2500.0,-3727.3086939125151,3344.81082939208,1872.8778107262285,-53.801552490905593,139.56299106614068,14.496682588023114,4364.8080002512925,1583.9963745262967,-265.85518058989385,265.85518058989385,-1583.9963745262967,7618.3189845080715,0.0
322154.6038362722,4695833.5216966402,-2500.0,-3803.1474327460519,4274.6071773455706,2375.8318482107416,56.861743139769132,156.80535959911762,36.216766081888402,5277.2613701574683,2384.9306467625088,-519.75110321828549,519.75110321828549,-2384.9306467625088,9170.4642012751156,0.0
327154.6038362722,4695833.5216966402,-2500.0,-3421.9526492127475,5498.6518049605311,3078.6524446786248,313.37494849396535,148.67181484585967,83.599329420858396,6397.0113043961919,3627.109287335923,-948.38166687592275,948.38166687592275,-3627.109287335923,11082.643580375041,0.0
332154.6038362722,4695833.5216966402,-2500.0,-2050.4888035893591,7076.5821165955513,4092.8151599019448,875.13330726095933,62.301832518295605,185.09788508972196,7766.1303583857771,5577.5011588501093,-1671.9110662592479,1671.9110662592479,-5577.5011588501093,13473.952860810887,0.0
337154.6038362722,4695833.5216966402,-2500.0,1350.6786066937161,8995.6372195846525,5604.2701192285322,2043.4358034737509,-233.35251690198916,388.18797636465467,9524.4020367513749,8654.4909426365502,-2880.4657320912788,2880.4657320912788,-8654.4909426365502,16690.362121426842,0.0
342154.6038362722,4695833.5216966402,-2500.0,8642.2293609036151,10991.573533925261,7900.6845610106875,4216.1098396353418,-1008.7484690147455,697.77603205244452,12341.45151990193,13456.957510317792,-4831.8093090162947,4831.8093090162947,-13456.957510317792,21831.092335163368,0.0
347154.6038362722,4695833.5216966402,-2500.0,22462.285069792444,12142.594741705318,11321.666722291293,6932.1916566640011,-2417.0692744656708,615.42158354965215,17608.689344723702,20698.340123951595,-7796.5962349482779,7796.5962349482779,-20698.340123951595,31016.634077084385,0.0
352154.6038362722,4695833.5216966402,-2500.0,44002.954916093084,10313.816425893796,16342.493288956191,4395.1840453908471,-1327.331387303175,-2162.2906075813989,25296.775343022116,30913.540335741447,-12372.508998533072,12372.508998533072,-30913.540335741447,44740.829355157766,1.0
357154.6038362722,4695833.5216966402,-2500.0,63064.496394084737,4838.9597682812755,29185.931933027219,-15301.830524919767,24494.557729142667,-4434.0312802676508,43353.080770311339,42059.867143171679,-22914.970037927211,22914.970037927211,-42059.867143171679,77393.086703538735,0.0
362154.6038362722,4695833.5216966402,-2500.0,-5963.8780641716676,23039.092260749458,101631.56021036596,24119.206172914433,124866.11173646461,15697.51638862138,135016.48996333044,40856.902547473772,-79469.800864245684,79469.800864245684,-40856.902547473772,244596.75454454796,0.0
367154.6038362722,4695833.5216966402,-2500.0,-1067369.911153174,-338892.46030106925,-335014.01905424386,-609625.44855533203,-364914.28017411055,11702.645725391947,937567.2914847635,-725156.49369343207,716989.79117591376,-716989.79117591376,725156.49369343207,1664163.0772910344,0.0
372154.6038362722,4695833.5216966402,-2500.0,-180925.38044325498,-463836.59651829657,-1222661.4269587838,31462.777819119088,-114635.25258545557,72034.10912840112,761888.23248747527,-845208.46199954371,283815.89097786782,-283815.89097786782,845208.46199954371,1449326.0916537838,0.0
377154.6038362722,4695833.5216966402,-2500.0,-197132.54616084634,-335018.33950980048,-235432.52429857248,-110402.51337835347,-138899.14825523351,161979.39681082006,399555.73530402652,-445859.47426705511,336269.79139533016,-336269.79139533016,445859.47426705511,758511.16269809753,0.0
382154.6038362722,4695833.5216966402,-2500.0,-149455.47832197646,-151083.19655110734,-46066.605753461197,-39401.089827348253,-45606.129101194543,35187.301690459863,169450.35607159082,-194321.66108111455,121653.92607994714,-121653.92607994714,194321.66108111455,324141.47812666901,0.0
387154.6038362722,4695833.5216966402,-2500.0,-125054.70079965527,-95352.259562938925,-17888.559433504422,-9923.7853891929008,-10624.976016851329,9716.7030079262895,110192.82566870196,-128856.86119305412,57332.748909951602,-57332.748909951602,128856.86119305412,207642.13670091319,0.0
392154.6038362722,4695833.5216966402,-2500.0,-105889.59177893023,-61971.683669894221,-1048.9546434154663,1290.1454797894853,-690.40718701051196,2778.7653373353301,81199.022556605865,-89901.744249841358,31932.524913216195,-31932.524913216195,89901.744249841358,151444.39038724077,0.0
397154.6038362722,4695833.5216966402,-2500.0,-84178.51093093575,-36963.123475710752,7214.396532992715,4162.1643116014448,1000.8245168526979,689.25483584286496,58871.919201815494,-59598.525995398748,19284.996133080269,-19284.996133080269,59598.525995398748,109328.32484408728,0.0
402154.6038362722,4695833.5216966402,-2500.0,-63496.493242939097,-20844.818083098562,8885.9250589669209,4019.4142009856423,856.8054258684715,89.107065541320765,41887.864701736398,-38589.449048263006,12188.405112359538,-12188.405112359538,38589.449048263006,77679.162374724125,0.0
407154.6038362722,4695833.5216966402,-2500.0,-46905.54902361628,-11566.031214417832,7909.1300623865372,3174.4799225386014,527.05288135762305,-61.750680688601278,29853.186232824639,-25217.762568342812,8010.5525006151129,-8010.5525006151129,25217.762568342812,55350.223756287072,0.0
412154.6038362722,4695833.5216966402,-2500.0,-34654.572015119542,-6434.0390061378585,6364.6503904012488,2355.4034018828052,292.38303267716731,-83.28430950096913,21574.255918652951,-16890.58384184786,5464.6765830696822,-5464.6765830696822,16890.58384184786,40009.424064886567,0.0
417154.6038362722,4695833.5216966402,-2500.0,-25872.201719223922,-3601.0469530035925,4956.3679920499908,1717.8590187882364,152.99773578780704,-71.797676710199681,15885.967399196121,-11647.37673433829,3857.2386774824199,-3857.2386774824199,11647.37673433829,29470.289544151768,0.0
422154.6038362722,4695833.5216966402,-2500.0,-19600.550533455098,-2016.4834265691254,3835.7409536450782,1254.174862371598,74.951446009184522,-55.27478443381203,11930.351609709298,-8266.2832689233019,2805.9655625190753,-2805.9655625190753,8266.2832689233019,22139.176052117782,0.0
427154.6038362722,4695833.5216966402,-2500.0,-15086.183013668066,-1114.9348314682586,2983.5555129708796,923.84427394801162,32.385545131579249,-40.975497604331231,9131.6459590230843,-6025.1289627067781,2095.528305915795,-2095.528305915795,6025.1289627067781,16950.032565207937,0.0
432154.6038362722,4695833.5216966402,-2500.0,-11794.160075795362,-593.83806175672225,2343.6257112847297,688.88970374517521,9.6407098624998291,-30.060974883451895,7113.9182771614187,-4498.365648610441,1601.0597258360751,-1601.0597258360751,4498.365648610441,13207.369851078489,0.0
437154.6038362722,4695833.5216966402,-2500.0,-9357.5349978817558,-289.10827146185994,1862.4438218189091,520.60589877005521,-2.1596133379222122,-22.086734876328059,5631.946088898897,-3431.1747992483447,1247.786001781617,-1247.786001781617,3431.1747992483447,10457.477873637858,0.0
442154.6038362722,4695833.5216966402,-2500.0,-7526.4709625559872,-109.93123745394595,1497.8694364104012,398.7607659865829,-7.9466902386123452,-16.342332489193574,4524.1120356802849,-2667.4186116113624,989.48652642334594,-989.48652642334594,2667.4186116113624,8401.2064017528082,0.0
447154.6038362722,4695833.5216966402,-2500.0,-6130.0598996073695,-4.9201921631824055,1218.7708661841195,309.43402417445986,-10.450510601413821,-12.208481528982411,3682.2704577972818,-2109.0021456351969,796.72488993377215,-796.72488993377215,2109.0021456351969,6838.2756149887928,0.0
452154.6038362722,4695833.5216966402,-2500.0,-5050.180764763878,55.634023389598141,1002.6649624158064,243.09671114417742,-11.185825270054586,-9.2179072508975661,3032.8260064994697,-1692.7545643410863,650.23538677296062,-650.23538677296062,1692.7545643410863,5632.3197946794307,0.0
457154.6038362722,4695833.5216966402,-2500.0,-4204.1429845256016,89.252023030956153,833.39641566533101,193.20002168138191,-10.995515409089606,-7.0362545339361944,2524.8280336322973,-1377.0251731014127,537.09245040636324,-537.09245040636324,1377.0251731014127,4688.886521588418,0.0
462154.6038362722,4695833.5216966402,-2500.0,-3533.2597161345011,106.4497884351933,699.31891462928616,155.20532714380883,-10.348687500815494,-5.4290598493872828,2122.4086444270711,-1133.7410643715541,448.42782248510974,-448.42782248510974,1133.7410643715541,3941.4556188509437,0.0
467154.6038362722,4695833.5216966402,-2500.0,-2995.2997408314786,113.63481830755262,591.97424786090687,125.93367874750247,-9.5049673500118406,-4.2326946289550751,1799.9118163859689,-943.59091636428832,378.03242680712071,-378.03242680712071,943.59091636428832,3342.4283470087094,0.0
472154.6038362722,4695833.5216966402,-2500.0,-2559.4615271279836,114.75986280146726,505.16155230290241,103.13267663315001,-8.6058876639004254,-3.3328083298007529,1538.7087632337282,-793.03836534808488,321.47844849162652,-321.47844849162652,793.03836534808488,2857.2326278458513,0.0
477154.6038362722,4695833.5216966402,-2500.0,-2202.9866818643518,112.28599157674219,434.28766455972709,85.187450407273246,-7.7261595640066236,-2.6489551876876489,1325.0811724571713,-672.42918686910389,275.55512434492834,-275.55512434492834,672.42918686910389,2460.402826199067,0.0
267154.6038362722,4700833.5216966402,-2500.0,-983.96434951637605,527.86594618358833,300.08646632454156,-34.41497474687295,20.074791342010684,-1.0336171461376675,831.87537557679389,96.001684917887616,30.529154353287844,-30.529154353287844,-96.001684917887616,1481.0455253327459,0.0
272154.6038362722,4700833.5216966402,-2500.0,-1085.8265820301147,614.22474432848287,339.95477261365994,-39.136483546732428,23.924377790489942,-1.1996223106677337,941.84137482157018,132.41968753920344,25.839182194504417,-25.839182194504417,-132.41968753920344,1673.60552320895,0.0
277154.6038362722,4700833.5216966402,-2500.0,-1198.2422528768686,719.01632598507376,386.91365855923033,-44.41998744641527,28.664716950867142,-1.3798394929908662,1071.1178719669654,180.59879468034475,18.223792814806956,-18.223792814806956,-180.59879468034475,1899.2954497201913,0.0
282154.6038362722,4700833.5216966402,-2500.0,-1320.882077149088,847.01638243028469,442.55865099436028,-50.191215163308314,34.520031361469371,-1.5610473054180083,1223.8233954727921,244.71085902460328,6.3730209657582577,-6.3730209657582577,-244.71085902460328,2165.0010097435365,0.0
287154.6038362722,4700833.5216966402,-2500.0,-1452.1255751745025,1004.4012774469372,508.93388368288862,-56.225962659672476,41.761612315518434,-1.7130562426752094,1405.0419729904052,330.60713198157214,-11.630084737710177,11.630084737710177,-330.60713198157214,2479.1707159014868,0.0
292154.6038362722,4700833.5216966402,-2500.0,-1588.0079634045553,1199.1619238976177,588.69711213108735,-62.012341485767472,50.700274162570814,-1.7721210828928695,1621.0219346414365,446.58095365039185,-38.615976098171672,38.615976098171672,-446.58095365039185,2852.1286135828523,0.0
297154.6038362722,4700833.5216966402,-2500.0,-1720.3832739505287,1441.5949153302959,685.37239576961178,-66.493690572189138,61.650440905524441,-1.6081342726168677,1879.3650134821364,604.51265717828642,-78.803203469391178,78.803203469391178,-604.51265717828642,3296.3843144996044,0.0
302154.6038362722,4700833.5216966402,-2500.0,-1833.7020118713856,1744.8087587414386,803.76030541977832,-67.584691289182928,74.825513675153815,-0.95885976181338228,2189.1357934954494,821.59780173388367,-138.53725588419707,138.53725588419707,-821.59780173388367,3826.8703131273892,0.0
307154.6038362722,4700833.5216966402,-2500.0,-1899.3221992621964,2125.0441432852399,950.6540420439585,-61.251939856872369,90.071627925150196,0.70402408817279483,2560.74124610339,1122.957876173607,-227.43983609787637,227.43983609787637,-1122.957876173607,4460.9938980718252,0.0
312154.6038362722,4700833.5216966402,-2500.0,-1865.3930780158196,2601.256803342631,1136.1888995979,-39.751171755011633,106.22558740761208,4.4513132149172794,3005.2727439228674,1545.5499203205834,-360.17572286252675,360.17572286252675,-1545.5499203205834,5218.3832893080234,0.0
317154.6038362722,4700833.5216966402,-2500.0,-1638.8190514186731,3192.5715739599336,1376.5988830257104,11.763250370562631,119.60171779135503,12.471100868302877,3532.7766674166296,2143.8615497437672,-559.07152696216974,559.07152696216974,-2143.8615497437672,6120.5427165959809,0.0
322154.6038362722,4700833.5216966402,-2500.0,-1053.3148470492565,3910.2090214056907,1700.2824885713765,121.68583357969317,120.47225898125239,29.251791348048378,4148.829591877131,2997.640349811124,-857.64348908054831,857.64348908054831,-2997.640349811124,7192.3892412234409,0.0
327154.6038362722,4700833.5216966402,-2500.0,185.52037884726172,4735.8578347356433,2162.0808086575285,343.64089014910053,85.05192875236412,63.886254769254833,4850.6665627241473,4220.550606417265,-1304.1396380281758,1304.1396380281758,-4220.550606417265,8474.846320599625,0.0
332154.6038362722,4700833.5216966402,-2500.0,2586.7329791762627,5568.4905323215626,2878.8947836512057,774.5893989101437,-41.655270926996394,133.74362651218095,5642.0830059742202,5963.9886539087947,-1960.9220636571858,1960.9220636571858,-5963.9886539087947,10082.09388971726,0.0
337154.6038362722,4700833.5216966402,-2500.0,6976.9832704315886,6104.3161066355815,4123.0469992865656,1568.5253625987536,-375.4821799029769,265.80416441447289,6758.3011014827216,8398.2976422776792,-2887.4143520987959,2887.4143520987959,-8398.2976422776792,12394.490759639841,0.0
342154.6038362722,4700833.5216966402,-2500.0,14487.689982471078,5608.4071373046982,6577.279881723417,2880.3474505935633,-1100.9919428744545,470.44157479086607,9280.7504062087373,11637.878355059818,-4089.942631927921,4089.942631927921,-11637.878355059818,16464.024521130257,0.0
347154.6038362722,4700833.5216966402,-2500.0,25927.417674461987,2690.8830040108332,12051.548263983699,4564.5876381727612,-2196.6991963161663,594.84361990464788,13912.087663085635,15644.363406743381,-5531.0016161517642,5531.0016161517642,-15644.363406743381,24113.75059452101,0.0
352154.6038362722,4700833.5216966402,-2500.0,39601.980893847722,-3765.3385382505376,25414.422666463532,6053.6572907654363,-2046.0899189287384,-7.4711964739860619,21255.63175897596,20800.946738707375,-8010.0236726038556,8010.0236726038556,-20800.946738707375,37057.619594878546,0.0
357154.6038362722,4700833.5216966402,-2500.0,49854.066239651809,-7740.1709265349364,57288.062532734344,11745.707864829668,2384.7241818082621,-1930.0205217343002,33599.042976240853,32455.88165501862,-16268.087003910568,16268.087003910568,-32455.88165501862,61094.14929062139,1.0
362154.6038362722,4700833.5216966402,-2500.0,63622.041712671824,17134.043812306958,106750.53535119552,33307.537438924744,-9735.60681122602,-2854.5421274514883,65694.096124346121,70266.450420993497,-28579.797733330812,28579.797733330812,-70266.450420993497,116788.21314075889,0.0
367154.6038362722,4700833.5216966402,-2500.0,117052.61492811319,105580.20106897983,4264.1527732369832,42404.110658129575,-46946.427806437838,20602.430627894231,137238.83149362804,114368.35513035094,-19704.884692252293,19704.884692252293,-114368.35513035094,237893.19223510084,1.0
372154.6038362722,4700833.5216966402,-2500.0,141004.45096231776,-6218.5413232028195,-224048.00362652884,-16457.557717689586,-83236.861681441427,56126.41030959542,195780.07883556886,-38529.327302516969,77242.944883777265,-77242.944883777265,38529.327302516969,362210.3382287749,0.0
377154.6038362722,4700833.5216966402,-2500.0,36656.823100322428,-125948.67918221661,-203249.32676979268,-17488.898301096142,-30959.874031959291,28735.534028794282,176211.29753483151,-152612.4921758261,73074.52648759463,-73074.52648759463,152612.4921758261,327260.8700375217,0.0
382154.6038362722,4700833.5216966402,-2500.0,-47999.290517548776,-128526.36775795885,-111736.12136254663,-2561.9484095496246,-6704.7849642692972,9769.8429630297815,132576.50973092654,-153930.29669152683,51574.241275729888,-51574.241275729888,153930.29669152683,246562.99939031337,0.0
387154.6038362722,4700833.5216966402,-2500.0,-73715.868356443811,-97187.068536647625,-56620.618772558235,3254.6523725687848,983.91150824191448,3200.2574070714331,97627.632722985523,-121526.04813930293,35600.076274621191,-35600.076274621191,121526.04813930293,182384.48124185196,0.0
392154.6038362722,4700833.5216966402,-2500.0,-74054.196775456076,-68064.414163009249,-26197.555798466336,5071.4874424778282,2854.9475680364617,924.41530810324923,72292.343128836466,-89618.706553795986,24729.567651088066,-24729.567651088066,89618.706553795986,135365.17792138696,0.0
397154.6038362722,4700833.5216966402,-2500.0,-64907.074016547238,-45243.088035137785,-9659.5102737475609,4997.7563509905876,2529.7783742153169,150.37857969274597,53183.895436164319,-63385.743166151609,17281.598195767794,-17281.598195767794,63385.743166151609,99626.516374592888,0.0
402154.6038362722,4700833.5216966402,-2500.0,-52965.87954045392,-28985.886837081944,-1668.5762965718,4150.6351855363337,1751.1288950794162,-75.889602089463224,38858.048696493512,-43771.469100693052,12115.432119045427,-12115.432119045427,43771.469100693052,72781.028332176516,0.0
407154.6038362722,4700833.5216966402,-2500.0,-41636.129550047641,-18273.524521931806,1620.407789588525,3187.1604191876986,1104.9328413923679,-116.84605323179642,28431.992422731419,-30088.262323819923,8556.2137611127528,-8556.2137611127528,30088.262323819923,53243.78074043151,0.0
412154.6038362722,4700833.5216966402,-2500.0,-32231.667276719832,-11520.11037164779,2666.0274912048508,2366.7907883540274,673.27052911865223,-103.92423722364134,20993.49252547427,-20874.67548799175,6122.8149452288799,-6122.8149452288799,20874.67548799175,39308.530972308952,0.0
417154.6038362722,4700833.5216966402,-2500.0,-24900.052552124685,-7329.6738766463413,2762.0012360434189,1739.6080921921439,406.0532105829987,-80.678127850272517,15712.843041460619,-14726.652434332053,4456.5746674817574,-4456.5746674817574,14726.652434332053,29417.365624161193,0.0
422154.6038362722,4700833.5216966402,-2500.0,-19338.243978509021,-4725.6458949743028,2508.4893941874639,1280.8519504717376,244.849173163091,-59.69882858891647,11943.599620171708,-10597.154894124043,3304.3168244080598,-3304.3168244080598,10597.154894124043,22357.674573518219,0.0
427154.6038362722,4700833.5216966402,-2500.0,-15155.090164355199,-3090.1101618828052,2161.656447750267,950.52184089101445,148.03169018718083,-43.489164159508547,9222.7718973594929,-7782.7610072797252,2495.6082531276293,-2495.6082531276293,7782.7610072797252,17261.778311778842,0.0
432154.6038362722,4700833.5216966402,-2500.0,-12004.571053876325,-2047.5170465605609,1822.0116193090064,713.05571347526336,89.601297073336724,-31.640436559850137,7231.1378738738485,-5829.6915603317157,1918.2835804394958,-1918.2835804394958,5829.6915603317157,13531.709044374411,0.0
437154.6038362722,4700833.5216966402,-2500.0,-9616.1164189574883,-1372.0455002118902,1523.3606658030781,541.39614189854876,54.039862476415784,-23.150258173670228,5751.396451010196,-4448.1895195315446,1498.8539776611701,-1498.8539776611701,4448.1895195315446,10760.480453607379,0.0
442154.6038362722,4700833.5216966402,-2500.0,-7788.6785376909038,-927.33883913609156,1272.3738414710119,416.15861651443885,32.202003774546192,-17.091694480618216,4635.5333724645279,-3452.3506685393877,1188.8736994828369,-1188.8736994828369,3452.3506685393877,8670.8721407417124,0.0
447154.6038362722,4700833.5216966402,-2500.0,-6375.9357334178758,-630.10385551319087,1065.6016600346456,323.78316320483657,18.68805414446771,-12.752624542304499,3781.9476904321291,-2721.4441478731987,956.02542823117415,-956.02542823117415,2721.4441478731987,7072.5780275493771,0.0
452154.6038362722,4700833.5216966402,-2500.0,-5272.0432416327449,-428.69245695702602,896.5670737515394,254.85040732719736,10.282219319377404,-9.6214391532081258,3120.1111243996693,-2175.837120039786,778.43576592962029,-778.43576592962029,2175.837120039786,5833.4811275945176,0.0
457154.6038362722,4700833.5216966402,-2500.0,-4400.3054916303763,-290.55034736002619,758.56808578958714,202.80607228906268,5.0467815188364851,-7.3402840446503745,2600.4276163550339,-1762.1079477096414,641.06684085101699,-641.06684085101699,1762.1079477096414,4860.6680198155382,0.0
462154.6038362722,4700833.5216966402,-2500.0,-3704.8260409680902,-194.81648543110637,645.66346980266019,163.06081081688356,1.7991591314209394,-5.6610437496571979,2187.5492183803703,-1443.8011855968907,533.41673054614012,-533.41673054614012,1443.8011855968907,4087.913737463643,0.0
467154.6038362722,4700833.5216966402,-2500.0,-3144.5370667873949,-127.90569612033899,552.91125639980544,132.37279280114592,-0.19163581271791044,-4.4116361475401593,1855.9415553745648,-1195.6190941804502,448.03776451453086,-448.03776451453086,1195.6190941804502,3467.3776395092918,0.0
472154.6038362722,4700833.5216966402,-2500.0,-2688.9878720260253,-80.834293141392124,476.32188162764555,108.42902848623113,-1.3829313515518042,-3.4721635137381579,1586.916716876904,-999.72285850744788,379.57005540966753,-379.57005540966753,999.72285850744788,2964.0462615305123,0.0
477154.6038362722,4700833.5216966402,-2500.0,-2315.3817826265822,-47.575169173083808,412.71981700947168,89.56176108750735,-2.0640032931081644,-2.7584281961454598,1366.6252220080264,-843.34067510521493,324.10214166583353,-324.10214166583353,843.34067510521493,2551.9718929600535,0.0
267154.6038362722,4705833.5216966402,-2500.0,-775.94367313993189,545.01484216519248,261.09957319952667,-27.662807431155521,20.009894571741874,-0.88631438288893183,752.87311261325976,178.92950473222621,-7.1254543469854354,7.1254543469854354,-178.92950473222621,1329.2949332805426,0.0
272154.6038362722,4705833.5216966402,-2500.0,-836.79168159620963,629.70653162408541,292.43707549630079,-30.817375986464224,23.662226092343033,-1.0151823124000192,846.47547447132558,227.66067307120909,-18.092972066562638,18.092972066562638,-227.66067307120909,1491.3138059561859,0.0
277154.6038362722,4705833.5216966402,-2500.0,-898.18470730902902,730.98445911279987,328.64889437546947,-34.114285479562021,28.087509327042483,-1.149217114496822,955.09292283532125,290.04526759194778,-33.175683328790598,33.175683328790598,-290.04526759194778,1678.7355336597107,0.0
282154.6038362722,4705833.5216966402,-2500.0,-956.95903017701107,852.55425871855766,370.68725273549262,-37.362443784182574,33.445631148139142,-1.2743949208497058,1081.4791879536169,370.38245576125445,-53.884255672095605,53.884255672095605,-370.38245576125445,1896.1161885507904,0.0
287154.6038362722,4705833.5216966402,-2500.0,-1007.8056586945638,998.92026722442449,419.76524466494959,-40.196856605331725,39.907519557194405,-1.3617826432335907,1228.8485439191254,474.48668996400818,-82.324191630973047,82.324191630973047,-474.48668996400818,2148.7829716968381,0.0
292154.6038362722,4705833.5216966402,-2500.0,-1041.9991786499386,1175.4427650919788,477.4849137119146,-41.950256983777955,47.626917167844717,-1.3543395628611765,1400.8659585109594,610.26491750320702,-121.44494859272854,121.44494859272854,-610.26491750320702,2442.86958988584,0.0
297154.6038362722,4705833.5216966402,-2500.0,-1045.3646861122777,1388.2481955471312,546.07412487959459,-41.430291123012253,56.672449937129684,-1.141952017820296,1601.5371032185922,788.51282708428107,-175.39252270764348,175.39252270764348,-788.51282708428107,2785.2730360425726,0.0
302154.6038362722,4705833.5216966402,-2500.0,-995.01810848102878,1643.7854713725258,628.85155029371265,-36.530685255928944,66.875733775302535,-0.51376663604592587,1834.8929348148838,1023.9914758426153,-249.99780720887355,249.99780720887355,-1023.9914758426153,3183.4821689907185,0.0
307154.6038362722,4705833.5216966402,-2500.0,-854.15149852162119,1947.5970458396569,731.18791345146394,-23.551355937139622,77.502875931310555,0.93363115293856325,2104.2782852869836,1336.8248994191417,-353.42152524407618,353.42152524407618,-1336.8248994191417,3645.265191834872,0.0
312154.6038362722,4705833.5216966402,-2500.0,-563.77409274245758,2301.4153591316735,862.57341548108411,3.9856044366740968,86.556650796135713,3.974046934399702,2410.9106769218342,1754.1607201265335,-496.91797554408026,496.91797554408026,-1754.1607201265335,4178.4040975300868,0.0
317154.6038362722,4705833.5216966402,-2500.0,-29.993395704128897,2696.8028826054815,1041.2168639814802,57.361296261810466,89.313930482461217,10.094479243481443,2751.2207191093448,2311.747461815718,-695.49107949361235,695.49107949361235,-2311.747461815718,4791.471085959879,0.0
322154.6038362722,4705833.5216966402,-2500.0,894.29706881974801,3101.9065373297285,1304.5607563245253,155.96411634124445,75.319751275101183,22.138821774355232,3112.7551367233391,3054.360708954327,-967.69835024581835,967.69835024581835,-3054.360708954327,5499.2960704290363,0.0
327154.6038362722,4705833.5216966402,-2500.0,2431.4982573803723,3435.3672524875478,1733.8328384832284,332.07890859853876,22.472959974706335,45.429303780733647,3474.0266954070294,4032.5118916040474,-1332.618058016353,1332.618058016353,-4032.5118916040474,6344.5230771757879,0.0
332154.6038362722,4705833.5216966402,-2500.0,4891.4251112143947,3519.8079763004057,2511.9255162425343,635.76428051901883,-113.40961641175491,89.343723871988573,3942.1719649874676,5290.7968731376177,-1799.6187361160171,1799.6187361160171,-5290.7968731376177,7464.1658416361515,0.0
337154.6038362722,4705833.5216966402,-2500.0,8623.3186759843102,3018.2404868281219,4057.841617504736,1133.2620085004548,-411.90809374923782,168.08662841151846,5186.2449146996141,6845.5204559399253,-2344.7861936143481,2344.7861936143481,-6845.5204559399253,9242.48569889592,0.0
342154.6038362722,4705833.5216966402,-2500.0,13774.928806585116,1429.3453033025723,7316.192448883211,1886.0613312180935,-985.85841074568634,295.72496060021444,7211.6000191353178,8683.1720102837062,-2881.1593802858661,2881.1593802858661,-8683.1720102837062,12492.481905076302,0.0
347154.6038362722,4705833.5216966402,-2500.0,19661.762650975859,-1503.1991013960019,14232.637899552681,2938.1731478031702,-1919.363806166514,470.00862881849889,10385.621116263783,10971.664179927067,-3308.9847292086956,3308.9847292086956,-10971.664179927067,18366.645595877955,0.0
352154.6038362722,4705833.5216966402,-2500.0,24095.939118158505,-4023.089145130959,27742.805289111922,4562.2020704863398,-3313.3732593134851,687.33358140476912,15827.397499911654,15056.943262040677,-3853.7822928225369,3853.7822928225369,-15056.943262040677,28116.945544579088,0.0
357154.6038362722,4705833.5216966402,-2500.0,25370.142949880916,943.88004996806399,47757.36156652611,7571.1391001748561,-6754.137148563449,1169.6776323552583,25319.838018128834,25263.341802562212,-5063.4658767984547,5063.4658767984547,-25263.341802562212,44046.855313356973,0.0
362154.6038362722,4705833.5216966402,-2500.0,28551.021039253945,24158.804154140282,57055.139198182478,9051.4875889847335,-16197.826150919411,2785.1713169622894,40629.758133753297,45958.224485480096,-5320.5245788022985,5320.5245788022985,-45958.224485480096,70672.746105697966,0.0
367154.6038362722,4705833.5216966402,-2500.0,50900.425783969484,55485.921445476568,1365.4722795491323,1453.8664716221101,-23511.002893891797,6482.6967681582883,65933.356890584459,59454.087526000607,-3573.2993277365094,3573.2993277365094,-59454.087526000607,114573.65106506566,1.0
372154.6038362722,4705833.5216966402,-2500.0,74838.277214484158,23876.225495622486,-105579.13470273605,-6100.1683030913009,-14544.606884863164,8123.7601140104343,94552.94788565005,11094.171499705584,3538.2005079694845,-3538.2005079694845,-11094.171499705584,165593.79264428926,0.0
377154.6038362722,4705833.5216966402,-2500.0,46693.992286458313,-43343.794724067804,-140339.52180733727,-2973.8675856041846,-780.65252197821917,5158.3380169955071,103152.53053039724,-60588.793515646386,13419.804873130641,-13419.804873130641,60588.793515646386,186017.74145290692,0.0
382154.6038362722,4705833.5216966402,-2500.0,-713.32682939932465,-74707.418496960207,-109739.68440290052,2311.763343509087,4867.6455043158621,2215.2304723650072,92578.757878328761,-92440.214054861397,19214.249266213832,-19214.249266213832,92440.214054861397,170426.88412380064,0.0
387154.6038362722,4705833.5216966402,-2500.0,-30985.29378030511,-72581.378023475612,-69843.611901319004,4603.1175861632164,5442.980683937637,728.00553109313262,75339.389420173771,-89763.563458311663,19528.987221414594,-19528.987221414594,89763.563458311663,140373.22113491155,0.0
392154.6038362722,4705833.5216966402,-2500.0,-42767.83406601684,-58559.909627390916,-40218.645510740105,4941.1304101318492,4506.3860647417314,110.33740144206962,58797.397228552771,-74282.688835040331,16974.429036271893,-16974.429036271893,74282.688835040331,110261.90325173503,0.0
397154.6038362722,4705833.5216966402,-2500.0,-43667.370935864943,-43351.94680218288,-21356.416295802916,4435.6105927398612,3290.8211157764299,-105.36473567983569,44961.346056110822,-57102.826802669304,13680.845693909905,-13680.845693909905,57102.826802669304,84576.612879865992,0.0
402154.6038362722,4705833.5216966402,-2500.0,-39411.772267446788,-30599.316737930443,-10347.827619106751,3640.3250068250027,2234.687957440744,-151.82878254117642,34029.722883455688,-42254.464268882737,10600.633319258275,-10600.633319258275,42254.464268882737,64099.135410467192,0.0
407154.6038362722,4705833.5216966402,-2500.0,-33398.120106753588,-21063.35431759811,-4362.8328070927555,2840.7877974229641,1458.3016128732654,-137.83887367439749,25696.259063757654,-30738.3269831336,8056.9516064973341,-8056.9516064973341,30738.3269831336,48426.823528347544,0.0
412154.6038362722,4705833.5216966402,-2500.0,-27387.599316512897,-14362.801239419303,-1302.7647167721029,2159.4577723913594,935.05032265015973,-109.00765318028959,19482.840331042426,-22294.196204267024,6086.2271730691027,-6086.2271730691027,22294.196204267024,36721.458533640223,0.0
417154.6038362722,4705833.5216966402,-2500.0,-22116.151664731406,-9801.9008681782816,165.88555676266452,1623.9691293693261,597.25357390117358,-81.5393460694076,14897.059687626104,-16265.948633512449,4608.8332394399467,-4608.8332394399467,16265.948633512449,28075.808367899022,0.0
422154.6038362722,4705833.5216966402,-2500.0,-17771.283486195392,-6736.1278792159292,808.35926980736315,1219.8341096087793,382.99960305934161,-59.655005239019552,11515.956713971973,-11999.482662558104,3516.7780320790425,-3516.7780320790425,11999.482662558104,21699.296920708606,0.0
427154.6038362722,4705833.5216966402,-2500.0,-14297.451024926277,-4676.8901603249769,1037.5004610774486,920.42587290788674,247.53906580269563,-43.384184262662778,9010.3745655782732,-8973.2715293242654,2711.6014649646686,-2711.6014649646686,8973.2715293242654,16973.47984184288,0.0
432154.6038362722,4705833.5216966402,-2500.0,-11557.546801565095,-3285.195011269609,1068.167383697501,699.91119569195405,161.48324933032663,-31.62884604614505,7137.3801299007318,-6808.6861967128352,2115.3682373881456,-2115.3682373881456,6808.6861967128352,13440.903017556037,0.0
437154.6038362722,4705833.5216966402,-2500.0,-9405.3877714320734,-2335.2639794306069,1009.6420048602962,537.27417339731744,106.32066650973165,-23.219314067486035,5722.3109680540292,-5242.2017217096609,1670.2212693619058,-1670.2212693619058,5242.2017217096609,10772.309073696279,0.0
442154.6038362722,4705833.5216966402,-2500.0,-7712.6224561932313,-1679.189148715669,916.38733822051347,416.65018883468298,70.57403033073949,-17.204389166558084,4640.8896066960333,-4093.4663242840611,1334.4592662056161,-1334.4592662056161,4093.4663242840611,8733.2808381649975,0.0
447154.6038362722,4705833.5216966402,-2500.0,-6375.2108947328079,-1220.3880440609771,814.79321418690415,326.47250814154035,47.142938986719003,-12.880400234349764,3804.7827311653455,-3239.4445940708988,1078.3711571373856,-1078.3711571373856,3239.4445940708988,7157.1423913336275,0.0
452154.6038362722,4705833.5216966402,-2500.0,-5311.9451245873051,-895.52445495300992,717.00957195512569,258.43534215150481,31.611937628178715,-9.7473509270945513,3150.9264111610146,-2595.8344137810104,880.82255230038163,-880.82255230038163,2595.8344137810104,5924.8748817793803,0.0
457154.6038362722,4705833.5216966402,-2500.0,-4460.5621551686891,-662.71327061133854,628.04823002574153,206.60224111036857,21.209969545498112,-7.4558689089212846,2633.9559368391128,-2104.3777496795074,726.71945369468995,-726.71945369468995,2104.3777496795074,4950.8542735624696,0.0
462154.6038362722,4705833.5216966402,-2500.0,-3773.6705959447722,-493.95931802874617,549.41803796804902,166.72446784341483,14.178428052010654,-5.7629543308680695,2220.9352072101447,-1724.3795052755013,605.20422456021186,-605.20422456021186,1724.3795052755013,4172.9134049133709,0.0
467154.6038362722,4705833.5216966402,-2500.0,-3215.2405815231195,-370.33013850842485,480.97891967868821,135.74624835663946,9.3876744997188979,-4.4994062349621196,1887.7076629790895,-1427.0734550549396,508.39614781260155,-508.39614781260155,1427.0734550549396,3545.4579537674513,0.0
472154.6038362722,4705833.5216966402,-2500.0,-2757.8153138554767,-278.86625498023579,421.8808922459329,111.45457047290122,6.103129383013278,-3.5466797792919635,1616.3705695849203,-1191.8755208370681,430.51892946112412,-430.51892946112412,1191.8755208370681,3034.6998893297873,0.0
477154.6038362722,4705833.5216966402,-2500.0,-2380.3764650550688,-210.58901683183569,371.03092018861162,92.233766616418947,3.8413103566662818,-2.8211749180262937,1393.5169463178131,-1003.8755646678592,367.29546375751721,-367.29546375751721,1003.8755646678592,2615.3388394743388,0.0
267154.6038362722,4710833.5216966402,-2500.0,-580.45759625058383,540.28133003089101,224.59402412421315,-21.346100452149411,19.20144927063118,-0.74554039465834043,674.25207511098642,241.50305961924136,-37.575514150194962,37.575514150194962,-241.50305961924136,1181.3809085010789,1.0
272154.6038362722,4710833.5216966402,-2500.0,-605.48051769005042,618.24442201350678,248.90563196349416,-23.126909834916585,22.462068568004494,-0.84092427926661573,752.06544478854357,297.23273529256772,-52.784550353239794,52.784550353239794,-297.23273529256772,1314.8253602659493,0.0
277154.6038362722,4710833.5216966402,-2500.0,-623.30402628891227,709.62494121148461,276.6239384261105,-24.721323388277394,26.323085311258385,-0.93436393520197636,840.93398723587347,366.8750988849132,-72.620752242265979,72.620752242265979,-366.8750988849132,1466.8814854211539,0.0
282154.6038362722,4710833.5216966402,-2500.0,-629.018156057493,816.71353532486114,308.43948652079592,-25.867503597781457,30.866140582703668,-1.0120326804572302,942.43310175659667,454.29387913995868,-98.539669931174245,98.539669931174245,-454.29387913995868,1640.2493463375581,0.0
287154.6038362722,4710833.5216966402,-2500.0,-615.29105737665748,941.9435036102376,345.322748404778,-26.130333764366036,36.147454691348763,-1.0476410442616939,1058.2028644457941,564.50200957974926,-132.47564436608138,132.47564436608138,-564.50200957974926,1837.8694575450179,0.0
292154.6038362722,4710833.5216966402,-2500.0,-571.21335548336981,1087.6354432733774,388.73305345333642,-24.79534128498878,42.153520576970145,-0.99260453707767948,1189.798228577642,703.99155266992511,-176.99282192582825,176.99282192582825,-703.99155266992511,2062.8366895614863,0.0
297154.6038362722,4710833.5216966402,-2500.0,-480.60457568764269,1255.4545371813472,441.02376515198534,-20.698072116546385,48.712755803228688,-0.75836652885605371,1338.394462483288,881.12218167207789,-235.46567087326611,235.46567087326611,-881.12218167207789,2318.2565929092534,0.0
302154.6038362722,4710833.5216966402,-2500.0,-319.57147599555157,1445.336728922267,506.243226755124,-11.951096903649375,55.323065709679518,-0.18459836091972898,1504.2392769678454,1106.5315651361059,-312.26820875386647,312.26820875386647,-1106.5315651361059,2607.072824516682,0.0
307154.6038362722,4710833.5216966402,-2500.0,-53.104939043069685,1653.4585088030851,591.74315546447281,4.486415183440676,60.8200727867832,1.0180477103417271,1685.6736743524871,1393.463853634406,-412.90659170436891,412.90659170436891,-1393.463853634406,2932.0283092652876,0.0
312154.6038362722,4710833.5216966402,-2500.0,369.34488450443394,1868.538880256981,711.44874737334146,33.466783387081357,62.74747600446598,3.3704556027951331,1877.4502821366013,1757.7795285251455,-543.92986500005657,543.92986500005657,-1757.7795285251455,3296.3097634384822,0.0
317154.6038362722,4710833.5216966402,-2500.0,1018.7424863534961,2065.4075918246181,892.56332980861407,82.596770221069548,56.186513666665874,7.8048795238447273,2068.1077741207482,2217.1908502895153,-712.24843225760094,712.24843225760094,-2217.1908502895153,3706.4834794325952,0.0
322154.6038362722,4710833.5216966402,-2500.0,1989.3321917319568,2194.6466006060805,1189.3276358691865,163.4058880390358,31.660869203457295,15.967327813138979,2238.4655116157332,2789.0274250718389,-923.11575840776959,923.11575840776959,-2789.0274250718389,4181.866578855077,0.0
327154.6038362722,4710833.5216966402,-2500.0,3392.2078173245013,2168.5271824105953,1710.8562946078241,292.27920370509139,-28.336435129000197,30.681650917824228,2489.6509482399442,3486.0994606966769,-1175.5302714036895,1175.5302714036895,-3486.0994606966769,4779.2378737433082,0.0
332154.6038362722,4710833.5216966402,-2500.0,5321.7833045437119,1850.8900907377308,2674.8781787581461,489.74041161021717,-154.21484960072243,56.541268425060125,3166.8753225740534,4313.1848535806903,-1453.8768300049421,1453.8768300049421,-4313.1848535806903,5644.5150691352246,0.0
337154.6038362722,4710833.5216966402,-2500.0,7760.8741866151222,1084.536417181195,4498.9885535460089,775.4563073954298,-393.65944358994034,100.42893484277909,4086.1852263264163,5279.3009308713354,-1718.2820564069659,1718.2820564069659,-5279.3009308713354,7080.4224080313834,0.0
342154.6038362722,4710833.5216966402,-2500.0,10390.406275659865,-142.00905763715744,7901.4261674703275,1158.3901962023278,-810.66363775150057,172.04060718352039,5288.5467615569432,6478.1775827524289,-1911.3853345532921,1911.3853345532921,-6478.1775827524289,9551.6668642001041,0.0
347154.6038362722,4710833.5216966402,-2500.0,12395.276494759011,-1183.206160845069,13786.333491823187,1633.8751354360566,-1485.0558230359068,287.820007618955,7413.2569987916086,8348.9492555046963,-2029.0399018662274,2029.0399018662274,-8348.9492555046963,13571.751948239023,0.0
352154.6038362722,4710833.5216966402,-2500.0,12815.748396336005,175.73138555457845,22137.285617668196,2180.1812376653002,-2577.3540856245168,489.26682080785395,11310.778035701545,12122.370740407983,-2271.4178989257316,2271.4178989257316,-12122.370740407983,19698.10748548534,0.0
357154.6038362722,4710833.5216966402,-2500.0,12371.843575974417,7769.095267339233,28708.537661372589,2498.6949910048625,-4417.5332541678708,862.96155975989461,16558.924184706771,19531.593785671175,-3020.1411345780489,3020.1411345780489,-19531.593785671175,29081.089690984765,0.0
362154.6038362722,4710833.5216966402,-2500.0,15715.712734365065,22689.312301731701,20964.868788642514,1421.6615992338322,-6523.2240346243098,1431.3817228630421,24675.059296177307,29281.407568339571,-4443.3466200784951,4443.3466200784951,-29281.407568339571,44550.10474781278,0.0
367154.6038362722,4710833.5216966402,-2500.0,28019.991481856901,33050.311480710785,-15334.783762939185,-1340.2691932259822,-5841.5401758564458,1881.5406064502483,39988.578981985687,30168.757960941155,-5910.2689534177971,5910.2689534177971,-30168.757960941155,69385.571223906489,0.0
372154.6038362722,4710833.5216966402,-2500.0,39565.785818012875,18324.501587261246,-65627.751484834313,-2612.383805886343,-997.56996562853226,1710.0293729649256,55790.993913813152,7692.9333637649215,-4482.3899087894006,4482.3899087894006,-7692.9333637649215,97710.689378409224,0.0
377154.6038362722,4710833.5216966402,-2500.0,32544.342414101196,-14242.431376133558,-91451.093478380615,-793.33011666475568,3934.2371163038947,1009.1309494671486,63712.962780862486,-27609.238471926954,984.89628914437162,-984.89628914437162,27609.238471926954,114525.01355757365,0.0
382154.6038362722,4710833.5216966402,-2500.0,11403.104178874508,-38843.159811474543,-84824.605706184346,1756.2277507788262,5890.9591137473517,359.96957256125023,62028.092476453836,-52202.436539046001,6844.2709279929622,-6844.2709279929622,52202.436539046001,113836.74194448316,0.0
387154.6038362722,4710833.5216966402,-2500.0,-8796.8635472239403,-46799.92998897592,-63803.070926218723,3223.4231968604772,5593.406958333735,-1.9750220729688541,54511.996558525745,-59384.894023229186,10142.766461876374,-10142.766461876374,59384.894023229186,101402.84361359081,0.0
392154.6038362722,4710833.5216966402,-2500.0,-21267.090011193348,-43663.370071609701,-42738.25205708899,3599.2740862529918,4480.3404305782424,-148.34510929546917,45177.732997971703,-55191.037889743995,10833.640040439121,-10833.640040439121,55191.037889743995,84729.041720201742,0.0
397154.6038362722,4710833.5216966402,-2500.0,-26477.221364804758,-36059.576183087869,-26602.364588332945,3361.377372472256,3299.1218853492942,-181.33822854773905,36236.43240345236,-46352.323341022384,9988.4664016910538,-9988.4664016910538,46352.323341022384,68280.364490816122,0.0
402154.6038362722,4710833.5216966402,-2500.0,-26916.691203727194,-27854.768386807802,-15672.676774714801,2869.5568829266731,2313.5440210654538,-165.30498709449387,28552.865294014984,-36838.42976039138,8522.2612206597423,-8522.2612206597423,36838.42976039138,53941.602181885442,0.0
407154.6038362722,4710833.5216966402,-2500.0,-24826.45777657325,-20719.223023560662,-8790.3263638800399,2327.8017017963666,1576.8567778813983,-133.97906728387701,22317.685726954034,-28419.123668197142,6966.3426439803516,-6966.3426439803516,28419.123668197142,42219.405541637236,0.0
412154.6038362722,4710833.5216966402,-2500.0,-21715.946840400749,-15108.800699637968,-4662.1737168618592,1834.2269270742308,1059.486111603162,-102.5356382872848,17422.249021745414,-21622.412229403806,5566.515545675079,-5566.515545675079,21622.412229403806,32979.823891894572,0.0
417154.6038362722,4710833.5216966402,-2500.0,-18443.600446515775,-10928.479685287122,-2269.984930975817,1423.743393707025,708.75029297742674,-76.291423139855368,13647.896060920155,-16393.045586785884,4402.9997222238399,-4402.9997222238399,16393.045586785884,25841.075960328573,0.0
422154.6038362722,4710833.5216966402,-2500.0,-15422.772212036592,-7900.6893195269722,-921.76208924669641,1098.6979264404229,475.14910031358858,-56.090322986029598,10761.257925948044,-12466.074953639092,3475.0599666880244,-3475.0599666880244,12466.074953639092,20375.062792738994,0.0
427154.6038362722,4710833.5216966402,-2500.0,-12807.210525064593,-5735.9992252272223,-183.53347494636307,847.97216856760713,320.51246370119492,-41.138048979685998,8556.1668803509056,-9546.6055998029788,2750.3051642050395,-2750.3051642050395,9546.6055998029788,16197.082115103829,0.0
432154.6038362722,4710833.5216966402,-2500.0,-10618.029062761099,-4193.8076995947631,204.70747700922882,657.0144591417685,218.01896383624231,-30.269128024375121,6866.1090284894453,-7379.0167477733285,2189.2628781379772,-2189.2628781379772,7379.0167477733285,12994.053262657744,0.0
437154.6038362722,4710833.5216966402,-2500.0,-8817.994857056723,-3092.5345849821588,394.84968547285206,512.21171646072662,149.69247418905439,-22.418163906056616,5562.8241657269482,-5763.228428601582,1755.6657894807358,-1755.6657894807358,5763.228428601582,10523.878073689208,0.0
442154.6038362722,4710833.5216966402,-2500.0,-7350.3416948398353,-2301.4964837160292,474.4434858604838,402.31939452511182,103.75955687507479,-16.744060103279054,4549.9559341484273,-4550.140185986842,1419.6367385833114,-1419.6367385833114,4550.140185986842,8604.2797673628138,0.0
447154.6038362722,4710833.5216966402,-2500.0,-6156.9933386943967,-1728.7955452729293,493.59841556250223,318.58552422610239,72.578554980821636,-12.624231149381826,3755.9643099529258,-3631.2437204704079,1157.8120730269115,-1157.8120730269115,3631.2437204704079,7099.7497949243916,0.0
452154.6038362722,4710833.5216966402,-2500.0,-5185.9729293827431,-1310.4344096836001,480.85712567299214,254.40225038087539,51.19290515905643,-9.6119219110705121,3127.9348516533955,-2928.3479469942122,952.39117676424189,-952.39117676424189,2928.3479469942122,5909.9794163311553,0.0
457154.6038362722,4710833.5216966402,-2500.0,-4393.5757947522989,-1001.9281966380591,452.38405912152837,204.85533284261737,36.37362847202423,-7.3908842018526606,2626.6859970590608,-2385.2146073778354,789.97676258687488,-789.97676258687488,2385.2146073778354,4960.6567675142251,0.0
462154.6038362722,4710833.5216966402,-2500.0,-3744.2205319420091,-772.26428464813785,417.24104101072027,166.31261290921975,26.001622334056712,-5.7383933717259126,2223.0802357671791,-1961.2745339108656,660.52739919445321,-660.52739919445321,1961.2745339108656,4196.5039792070093,0.0
467154.6038362722,4710833.5216966402,-2500.0,-3209.432094372647,-599.69714831543115,380.41339799976492,136.09186606387922,18.673474105882324,-4.4973788084769613,1895.3170176637882,-1627.0918177866497,556.51273692038797,-556.51273692038797,1627.0918177866497,3576.1565739133657,0.0
472154.6038362722,4710833.5216966402,-2500.0,-2766.616748799172,-468.86483607563679,344.54872697480988,112.20753177978976,13.450426662536254,-3.5566429265425237,1626.9675046549341,-1361.1480704230612,472.26581626441623,-472.26581626441623,1361.1480704230612,3068.4412318724185,0.0
267154.6038362722,4715833.5216966402,-2500.0,-403.72536555523175,517.64905368901714,193.10302775315833,-15.656266541854334,17.798686269866884,-0.6152219717760099,597.92163530209302,285.01217980400514,-60.820050276865402,60.820050276865402,-285.01217980400514,1041.0003379913053,0.0
272154.6038362722,4715833.5216966402,-2500.0,-399.56485955326605,585.42321375674749,212.45628095452395,-16.306690681545653,20.536681585939714,-0.68182144554003365,661.05167533143003,343.21371852461834,-78.392038162425081,78.392038162425081,-343.21371852461834,1148.8153509494362,0.0
277154.6038362722,4715833.5216966402,-2500.0,-383.03047214948793,662.83806608118584,234.5900897916857,-16.544188327359539,23.67760416693676,-0.74144319898956934,731.77924188418729,414.39036682245057,-100.54775957595595,100.54775957595595,-414.39036682245057,1269.6678377285627,0.0
282154.6038362722,4715833.5216966402,-2500.0,-348.55466606901848,750.77512048498102,260.28734318339934,-16.081741916058792,27.226036194122337,-0.78126780293384834,810.74288526397095,501.65746034177579,-128.51486493668727,128.51486493668727,-501.65746034177579,1404.9503041868086,0.0
287154.6038362722,4715833.5216966402,-2500.0,-288.36318892176229,849.73362018783553,290.77806884529406,-14.479951353807536,31.132051464776861,-0.77860814165478465,898.37533990873851,608.86306579474433,-163.83676398222633,163.83676398222633,-608.86306579474433,1556.0320332224831,0.0
292154.6038362722,4715833.5216966402,-2500.0,-191.65666012559868,959.40639446144064,328.08096913057665,-11.070541095621085,35.239097188069287,-0.69402709104618798,994.68344406642132,740.70516223363268,-208.42517144029637,208.42517144029637,-740.70516223363268,1724.186302597044,0.0
297154.6038362722,4715833.5216966402,-2500.0,-43.557261115357761,1077.9591005487614,375.62720052760727,-4.8442950252776518,39.190958934531217,-0.45976769673341256,1098.878392082187,902.81103985644472,-264.58794012585366,264.58794012585366,-902.81103985644472,1910.5425590607006,0.0
302154.6038362722,4715833.5216966402,-2500.0,176.14664825570841,1200.8453540043206,439.40753916526819,5.7083305792804317,42.268013329981244,0.039676437184542085,1208.7674950850671,1101.7184251017079,-334.98827963798311,334.98827963798311,-1101.7184251017079,2116.1824692520718,0.0
307154.6038362722,4715833.5216966402,-2500.0,494.26183633327889,1318.9373954780817,530.08690536529446,22.811641713161041,43.103460522161413,0.99979816418035783,1319.7765364062943,1344.6592228134709,-422.44998129856799,422.44998129856799,-1344.6592228134709,2342.6874349621603,0.0
312154.6038362722,4715833.5216966402,-2500.0,944.86234919639139,1415.7647677993407,666.89004545376736,49.662186030452986,39.203219533703184,2.7483967169174459,1423.4800449197751,1639.0147569723338,-529.45503267913978,529.45503267913978,-1639.0147569723338,2593.8668092253415,0.0
317154.6038362722,4715833.5216966402,-2500.0,1567.9061453463464,1463.9434667562814,884.64692749802191,90.658220208978804,26.166280979048143,5.8271499401456817,1506.9309648311369,1991.3721649598572,-657.09160047618911,657.09160047618911,-1991.3721649598572,2880.2311117470804,0.0
322154.6038362722,4715833.5216966402,-2500.0,2402.617977506718,1422.0124908638982,1246.1473718671944,151.38787000059997,-3.489314122232082,11.110515081200699,1691.1431073118979,2406.5259190882298,-803.16706212700035,803.16706212700035,-2406.5259190882298,3228.9586682226868,0.0
327154.6038362722,4715833.5216966402,-2500.0,3469.6545305708164,1236.2959007480383,1862.2124438996091,237.88152493399366,-61.843059615652685,19.95975919700377,2079.7860787837967,2888.2711254553242,-959.47649810853352,959.47649810853352,-2888.2711254553242,3702.1073364195804,0.0
332154.6038362722,4715833.5216966402,-2500.0,4733.3835471097673,860.9148328813626,2918.6424839585111,354.23970448963951,-166.88524089204557,34.393612248582251,2551.1698546221901,3448.0249861544416,-1109.6017913548296,1109.6017913548296,-3448.0249861544416,4419.2616971736343,0.0
337154.6038362722,4715833.5216966402,-2500.0,6040.2777189737553,325.88939466384869,4692.5923086251541,497.63616455612083,-342.0907481841187,57.285294860370811,3077.8204484839252,4136.1762184967547,-1232.6965960051357,1232.6965960051357,-4136.1762184967547,5564.3398441797008,0.0
342154.6038362722,4715833.5216966402,-2500.0,7064.2100305755866,-99.054769946741601,7487.1813580349717,650.76166531167803,-612.07018670572609,92.859285079002717,3801.1480591738105,5120.3033218809542,-1326.1413250232581,1326.1413250232581,-5120.3033218809542,7358.7441155011938,0.0
347154.6038362722,4715833.5216966402,-2500.0,7390.6061747587582,362.33374879695651,11295.708392915625,772.52040598583994,-994.21977971453509,148.26201454043442,5715.8781356378549,6806.6371028161029,-1460.5692444571123,1460.5692444571123,-6806.6371028161029,10056.495711464218,0.0
352154.6038362722,4715833.5216966402,-2500.0,6989.6390356459933,3106.5611721796863,14917.043683653857,777.19828504603652,-1482.3283614578775,235.15146129783599,8083.4893432260224,9826.7213940206966,-1837.5021944626587,1837.5021944626587,-9826.7213940206966,14119.793682024716,0.0
357154.6038362722,4715833.5216966402,-2500.0,7062.9672509032307,9301.8242721197148,14698.893598509709,488.247537566956,-1958.3059187504198,359.27051831577052,10997.773472111738,14349.507902873385,-2718.4496563955117,2718.4496563955117,-14349.507902873385,20645.282830020726,0.0
362154.6038362722,4715833.5216966402,-2500.0,10080.305670383837,17343.525181040884,4827.3302061982204,-272.85311481218866,-1945.0881267968361,481.50550813457613,17664.432812651499,18316.22540814204,-4093.2162727009945,4093.2162727009945,-18316.22540814204,31357.224065440147,1.0
367154.6038362722,4715833.5216966402,-2500.0,16925.913336821348,20718.459382043326,-17385.663745953552,-1175.2844784854829,-707.14310988440343,501.49516591478243,26935.193740574163,16391.095421495942,-5174.227052775801,5174.227052775801,-16391.095421495942,46657.32371766556,0.0
372154.6038362722,4715833.5216966402,-2500.0,22872.741989891452,12714.277894973118,-43824.732398691973,-1299.2916883672449,1630.8931544223981,358.59637818077977,35745.941386125633,4283.2056187692606,-4479.699548999396,4479.699548999396,-4283.2056187692606,62863.389134000427,0.0
377154.6038362722,4715833.5216966402,-2500.0,21244.99554900709,-4026.8079676188408,-60248.973597499251,-340.87162241443934,3749.5775112722113,129.9166776502081,41066.293377588721,-14147.744635811951,-1528.8957250697986,1528.8957250697986,14147.744635811951,73875.125035963196,0.0
382154.6038362722,4715833.5216966402,-2500.0,11934.472776278692,-19806.892364744413,-61107.299728944832,977.96596546744206,4659.8940290342443,-59.078714368525908,41717.772271209054,-29925.430055610617,2255.3579167548687,-2255.3579167548687,29925.430055610617,76471.35145513076,0.0
387154.6038362722,4715833.5216966402,-2500.0,317.97014274960389,-28502.166212366159,-51513.926409683962,1931.7915812973167,4469.9459914299896,-158.50835823154745,38707.201412837399,-37966.355107394673,5195.4307745691731,-5195.4307745691731,37966.355107394673,71905.026887161497,0.0
392154.6038362722,4715833.5216966402,-2500.0,-9087.7645629345898,-30198.230601023151,-38669.54779159202,2339.4252605415554,3735.8391331318371,-186.31399490917565,33794.435563825027,-38842.931979152025,6681.9781433688659,-6681.9781433688659,38842.931979152025,63338.188404459623,0.0
397154.6038362722,4715833.5216966402,-2500.0,-14797.128943571506,-27584.633497219522,-26921.199655808443,2337.730569328718,2884.5670534306537,-174.72666032775061,28382.969331520319,-35370.863076183756,6952.6902831356238,-6952.6902831356238,35370.863076183756,53499.382499823958,0.0
402154.6038362722,4715833.5216966402,-2500.0,-17235.680580362226,-23167.30262414792,-17799.970071651904,2111.7906476387411,2123.2209495519292,-147.20343147547854,23279.035951893999,-30087.443131809923,6485.7337897044981,-6485.7337897044981,30087.443131809923,44034.670833696866,0.0
407154.6038362722,4715833.5216966402,-2500.0,-17427.00712788511,-18505.898055110782,-11332.927518825323,1798.405081458412,1518.1881435421899,-116.82922556460713,18838.534142275912,-24577.632168162621,5683.0006973168092,-5683.0006973168092,24577.632168162621,35711.520827527012,0.0
412154.6038362722,4715833.5216966402,-2500.0,-16331.118482389536,-14349.522565006549,-6997.2082878285273,1478.0275778520249,1068.0046070359042,-89.5861383513882,15151.443452257434,-19617.881118501879,4799.7108966091446,-4799.7108966091446,19617.881118501879,28757.855269417738,0.0
417154.6038362722,4715833.5216966402,-2500.0,-14640.820675693443,-10944.855484666776,-4193.2420558276226,1189.6372112235247,745.7730988080508,-67.4118194176218,12173.268680763167,-15477.263166996394,3969.4870869725364,-3969.4870869725364,15477.263166996394,23120.621472907846,0.0
422154.6038362722,4715833.5216966402,-2500.0,-12784.741238822438,-8284.4633007571483,-2422.5328892881103,946.89987669967195,520.14765518532522,-50.285047902952904,9804.7496367523163,-12161.474668043167,3247.4888047525537,-3247.4888047525537,12161.474668043167,18627.484089729456,0.0
427154.6038362722,4715833.5216966402,-2500.0,-10995.473553136437,-6259.7380854126468,-1322.8770323208105,750.22176505866491,363.87489380757262,-37.433455014109526,7935.069778258392,-9565.7884306974156,2645.6808585349208,-2645.6808585349208,9565.7884306974156,15075.932519009419,0.0
432154.6038362722,4715833.5216966402,-2500.0,-9380.3631958657352,-4739.7717900396401,-649.30198324217656,594.25540251718257,256.0032344461485,-27.932596372622577,6462.1177848283751,-7556.2757574401703,2155.6660552322182,-2155.6660552322182,7556.2757574401703,12275.792652586511,0.0
437154.6038362722,4715833.5216966402,-2500.0,-7974.8711982570385,-3605.190971311933,-242.72229233972018,471.96456747356888,181.42321582310552,-20.951832332071582,5299.806100607464,-6006.43734230057,1761.5040298974127,-1761.5040298974127,6006.43734230057,10065.250701665649,0.0
442154.6038362722,4715833.5216966402,-2500.0,-6777.1386906545722,-2758.7200756904649,-2.1621180459107108,376.53515708578033,129.61146315804828,-15.825405948660393,4378.9295774838411,-4810.0443075866197,1446.0840875487636,-1446.0840875487636,4810.0443075866197,8313.5593295020208,0.0
447154.6038362722,4715833.5216966402,-2500.0,-5768.3099928076872,-2125.4329913742172,135.70038300105523,302.10625539195775,93.371044940793666,-12.049053915252935,3645.3042560436406,-3882.9067836846825,1193.8643175066597,-1193.8643175066597,3882.9067836846825,6918.0350846464498,0.0
452154.6038362722,4715833.5216966402,-2500.0,-4923.6018540349269,-1649.3238639115068,210.35313199874847,243.926100718915,67.819374971665738,-9.2522566911005768,3057.102756174866,-3160.3069179028425,991.76040948143782,-991.76040948143782,3160.3069179028425,5799.2570213814452,0.0
457154.6038362722,4715833.5216966402,-2500.0,-4217.8751493527352,-1289.1778278181223,246.37485553272657,198.26379171139399,49.649294440774327,-7.1667560444130896,2582.2493033584487,-2593.2738857213244,829.18577220481848,-829.18577220481848,2593.2738857213244,4896.2432006630734,0.0
462154.6038362722,4715833.5216966402,-2500.0,-3628.1384928595949,-1014.8763385938028,259.06185365286717,162.24081203876636,36.615044163956156,-5.5997459566438641,2196.1881137205487,-2145.0117114466452,697.75618839807385,-697.75618839807385,2145.0117114466452,4162.2697906415087,0.0
467154.6038362722,4715833.5216966402,-2500.0,-3134.4420200016725,-804.44757989554466,257.93430958905788,133.6561186186504,27.183748333917798,-4.4127769232973177,1880.0950157555492,-1787.9198636989881,590.9059225292516,-590.9059225292516,1787.9198636989881,3561.4996248771154,0.0
472154.6038362722,4715833.5216966402,-2500.0,-2719.9743029513584,-641.83569021199037,248.9116873522801,110.83273839176603,20.301967758974023,-3.5062440265030506,1619.4902124694734,-1501.2598184983854,503.51892678342602,-503.51892678342602,1501.2598184983854,3066.3571436483853,0.0
272154.6038362722,4720833.5216966402,-2500.0,-223.65401035512838,537.51036916286614,184.67137486422641,-10.499961417769416,18.11986401650725,-0.54110032042392875,575.35165691884868,368.91218710817884,-95.686359399841251,95.686359399841251,-368.91218710817884,996.73178576757175,0.0
277154.6038362722,4720833.5216966402,-2500.0,-182.43346868796993,599.1912284379257,204.14066675371345,-9.7427784493441454,20.477501021035447,-0.5740722613998861,630.00742815714557,437.41901567935781,-118.19768232933333,118.19768232933333,-437.41901567935781,1091.2577135426636,0.0
282154.6038362722,4720833.5216966402,-2500.0,-120.80272239519914,666.51352875768589,227.60633599859139,-8.1707455654358263,22.983366742521078,-0.58579379228716366,689.35147610526872,519.53347577051034,-145.77939619942936,145.77939619942936,-519.53347577051034,1195.1828963538787,0.0
287154.6038362722,4720833.5216966402,-2500.0,-31.748381112530122,738.54134849796208,256.83890683409805,-5.3907208792431947,25.506072612134538,-0.55762895908066445,752.98229832265906,617.92038659564264,-179.50700826185511,179.50700826185511,-617.92038659564264,1309.0542618126856,0.0
292154.6038362722,4720833.5216966402,-2500.0,93.834191418059575,813.23404514807658,294.72070809698732,-0.84470480172961815,27.791364159147381,-0.45910364214734584,819.90588097173008,735.61261000576042,-220.59431976621971,220.59431976621971,-735.61261000576042,1433.3725707489054,0.0
297154.6038362722,4720833.5216966402,-2500.0,267.52203067157234,886.81826613331964,346.00700641389113,6.2483264476548479,29.378875042111449,-0.24096653180304606,888.17395628252416,875.94091540547265,-270.3272578703673,270.3272578703673,-875.94091540547265,1568.7315504949649,0.0
302154.6038362722,4720833.5216966402,-2500.0,503.54374567591003,952.92174937466177,418.61031264128894,16.958435587426013,29.469307819145946,0.17548201742621863,954.33657107542604,1042.3755698863661,-329.91198061769182,329.91198061769182,-1042.3755698863661,1716.242456475467,0.0
307154.6038362722,4720833.5216966402,-2500.0,818.3862547975391,1001.5033988140445,525.7400018602782,32.701851171277816,26.718629723416047,0.91429439865417195,1012.6671080783714,1238.2659864521256,-400.18064945718902,400.18064945718902,-1238.2659864521256,1878.5763736260039,0.0
312154.6038362722,4720833.5216966402,-2500.0,1229.1049923499588,1017.8471819160353,689.37438707980675,55.244988637245058,18.934786109887096,2.1673940071885855,1055.5555645257009,1466.545115021906,-481.08756327202514,481.08756327202514,-1466.545115021906,2062.2171286741541,0.0
317154.6038362722,4720833.5216966402,-2500.0,1749.0495807542272,982.495231292732,945.60710869612058,86.556563399189628,2.6697617549632344,4.2238507450778986,1208.1491913926327,1729.7149569972444,-570.9614229047894,570.9614229047894,-1729.7149569972444,2281.7663494767507,0.0
322154.6038362722,4720833.5216966402,-2500.0,2379.0404994071118,874.38032491463059,1352.0100465334594,128.31481873624145,-27.231039277455714,7.502402657455459,1443.806151293556,2031.0612040467449,-665.65508709297785,665.65508709297785,-2031.0612040467449,2566.8237521046717,0.0
327154.6038362722,4720833.5216966402,-2500.0,3091.894719042929,682.17569072403546,1995.175346605479,180.75184520663427,-77.877237410141149,12.57726564558952,1714.5818320276651,2379.3950004565618,-758.270296739331,758.270296739331,-2379.3950004565618,2969.8723130216604,0.0
332154.6038362722,4720833.5216966402,-2500.0,3810.8401449442872,433.14844014493985,2990.3088707936859,240.44687819976204,-157.7626120170232,20.183543157116475,2005.0708451958869,2801.7861198297278,-841.3617407384088,841.3617407384088,-2801.7861198297278,3569.7283784287247,0.0
337154.6038362722,4720833.5216966402,-2500.0,4393.0471389440181,251.5023534088736,4449.1538203973878,296.90280711243145,-274.22121404173038,31.204761795355829,2341.0413780988711,3369.9123634443949,-915.44898780809876,915.44898780809876,-3369.9123634443949,4466.9174313181575,0.0
342154.6038362722,4720833.5216966402,-2500.0,4655.0343038379842,445.51064464243115,6364.3545714456859,328.51640292914709,-427.37007190303245,46.684621715295442,3250.5285685793483,4237.2338056711997,-1008.1532418264346,1008.1532418264346,-4237.2338056711997,5788.1734512171797,0.0
347154.6038362722,4720833.5216966402,-2500.0,4508.0638283511962,1561.8024557260007,8338.3243662124878,299.58655717955992,-598.92671538104935,67.773101505852352,4467.0226284034306,5645.189509364749,-1199.6840643727905,1199.6840643727905,-5645.189509364749,7749.6854486829443,0.0
352154.6038362722,4720833.5216966402,-2500.0,4237.2515754387323,4213.1830280136382,9169.0208060736732,161.54671405649646,-732.68535545441807,94.584724874926465,5839.2243802847761,7773.08280932875,-1622.5140402751758,1622.5140402751758,-7773.08280932875,10810.005665158815,0.0
357154.6038362722,4720833.5216966402,-2500.0,4719.0726116484548,8416.7358261283025,6659.2090411240824,-127.70282625113735,-702.99940065441672,121.60405097271463,8509.345849162286,10273.873572443235,-2372.1875429308984,2372.1875429308984,-10273.873572443235,15744.09213569555,0.0
362154.6038362722,4720833.5216966402,-2500.0,7003.3064168466462,12606.415702005475,-1484.0131419394124,-530.94292999357526,-307.54187051543022,131.41306750142996,13313.373274865919,11664.989125285116,-3307.3370292037616,3307.3370292037616,-11664.989125285116,23212.672280768129,0.0
367154.6038362722,4720833.5216966402,-2500.0,10948.298180248938,13592.060643064484,-15224.987801400894,-835.84782079746208,591.93122218405847,101.12750473611713,18894.747148907391,9528.4648816115478,-3894.2569378489693,3894.2569378489693,-9528.4648816115478,32805.111196080157,0.0
372154.6038362722,4720833.5216966402,-2500.0,14253.896870493632,8896.0776426312514,-30359.337352876613,-751.44184888832558,1806.717904889204,27.936253629411958,24077.07192451238,2451.3243672130584,-3443.5335912901,3443.5335912901,-2451.3243672130584,42508.349601940106,0.0
377154.6038362722,4720833.5216966402,-2500.0,14074.824566510522,-359.74745805222125,-40820.79189639847,-220.19975570366651,2849.9815588206102,-59.370729283379518,27551.248223019378,-7915.2231089906181,-1765.4122663948947,1765.4122663948947,7915.2231089906181,49621.565097117804,0.0
382154.6038362722,4720833.5216966402,-2500.0,9818.360225140621,-10168.5174169765,-43478.642947010434,500.61350543384481,3349.2739288507237,-125.72919393756159,28649.152496409555,-17807.792585879764,552.53556282783029,-552.53556282783029,17807.792585879764,52479.198591147593,0.0
387154.6038362722,4720833.5216966402,-2500.0,3367.0058304561858,-17112.556618015868,-39579.409543076683,1105.3665553210571,3290.3213301577794,-156.70658975856222,27589.914421364345,-24320.7212471079,2669.6871550174656,-2669.6871550174656,24320.7212471079,51187.334922296061,0.0
392154.6038362722,4720833.5216966402,-2500.0,-2922.5586270647309,-20185.048773865627,-32344.779838076895,1452.6545805986411,2881.0401432423946,-157.99095285295581,25098.96984577406,-26796.753584583603,4082.4494599869413,-4082.4494599869413,26796.753584583603,46991.382529151335,0.0
397154.6038362722,4720833.5216966402,-2500.0,-7652.3501335056499,-20134.754287216903,-24534.460527307154,1555.6164212787578,2340.8810787676994,-141.93058728295651,21936.503740823544,-26126.294940555857,4725.3498411827604,-4725.3498411827604,26126.294940555857,41329.502484749755,0.0
402154.6038362722,4720833.5216966402,-2500.0,-10489.71277228627,-18228.063653665155,-17667.103151647712,1490.714806647464,1811.3385291783527,-118.92394199616818,18662.103662735124,-23613.263882155094,4775.2399669218848,-4775.2399669218848,23613.263882155094,35310.052973473008,0.0
407154.6038362722,4720833.5216966402,-2500.0,-11712.578235033041,-15536.71788001727,-12261.082940057377,1335.6207158190234,1358.0400945290392,-95.372947456206589,15604.955864167274,-20337.9423468729,4461.1401019753121,-4461.1401019753121,20337.9423468729,29608.878433655176,0.0
412154.6038362722,4720833.5216966402,-2500.0,-11795.625326022095,-12746.984602031082,-8282.686093031396,1146.9563426101802,998.46110510882522,-74.409754685991572,12917.849112337162,-16993.094024133312,3971.2224472487842,-3971.2224472487842,16993.094024133312,24554.956080384014,0.0
417154.6038362722,4720833.5216966402,-2500.0,-11185.233705487281,-10212.796350299583,-5478.5061759640612,958.87707473024432,726.08145360927222,-57.108086749107819,10642.069557341782,-13940.747857820916,3430.5129438579015,-3430.5129438579015,13940.747857820916,20251.920514001187,0.0
422154.6038362722,4720833.5216966402,-2500.0,-10218.906748147449,-8068.965784631112,-3556.6508015713484,788.59340733007662,525.48423263378686,-43.452023385653753,8758.2514767978719,-11322.985089871499,2909.881825098455,-2909.881825098455,11322.985089871499,16677.911009096486,0.0
427154.6038362722,4720833.5216966402,-2500.0,-9120.2701334866106,-6329.2726622324062,-2263.3925090933071,642.57500081336752,380.15477386700553,-32.957756732065839,7219.792656354055,-9157.9818877657726,2442.8722440359138,-2442.8722440359138,9157.9818877657726,13752.700325264168,0.0
432154.6038362722,4720833.5216966402,-2500.0,-8022.5742819516454,-4951.8782501687556,-1403.6385443649156,521.35176015667821,275.74389058053794,-25.016170159951621,5972.270341825827,-7404.9462534599224,2040.6107295199531,-2040.6107295199531,7404.9462534599224,11377.290737110457,0.0
437154.6038362722,4720833.5216966402,-2500.0,-6996.651562108992,-3876.5328363447911,-837.00491304427464,422.63794628942901,200.94322976650963,-19.052623239263152,4963.3856100918074,-6001.8956288434674,1702.2886063955643,-1702.2886063955643,6001.8956288434674,9454.5287249127468,0.0
442154.6038362722,4720833.5216966402,-2500.0,-6074.0497507328546,-3042.9653365014256,-466.28934534797975,343.13333386738935,147.30387562220477,-14.585876108807078,4147.2093986711898,-4884.982007524728,1421.6260639760242,-1421.6260639760242,4884.982007524728,7898.1826064797979,0.0
447154.6038362722,4720833.5216966402,-2500.0,-5263.4332451982827,-2398.4516844406248,-225.68848112259622,279.45194428174221,108.7032286604869,-11.237083909860676,3485.3411840411259,-3996.9417799376192,1190.486644455606,-1190.486644455606,3996.9417799376192,6635.7105048544809,0.0
452154.6038362722,4720833.5216966402,-2500.0,-4561.1937386718446,-1899.8440080579696,-71.214781440006519,228.53726657664402,80.779681411700025,-8.7180631823775681,2946.5745062893234,-3289.7871551160779,1000.7108849631511,-1000.7108849631511,3289.7871551160779,5607.9329086876287,0.0
457154.6038362722,4720833.5216966402,-2500.0,-3957.8804672212063,-1513.1095314104832,26.349040410608559,187.80187652580437,60.452804712437327,-6.813824593005025,2505.9641836562396,-2724.7734757332619,844.93104475517328,-844.93104475517328,2724.7734757332619,4767.4238013000995,0.0
462154.6038362722,4720833.5216966402,-2500.0,-3441.8798186964873,-1211.9613607081631,86.362675284819815,155.13282378555337,45.55369625939511,-5.3657267846018648,2143.7489398508405,-2271.2692938209789,716.84364862112409,-716.84364862112409,2271.2692938209789,4076.5480699140267,0.0
467154.6038362722,4720833.5216966402,-2500.0,-3001.3981045311757,-976.32930466370215,121.65412809959552,128.84044053517459,34.554332547292645,-4.2572276791070109,1844.3411696924059,-1905.3362099611782,611.21775481003817,-611.21775481003817,1905.3362099611782,3505.5840444862265,0.0
472154.6038362722,4720833.5216966402,-2500.0,-2625.4373653388084,-790.97583488701025,140.7344098425076,107.58966296188584,26.374878121878602,-3.4027778889695801,1595.4576227768216,-1608.3706458175006,523.7881947891691,-523.7881947891691,1608.3706458175006,3031.0914571623002,0.0
272154.6038362722,4725833.5216966402,-2500.0,-79.445749881650158,480.6446802715418,165.75445840811014,-5.7564126817193797,15.438881485435267,-0.42029824282377271,496.32084082565518,378.25192174610265,-105.8423862919839,105.8423862919839,-378.25192174610265,860.73429060046078,0.0
277154.6038362722,4725833.5216966402,-2500.0,-22.601669597725046,526.76739085006477,185.00232732833965,-4.3459854349944855,17.029424166762258,-0.43352909488632901,537.20508471613516,441.40791440001487,-127.29308541827677,127.29308541827677,-441.40791440001487,934.00587270088238,0.0
282154.6038362722,4725833.5216966402,-2500.0,54.449463442151377,574.56344431487537,209.25641318896896,-2.1168164934189568,18.55157838859953,-0.42607521128629855,580.0775743689012,515.48847540649354,-152.85206824241865,152.85206824241865,-515.48847540649354,1013.3543367126402,0.0
287154.6038362722,4725833.5216966402,-2500.0,157.25464073160023,622.30207494906699,240.85914143858722,1.2473983766000374,19.824491917320628,-0.3834108884873646,624.03514087433405,602.17768527566886,-183.15997483404595,183.15997483404595,-602.17768527566886,1099.0823605901305,0.0
292154.6038362722,4725833.5216966402,-2500.0,292.45963941790228,667.21024771211842,283.468367190668,6.1635763158999319,20.547628463687502,-0.28318661787286653,667.54953588869841,703.24926498076866,-218.83893667954234,218.83893667954234,-703.24926498076866,1191.6527190468989,0.0
297154.6038362722,4725833.5216966402,-2500.0,467.6766143248156,705.10268544574092,342.8098999998478,13.165618896892974,20.236750208162402,-0.091577336534298726,708.16699408889883,820.48321423057519,-260.39581703470805,260.39581703470805,-820.48321423057519,1291.9938351734202,0.0
302154.6038362722,4725833.5216966402,-2500.0,690.96533101846126,730.02653286106431,427.82651804792977,22.905972168983418,18.132658612221803,0.24172767303444526,742.11715992155086,955.56861534719701,-308.06380307918567,308.06380307918567,-955.56861534719701,1402.1275222626819,0.0
307154.6038362722,4725833.5216966402,-2500.0,969.59347469717488,734.13068662157764,552.3640497965622,36.118799519315026,13.079113833099424,0.78971387524623904,768.79781427365958,1110.0617210882042,-361.56969687587315,361.56969687587315,-1110.0617210882042,1526.3414335681439,0.0
312154.6038362722,4725833.5216966402,-2500.0,1307.5687749666904,708.25658268703057,737.46750687368751,53.499798094110709,3.3785608127526547,1.6547457870087485,894.77044809679421,1285.5911797427616,-419.84401736632873,419.84401736632873,-1285.5911797427616,1673.1487541160652,0.0
317154.6038362722,4725833.5216966402,-2500.0,1701.308209605882,644.29636556293542,1014.0384607123599,75.425455376368078,-13.333275534861707,2.9732584769887884,1046.0577669085769,1484.7554816370352,-480.78043254487136,480.78043254487136,-1484.7554816370352,1858.0691120809217,0.0
322154.6038362722,4725833.5216966402,-2500.0,2133.0025087210315,541.26713478266026,1424.6377168975332,101.39644976109867,-40.079720315165702,4.9134433110706093,1215.4777779270908,1713.5908110496316,-541.35808020206298,541.35808020206298,-1713.5908110496316,2106.5738976862849,0.0
327154.6038362722,4725833.5216966402,-2500.0,2562.4514072642783,418.16175493008677,2020.835330033535,129.07470918788377,-80.150680094793216,7.6573733161569244,1397.9705068629221,1987.0219810196304,-598.83440542973858,598.83440542973858,-1987.0219810196304,2455.6942000757458,0.0
332154.6038362722,4725833.5216966402,-2500.0,2921.716788674597,336.82018274319222,2847.620373110959,152.86771069325553,-135.86739870269773,11.358014854155591,1614.3432788417074,2338.67280839145,-654.24222462686566,654.24222462686566,-2338.67280839145,2953.9567169352208,0.0
337154.6038362722,4725833.5216966402,-2500.0,3124.2182448349026,433.68795759499938,3898.7892251152034,162.32832949455789,-205.84885735044264,16.064567410697911,2051.2618944582218,2833.5864260795424,-719.51208940510537,719.51208940510537,-2833.5864260795424,3665.8550948364004,0.0
342154.6038362722,4725833.5216966402,-2500.0,3108.6688330801185,942.94205607454046,5022.3492924398279,141.30556452980372,-280.16385078602218,21.605868344431968,2711.7743641779393,3572.1629453681362,-827.41278052603138,827.41278052603138,-3572.1629453681362,4697.081968851604,0.0
347154.6038362722,4725833.5216966402,-2500.0,2933.7625791036244,2159.0690255559471,5773.4481741347454,69.782581952148746,-333.36812102744432,27.354918602094759,3478.5097795935476,4652.3708244569671,-1036.3318320527753,1036.3318320527753,-4652.3708244569671,6252.7636005523727,0.0
352154.6038362722,4725833.5216966402,-2500.0,2889.3273903693926,4255.5085231724224,5292.0996527310417,-68.357262166561,-317.21529943969693,31.651521825042874,4450.37653215107,6039.8501119477787,-1410.5267343357805,1410.5267343357805,-6039.8501119477787,8686.1915350193412,0.0
357154.6038362722,4725833.5216966402,-2500.0,3482.0003691306956,6934.0389848569703,2426.546556930818,-267.38275831773393,-160.14658635875884,30.842803877290734,6959.3089335850091,7341.8706789094667,-1956.0210465817268,1956.0210465817268,-7341.8706789094667,12406.290550257039,0.0
362154.6038362722,4725833.5216966402,-2500.0,5106.1550951024683,9129.5488862668244,-3638.6465015883186,-473.61154676796701,208.28288997218669,19.292465616992395,10136.199128818804,7659.3752413829689,-2531.0403059271457,2531.0403059271457,-7659.3752413829689,17570.235613415636,0.0
367154.6038362722,4725833.5216966402,-2500.0,7476.9300151910347,9278.2804376294025,-12401.909779685075,-579.54245242000457,793.19569721164521,-7.0785415793834963,13627.823098170149,5875.81921763421,-2824.5021707513943,2824.5021707513943,-5875.81921763421,23739.414457547751,0.0
372154.6038362722,4725833.5216966402,-2500.0,9428.2710339685018,6366.1567545128655,-21644.844262177314,-481.67298203878011,1474.5650657644169,-45.043143702210422,16843.550213133658,1485.605305168199,-2509.203936452966,2509.203936452966,-1485.605305168199,29828.169579954807,0.0
377154.6038362722,4725833.5216966402,-2500.0,9619.5638830852531,917.63397919551892,-28494.396823364819,-172.54481714746393,2046.9198566158668,-83.526189591144828,19153.40730770626,-4728.0953362643504,-1502.7023665789943,1502.7023665789943,4728.0953362643504,34528.044806062768,0.0
382154.6038362722,4725833.5216966402,-2500.0,7583.1709585787648,-5256.9866992741418,-31207.10977592941,242.12734560602502,2350.8701709279217,-110.91372994521925,20182.530167800323,-11037.426701983732,-66.12544885978059,66.12544885978059,11037.426701983732,36947.15807336734,0.0
387154.6038362722,4725833.5216966402,-2500.0,3976.9839052808697,-10319.865122882162,-29933.515056033313,624.82554023961586,2358.9145012913123,-122.16356949472339,19939.542076998969,-15854.714661385386,1378.9330026089901,-1378.9330026089901,15854.714661385386,36947.047457725908,0.0
392154.6038362722,4725833.5216966402,-2500.0,-49.511819525864013,-13344.791805002389,-26054.428309921936,888.53730016748125,2148.2847510694264,-119.22956545890328,18717.064134053922,-18473.810423683644,2504.9746702098282,-2504.9746702098282,18473.810423683644,34998.740273739277,0.0
397154.6038362722,4725833.5216966402,-2500.0,-3558.3779330417042,-14354.865490731845,-21125.311372714172,1014.8096163509224,1826.1984199462936,-107.26473627289232,16903.600322389051,-19039.121031600422,3185.6260254906083,-3185.6260254906083,19039.121031600422,31818.450874320977,0.0
402154.6038362722,4725833.5216966402,-2500.0,-6093.8670338035627,-13878.812511178778,-16267.836733940432,1028.3554351891573,1479.1078741395834,-91.282582378310053,14844.127017922392,-18125.948988499964,3454.5549137675553,-3454.5549137675553,18125.948988499964,28075.094426586355,0.0
407154.6038362722,4725833.5216966402,-2500.0,-7604.4817166096491,-12536.64191012895,-12067.318947177979,967.59216296605803,1158.6694906334801,-74.789616192824326,12784.105885006207,-16366.464840281515,3419.0490117563531,-3419.0490117563531,16366.464840281515,24260.160539649412,0.0
412154.6038362722,4725833.5216966402,-2500.0,-8258.8958568606213,-10827.510395446865,-8711.263593996242,867.37723431334985,887.60150582547033,-59.735142743724715,10869.701994662655,-14262.178670153255,3195.032692080943,-3195.032692080943,14262.178670153255,20675.236200681022,0.0
417154.6038362722,4725833.5216966402,-2500.0,-8295.3450182535089,-9077.5287021597833,-6163.7323858795899,752.94305220846968,670.39600460848771,-46.933709002549932,9170.8992434053835,-12140.917611194829,2876.2225038867737,-2876.2225038867737,12140.917611194829,17471.442068171007,0.0
422154.6038362722,4725833.5216966402,-2500.0,-7936.8619927602031,-7464.7762082157005,-4294.5182979030433,639.91296756930683,502.27864504309628,-36.517664061923227,7707.6783605588162,-10183.278516486294,2526.8610046094618,-2526.8610046094618,10183.278516486294,14698.990019618514,0.0
427154.6038362722,4725833.5216966402,-2500.0,-7358.0762852558628,-6065.4139078375219,-2953.6666768064979,536.55249685931426,374.98282121128864,-28.276472491608864,6471.2676988889725,-8467.8542516029993,2185.5967212415308,-2185.5967212415308,8467.8542516029993,12348.869919360468,0.0
432154.6038362722,4725833.5216966402,-2500.0,-6681.2293488792593,-4895.1434571290356,-2006.086701032953,446.27410513615513,279.86780295825076,-21.86882141520783,5438.8300811004647,-7011.8044333231373,1872.5830710892078,-1872.5830710892078,7011.8044333231373,10382.212148327981,0.0
437154.6038362722,4725833.5216966402,-2500.0,-5984.6825812471643,-3938.641135215707,-1342.965043237805,369.6429119832589,209.30598415108318,-16.93727339369806,4582.523194049887,-5799.9589979659795,1596.0946572399853,-1596.0946572399853,5799.9589979659795,8748.654428677406,0.0
442154.6038362722,4725833.5216966402,-2500.0,-5314.4912290514985,-3167.720816982594,-881.93377576151033,305.74946002301169,157.10772038525786,-13.16089355172463,3874.5316723058045,-4803.0974340785724,1357.4903994229978,-1357.4903994229978,4803.0974340785724,7396.6938451714141,0.0
447154.6038362722,4725833.5216966402,-2500.0,-4694.8289354838325,-2551.3337016928517,-562.91646924038207,253.05402073985761,118.48538262578724,-10.273459829021668,3289.5098857041444,-3988.2698887525676,1154.5128939346057,-1154.5128939346057,3988.2698887525676,6278.8314045390125,0.0
452154.6038362722,4725833.5216966402,-2500.0,-4135.9806752042959,-2060.4288457145376,-343.07521871664926,209.86072517416923,89.840366652433616,-8.0631947977195821,2805.5102838216944,-3324.0106628858252,983.30422724259415,-983.30422724259415,3324.0106628858252,5353.641127554718,0.0
457154.6038362722,4725833.5216966402,-2500.0,-3639.9388004039351,-1669.8815981844739,-192.27471974262204,174.55753861446547,68.513443564371315,-6.3664078397258272,2404.0967908775806,-2782.5636982058004,839.54782424901407,-839.54782424901407,2782.5636982058004,4586.1646129783385,0.0
462154.6038362722,4725833.5216966402,-2500.0,-3204.0865429139344,-1358.8967830732524,-89.475060082945461,145.71952080084262,52.558192285787882,-5.058398782850059,2070.0674080160888,-2340.4994620283051,719.06291666207142,-719.06291666207142,2340.4994620283051,3947.4861611425677,0.0
467154.6038362722,4725833.5216966402,-2500.0,-2823.5107537927265,-1110.705393588398,-20.039434029395348,122.13792913789177,40.556371186229647,-4.0450318130777507,1791.0262089850803,-1978.5480502200439,618.07680591020971,-618.07680591020971,1978.5480502200439,3413.9762744490117,0.0
272154.6038362722,4730833.5216966402,-2500.0,33.79439438954627,420.22639979067395,154.84565846858553,-2.0472593945077255,12.69342179032358,-0.31948443524509951,424.77560962191393,375.23338847631715,-110.22788201334671,110.22788201334671,-375.23338847631715,741.76365329153589,0.0
277154.6038362722,4730833.5216966402,-2500.0,98.528307519687161,452.36624375121971,175.56643390895465,-0.27826601544782514,13.591832540766637,-0.31912949791313594,454.22421785146588,431.67603462896045,-129.73208430895124,129.73208430895124,-431.67603462896045,798.61180279086341,0.0
282154.6038362722,4730833.5216966402,-2500.0,181.44756419150741,483.40068554970151,202.46710885224599,2.234923242978025,14.262048178835965,-0.30008262476462877,483.73760331252299,496.56900457656741,-152.35835718802255,152.35835718802255,-496.56900457656741,859.62093519787697,0.0
287154.6038362722,4730833.5216966402,-2500.0,286.39360718940713,511.39942321697396,238.29999775166377,5.7203334691649745,14.505084969351566,-0.25162462770952893,512.17963964630644,570.90716422018272,-178.40808036858058,178.40808036858058,-570.90716422018272,925.20816559350328,0.0
292154.6038362722,4730833.5216966402,-2500.0,417.47894190588369,533.68718141117449,287.151529428353,10.451755806319733,14.019603913451508,-0.15832736814312226,537.84971929505366,655.67451573988615,-208.08672900765973,208.08672900765973,-655.67451573988615,996.17263903345361,0.0
297154.6038362722,4730833.5216966402,-2500.0,578.67067117431486,546.76881668816691,355.0521673938739,16.737942878153657,12.360367401736246,0.0014952482204785567,558.29993935738185,751.82148262917804,-241.42173578956709,241.42173578956709,-751.82148262917804,1074.0713868479895,0.0
302154.6038362722,4730833.5216966402,-2500.0,772.98982142352099,546.4516586740549,450.79070435358534,24.888375619829638,8.8880400146530576,0.25742189955177036,591.89894216458197,860.30262990141318,-278.15710082265872,278.15710082265872,-860.30262990141318,1161.8422727498455,0.0
307154.6038362722,4730833.5216966402,-2500.0,1001.1294244974401,528.42804699174235,586.89314271699982,35.135280463634324,2.7184620002197222,0.647985838164021,681.82764382453286,982.27918116318619,-317.64504896740044,317.64504896740044,-982.27918116318619,1264.7344905369234,0.0
312154.6038362722,4730833.5216966402,-2500.0,1259.292405396852,489.79653223157908,780.5374105405873,47.480192053668219,-7.3053837900507226,1.2199847268480193,783.80638521992569,1119.6887152321419,-358.79651159636228,358.79651159636228,-1119.6887152321419,1391.4989206719451,0.0
317154.6038362722,4730833.5216966402,-2500.0,1536.2075623218973,432.30461474072968,1053.7277536561987,61.422390903056453,-22.565540608479637,2.0236357580686652,896.55984226824285,1276.5277864296675,-400.2348948099027,400.2348948099027,-1276.5277864296675,1555.5712455269886,0.0
322154.6038362722,4730833.5216966402,-2500.0,1809.8187547447289,368.37978905143933,1431.1208688968086,75.526210178789356,-44.440640755941232,3.0998607822882054,1019.0923200161013,1461.3145377541757,-440.92973829309102,440.92973829309102,-1461.3145377541757,1775.8359071013679,0.0
327154.6038362722,4730833.5216966402,-2500.0,2045.4300651679373,330.87429779866773,1932.2405281512779,86.820570827752988,-73.718810054179343,4.4546772911060817,1163.9919183169511,1691.0668857708054,-481.73924457460475,481.73924457460475,-1691.0668857708054,2077.1917514394568,0.0
332154.6038362722,4730833.5216966402,-2500.0,2199.4006297023848,385.81900615610965,2552.5464497202006,90.142915055001723,-109.40434708228767,6.0161665623239902,1402.4620976488632,1996.1012982265477,-528.28491305650255,528.28491305650255,-1996.1012982265477,2493.4085131821876,0.0
337154.6038362722,4730833.5216966402,-2500.0,2235.1627323504549,642.45829292874839,3226.528442598426,77.792896433268609,-146.68923629494967,7.5718084406595132,1774.7445437880201,2421.8723810073125,-594.95096576995809,594.95096576995809,-2421.8723810073125,3078.0336140081558,0.0
342154.6038362722,4730833.5216966402,-2500.0,2157.851703421491,1244.8256405094326,3770.7876960564299,40.25419754046888,-174.13717801793268,8.6857209288455941,2228.1872307102044,3018.006292037102,-707.7896460974232,707.7896460974232,-3018.006292037102,3928.3010578775707,0.0
347154.6038362722,4730833.5216966402,-2500.0,2062.2166243455672,2317.8927540243608,3825.359731912175,-30.876365728807784,-170.89745482098411,8.5921808392946399,2717.5954347567058,3798.3114841301131,-900.52484915822697,900.52484915822697,-3798.3114841301131,5211.068900271337,0.0
352154.6038362722,4730833.5216966402,-2500.0,2158.8736085204027,3847.0698994623663,2852.5117722277123,-136.69279643637512,-106.24892140461088,6.0797614960863733,3865.2722775608654,4661.2889710372847,-1195.4470715736607,1195.4470715736607,-4661.2889710372847,7148.3338559812055,0.0
357154.6038362722,4730833.5216966402,-2500.0,2712.2195477082005,5523.5937794648862,287.63994771287287,-262.05766224469045,54.217758001060062,-0.48815681965439983,5662.2093427979999,5299.3063477053965,-1567.3895285559279,1567.3895285559279,-5299.3063477053965,9919.944538064261,0.0
362154.6038362722,4730833.5216966402,-2500.0,3848.9631461664039,6689.2269652047089,-4113.9345796719081,-369.2012922750996,331.29262052273413,-12.625297936014865,7800.0219070802032,5193.2469837911412,-1910.3064901716291,1910.3064901716291,-5193.2469837911412,13510.945082564585,0.0
367154.6038362722,4730833.5216966402,-2500.0,5332.119028692844,6552.9084497037338,-9892.8194298217823,-405.03289329540388,707.20783717278459,-30.409377757588967,10071.742678156485,3807.6396005130887,-2048.6613027578665,2048.6613027578665,-3807.6396005130887,17599.025773170695,0.0
372154.6038362722,4730833.5216966402,-2500.0,6540.7967365495469,4663.0238906822287,-15831.924340714011,-328.55647967920424,1113.36028295957,-51.264748354576547,12159.863878420441,951.63694226105542,-1820.232528226215,1820.232528226215,-951.63694226105542,21582.064473796545,0.0
377154.6038362722,4730833.5216966402,-2500.0,6792.128891245753,1283.9024958687617,-20455.186952307489,-141.62944558726124,1453.3196325443898,-70.481124146617006,13736.165553581726,-2972.7320819465322,-1185.9690492305872,1185.9690492305872,2972.7320819465322,24776.314127013869,0.0
382154.6038362722,4730833.5216966402,-2500.0,5776.1442501989823,-2702.3219178387053,-22767.06173254746,107.42073113388926,1651.1940086769682,-83.597606311338922,14584.706895681249,-7108.6880275433505,-270.01687313151388,270.01687313151388,7108.6880275433505,26681.771632118711,0.0
387154.6038362722,4730833.5216966402,-2500.0,3715.4814866074971,-6294.8853506573423,-22642.50885907482,352.43940770046606,1685.1827190179245,-88.583252582166352,14666.737376718043,-10579.311923355617,709.69601587456145,-709.69601587456145,10579.311923355617,27142.512220953457,0.0
392154.6038362722,4730833.5216966402,-2500.0,1163.0146933995045,-8834.9174190254671,-20656.59632333359,542.89193077403399,1583.5883266333014,-86.137086864265655,14097.366447989856,-12857.264970178563,1553.8501020760377,-1553.8501020760377,12857.264970178563,26324.409726691065,0.0
397154.6038362722,4730833.5216966402,-2500.0,-1317.4189312305459,-10141.041142495742,-17643.01247983447,658.03401941039158,1397.9278728399684,-78.522374592076915,13071.140638419818,-13851.120651905698,2151.0595667400448,-2151.0595667400448,13851.120651905698,24575.788302945257,0.0
402154.6038362722,4730833.5216966402,-2500.0,-3351.0031696133815,-10380.640914865726,-14335.954520028878,701.87191502134579,1177.9525085722864,-68.243462001196391,11789.765825523584,-13773.484686676802,2481.704638733795,-2481.704638733795,13773.484686676802,22280.492127754638,0.0
407154.6038362722,4730833.5216966402,-2500.0,-4787.0513563685281,-9870.0681208282622,-11221.082900242154,691.11482497316376,959.47563028246384,-57.285044520460694,10419.100424516282,-12957.615293199184,2585.3376069653641,-2585.3376069653641,12957.615293199184,19764.826096032757,0.0
412154.6038362722,4730833.5216966402,-2500.0,-5639.9844047662764,-8927.0708898968096,-8541.8205411442596,645.1480030529566,762.87496345931254,-46.911484176403761,9075.1169617854266,-11725.588922831241,2524.6310869893905,-2524.6310869893905,11725.588922831241,17262.840590663749,0.0
417154.6038362722,4730833.5216966402,-2500.0,-6010.8304636273151,-7800.7475593089366,-6369.4040082306237,580.58020268613927,596.59135200450737,-37.767578751901468,7827.5500449888514,-10327.18498651789,2361.2039056094777,-2361.2039056094777,10327.18498651789,14919.175876556976,0.0
422154.6038362722,4730833.5216966402,-2500.0,-6026.759208835294,-6656.9322420388226,-4676.8983013853804,509.43887033722473,461.57367909790167,-30.070031594928111,6710.6655622287944,-8928.678397118867,2144.4542973748153,-2144.4542973748153,8928.678397118867,12808.188184135794,0.0
427154.6038362722,4730833.5216966402,-2500.0,-5806.3526940170268,-5590.7005816475958,-3393.8539812822464,439.37442493518523,354.8837423571336,-23.784779718677317,5734.7957798605366,-7625.9394319636085,1909.1170586194876,-1909.1170586194876,7625.9394319636085,10955.938121466703,0.0
432154.6038362722,4730833.5216966402,-2500.0,-5445.0554585998871,-4646.7094016885139,-2439.2135986588914,374.63779897643388,272.06996915131748,-18.755137247937427,4895.852998645285,-6464.4389087337922,1677.1087073636136,-1677.1087073636136,6464.4389087337922,9358.8498893173728,0.0
437154.6038362722,4730833.5216966402,-2500.0,-5012.6988134882286,-3837.912814526178,-1737.823007547614,317.1529447346191,208.50674539585583,-14.781890086967746,4182.1604994345425,-5457.5799538019337,1460.738002746941,-1460.738002746941,5457.5799538019337,7997.3330167255754,0.0
442154.6038362722,4730833.5216966402,-2500.0,-4556.7137475697582,-3159.5324400496215,-1226.7988686198426,267.40208389953887,160.03212004865421,-11.667340166915334,3578.8861539311779,-4600.4860366347539,1265.8047280129051,-1265.8047280129051,4600.4860366347539,6844.7381593388855,0.0
447154.6038362722,4730833.5216966402,-2500.0,-4107.1530857240177,-2598.2703490660815,-856.51552327766717,225.06065657501964,123.17319482281991,-9.2354753206991571,3070.6785844461774,-3879.2213013931369,1094.047858299002,-1094.047858299002,3879.2213013931369,5872.752899411299,0.0
452154.6038362722,4730833.5216966402,-2500.0,-3681.5813505271053,-2137.8274301432771,-589.19377017295221,189.41140982266043,95.158071076876681,-7.3389252942985372,2643.0806637451146,-3276.4219697393564,944.87546280483798,-944.87546280483798,3276.4219697393564,5054.3496405288688,0.0
457154.6038362722,4730833.5216966402,-2500.0,-3289.0899884034229,-1761.9125439014379,-396.71865437715189,159.59452559089226,73.834492037059462,-5.8585974401858945,2283.1786046905067,-2774.4525742727656,816.4980354416416,-816.4980354416416,2774.4525742727656,4365.1883365802896,0.0
462154.6038362722,4730833.5216966402,-2500.0,-2933.2984198446788,-1455.6901919744921,-258.46362377107369,134.74693202563219,57.559746269041831,-4.700487400027261,1979.8014256662618,-2356.9900403673837,706.62477128420949,-706.62477128420949,2356.9900403673837,3784.10131577735,0.0
277154.6038362722,4735833.5216966402,-2500.0,185.15302518235521,381.10492922189627,173.48932701078147,2.6073602389167005,10.360166631789731,-0.22878530938231811,381.30025603298702,412.90956736696251,-127.34681335992033,127.34681335992033,-412.90956736696251,684.40157466504854,0.0
282154.6038362722,4735833.5216966402,-2500.0,266.89194267170797,398.95586641105166,203.74706776446496,5.1241062186492874,10.348581496659488,-0.20410067922858777,400.34631884185012,468.68411637944371,-146.70898529313047,146.70898529313047,-468.68411637944371,732.3654990488975,0.0
287154.6038362722,4735833.5216966402,-2500.0,366.03813106109374,412.42065225561532,244.08817855689972,8.4075852992979385,9.8164085599972708,-0.15614164339739381,417.03363158387396,531.446630385243,-168.38849753164897,168.38849753164897,-531.446630385243,784.27431007098096,0.0
292154.6038362722,4735833.5216966402,-2500.0,484.54074220484785,419.45119567604678,298.59193120587116,12.606041316579661,8.4942601218093259,-0.075032016630933465,429.79274823257703,601.78633202764399,-192.3514850819513,192.3514850819513,-601.78633202764399,841.32442778553468,0.0
297154.6038362722,4735833.5216966402,-2500.0,623.56193887649204,417.80533770236099,372.90702995349312,17.848150428826028,6.0143136791283176,0.051869267344774428,467.80335949828782,680.34730422150392,-218.40673901206884,218.40673901206884,-680.34730422150392,905.56883588536823,0.0
302154.6038362722,4735833.5216966402,-2500.0,782.70340503896796,405.48676145951879,474.66040962232279,24.195556144378521,1.8933984273332969,0.23982090727354549,531.89115083689535,767.98106874467385,-246.16839215062629,246.16839215062629,-767.98106874467385,980.37385323054787,0.0
307154.6038362722,4735833.5216966402,-2500.0,958.89852848932082,381.68280767222802,613.73022309830912,31.559264502025147,-4.4675283699418111,0.50541587102524244,603.42062487600026,866.09225231361575,-275.06176033055908,275.06176033055908,-866.09225231361575,1070.9550530971942,0.0
312154.6038362722,4735833.5216966402,-2500.0,1145.005881545098,348.52555982497836,802.02266109556558,39.563521915946026,-13.742528025321544,0.86323590284394069,681.95497621732159,977.31619711321514,-304.43915742470676,304.43915742470676,-977.31619711321514,1184.8842725827133,0.0
317154.6038362722,4735833.5216966402,-2500.0,1328.38191880108,314.06810510457831,1052.0137721664344,47.343025708284941,-26.553384865067198,1.3187372721431891,767.77692901135049,1106.6902066205043,-333.92011291047231,333.92011291047231,-1106.6902066205043,1332.4690259899892,0.0
322154.6038362722,4735833.5216966402,-2500.0,1490.2036333591916,296.74470553292088,1372.7136867540835,53.275447022047842,-43.18435568389426,1.8553215214156502,868.15798910891522,1263.3882261037461,-364.11511715494498,364.11511715494498,-1263.3882261037461,1527.2198163640892,0.0
327154.6038362722,4735833.5216966402,-2500.0,1607.1209592160853,330.93528612245331,1760.9695880793909,54.697025094636089,-63.043691447138123,2.4136840833313551,1013.3099175557501,1462.6878301605577,-397.87718180001093,397.87718180001093,-1462.6878301605577,1787.4815129204994,0.0
332154.6038362722,4735833.5216966402,-2500.0,1657.7122263275085,471.53479645637742,2185.6537552759223,47.741904314498953,-83.784659052263152,2.862529113484952,1233.0710076139339,1726.7958232649687,-442.01077359829219,442.01077359829219,-1726.7958232649687,2141.4589246708501,0.0
337154.6038362722,4735833.5216966402,-2500.0,1636.233989702946,792.18606717420323,2563.7250353208133,27.589668657833531,-100.09671788241617,2.9633626753627338,1511.5432987245515,2081.2259487929882,-508.73909829024342,508.73909829024342,-2081.2259487929882,2637.7403939296983,0.0
342154.6038362722,4735833.5216966402,-2500.0,1573.1467642244509,1367.8584422134186,2732.9842180506325,-10.449683185170898,-102.44840419937712,2.3370064062655049,1822.2119158906069,2541.1643659768197,-615.07249908176721,615.07249908176721,-2541.1643659768197,3358.4929615106466,0.0
347154.6038362722,4735833.5216966402,-2500.0,1553.4279966907723,2231.9516608270005,2438.7133786402783,-68.595030944075106,-76.563048887201091,0.44777122546295278,2276.6903415443844,3082.5242434377997,-777.06163340600074,777.06163340600074,-3082.5242434377997,4421.1802344194739,0.0
352154.6038362722,4735833.5216966402,-2500.0,1711.3700323102155,3309.649942800128,1366.3162318383575,-143.04092789589509,-5.0249329900375921,-3.3603037409915748,3317.8596152450395,3600.8925086318295,-996.62091366775371,996.62091366775371,-3600.8925086318295,5948.9910181475989,0.0
357154.6038362722,4735833.5216966402,-2500.0,2176.9658101577952,4358.8881425077943,-748.38185735623495,-220.46555254480774,127.39436760107269,-9.7107903473966601,4605.7139418956294,3881.9933277143673,-1243.7992052419668,1243.7992052419668,-3881.9933277143673,8008.5357531250738,0.0
362154.6038362722,4735833.5216966402,-2500.0,2975.2361763800354,4982.7140383511751,-3942.2481886160144,-277.65746771490353,324.52566499191516,-18.861221074556408,6079.5365837119389,3628.0265698224757,-1446.6157542968874,1446.6157542968874,-3628.0265698224757,10542.017668598171,0.0
367154.6038362722,4735833.5216966402,-2500.0,3937.2396923870015,4765.0136161524679,-7875.4835038050887,-287.8021897445098,569.52970900463345,-30.262174272835733,7610.3594141173962,2571.5461598074144,-1505.3437419519644,1505.3437419519644,-2571.5461598074144,13332.37210313727,0.0
372154.6038362722,4735833.5216966402,-2500.0,4716.2987879852426,3490.4352489867638,-11851.792425282203,-233.11577027232127,823.49466081502328,-42.346918745044064,9018.7123211555245,639.22270494314603,-1335.7028665192049,1335.7028665192049,-639.22270494314603,16032.827362350392,0.0
377154.6038362722,4735833.5216966402,-2500.0,4942.1422544625648,1300.9133570771148,-15062.352799020655,-116.30025888586565,1037.3721813693649,-52.918397261836901,10122.578760995315,-1948.8611636086991,-917.98953559385313,917.98953559385313,1948.8611636086991,18263.431063919041,0.0
382154.6038362722,4735833.5216966402,-2500.0,4416.970290379546,-1345.5108041009587,-16919.782250280074,38.77740072190192,1171.8838308820395,-60.030440367968517,10793.365849301204,-4739.5968552059894,-314.95091130248647,314.95091130248647,4739.5968552059894,19731.485802637155,0.0
387154.6038362722,4735833.5216966402,-2500.0,3206.9450721616545,-3888.6788930088405,-17260.212166511748,198.36952065138649,1211.961227816269,-62.753000790518911,10989.471155850699,-7235.2619885320755,356.43940096148617,-356.43940096148617,7235.2619885320755,20311.673943594753,0.0
392154.6038362722,4735833.5216966402,-2500.0,1579.0520178724294,-5893.7794835976583,-16311.930356482546,333.29308217664612,1167.3676743021074,-61.329784792340902,10753.283980310656,-9078.3411374597563,976.51065697435251,-976.51065697435251,9078.3411374597563,20051.470403938787,0.0
397154.6038362722,4735833.5216966402,-2500.0,-141.32948391719893,-7160.5277804904063,-14511.835180658938,427.36213433324264,1062.7861195623805,-56.791667296619202,10181.54559673724,-10130.584462648658,1462.8900421403168,-1462.8900421403168,10130.584462648658,19117.776133033265,0.0
402154.6038362722,4735833.5216966402,-2500.0,-1689.9693021736853,-7702.3200048495191,-12313.610077868807,477.70338903513874,926.04689167798892,-50.416214848747344,9389.509364068399,-10443.194887756545,1782.7245338784287,-1782.7245338784287,10443.194887756545,17725.755024295922,0.0
407154.6038362722,4735833.5216966402,-2500.0,-2914.518966526166,-7660.7101605334728,-10072.196707101391,490.36404423454877,780.3284342300833,-43.333805476233721,8483.8362445445327,-10175.892739144947,1943.1445417209407,-1943.1445417209407,10175.892739144947,16082.121177189811,0.0
412154.6038362722,4735833.5216966402,-2500.0,-3767.7094866552138,-7219.7154365925508,-8010.4588235894753,475.22945556034944,641.29658484634092,-36.357068865927509,7548.6586553381703,-9519.4222590741574,1973.8004898395398,-1973.8004898395398,9519.4222590741574,14354.068823503085,0.0
417154.6038362722,4735833.5216966402,-2500.0,-4274.1304587944105,-6549.7490283736524,-6236.2498562663168,442.3642576861314,517.53936911969811,-29.97235978938874,6642.3155307887218,-8645.9110691250553,1911.4775161076559,-1911.4775161076559,8645.9110691250553,12660.117370724754,0.0
422154.6038362722,4735833.5216966402,-2500.0,-4494.9256788684725,-5782.6908421734661,-4777.4560012836955,400.12915306642799,412.38011362709739,-24.407085818557629,5800.2478213071608,-7687.4582795175411,1790.438300115145,-1790.438300115145,7687.4582795175411,11074.178938122843,0.0
427154.6038362722,4735833.5216966402,-2500.0,-4501.5784892437086,-5007.9948830184394,-3615.6416191983722,354.61324471860297,325.83138614333205,-19.715093945403499,5040.3018093225783,-6733.6152895576179,1638.0822051873729,-1638.0822051873729,6733.6152895576179,9635.202321955343,0.0
432154.6038362722,4735833.5216966402,-2500.0,-4360.5961393226398,-4279.1627239136533,-2710.8953667623086,309.79374993169972,256.14918341172262,-15.84900168136857,4368.165770082378,-5838.1246715128982,1474.1066080530122,-1474.1066080530122,5838.1246715128982,8357.5871032048508,0.0
437154.6038362722,4735833.5216966402,-2500.0,-4126.7255992629989,-3623.333977115853,-2017.3407955828141,267.98442462724125,200.87701266540529,-12.712967397548933,3781.903148777149,-5028.3836071803662,1311.4409227870026,-1311.4409227870026,5028.3836071803662,7240.0771725643372,0.0
442154.6038362722,4735833.5216966402,-2500.0,-3841.4878307698232,-3050.254111679053,-1491.4377848310908,230.32173908341682,157.45958848592343,-10.195136070003468,3275.3057271684461,-4314.2416956331354,1157.7895217917551,-1157.7895217917551,4314.2416956331354,6272.4384948470743,0.0
447154.6038362722,4735833.5216966402,-2500.0,-3534.4277527751096,-2559.2502612349053,-1095.5952114815138,197.17719203181929,123.55472080937962,-8.1864267513324265,2840.1690776022642,-3694.8825836736814,1017.1607902548405,-1017.1607902548405,3694.8825836736814,5440.0449906813965,0.0
452154.6038362722,4735833.5216966402,-2500.0,-3225.3896313657233,-2144.0864367932572,-799.10372672047356,168.4652670973874,97.158345507940439,-6.589332608199145,2467.7221678283836,-3163.666128778339,891.12606772409094,-891.12606772409094,3163.666128778339,4726.7948628961012,0.0
457154.6038362722,4735833.5216966402,-2500.0,-2926.9038790414293,-1796.0765029066022,-577.73527992963966,143.85499449643191,76.626066726781346,-5.3209910468639467,2149.4592079348549,-2711.2826111346567,779.75611751406723,-779.75611751406723,2711.2826111346567,4116.833583205269,0.0
462154.6038362722,4735833.5216966402,-2500.0,-2646.262213873626,-1505.9298713329742,-412.80344507397052,122.90543779787942,60.644115374160016,-4.3132444295899486,1877.5684761961998,-2327.6607718168298,682.26872548156632,-682.26872548156632,2327.6607718168298,3595.4656214149413,0.0
277154.6038362722,4740833.5216966402,-2500.0,242.61271314234685,316.36667212793253,176.22727718643367,4.4967283571361101,7.4641654288680739,-0.15954007483599442,318.19868171769838,388.90441602811995,-121.74566368470104,121.74566368470104,-388.90441602811995,589.67810529617987,0.0
282154.6038362722,4740833.5216966402,-2500.0,318.51873473419022,324.72815471985734,209.62324050549935,6.8270882895715719,6.9500529308762982,-0.13355710539787705,329.34662689148502,436.36560164722999,-137.91604779904395,137.91604779904395,-436.36560164722999,628.75080394780662,0.0
287154.6038362722,4740833.5216966402,-2500.0,407.18506261510026,328.60787681721223,253.60385660395389,9.7126790818720785,5.892036278667601,-0.090162021226969605,337.69862725981005,489.06110483028505,-155.57029676145493,155.57029676145493,-489.06110483028505,671.7492404630018,0.0
292154.6038362722,4740833.5216966402,-2500.0,508.96437257351579,326.8107420676331,311.85376645892637,13.203646006430818,4.0711370107116629,-0.023695627572730527,376.26834101655709,547.45009108778675,-174.57658520731741,174.57658520731741,-547.45009108778675,720.12708090404885,0.0
297154.6038362722,4740833.5216966402,-2500.0,623.18259408231097,318.45212822010546,389.12431049571734,17.300712906904177,1.2121804170321748,0.072102577814557339,423.17680477736639,612.16211764892864,-194.70553679223707,194.70553679223707,-612.16211764892864,776.10786535199588,0.0
302154.6038362722,4740833.5216966402,-2500.0,747.5543080364655,303.53083413901828,491.27733926671334,21.908987171240135,-3.0104777068165283,0.20316436811082883,474.99889520429173,684.20467233815793,-215.64807290776525,215.64807290776525,-684.20467233815793,842.93702781544698,0.0
307154.6038362722,4740833.5216966402,-2500.0,877.49057921997019,283.9095061208929,625.01972006702863,26.767523935349477,-8.9447201023956673,0.37307919693038305,531.63847316354577,765.33017425430876,-237.09294952209194,237.09294952209194,-765.33017425430876,925.11263250624904,0.0
312154.6038362722,4740833.5216966402,-2500.0,1005.4489860041328,264.85284755479523,796.97627786080898,31.349950612381736,-16.889824659240702,0.57935129817740305,593.66533790287667,858.61918585312515,-258.913335810089,258.913335810089,-858.61918585312515,1028.5821834114452,0.0
317154.6038362722,4740833.5216966402,-2500.0,1120.6787082756448,257.19892350036969,1011.5153391528299,34.738901478544591,-26.952917579240808,0.80702583287947172,665.3228063847838,969.28576068204666,-281.52557659812948,281.52557659812948,-969.28576068204666,1161.0486089436135,0.0
322154.6038362722,4740833.5216966402,-2500.0,1210.0171944036622,279.96434540388714,1266.477925065587,35.495420861888817,-38.794267428014791,1.0189995527064255,760.75168733996816,1105.5420612044218,-306.47176928250877,306.47176928250877,-1105.5420612044218,1332.876676615125,0.0
327154.6038362722,4740833.5216966402,-2500.0,1260.7216697347692,362.53865335374951,1545.8519344616529,31.579855880082704,-51.226486190280148,1.142441857261689,897.67570897533164,1278.9742266600965,-337.19728840094086,337.19728840094086,-1278.9742266600965,1559.5353166677558,0.0
332154.6038362722,4740833.5216966402,-2500.0,1266.3654620098494,544.46855109128728,1808.9239734526786,20.434431021386416,-61.66763634189715,1.0528965199707432,1074.5919031119222,1503.2014387175511,-379.77631665711942,379.77631665711942,-1503.2014387175511,1866.5184510686106,0.0
337154.6038362722,4740833.5216966402,-2500.0,1235.9609006829562,869.35790228627729,1977.3135742986992,-0.60442642592114015,-65.542887248148688,0.55966596062952267,1277.722197419349,1788.756818325463,-442.93937824437842,442.93937824437842,-1788.756818325463,2296.0675510061587,0.0
342154.6038362722,4740833.5216966402,-2500.0,1203.8698618819972,1368.7002661824629,1925.3302673008411,-33.383770670679631,-55.905238358217829,-0.59942684964594117,1491.9156462593221,2131.8760278989726,-536.2848263220302,536.2848263220302,-2131.8760278989726,2910.8365046583758,0.0
347154.6038362722,4740833.5216966402,-2500.0,1233.6639266379625,2033.9376236692583,1484.7568880796057,-77.446556472393866,-23.774965298460355,-2.7410397202324512,2039.7266294874169,2496.8039207686079,-665.47866378871288,665.47866378871288,-2496.8039207686079,3785.8412441424366,0.0
352154.6038362722,4740833.5216966402,-2500.0,1405.4877485916443,2783.4440971394697,478.42227059428035,-128.29145406286702,40.166545572346095,-6.179403780662807,2825.8943752629048,2797.0921306007858,-824.41725673027167,824.41725673027167,-2797.0921306007858,4984.0190546989534,0.0
357154.6038362722,4740833.5216966402,-2500.0,1779.8624350197124,3444.3485251638549,-1210.4771884794086,-176.29134034062901,142.16057172272468,-11.114135208266681,3762.1607121894976,2890.1291928436785,-987.28208054989659,987.28208054989659,-2890.1291928436785,6522.1603030861888,0.0
362154.6038362722,4740833.5216966402,-2500.0,2346.7503852125096,3776.7445786897692,-3550.6408143995941,-207.65270261609584,280.87197696227418,-17.470948906537302,4802.9232087826049,2603.2905308675654,-1106.8313860661228,1106.8313860661228,-2603.2905308675654,8341.6696388207711,0.0
367154.6038362722,4740833.5216966402,-2500.0,2990.9226121331922,3553.0553335532104,-6305.1687253268447,-208.35111934786065,444.01363843753717,-24.761418978864047,5866.6813303046083,1797.8415585444477,-1125.2216160236753,1125.2216160236753,-1797.8415585444477,10299.119945014494,0.0
372154.6038362722,4740833.5216966402,-2500.0,3510.2840074481433,2664.7219750756317,-9059.6402371404674,-170.06836173358101,609.09604494620942,-32.08125915230913,6847.4818782707189,446.6170429987265,-996.69667047618941,996.69667047618941,-446.6170429987265,12187.127531995899,0.0
377154.6038362722,4740833.5216966402,-2500.0,3693.424786739411,1192.2299280812824,-11346.931224978238,-94.865904613742316,749.56611548214073,-38.327196493046138,7639.1338349219768,-1323.2651763249041,-710.84572633306448,710.84572633306448,1323.2651763249041,13783.620234052107,0.0
382154.6038362722,4740833.5216966402,-2500.0,3414.211656158498,-613.38917044819107,-12808.943957123831,4.7565932521859633,843.75060156738016,-42.558863433731347,8162.5277562542997,-3258.7839992443587,-301.18992212253784,301.18992212253784,3258.7839992443587,14910.562241273381,0.0
387154.6038362722,4740833.5216966402,-2500.0,2683.3953765469528,-2428.56668029805,-13304.447628248774,110.70960006096492,881.58873445600807,-44.301290357505337,8383.5910164866091,-5068.3891106138344,167.01877491370988,-167.01877491370988,5068.3891106138344,15475.905184389765,0.0
392154.6038362722,4740833.5216966402,-2500.0,1630.9273622036774,-3972.4358999351493,-12914.005925046498,205.92783109475138,865.81695647569484,-43.625831976871176,8315.1163843934155,-6516.6052202131996,621.40858278206952,-621.40858278206952,6516.6052202131996,15482.888134772928,0.0
397154.6038362722,4740833.5216966402,-2500.0,442.24726896558099,-5078.6569870481953,-11863.721013665901,279.0694351563215,808.24987112898543,-41.013996120229812,8004.9214906783109,-7478.3841486445581,1004.8324189264081,-1004.8324189264081,7478.3841486445581,15009.833850207327,0.0
402154.6038362722,4740833.5216966402,-2500.0,-708.09391137057651,-5705.4818395414168,-10426.064948763553,325.79089483286458,724.27643821901802,-37.128278773386214,7518.2866022989883,-7941.0408356309599,1286.1193278265746,-1286.1193278265746,7941.0408356309599,14176.011350544153,0.0
407154.6038362722,4740833.5216966402,-2500.0,-1696.6805184665345,-5903.4520272968484,-8844.3761552349843,347.39118582446599,628.35473520628398,-32.613756604203552,6922.1209808938029,-7971.7960981473107,1459.0991740998443,-1459.0991740998443,7971.7960981473107,13109.221269029997,0.0
412154.6038362722,4740833.5216966402,-2500.0,-2461.0607344243131,-5770.4475512313365,-7296.4844926431633,348.44632243734873,531.60499357726519,-27.984098449965067,6274.6022746505723,-7676.383773599202,1535.0812366084124,-1535.0812366084124,7676.383773599202,11923.60651649548,0.0
417154.6038362722,4740833.5216966402,-2500.0,-2989.5324482836932,-5414.4060468301514,-5890.1655644627008,334.6620844026732,441.24524566284407,-23.587344850743559,5620.5433217317141,-7165.6676851932389,1534.1424548305149,-1534.1424548305149,7165.6676851932389,10708.925631059448,0.0
422154.6038362722,4740833.5216966402,-2500.0,-3303.4689271065513,-4930.7484437507774,-4675.8448397808979,311.45228093746971,361.1096297431892,-19.62179526932691,4990.93890484848,-6535.8317673156562,1478.300201961516,-1478.300201961516,6535.8317673156562,9528.5250194475575,0.0
427154.6038362722,4740833.5216966402,-2500.0,-3440.6257907598656,-4392.9780964583588,-3664.4723562847498,283.24147180841987,292.56774882887134,-16.171758424575359,4404.8315897058292,-5860.4677261837242,1387.4100134157802,-1387.4100134157802,5860.4677261837242,8422.3381256822322,0.0
432154.6038362722,4740833.5216966402,-2500.0,-3443.0121009692893,-3851.8758579785836,-2843.7366213139785,253.280729312777,235.42935735747187,-13.246067823331671,3872.0413603723273,-5190.3670061904577,1277.3724615984197,-1277.3724615984197,5190.3670061904577,7411.924761105879,0.0
437154.6038362722,4740833.5216966402,-2500.0,-3349.6864870575528,-3338.9610237308257,-2190.0846682371684,223.74789075269953,188.65675414584547,-10.809715219293967,3395.8779308756843,-4557.1110953778862,1159.8465597979518,-1159.8465597979518,4557.1110953778862,6505.6861683281386,0.0
442154.6038362722,4740833.5216966402,-2500.0,-3193.4048640574365,-2871.2779028618102,-1676.4663708447226,195.96371380405853,150.8527656195912,-8.8064072765840216,2975.4216513894107,-3977.8098747802128,1042.7455017144425,-1042.7455017144425,3977.8098747802128,5703.342452199513,0.0
447154.6038362722,4740833.5216966402,-2500.0,-2999.7563450161961,-2455.929303591487,-1276.7150114455851,170.62429559001507,120.55857483113917,-7.1733189375456679,2607.25515124513,-3459.5589191178256,931.01916890347593,-931.01916890347593,3459.5589191178256,4999.3787264461489,0.0
452154.6038362722,4740833.5216966402,-2500.0,-2787.6534128402059,-2093.7232848835019,-967.64276770194294,148.00283781389498,96.414220172537171,-5.8492360239213168,2286.6822053546189,-3003.0379859971672,827.44530156598807,-827.44530156598807,3003.0379859971672,4385.4980582165135,0.0
457154.6038362722,4740833.5216966402,-2500.0,-2570.4051555335855,-1781.8284566537479,-729.75055018158218,128.10575729872954,77.230119246220355,-4.7790277854855558,2008.5312134399983,-2605.1542961755863,733.30361395190039,-733.30361395190039,2605.1542961755863,3852.256472754003,0.0
282154.6038362722,4745833.5216966402,-2500.0,344.02130033248102,262.20440626682546,217.1244886479985,7.6195474166593842,4.124838934644445,-0.083651909147247072,275.4430187649474,402.8059326039712,-127.52805682973181,127.52805682973181,-402.8059326039712,545.27411917587517,0.0
287154.6038362722,4745833.5216966402,-2500.0,420.09174960884843,260.65752539144256,263.22756120680759,10.013966134503358,2.7594033171092285,-0.047043493774974354,307.20819607913057,447.16774237979746,-141.73222786844053,141.73222786844053,-447.16774237979746,582.553831314587,0.0
292154.6038362722,4745833.5216966402,-2500.0,504.12036981158207,255.00299697998344,322.76538461535733,12.751842459835521,0.71531930557472001,0.0044019625997653855,342.37321505750151,496.06332685771451,-156.71145679022445,156.71145679022445,-496.06332685771451,625.43388517029939,0.0
297154.6038362722,4745833.5216966402,-2500.0,594.4498184614406,245.52343903951817,399.31769701065792,15.754101442219094,-2.192069678135522,0.072719221594864603,380.93143555457948,550.21479815748376,-172.29695807386972,172.29695807386972,-550.21479815748376,676.00509214411682,0.0
302154.6038362722,4745833.5216966402,-2500.0,688.07524513192425,233.69393958733141,496.79853613286093,18.843437449155619,-6.1513293618523237,0.15820188908887839,422.92685356979348,610.80330095902525,-188.33799631556357,188.33799631556357,-610.80330095902525,737.05592993789674,0.0
307154.6038362722,4745833.5216966402,-2500.0,780.33404341646485,223.01108523903605,618.8733781634653,21.693497698437234,-11.314912447620909,0.25741155788935882,468.904520446145,679.77187086344986,-204.80696666686288,204.80696666686288,-679.77187086344986,812.17925591848359,0.0
312154.6038362722,4745833.5216966402,-2500.0,864.80905526795175,220.10787138010176,767.74297278780239,23.76692534032032,-17.724106508477025,0.36004966586303011,521.40434739275679,760.21968309373506,-221.98594901000519,221.98594901000519,-760.21968309373506,905.96064284395629,0.0
317154.6038362722,4745833.5216966402,-2500.0,933.73738034215035,236.04920052380388,941.92457196259238,24.252070538099058,-25.18263868426099,0.44422295919845234,587.60517000152367,856.80571052165135,-240.75432749851609,240.75432749851609,-856.80571052165135,1024.4846789948854,0.0
322154.6038362722,4745833.5216966402,-2500.0,979.34399614315544,287.4407626635147,1132.6268968191787,22.022294038647658,-33.06415044527435,0.47009639020031002,677.55075507100719,975.92451756641526,-262.96360573166703,262.96360573166703,-975.92451756641526,1176.5779296618321,0.0
327154.6038362722,4745833.5216966402,-2500.0,996.54991639808918,396.53719234064732,1318.5020537142827,15.662988675593065,-40.051899572625402,0.37236454154472443,793.79266428432607,1125.1577383885779,-291.80359722202235,291.80359722202235,-1125.1577383885779,1376.233291219583,0.0
332154.6038362722,4745833.5216966402,-2500.0,987.22775800976547,588.95555140985812,1459.2206316335987,3.6348739280573215,-43.843609382439716,0.053129604800917468,930.10081716277489,1311.1790150476986,-331.91561143244746,331.91561143244746,-1311.1790150476986,1646.0992549459131,0.0
337154.6038362722,4745833.5216966402,-2500.0,965.31322995792175,887.19664263198729,1489.7387929258566,-15.346952438192247,-40.918824479430384,-0.62145532616449839,1077.7028304050773,1535.107912377729,-388.81819507754096,388.81819507754096,-1535.107912377729,2020.3207948193849,0.0
342154.6038362722,4745833.5216966402,-2500.0,960.49419725592793,1298.6790433953279,1319.2916259526567,-41.671182516801906,-26.555631703700637,-1.8155233582782389,1312.0448103036531,1784.7523606902114,-467.10543727523873,467.10543727523873,-1784.7523606902114,2543.0447669947594,0.0
347154.6038362722,4745833.5216966402,-2500.0,1016.4061845951726,1799.4054082530047,841.09727125829681,-73.992247877418038,4.6421571268250217,-3.7018188839797936,1803.7000876592037,2024.8915797236352,-567.11868954781789,567.11868954781789,-2024.8915797236352,3259.2312291609683,0.0
352154.6038362722,4745833.5216966402,-2500.0,1178.9707362561012,2319.096094711952,-41.880697684763717,-108.47151578516262,57.477835582974642,-6.418436169109313,2401.9355221718552,2189.9324404418494,-680.66969289583778,680.66969289583778,-2189.9324404418494,4198.6034638210203,0.0
357154.6038362722,4745833.5216966402,-2500.0,1474.1379088243909,2738.677248585539,-1375.9975491004143,-138.60615911923048,134.18471408773928,-10.004345925090304,3093.3694441921607,2186.4519692934896,-787.82188114250164,787.82188114250164,-2186.4519692934896,5358.0457935957565,0.0
362154.6038362722,4745833.5216966402,-2500.0,1882.4602730707484,2911.234730076817,-3113.7457177639953,-156.20197615201823,232.29203871426833,-14.32923232705989,3845.0007671896901,1912.6613790024312,-857.79638983431539,857.79638983431539,-1912.6613790024312,6689.1010268231912,0.0
367154.6038362722,4745833.5216966402,-2500.0,2326.0422720350971,2707.7043585842562,-5092.3623731958114,-153.64825358354199,343.43960108589584,-19.052428622398242,4604.3174016682169,1294.1517403174671,-856.18798512814431,856.18798512814431,-1294.1517403174671,8096.6041975219405,0.0
372154.6038362722,4745833.5216966402,-2500.0,2682.4677444278846,2070.8150541987407,-7056.1851602068018,-126.80375412110104,454.28080211345474,-23.652570641007344,5306.3391625157637,322.37332882505007,-757.15055479664193,757.15055479664193,-322.37332882505007,9452.124458221766,0.0
377154.6038362722,4745833.5216966402,-2500.0,2825.6538068027739,1048.4127391807326,-8723.3220399048078,-77.054056063175835,549.70245436545395,-27.542359415290953,5886.433871806249,-925.84484038789174,-554.98870658189594,554.98870658189594,925.84484038789174,10620.259696631158,0.0
382154.6038362722,4745833.5216966402,-2500.0,2674.1563946137062,-215.37381458700199,-9868.6586482291077,-11.263407245812186,617.13168252937839,-30.230308043210016,6294.4487547744002,-2302.4909650906361,-268.52557376893367,268.52557376893367,2302.4909650906361,11489.011584750195,0.0
387154.6038362722,4745833.5216966402,-2500.0,2220.5809808532549,-1527.6611708983978,-10383.309980599164,60.455582985534356,649.88527807292417,-31.452700564480853,6504.6531216864023,-3631.3107963020193,64.466883634396936,-64.466883634396936,3631.3107963020193,11992.689411638939,0.0
392154.6038362722,4745833.5216966402,-2500.0,1528.4596304339013,-2707.0379621620082,-10286.294035355657,127.93159555937255,648.1260401805672,-31.216606734447883,6518.167621005593,-4757.7330472740823,399.50588785927448,-399.50588785927448,4757.7330472740823,12119.705803550358,0.0
397154.6038362722,4745833.5216966402,-2500.0,703.51481802780927,-3627.9714640608313,-9693.1238480465963,183.5254535734698,617.46913967394823,-29.75011869159021,6358.299029081727,-5583.2840334991351,697.86026037630472,-697.86026037630472,5583.2840334991351,11905.278764084373,0.0
402154.6038362722,4745833.5216966402,-2500.0,-142.21682193242336,-4236.0942134001025,-8765.1391100565961,223.25721131617118,566.39464182228255,-27.401933321686116,6061.9256561682969,-6074.9091164654146,934.22304394628054,-934.22304394628054,6074.9091164654146,11415.052942503589,0.0
407154.6038362722,4745833.5216966402,-2500.0,-917.52916606281667,-4538.5833569781253,-7663.5305081980669,246.55284420186192,503.75180053593641,-24.541217846958613,5670.5356984435648,-6253.753023570167,1098.3302114851431,-1098.3302114851431,6253.753023570167,10727.06570736948,0.0
412154.6038362722,4745833.5216966402,-2500.0,-1564.3564011720423,-4582.31634046608,-6520.557007246518,255.22317083013118,437.09210218188736,-21.488566980497229,5223.3162568272464,-6174.4628023823661,1192.2131935992243,-1192.2131935992243,6174.4628023823661,9917.286037359785,0.0
417154.6038362722,4745833.5216966402,-2500.0,-2057.4361206825065,-4431.4199065199728,-5428.7611522907418,252.29903686425251,371.94670911912084,-18.483983146161279,4753.0981735814767,-5904.8106969294522,1225.6664238090862,-1225.6664238090862,5904.8106969294522,9050.7222533025306,0.0
422154.6038362722,4745833.5216966402,-2500.0,-2396.900208484622,-4150.5426542197247,-4442.7671667709365,241.09796342451466,311.80464851524971,-15.683644734483419,4284.8316335223071,-5510.8326680512191,1211.9213036618139,-1211.9213036618139,5510.8326680512191,8177.6818412486309,0.0
427154.6038362722,4745833.5216966402,-2500.0,-2598.8843960707409,-3795.286742619654,-3587.2501689203946,224.64018006377623,258.4662120116634,-13.172607692124522,3835.7951451776576,-5048.513090379477,1164.4866309248275,-1164.4866309248275,5048.513090379477,7333.6764136041575,0.0
432154.6038362722,4745833.5216966402,-2500.0,-2687.2570565295491,-3408.5000605910482,-2866.3251314602649,205.37505137581576,212.51446473749689,-10.983151087825362,3416.7322580988662,-4560.7488552936547,1095.3087837503047,-1095.3087837503047,4560.7488552936547,6541.359531942946,0.0
437154.6038362722,4745833.5216966402,-2500.0,-2687.6811273233247,-3020.3131178723247,-2271.7740776256223,185.12133402843014,173.75479560972289,-9.1127545873842273,3033.3136736138567,-4077.6646188079617,1013.9911521383578,-1013.9911521383578,4077.6646188079617,5813.254478688832,0.0
442154.6038362722,4745833.5216966402,-2500.0,-2624.0274669371156,-2650.0492739819178,-1789.1844065460382,165.12648363253689,141.55975397460782,-7.5384784027111413,2687.5585017697636,-3618.5906275789189,927.70191859416309,-927.70191859416309,3618.5906275789189,5154.4952333046313,0.0
447154.6038362722,4745833.5216966402,-2500.0,-2516.6314198898617,-2308.7354270878755,-1402.0175891297315,146.17567304709846,115.10974213261564,-6.2274798664184114,2379.0391869470441,-3194.5563344236334,841.44794867149494,-841.44794867149494,3194.5563344236334,4565.1934831623366,0.0
452154.6038362722,4745833.5216966402,-2500.0,-2381.7752886713074,-2001.5040990682223,-1094.0212165656378,128.70835105804352,93.545012772933347,-5.1437260375520726,2105.816286267825,-2810.6575265763813,758.49082617782324,-758.49082617782324,2810.6575265763813,4042.2984383833182,0.0
287154.6038362722,4750833.5216966402,-2500.0,413.52239691754227,207.58431240776397,270.50967461932635,9.6362676479533658,0.37287058702545428,-0.020859260363916804,281.02564143941225,407.7293311685512,-128.04485065115384,128.04485065115384,-407.7293311685512,511.74353630376879,0.0
292154.6038362722,4750833.5216966402,-2500.0,480.74372241595859,201.50715434972338,328.90735175089617,11.660006410476276,-1.6899285262215495,0.016574779472096429,310.36091338946028,449.24860004577522,-139.90399286183859,139.90399286183859,-449.24860004577522,550.81107753954711,0.0
297154.6038362722,4750833.5216966402,-2500.0,550.01293246447062,194.29412125087896,401.56281735835876,13.702585747385092,-4.4244144682238886,0.061881372015495553,342.21309659551554,495.4233513900507,-152.15389914521816,152.15389914521816,-495.4233513900507,597.25699995221419,0.0
302154.6038362722,4750833.5216966402,-2500.0,618.35467206913415,188.30996528545523,490.57658564990663,15.557143614656786,-7.9121631815387641,0.11227216910064736,377.02572520065468,547.51394963974417,-164.80412641749101,164.80412641749101,-547.51394963974417,653.3367307974188,0.0
307154.6038362722,4750833.5216966402,-2500.0,681.79010233751478,187.75793323465695,597.08931175607097,16.89828963300188,-12.168951923207041,0.16109671539463033,416.36370176562633,607.4346573080793,-178.04721668162415,178.04721668162415,-607.4346573080793,721.88492213026939,0.0
312154.6038362722,4750833.5216966402,-2500.0,735.55760480014317,199.35831029632294,720.07186444528088,17.249892239513816,-17.079165859893457,0.19557593825686115,464.12065234653016,677.95184310770765,-192.40799989429223,192.40799989429223,-677.95184310770765,806.60304606372301,0.0
317154.6038362722,4750833.5216966402,-2500.0,774.78046815736161,232.93547209801488,854.42891745300369,15.963370326710821,-22.298624717810977,0.19356203163726815,526.01628702498067,762.76898022193484,-208.93416990517096,208.93416990517096,-762.76898022193484,912.71921892129581,0.0
322154.6038362722,4750833.5216966402,-2500.0,795.78764667680866,301.55714871499384,988.31163933132643,12.225929045780244,-27.124718762708532,0.11999166959520507,604.99808858065364,866.2816479718781,-229.38702560496449,229.38702560496449,-866.2816479718781,1048.2382513964449,0.0
327154.6038362722,4750833.5216966402,-2500.0,798.19887081964839,420.62763435381896,1099.7922686363133,5.1282329208900936,-30.345605535806865,-0.076818782556581686,698.76507671084028,992.65208563099554,-256.33325124635462,256.33325124635462,-992.65208563099554,1225.7983585520883,0.0
332154.6038362722,4750833.5216966402,-2500.0,787.57494465569232,605.13561044761775,1153.5937921746292,-6.1727699487307,-30.105456090360789,-0.46736623909351188,802.35957880069532,1143.7550300714561,-292.95883009930594,292.95883009930594,-1143.7550300714561,1464.520216572831,0.0
337154.6038362722,4750833.5216966402,-2500.0,777.83660968375477,864.3315614753194,1099.4252714952695,-22.1678006797401,-23.858460011848166,-1.1395697504124958,910.07324200895164,1315.6422747191423,-342.36451953982657,342.36451953982657,-1315.6422747191423,1790.2854855160065,0.0
342154.6038362722,4750833.5216966402,-2500.0,791.86739302278954,1193.8241117237983,874.41690256557752,-42.593701695359876,-8.520729459891319,-2.1908217948118973,1195.699121465623,1493.6963896296857,-406.14074439314231,406.14074439314231,-1493.6963896296857,2232.5323052959302,0.0
347154.6038362722,4750833.5216966402,-2500.0,858.19884373587854,1566.7241986469855,412.47696259390221,-65.998161220131777,19.06253408843607,-3.710723523700683,1584.5653780973992,1647.7628122910273,-482.27321935703446,482.27321935703446,-1647.7628122910273,2816.9869896962928,0.0
352154.6038362722,4750833.5216966402,-2500.0,1002.2903239377209,1927.7637733444524,-338.00500417106531,-89.452603524811266,61.279371685619253,-5.7535529028423422,2044.249299943421,1730.0483318602614,-562.95434186663044,562.95434186663044,-1730.0483318602614,3556.0593094042019,0.0
357154.6038362722,4750833.5216966402,-2500.0,1233.4020225792156,2195.9007117127239,-1390.6353268840339,-108.66718610674748,118.65451695129246,-8.3043934663980838,2562.9247284001258,1679.4625203043586,-633.49379927787845,633.49379927787845,-1679.4625203043586,4439.9014611300054,0.0
362154.6038362722,4750833.5216966402,-2500.0,1531.9513018132034,2279.5706174360348,-2699.7786642459359,-118.71218007113903,188.84700602616036,-11.249303659151504,3116.9976917578456,1434.8182172868178,-673.74355227499927,673.74355227499927,-1434.8182172868178,5431.1317686404082,0.0
367154.6038362722,4750833.5216966402,-2500.0,1845.0127580185565,2103.1261241520647,-4153.3452891901206,-115.30886028625608,266.2719806207009,-14.365906677140151,3671.9067482848695,955.05619429866863,-662.70542311565816,662.70542311565816,-955.05619429866863,6465.7852183704872,0.0
372154.6038362722,4750833.5216966402,-2500.0,2095.8759344991036,1635.2022488011323,-5588.4709373672204,-96.285158910236717,342.78487277314559,-17.348797759511186,4186.4431672082519,239.09002472295094,-585.25595308321806,585.25595308321806,-239.09002472295094,7461.7779276287392,0.0
377154.6038362722,4750833.5216966402,-2500.0,2206.4822163254357,905.43033112306739,-6828.5708322084283,-62.541255503714083,409.41876676168732,-19.870293789265336,4619.8266693491823,-664.81075224402821,-438.19511905973394,438.19511905973394,664.81075224402821,8333.5246873514006,0.0
382154.6038362722,4750833.5216966402,-2500.0,2123.3217632004744,-0.021096542168419496,-7728.0934937641341,-18.000764671583283,458.57919921279898,-21.657554293653654,4939.3801108397338,-1666.516466987825,-232.57462767200639,232.57462767200639,1666.516466987825,9008.4456813132238,0.0
387154.6038362722,4750833.5216966402,-2500.0,1834.5247037356407,-962.67361285902348,-8206.3630172073645,31.473695086119243,485.80064614063946,-22.555040415532229,5126.2201947640415,-2656.234858856003,8.971921038095843,-8.971921038095843,2656.234858856003,9439.9492710165214,0.0
392154.6038362722,4750833.5216966402,-2500.0,1370.9954996869471,-1864.2422380532794,-8258.1776221216078,79.690292302259806,490.40770690493468,-22.548375059195692,5177.273189970535,-3531.7134891235896,258.55208980477528,-258.55208980477528,3531.7134891235896,9613.064676225722,0.0
397154.6038362722,4750833.5216966402,-2500.0,793.37048528180526,-2613.6100587241376,-7941.2660756565474,121.56896024142817,475.01190885029666,-21.745860283371425,5103.5285057829396,-4219.4867649879234,490.04598547436058,-490.04598547436058,4219.4867649879234,9542.1519621739189,0.0
402154.6038362722,4750833.5216966402,-2500.0,172.7613577224875,-3160.0235080995462,-7350.449368776136,153.94655749540505,444.28395768578906,-20.333376660468328,4925.7933140348778,-4684.0297148579411,684.19226018821337,-684.19226018821337,4684.0297148579411,9263.0341618122184,0.0
407154.6038362722,4750833.5216966402,-2500.0,-426.37214655382479,-3492.2756993812814,-6590.527911996749,175.67301933288749,403.5926204014749,-18.523304999226607,4669.6780273508093,-4925.2055740952128,830.60604965495099,-830.60604965495099,4925.2055740952128,8823.0614577173874,0.0
412154.6038362722,4750833.5216966402,-2500.0,-956.54055616074118,-3628.9228507766293,-5756.0538350064844,187.21301886027496,357.93950006053154,-16.514370313955197,4361.2109227578931,-4968.539340102785,927.12549157511535,-927.12549157511535,4968.539340102785,8272.085376517698,0.0
417154.6038362722,4750833.5216966402,-2500.0,-1390.2631800499089,-3605.6209049952759,-4920.5992604170415,190.0491766641999,311.3508586857871,-14.467941597366623,4023.7937901463733,-4853.5115920256558,977.64025366772739,-977.64025366772739,4853.5115920256558,7655.964042488652,0.0
422154.6038362722,4750833.5216966402,-2500.0,-1717.9079576867423,-3463.9373252567275,-4134.1326006778536,186.11584230205233,266.68120779800216,-12.500164406174733,3676.5874373450843,-4623.5005357124728,989.54369656108724,-989.54369656108724,4623.5005357124728,7012.9212816927184,0.0
427154.6038362722,4750833.5216966402,-2500.0,-1943.0161865802756,-3243.5765581414776,-3425.5199688240391,177.37880571769247,225.69228633765707,-10.68419340629826,3334.050442361201,-4318.9241586078206,971.54749489889855,-971.54749489889855,4318.9241586078206,6372.2822675009502,0.0
432154.6038362722,4750833.5216966402,-2500.0,-2077.2268065726198,-2978.1356356233164,-2807.3061758617464,165.58313079241901,189.26734451295849,-9.0581569068409262,3006.2328026431674,-3973.5929354887421,932.15788429292093,-932.15788429292093,3973.5929354887421,5754.8119002681569,0.0
437154.6038362722,4750833.5216966402,-2500.0,-2135.9969983046094,-2693.5944353480772,-2280.8092730568392,152.14051005255598,157.65885133186123,-7.6345995085775726,2699.461437931609,-3613.5220114759572,878.80983568524471,-878.80983568524471,3613.5220114759572,5173.9223213163805,0.0
442154.6038362722,4750833.5216966402,-2500.0,-2135.5456296492762,-2408.5313227731021,-1840.4904376788211,138.11099942064902,130.71171693246671,-6.4090425219535625,2417.1520815036679,-3257.2847470546312,817.51140400518784,-817.51140400518784,3257.2847470546312,4637.1993023976629,0.0
447154.6038362722,4750833.5216966402,-2500.0,-2090.9767917891704,-2135.2111194726185,-1477.241657738195,124.2376944554003,108.0385173230666,-5.3670215667544614,2160.5872629258361,-2917.1385383929264,752.82005423851365,-752.82005423851365,2917.1385383929264,4147.9065187773576,0.0
292154.6038362722,4755833.5216966402,-2500.0,446.88895815793006,163.06216196645408,329.30236341849428,10.235625891304641,-3.2999353312985757,0.018554617947979746,280.95332651972404,407.48612161869136,-124.72139420583591,124.72139420583591,-407.48612161869136,491.00771338906031,0.0
297154.6038362722,4755833.5216966402,-2500.0,498.67596825129084,159.77876431312109,395.71488070583939,11.48891259035975,-5.7326142914901732,0.045464956669249879,307.79769489347763,447.56505241950777,-134.59244013867576,134.59244013867576,-447.56505241950777,533.83158390591245,0.0
302154.6038362722,4755833.5216966402,-2500.0,547.28775559114229,160.36972968596703,473.92502570656865,12.396413322542065,-8.6596990661010196,0.070150314593684371,337.85430546450061,493.13359239275405,-144.94465544407433,144.94465544407433,-493.13359239275405,585.25648672092234,0.0
307154.6038362722,4755833.5216966402,-2500.0,589.70172680344388,169.06937217927197,563.20851321395457,12.668850968334349,-12.011404543743524,0.084225071578581834,373.35328255507966,545.89966800676348,-156.10426940183871,156.10426940183871,-545.89966800676348,647.60906803760429,0.0
312154.6038362722,4755833.5216966402,-2500.0,622.77569178193767,191.92465582094047,660.47465159422609,11.918794360762842,-15.591367962065158,0.075919248101669778,417.62811987431678,608.0989031365242,-168.69071876834835,168.69071876834835,-608.0989031365242,724.09392882572945,0.0
317154.6038362722,4755833.5216966402,-2500.0,643.92588349571076,236.90557285876875,758.82017500026143,9.6626458760601608,-19.008816814224655,0.02556223299438326,473.05262019824738,682.37687429772018,-183.72117024467693,183.72117024467693,-682.37687429772018,819.46668634803405,0.0
322154.6038362722,4755833.5216966402,-2500.0,652.19742942435846,313.52928273016215,845.73457105161208,5.349885158585086,-21.598839895184867,-0.094979387310800301,539.12704124090601,771.35175890870642,-202.67111035745074,202.67111035745074,-771.35175890870642,941.04837651690241,0.0
327154.6038362722,4755833.5216966402,-2500.0,649.67057295418488,431.62704043012366,901.23130598431305,-1.5638028589664781,-22.345358719180375,-0.32397930077428522,613.19251570337781,876.65017020599839,-227.41643167154024,227.41643167154024,-876.65017020599839,1099.8635433966535,0.0
332154.6038362722,4755833.5216966402,-2500.0,642.91122107445312,598.87443602963083,896.53652469699534,-11.484448342625589,-19.836381556415947,-0.70975326995021615,691.7043790488226,997.22264406025795,-259.94634260301598,259.94634260301598,-997.22264406025795,1311.2361390840265,0.0
337154.6038362722,4755833.5216966402,-2500.0,643.8329286487176,816.92064570462765,794.4025024988224,-24.484992680448695,-12.29821889138419,-1.307871094952993,821.07273595199717,1126.9112536091532,-301.73635299539802,301.73635299539802,-1126.9112536091532,1593.8465204193301,0.0
342154.6038362722,4755833.5216966402,-2500.0,669.01932271939336,1076.5312474505224,552.41638192683149,-40.070785394469468,2.2347744573780766,-2.1742326933001603,1079.2455185430222,1251.6434459856396,-352.7428397445783,352.7428397445783,-1251.6434459856396,1966.5768377096322,0.0
347154.6038362722,4755833.5216966402,-2500.0,736.5466982665863,1353.1088979465057,130.45012848365494,-56.969458966176326,25.570484170088545,-3.3531674360981967,1388.4728806136181,1347.2553266266241,-410.16451712773096,410.16451712773096,-1347.2553266266241,2443.5145320699517,0.0
352154.6038362722,4755833.5216966402,-2500.0,860.01013358994135,1604.955875279582,-497.79153880398115,-73.051374082372462,58.835736896346162,-4.8613615773440957,1745.4069263854783,1379.5693241344379,-467.3939838039887,467.3939838039887,-1379.5693241344379,3028.4234592477933,0.0
357154.6038362722,4755833.5216966402,-2500.0,1040.927197268237,1776.9314161378884,-1331.4022908214247,-85.49963361254899,101.87861451555798,-6.6705168214005246,2140.3615644033098,1308.4277220234801,-513.82116748531848,513.82116748531848,-1308.4277220234801,3710.2136479102246,0.0
362154.6038362722,4755833.5216966402,-2500.0,1262.4643013532386,1810.8718583363238,-2331.8391671086461,-91.295327429906223,152.79992218212325,-8.6951869083417304,2556.463538351712,1096.3315826069095,-536.11901205044137,536.11901205044137,-1096.3315826069095,4460.8014449647171,0.0
367154.6038362722,4755833.5216966402,-2500.0,1488.2636637993228,1661.1060833435911,-3421.1730774945581,-87.953040142770064,207.8654633215925,-10.792637925938523,2970.4793418691102,720.08664262491993,-521.15037513180732,521.15037513180732,-720.08664262491993,5236.4939083560857,0.0
372154.6038362722,4755833.5216966402,-2500.0,1668.7901443518138,1309.9207477701964,-4492.6452168700234,-74.282255063225421,261.96912934705131,-12.780076497808277,3355.4920062422088,181.42045144812403,-459.78532670876734,459.78532670876734,-181.42045144812403,5983.3261675930371,0.0
377154.6038362722,4755833.5216966402,-2500.0,1754.1226396877344,776.33146569840164,-5432.0157078467646,-50.865802147546056,309.59927316448466,-14.467341257276484,3684.9573560103718,-488.31053709611069,-350.18908298568908,350.18908298568908,488.31053709611069,6645.4910533900538,0.0
382154.6038362722,4755833.5216966402,-2500.0,1708.4349867767867,113.71673175404923,-6142.7380364482897,-20.026063377380378,346.01129609401954,-15.695681226078538,3937.0499670737827,-1232.269994782409,-199.11339681220204,199.11339681220204,1232.269994782409,7174.6961801727684,0.0
387154.6038362722,4755833.5216966402,-2500.0,1520.1561837014744,-603.08695257002194,-6565.8166236304232,14.72768717789312,368.19027379883056,-16.369314842008151,4098.0218142540361,-1980.1375640862252,-20.559476579884063,20.559476579884063,1980.1375640862252,7537.7747388828338,0.0
392154.6038362722,4755833.5216966402,-2500.0,1203.9819771418256,-1295.884839846362,-6687.8667013807117,49.544714971363007,375.28602386154733,-16.469027099095364,4163.682905501576,-2663.4015981628772,167.60874875423997,-167.60874875423997,2663.4015981628772,7720.5567780648762,0.0
397154.6038362722,4755833.5216966402,-2500.0,794.96366327589965,-1899.5216964709225,-6536.5024025197326,81.047593227184365,368.45223418980589,-16.045732127429876,4138.8380501379897,-3228.4402472600714,347.70118890420372,-347.70118890420372,3228.4402472600714,7727.4684316235043,0.0
402154.6038362722,4755833.5216966402,-2500.0,338.14878054660471,-2371.7168682748706,-6167.1444310111128,106.86704028599847,350.25893459021597,-15.199488050622961,4035.1863906955286,-3643.7094544304055,505.47943547102386,-505.47943547102386,3643.7094544304055,7577.7627991839618,0.0
407154.6038362722,4755833.5216966402,-2500.0,-121.90790225092675,-2695.1506558135588,-5647.2533173603897,125.81387946087675,323.95276054829367,-14.053311028717877,3868.5218991877082,-3900.3758252601492,631.89070860382162,-631.89070860382162,3900.3758252601492,7300.0577520194593,0.0
412154.6038362722,4755833.5216966402,-2500.0,-548.71226100382125,-2873.6140522459796,-5042.890100440859,137.75316201546323,292.80149824889861,-12.730161807507294,3656.0158921550128,-4008.1135910602652,723.23314360987365,-723.23314360987365,4008.1135910602652,6926.8181189166344,0.0
417154.6038362722,4755833.5216966402,-2500.0,-917.43784558168761,-2925.2389105814623,-4410.0154404635805,143.31443374762986,259.64900271069041,-11.33691060299641,3414.0865256355783,-3988.6792359971078,780.22731384052372,-780.22731384052372,3988.6792359971078,6489.890825844067,0.0
422154.6038362722,4755833.5216966402,-2500.0,-1215.1206399706941,-2875.4767825077292,-3790.6524360792969,143.56587098248093,226.69843522949444,-9.9568713430447158,3157.0379400671413,-3869.5111970857488,806.60230461536776,-806.60230461536776,3869.5111970857488,6017.5436473165819,0.0
427154.6038362722,4755833.5216966402,-2500.0,-1438.7061801029818,-2751.4363069042884,-3212.7292552727554,139.7357575907572,195.4761703248185,-8.6480647317788897,2896.4156856797672,-3678.6763962042278,807.68477317077281,-807.68477317077281,3678.6763962042278,5532.9554921644258,0.0
432154.6038362722,4755833.5216966402,-2500.0,-1592.2157792488692,-2578.1402986833436,-2692.074760690693,133.01608191572583,166.90743574343685,-7.4462507514138778,2640.9059133316277,-3441.592954041444,789.26692062381653,-789.26692062381653,3441.592954041444,5053.8384962812806,0.0
437154.6038362722,4755833.5216966402,-2500.0,-1683.9352860058352,-2376.5662629267281,-2235.2702317721028,124.4487202907179,141.44236611942353,-6.3691869747056158,2396.5781673930337,-3179.3689971292933,756.8425219047574,-756.8425219047574,3179.3689971292933,4592.7966360662176,0.0
442154.6038362722,4755833.5216966402,-2500.0,-1724.1107383348033,-2163.0208975784412,-1842.5046202122871,114.87710265866947,119.18981742334398,-5.4216549609173041,2167.3014318800288,-2908.3397110575652,715.18146926932991,-715.18146926932991,2908.3397110575652,4158.0739102205471,0.0
297154.6038362722,4760833.5216966402,-2500.0,446.14967137344212,137.45818967221661,382.71974121473085,9.3316848946059761,-6.3500069797089491,0.027494896008386394,277.97071555920905,405.88712991639869,-119.54709594426112,119.54709594426112,-405.88712991639869,481.4741160305698,0.0
302154.6038362722,4760833.5216966402,-2500.0,479.97527815871035,144.14222024794086,449.09760022126073,9.5499948782984934,-8.7078879076995683,0.033357244375549044,304.99594722134555,446.20136176798263,-128.34158046071519,128.34158046071519,-446.20136176798263,528.49807426239522,0.0
307154.6038362722,4760833.5216966402,-2500.0,507.64434588109418,160.24941110817011,521.18500555162734,9.1104397673606634,-11.235463517183778,0.025149308091780551,337.68622575115984,492.9463665824984,-138.11324606759763,138.11324606759763,-492.9463665824984,585.15077161181819,0.0
312154.6038362722,4760833.5216966402,-2500.0,527.34533283911901,190.80703110580728,594.78890189238621,7.7159887734331107,-13.707159833397892,-0.0082925495897198109,377.75487175034704,547.76901096382778,-149.47305331988537,149.47305331988537,-547.76901096382778,654.35565968763433,0.0
317154.6038362722,4760833.5216966402,-2500.0,538.10517605364498,241.85712893530325,662.46544324298929,5.0249417904963707,-15.744127839903099,-0.082780654889467134,425.41229527513212,612.34514858689886,-163.30052583539401,163.30052583539401,-612.34514858689886,740.50317092546425,0.0
322154.6038362722,4760833.5216966402,-2500.0,540.55719657711609,319.8771784504994,712.43359675517104,0.68511055786203756,-16.769910510313608,-0.2197106142447311,479.33614916406827,687.90161276912784,-180.72826779641184,180.72826779641184,-687.90161276912784,850.13956154413415,0.0
327154.6038362722,4760833.5216966402,-2500.0,537.79299838157226,430.5850501558902,727.68172567013085,-5.6028771637335364,-15.978050757688033,-0.44632108433889195,537.3758700148818,774.37695187138274,-203.02058805602695,203.02058805602695,-774.37695187138274,992.48949636218845,0.0
332154.6038362722,4760833.5216966402,-2500.0,536.03641244348,576.99561307099577,685.74044888735295,-13.989005165220586,-12.332064028676415,-0.7947376989088355,597.13596768357638,869.17172473596702,-231.28823657538123,231.28823657538123,-869.17172473596702,1179.3133176012186,0.0
337154.6038362722,4760833.5216966402,-2500.0,544.71182936557295,756.80563669841933,559.7784834532381,-24.349512312660135,-4.6248108258353637,-1.2992342179321301,757.48598411747446,965.58821934924549,-266.00125412435244,266.00125412435244,-965.58821934924549,1423.6182155109757,0.0
342154.6038362722,4760833.5216966402,-2500.0,575.39193888229465,959.57001013736681,321.70006853840522,-36.157063097345898,8.3765266711635977,-1.9910601601691833,968.95803371714487,1051.3187186153427,-306.32623942747443,306.32623942747443,-1051.3187186153427,1737.1556150868503,0.0
347154.6038362722,4760833.5216966402,-2500.0,639.25093659464324,1164.628901930226,-52.405027283149117,-48.388320356628448,27.688000796277077,-2.8908411006390891,1216.4722809806485,1107.6603549849442,-349.42875284291119,349.42875284291119,-1107.6603549849442,2127.204373648673,0.0
352154.6038362722,4760833.5216966402,-2500.0,743.14540893961669,1341.1240084391777,-574.92300972106591,-59.526919876918619,53.79087920868028,-3.9994473024725985,1496.5659431436998,1110.3491608652507,-390.0170540042252,390.0170540042252,-1110.3491608652507,2593.4327270947961,0.0
357154.6038362722,4760833.5216966402,-2500.0,885.25353075558519,1451.3250559954399,-1239.1436926794645,-67.714817825661171,86.307684771504086,-5.2893691390892119,1801.5725027945723,1032.7551136244738,-420.47969916400177,420.47969916400177,-1032.7551136244738,3125.6038695102043,0.0
362154.6038362722,4760833.5216966402,-2500.0,1051.9815708660608,1457.5753553927643,-2014.1667014598547,-71.066862893366888,123.78511607339776,-6.699887161382204,2119.3497248556178,851.46925209625249,-431.88621269852194,431.88621269852194,-851.46925209625249,3702.7955446955816,0.0
367154.6038362722,4760833.5216966402,-2500.0,1218.0149175682727,1331.5604583662657,-2845.1322222137933,-68.095670204008471,163.70379127719963,-8.1392277642634596,2433.9603217461436,553.1448182652116,-415.82467021308582,415.82467021308582,-553.1448182652116,4294.6526724155974,0.0
372154.6038362722,4760833.5216966402,-2500.0,1350.5016586739687,1063.0230850980463,-3660.2505628052022,-58.123698334726932,202.7805199343255,-9.4954572395048906,2727.3559258396099,140.36909127749388,-366.62870471109886,366.62870471109886,-140.36909127749388,4864.7888504698331,0.0
377154.6038362722,4760833.5216966402,-2500.0,1416.5939155890794,664.55119367260238,-4383.5078900894114,-41.531690311699869,237.52208013782055,-10.654395523387148,2981.7822576083008,-365.88813820930199,-283.23102641638519,283.23102641638519,365.88813820930199,5375.81090794382,0.0
382154.6038362722,4760833.5216966402,-2500.0,1391.8486532393715,170.26444136812754,-4949.3603677239098,-19.737362779485043,264.87760202432912,-11.520169431030917,3182.3306409469737,-928.66839298781133,-169.90484159241032,169.90484159241032,928.66839298781133,5794.8200942347994,0.0
387154.6038362722,4760833.5216966402,-2500.0,1266.4106543429266,-371.33379408015503,-5314.7186042299654,5.0978151860706387,282.78606475232334,-12.031801080756601,3318.9769602224915,-1501.7670058723606,-35.566985924445021,35.566985924445021,1501.7670058723606,6098.0103787526059,0.0
392154.6038362722,4760833.5216966402,-2500.0,1046.8769013038634,-907.73838126284534,-5464.7110465625556,30.528668377604902,290.45856211564836,-12.171409877183443,3387.6229240128532,-2038.5892080635249,108.09721220549181,-108.09721220549181,2038.5892080635249,6273.2875068077719,0.0
397154.6038362722,4760833.5216966402,-2500.0,753.65981972427187,-1392.5051218742672,-5411.3520123542321,54.296086695967539,288.34575844471215,-11.962068433772393,3389.9973723124303,-2500.2647930386784,248.99835943055245,-248.99835943055245,2500.2647930386784,6320.5193879594153,0.0
402154.6038362722,4760833.5216966402,-2500.0,415.38072026857822,-1792.1701599549956,-5186.8092810169628,74.672542697093434,277.8556571118699,-11.458095416940003,3332.6195759863481,-2860.8569430189837,376.73813389350812,-376.73813389350812,2860.8569430189837,6249.7562313141998,0.0
407154.6038362722,4760833.5216966402,-2500.0,62.523892758558993,-2088.9035983369954,-4834.2764083036454,90.621195331381571,260.95049055521366,-10.731259117815185,3225.2313436203235,-3108.9131196334338,483.93053885099221,-483.93053885099221,3108.9131196334338,6078.2218176145379,0.0
412154.6038362722,4760833.5216966402,-2500.0,-277.78541821068171,-2279.4140049731386,-4399.2969454440827,101.78083857165471,239.75060643164841,-9.8576862493127955,3079.1316506137982,-3245.9211795639812,566.62008732482286,-566.62008732482286,3245.9211795639812,5826.9729250935388,0.0
417154.6038362722,4760833.5216966402,-2500.0,-584.93868585336452,-2371.5302692562395,-3923.3131002883415,108.33455957187378,216.22926031125678,-8.9076772325467086,2905.7385194879439,-3282.9319492947684,623.96835708111348,-623.96835708111348,3282.9319492947684,5517.9257423764411,0.0
422154.6038362722,4760833.5216966402,-2500.0,-845.9007475218458,-2379.9945400986044,-3439.9903377129722,110.8298944337502,192.02887974529693,-7.9396025821561986,2715.54748611176,-3236.6545348478112,657.51604457823601,-657.51604457823601,3236.6545348478112,5171.6364012376271,0.0
427154.6038362722,4760833.5216966402,-2500.0,-1054.6856940110986,-2322.5999364987815,-2973.9836601474781,110.00370556267595,168.38845426012836,-6.9975367427559902,2517.5154880308851,-3125.9682984524161,670.3174294025423,-670.3174294025423,3125.9682984524161,4805.9295419778282,0.0
432154.6038362722,4760833.5216966402,-2500.0,-1210.9412109353914,-2217.2599628776493,-2541.406082625801,106.6421487372981,146.15168668827653,-6.1115710799433298,2318.8093906368467,-2969.3244984888388,666.15435740475164,-666.15435740475164,2969.3244984888388,4435.2743508427366,0.0
437154.6038362722,4760833.5216966402,-2500.0,-1318.2412859824706,-2080.1447134475507,-2151.2251119307434,101.48558667269755,125.82193879049903,-5.2997757419604916,2124.8192718519122,-2783.127070788918,648.93345363271123,-648.93345363271123,2783.127070788918,4070.7166502290224,0.0
302154.6038362722,4765833.5216966402,-2500.0,418.95376942294371,135.29100745370692,418.58401152557855,7.0991680819728531,-8.305851768332202,0.0035062301369578608,277.23855456310855,405.34266157100058,-114.47343536939772,114.47343536939772,-405.34266157100058,480.24335056144611,0.0
307154.6038362722,4765833.5216966402,-2500.0,436.62712714765877,156.70610764101045,474.6311031292708,6.2195894531121221,-10.126970505479163,-0.018551625079886377,306.9870506671121,446.77485058551838,-123.25511459130243,123.25511459130243,-446.77485058551838,531.78205296870522,0.0
312154.6038362722,4765833.5216966402,-2500.0,448.03820453178491,191.77950223829359,527.60049437063958,4.5000488080927052,-11.717221529480979,-0.065257238902974746,342.13296739237171,494.86775974832551,-133.64986526397607,133.64986526397607,-494.86775974832551,594.63414929998032,0.0
317154.6038362722,4765833.5216966402,-2500.0,453.23470117368345,244.83305240802611,570.29660801831858,1.7103032440754906,-12.738653219885222,-0.14893560297603992,382.09162283236213,550.5053494168759,-146.35980994174375,146.35980994174375,-550.5053494168759,672.79969612625894,0.0
322154.6038362722,4765833.5216966402,-2500.0,453.64499165493004,319.9724370419076,592.34051775601984,-2.3614191513824996,-12.717166462583039,-0.28532912777689429,425.58805260194367,613.92427241225005,-162.19426694558689,162.19426694558689,-613.92427241225005,771.94318379651008,0.0
327154.6038362722,4765833.5216966402,-2500.0,452.53787356307112,420.08235357697941,579.86905535236497,-7.859229138815035,-11.034681050856388,-0.493323068654417,470.98963393085671,684.05265338662537,-181.93547780309561,181.93547780309561,-684.05265338662537,899.49632517200519,0.0
332154.6038362722,4765833.5216966402,-2500.0,455.2443292559322,545.41026274611784,515.83354273300984,-14.793345979358136,-6.9478372162251363,-0.79386543288397005,546.65875129583742,757.6432675149033,-206.09752935492781,206.09752935492781,-757.6432675149033,1064.1857422671194,0.0
337154.6038362722,4765833.5216966402,-2500.0,468.87994710811176,691.88917838589259,381.26877296280759,-22.964308092702062,0.35238011628795435,-1.2077171505703055,693.87262982680693,828.32911638815108,-234.57571971762553,234.57571971762553,-828.32911638815108,1274.8284410314438,0.0
342154.6038362722,4765833.5216966402,-2500.0,501.31537750902976,849.5814267747777,157.82771256122106,-31.894774647437494,11.629612092424932,-1.7518906833026502,867.68589798218477,885.88042237674119,-266.22989993756039,266.22989993756039,-885.88042237674119,1538.5338562340548,0.0
347154.6038362722,4765833.5216966402,-2500.0,559.29312724740794,1001.8626912089964,-168.40365513659327,-40.7952596010524,27.440657721449622,-2.4349553350489996,1067.2197646545046,916.0873219367902,-298.51023089388855,298.51023089388855,-916.0873219367902,1858.696213048197,0.0
352154.6038362722,4765833.5216966402,-2500.0,645.91376630490095,1126.073883364345,-602.30264114452325,-48.594315685663297,47.94460608019628,-3.2519353908907269,1289.2967561077853,901.73835489147496,-327.29477483621599,327.29477483621599,-901.73835489147496,2233.2193082559602,0.0
357154.6038362722,4765833.5216966402,-2500.0,758.14004063792254,1196.1714177885988,-1135.4216027623204,-54.055190620435184,72.727393759981695,-4.1800533280603647,1527.9411042223974,824.98918890138884,-347.12142380678574,347.12142380678574,-824.98918890138884,2653.3600260057497,0.0
362154.6038362722,4765833.5216966402,-2500.0,885.29595348052862,1187.3238731659621,-1743.547549162937,-55.977351591679678,100.70335185204128,-5.1770307772351645,1774.3356879803175,670.975289809439,-351.92183018765274,351.92183018765274,-670.975289809439,3103.5276709583177,0.0
367154.6038362722,4765833.5216966402,-2500.0,1009.5032859034224,1081.5553209310337,-2387.5343018315425,-53.446270817422786,130.15134854237405,-6.1832898591335299,2017.3391557437219,431.91328781212394,-336.19294207298583,336.19294207298583,-431.91328781212394,3562.2789736800505,0.0
372154.6038362722,4765833.5216966402,-2500.0,1108.4498464674791,872.80631957779985,-3017.9923158034489,-46.063639913366508,158.91043878631618,-7.1286649939170141,2244.5641094949779,110.44738518151476,-296.33043865960053,296.33043865960053,-110.44738518151476,4004.5181860868934,0.0
377154.6038362722,4765833.5216966402,-2500.0,1159.9708198293845,569.63965748917497,-3583.0750051118439,-34.081691147519869,184.70626617056644,-7.9426040972083713,2443.8467352742491,-279.03757722972108,-231.70818700171128,231.70818700171128,279.03757722972108,4404.5817612445471,0.0
382154.6038362722,4765833.5216966402,-2500.0,1147.0842127446492,194.48083394301034,-4037.3390580246946,-18.390158522603887,205.52701138562014,-8.565298777857743,2604.7934204843455,-711.84825309766541,-145.11700184107292,145.11700184107292,711.84825309766541,4739.5781730992321,0.0
387154.6038362722,4765833.5216966402,-2500.0,1061.839724979026,-220.48182164698258,-4349.1679329225253,-0.35504788548757255,219.94505373703402,-8.9569977712480515,2720.0507376374362,-1156.9075945635495,-42.388271306296815,42.388271306296815,1156.9075945635495,4992.2424608247748,0.0
392154.6038362722,4765833.5216966402,-2500.0,906.80057433730133,-639.41995660307487,-4504.7986216462195,18.439779837011194,227.30002290370231,-9.1028385569088339,2786.0265426947904,-1582.0279016746706,68.676799511393938,-68.676799511393938,1582.0279016746706,5152.7053445047795,0.0
397154.6038362722,4765833.5216966402,-2500.0,693.91830150807505,-1029.1240260162392,-4508.2842716340128,36.468990568246006,227.71069504082445,-9.0124913009413401,2802.9594762448091,-1959.0074890737815,179.72117459800609,-179.72117459800609,1959.0074890737815,5218.9146533443291,0.0
402154.6038362722,4765833.5216966402,-2500.0,441.47710971484241,-1363.7557689325902,-4378.0762764130441,52.487234962656437,221.93992442755004,-8.7155162652326261,2774.4127643006013,-2267.2803301747081,283.17385368262342,-283.17385368262342,2267.2803301747081,5195.8220676644733,0.0
407154.6038362722,4765833.5216966402,-2500.0,170.26625955724143,-1627.2481380690829,-4141.7417639326659,65.654018241776754,211.17392359776468,-8.2541374752417163,2706.3931340123604,-2495.5178967866614,373.20544807607553,-373.20544807607553,2495.5178967866614,5093.7241267408735,0.0
412154.6038362722,4765833.5216966402,-2500.0,-99.914907448592842,-1813.3897416841069,-3830.4421860468842,75.558033726225702,196.7845518740813,-7.6756484957036415,2606.3330747828054,-2641.2967366197618,446.16858673365414,-446.16858673365414,2641.2967366197618,4926.2449719462429,0.0
417154.6038362722,4765833.5216966402,-2500.0,-352.72067624591762,-1924.2336335754965,-3474.3669738232265,82.164347676844002,180.12703857305053,-7.0261093557815242,2482.1386815945366,-2709.4161151055609,500.567264654474,-500.567264654474,2709.4161151055609,4708.3895256757287,0.0
422154.6038362722,4765833.5216966402,-2500.0,-576.48276544919975,-1967.6751490779386,-3099.6874897628386,85.719054670730202,162.39988929288907,-6.3458993658851579,2341.4315018776797,-2709.5945769398577,536.7022812222815,-536.7022812222815,2709.5945769398577,4454.951299273358,0.0
427154.6038362722,4765833.5216966402,-2500.0,-764.35697479747432,-1954.932822647954,-2727.0505253320839,86.64334457579443,144.57040756743001,-5.6675404538734488,2191.0340953573923,-2654.1631097273976,556.16341777502498,-556.16341777502498,2654.1631097273976,4179.3971490693584,0.0
432154.6038362722,4765833.5216966402,-2500.0,-913.73643504148492,-1898.407537696221,-2371.3007654368953,85.438946251419893,127.35438140464852,-5.0150030157270802,2036.6894594246187,-2556.1455207156828,561.30923335092075,-561.30923335092075,2556.1455207156828,3893.2247247486976,0.0
307154.6038362722,4770833.5216966402,-2500.0,376.25566696776519,155.49281725285178,426.48342838751591,3.9355584003738344,-8.8815097021900655,-0.049554059586202709,279.6520774354662,406.02003427648265,-110.83790857670689,110.83790857670689,-406.02003427648265,485.64037559461241,0.0
312154.6038362722,4770833.5216966402,-2500.0,382.76159882943722,192.52542227606108,462.16984107889994,2.102885364697368,-9.7963148791563022,-0.10181432763935835,309.77063373251787,447.93082864259071,-120.38084494334277,120.38084494334277,-447.93082864259071,542.94737971170105,0.0
317154.6038362722,4770833.5216966402,-2500.0,385.28627724331227,244.74596979869531,485.23195274835928,-0.58803451617476687,-10.097888734917934,-0.18588316168689237,342.81287378755013,495.42707503619454,-131.98601163584226,131.98601163584226,-495.42707503619454,614.09519504887976,0.0
322154.6038362722,4770833.5216966402,-2500.0,385.54982507502217,314.52491796190947,486.9112444574269,-4.2543753065595347,-9.4094789476917384,-0.31308019409404275,377.72779702370656,548.09987029042338,-146.19235327999365,146.19235327999365,-548.09987029042338,703.82783181245441,0.0
327154.6038362722,4770833.5216966402,-2500.0,386.57513696952054,402.90590708896036,456.23644440063828,-8.9468913376294807,-7.2682740533734282,-0.49628734425876903,413.39194792730086,604.35314427972958,-163.42990842308913,163.42990842308913,-604.35314427972958,817.94805500027576,0.0
332154.6038362722,4770833.5216966402,-2500.0,392.67252068344789,508.62587441353543,380.52585563423122,-14.606440803698755,-3.1493683078719776,-0.7489723245898372,509.01546138891069,660.83296152521598,-183.83294613630252,183.83294613630252,-660.83296152521598,962.76679097465342,0.0
337154.6038362722,4770833.5216966402,-2500.0,409.053511130613,627.08466179602226,246.55836403581972,-21.019596529837958,3.4835805083587945,-1.0835221326936724,632.86787082375963,711.88881764146322,-206.99994569302652,206.99994569302652,-711.88881764146322,1144.1324996817648,0.0
342154.6038362722,4770833.5216966402,-2500.0,440.96519660066389,749.5422272521887,42.513467928859718,-27.785079320407863,13.098005075233537,-1.5088646742364087,776.36340307888554,749.26277915566925,-231.74160073974002,231.74160073974002,-749.26277915566925,1366.2041856132369,0.0
347154.6038362722,4770833.5216966402,-2500.0,492.35581626708313,862.92321088511528,-239.42235651497796,-34.306547703778996,25.987078587859891,-2.0276531979325227,938.40175314193198,762.25953574101493,-255.89232195481415,255.89232195481415,-762.25953574101493,1630.2151646826362,0.0
352154.6038362722,4770833.5216966402,-2500.0,564.28116700787791,950.61195184035921,-600.18459194758964,-39.827214113970165,42.155789061705804,-2.6334088256790822,1116.2331433498589,738.63511157455991,-276.28555885456814,276.28555885456814,-738.63511157455991,1933.4681869151691,0.0
357154.6038362722,4770833.5216966402,-2500.0,653.47820227525324,994.44669547430067,-1031.4020146772709,-43.514514073161507,61.225866338309409,-3.3084734448025839,1305.2262785922762,666.29982867803596,-288.98492374873393,288.98492374873393,-666.29982867803596,2268.7622739180092,0.0
362154.6038362722,4770833.5216966402,-2500.0,751.66247763166928,977.76620708305177,-1514.2760181143747,-44.589190542506273,82.39320554697413,-4.0235262086592458,1498.9120824255583,535.66746379016661,-289.80843787088014,289.80843787088014,-535.66746379016661,2624.4259128325712,0.0
367154.6038362722,4770833.5216966402,-2500.0,846.02722124399361,888.91247327120368,-2020.4889229508619,-42.474983128208429,104.46565252161474,-4.7393599673017501,1689.3637931891226,342.16396008467495,-275.08435864409023,275.08435864409023,-342.16396008467495,2985.0678696319405,0.0
372154.6038362722,4770833.5216966402,-2500.0,921.09185367384828,724.25122370017459,-2515.3584060105277,-36.931029712701417,125.99011549718023,-5.4110553688311276,1867.9001103616788,88.186762586936482,-242.46924172304915,242.46924172304915,-88.186762586936482,3333.0239424493811,1.0
377154.6038362722,4770833.5216966402,-2500.0,961.56127843935894,489.74836463123438,-2962.735692619679,-28.127105920203334,145.45001414172287,-5.9938303945778726,2026.0073177021422,-216.17249766130399,-191.59511215337912,191.59511215337912,216.17249766130399,3650.3009364769905,0.0
382154.6038362722,4770833.5216966402,-2500.0,955.43285857191154,200.51455389943649,-3330.5053209909947,-16.635714138499406,161.48875468990289,-6.4494047846393094,2156.3039207472293,-554.01286755691206,-124.33631971927852,124.33631971927852,554.01286755691206,3920.663209768948,0.0
387154.6038362722,4770833.5216966402,-2500.0,896.44516370257759,-121.62129444536377,-3595.2942047912939,-3.3405108091554894,173.10419686702963,-6.7512771162957268,2253.3504003077155,-903.98116635505039,-44.599542403818361,44.599542403818361,903.98116635505039,4131.4485641503497,0.0
392154.6038362722,4770833.5216966402,-2500.0,785.18812381714099,-451.81740305239987,-3745.2676090616055,10.713036397295982,179.7681436355885,-6.8877300041640463,2314.1475909353708,-1243.4939436672314,42.305225653219622,-42.305225653219622,1243.4939436672314,4274.770131119245,0.0
397154.6038362722,4770833.5216966402,-2500.0,628.67240098814068,-766.17233276852357,-3780.5431235371725,24.483610075715681,181.45022415752828,-6.8620923380406573,2338.2531971230005,-1551.985943877557,130.52796351383768,-130.52796351383768,1551.985943877557,4347.9314740580521,0.0
402154.6038362722,4770833.5216966402,-2500.0,438.65447136313713,-1044.9620540092446,-3711.4815918566715,37.076138662846425,178.5543336900204,-6.6904128835339094,2327.5417940260613,-1813.4336530935404,214.54436610233211,-214.54436610233211,1813.4336530935404,4353.0822985386194,0.0
407154.6038362722,4770833.5216966402,-2500.0,229.32335179749919,-1274.5737891535248,-3555.625138755121,47.833507751653507,171.7971711556246,-6.3976753139160403,2285.7079880497131,-2017.7248963182121,289.83055730487217,-289.83055730487217,2017.7248963182121,4296.3041678210302,0.0
412154.6038362722,4770833.5216966402,-2500.0,14.996726161141275,-1448.0234008153705,-3334.2056498119814,56.370333463850351,162.06575139853609,-6.0134344248909901,2217.643832621176,-2160.831098596223,353.24483935305364,-353.24483935305364,2160.831098596223,4186.3916177369119,0.0
417154.6038362722,4770833.5216966402,-2500.0,-191.69583516069406,-1564.3213639493174,-3068.9948257286173,62.557295641880934,150.28573758592736,-5.5678327963783882,2128.8147769599332,-2244.0387381917581,403.1125469963747,-403.1125469963747,2244.0387381917581,4033.5890558298915,0.0
422154.6038362722,4770833.5216966402,-2500.0,-380.9212296092295,-1627.1356916208297,-2779.9514176987982,66.473067828312267,137.32026035798461,-5.088654309124526,2024.7227590630855,-2272.6329955814831,439.07915117222399,-439.07915117222399,2272.6329955814831,3848.4760498965366,0.0
427154.6038362722,4770833.5216966402,-2500.0,-546.05099668178514,-1643.2049675657131,-2483.8036885217803,68.34223558242067,123.90623755159405,-4.5994204603792443,1910.5046750667989,-2254.4190087744578,461.82620901979544,-461.82620901979544,2254.4190087744578,3641.1114375082652,0.0
312154.6038362722,4775833.5216966402,-2500.0,329.23822362540449,191.95044399531116,400.59971491087424,0.36084984909533901,-8.038835597539979,-0.12344928597023387,280.28994260274129,405.94193390089629,-109.05109277488236,109.05109277488236,-405.94193390089629,497.79965075703211,0.0
317154.6038362722,4775833.5216966402,-2500.0,330.73281732792077,241.52273338788598,408.70065281885383,-2.1259279766407344,-7.8494452519928508,-0.20304379200517822,307.42022406373275,446.13584003551205,-119.55605664486066,119.55605664486066,-446.13584003551205,562.67039431200055,0.0
322154.6038362722,4775833.5216966402,-2500.0,331.67216661417217,304.73161112234493,396.0561007233847,-5.3430444311921912,-6.7643414840454694,-0.31725315896482714,335.41730456560947,489.47453913828281,-132.15734011324346,132.15734011324346,-489.47453913828281,643.85093656101208,0.0
327154.6038362722,4775833.5216966402,-2500.0,334.65826569896109,381.49312328354995,354.15978805066192,-9.2883543584576884,-4.4424660101948446,-0.4747598741547952,381.85254248412343,534.15966649254085,-147.04234806372531,147.04234806372531,-534.15966649254085,745.76074904996563,0.0
332154.6038362722,4775833.5216966402,-2500.0,343.0508615752957,469.82323766381688,273.71209523478848,-13.873880797396758,-0.51713922394513723,-0.68412996459284059,471.42443123212655,577.02491065532968,-164.11941765925778,164.11941765925778,-577.02491065532968,872.87303121125012,0.0
337154.6038362722,4775833.5216966402,-2500.0,360.5855396064419,565.23125998789089,145.59858125246939,-18.900806591908022,5.3641826028090343,-0.95261796010087463,575.8433231834922,613.25140519712056,-182.85953105286026,182.85953105286026,-613.25140519712056,1028.9899996849977,0.0
342154.6038362722,4775833.5216966402,-2500.0,390.69703634514883,660.34735481991697,-37.679893643338282,-24.04466308700697,13.483518929334652,-1.2846604108865192,694.89771851928447,636.28627305472685,-202.1495816537099,202.1495816537099,-636.28627305472685,1216.4276670809963,0.0
347154.6038362722,4775833.5216966402,-2500.0,435.59640624720356,745.00961732581493,-280.25034164756414,-28.859547120839082,23.984456757542119,-1.6801486855841372,827.45253971163925,638.1105704895881,-220.20710547445685,220.20710547445685,-638.1105704895881,1435.2584174245185,0.0
352154.6038362722,4775833.5216966402,-2500.0,495.26655244076699,807.00507453508408,-581.08078247703952,-32.808897314418992,36.804147577766805,-2.1328651866763728,971.19981362767714,609.97030371189317,-234.6141970667783,234.6141970667783,-609.97030371189317,1682.7417230608175,0.0
357154.6038362722,4775833.5216966402,-2500.0,566.64901430233022,833.52995731820386,-932.60717858636679,-35.325333893672521,51.621874811747837,-2.6295038275839682,1122.5516601514053,543.58377530693974,-242.51567124324978,242.51567124324978,-543.58377530693974,1953.0508134957802,0.0
362154.6038362722,4775833.5216966402,-2500.0,643.33965570270288,813.22154102387594,-1320.2656799500758,-35.893787915376521,67.842532657238365,-3.149687357039141,1276.7103237447677,432.68261739082863,-240.98958860805573,240.98958860805573,-432.68261739082863,2237.3880319514628,0.0
367154.6038362722,4775833.5216966402,-2500.0,716.0377669564665,738.37321764178921,-1723.2976761737968,-34.142965553907949,84.628703331595901,-3.667232910571617,1427.944008150826,274.57617033303711,-227.54146434192754,227.54146434192754,-274.57617033303711,2524.5393798347995,0.0
372154.6038362722,4775833.5216966402,-2500.0,773.79421593599614,606.78252657493795,-2116.893975426924,-29.923559181594879,100.98390610698036,-4.1527753456870311,1570.0531836541252,71.326960534050372,-200.6174625170915,200.6174625170915,-71.326960534050372,2801.8408536987126,0.0
377154.6038362722,4775833.5216966402,-2500.0,805.84049097957279,422.69512676775514,-2475.3509961278592,-23.351748998555351,115.87499241606184,-4.5772280448307834,1696.9638788716431,-169.84279043038913,-160.00282399394166,160.00282399394166,169.84279043038913,3056.4340657761404,1.0
382154.6038362722,4775833.5216966402,-2500.0,803.55593520012121,196.52266589493286,-2775.5733844455526,-14.804323024385676,128.36874318731839,-4.9155081144769746,1803.3444162539472,-437.11363246625609,-106.98819813563335,106.98819813563335,437.11363246625609,3276.602736950791,0.0
387154.6038362722,4775833.5216966402,-2500.0,762.05797853934189,-56.634661496715935,-3000.1278212179673,-4.8652074952695754,137.75240642154239,-5.149621031517726,1885.1331052009623,-715.52501250677699,-44.248882430479739,44.248882430479739,715.52501250677699,3452.9541841687792,0.0
392154.6038362722,4775833.5216966402,-2500.0,681.01354109891349,-319.28482038162235,-3139.1879025880125,5.7631631782655939,143.61252531838858,-5.270587847234423,1939.8842214588626,-988.99159254942413,24.534383030627396,-24.534383030627396,988.99159254942413,3579.2433641517537,0.0
397154.6038362722,4775833.5216966402,-2500.0,564.52089803006118,-574.0811821384176,-3191.0511689212058,16.361465854535957,145.85891766653572,-5.278784768515365,1966.8844349251515,-1242.4061155924787,95.213258133413206,-95.213258133413206,1242.4061155924787,3652.7256441519867,0.0
402154.6038362722,4775833.5216966402,-2500.0,420.18892787435993,-806.02725735674619,-3161.3132190101255,26.285254316262236,144.69595399739043,-5.1828760468769808,1967.0466007334098,-1463.3794968274569,163.7360150387326,-163.7360150387326,1463.3794968274569,3674.0375733844253,0.0
407154.6038362722,4775833.5216966402,-2500.0,257.73288127458716,-1003.955588540838,-3061.0896495941524,35.030243862456977,140.55546832455443,-4.9977151119322363,1942.6289311114392,-1643.32494174976,226.61920648421449,-226.61920648421449,1643.32494174976,3646.6948705798773,0.0
412154.6038362722,4775833.5216966402,-2500.0,87.465411997026521,-1161.1430016660206,-2904.8130573310518,42.264184094567852,134.0112017182328,-4.741871263932973,1896.8534416741613,-1777.8033635596125,281.25295950677491,-281.25295950677491,1777.8033635596125,3576.3553729959667,0.0
417154.6038362722,4775833.5216966402,-2500.0,-81.002905383371314,-1275.1537181076137,-2708.0900308192035,47.827525897562772,125.69381726710557,-4.435109987599402,1833.4980003542773,-1866.2300567742557,326.02094290729451,-326.02094290729451,1866.2300567742557,3470.0014264606143,0.0
422154.6038362722,4775833.5216966402,-2500.0,-239.67025294961206,-1347.1415606404116,-2485.9543741290436,51.711005982032816,116.22001628550861,-4.0964703244133664,1756.5225552711511,-1911.1504321118466,360.26058696873702,-360.26058696873702,1911.1504321118466,3335.1712881934027,0.0
317154.6038362722,4780833.5216966402,-2500.0,286.67044940057514,235.5743232293465,341.11800793031563,-3.1067220724135494,-5.9775717387982112,-0.20715229374691727,275.71691380713702,401.92661284683095,-108.6462573861842,108.6462573861842,-401.92661284683095,517.20886936085651,0.0
322154.6038362722,4780833.5216966402,-2500.0,288.53210982343171,291.84115497625515,318.81457682071255,-5.8826415580782108,-4.6820887810461764,-0.30733490378283168,298.24566192724069,437.28580213877137,-119.71670397692299,119.71670397692299,-437.28580213877137,590.57208288660138,0.0
327154.6038362722,4780833.5216966402,-2500.0,293.06635938259672,357.76597055110432,270.67678980767454,-9.1688387357044139,-2.3516853409462533,-0.44076843249471104,358.1390414109465,472.45818437412606,-132.46040097033764,132.46040097033764,-472.45818437412606,681.42093582549717,0.0
332154.6038362722,4780833.5216966402,-2500.0,302.8271714003892,431.11504949390275,189.95890828266818,-12.870565169933498,1.2677686067807041,-0.61284437810963621,435.08723981793696,504.60331126817391,-146.66296101497053,146.66296101497053,-504.60331126817391,792.87368111763283,0.0
337154.6038362722,4780833.5216966402,-2500.0,320.44737211777124,507.80676129714067,70.442078070983669,-16.814616328767624,6.4061296277278696,-0.82773313390635705,523.38877037176258,529.71080745887275,-161.76539080034217,161.76539080034217,-529.71080745887275,927.34798919396258,0.0
342154.6038362722,4780833.5216966402,-2500.0,348.13096097648219,581.77511416093341,-92.534417078218567,-20.74423569290802,13.230141126513718,-1.0873893081588175,622.68124237197208,542.63197333641517,-176.78254558857009,176.78254558857009,-542.63197333641517,1086.0266688515671,0.0
347154.6038362722,4780833.5216966402,-2500.0,387.02361307169224,645.1662332374201,-300.89766530991454,-24.327237522295093,21.799839635322648,-1.3905508851167392,731.89601777182293,537.35698493880932,-190.27304700841765,190.27304700841765,-537.35698493880932,1268.3936407171943,0.0
352154.6038362722,4780833.5216966402,-2500.0,436.58136071517742,688.96207289106451,-552.72933065922439,-27.180882929032407,32.027952298636741,-1.7318698102206846,849.12748772405041,507.58803459251146,-200.39327347171172,200.39327347171172,-507.58803459251146,1471.9124128202984,0.0
357154.6038362722,4780833.5216966402,-2500.0,494.10952684467833,704.0363267761096,-841.49405819578396,-28.913615048740244,43.65221715103656,-2.1014524592613983,971.58884492880645,447.59093602866767,-205.05643608652062,205.05643608652062,-447.59093602866767,1691.9063500422496,0.0
362154.6038362722,4780833.5216966402,-2500.0,554.65417031160143,682.52130725504321,-1155.8887196002599,-29.179129826227751,56.230722097827268,-2.485033500591169,1095.6833543099881,353.21670916614289,-202.19381322967809,202.19381322967809,-353.21670916614289,1921.6910570190469,0.0
367154.6038362722,4780833.5216966402,-2500.0,611.37163326775863,619.23403045689861,-1480.5011984659234,-27.733298547968211,69.167060649548674,-2.86486823176392,1217.2038537292397,222.89490722428781,-190.08239978760054,190.08239978760054,-222.89490722428781,2152.9806738527177,0.0
372154.6038362722,4780833.5216966402,-2500.0,656.38216108661231,512.83297917183279,-1797.2852387627884,-24.48151787601854,81.765488871865358,-3.2213831618497646,1331.6473624679725,58.354870144758564,-167.67368886892177,167.67368886892177,-58.354870144758564,2376.5438444438514,0.0
377154.6038362722,4780833.5216966402,-2500.0,681.96579576439876,366.39716938116021,-2087.6388848476795,-19.504584250281834,93.308507379641256,-3.5352990855412845,1434.6051732762653,-135.1418786316874,-134.84478611952454,134.84478611952454,135.1418786316874,2583.0323600969186,0.0
382154.6038362722,4780833.5216966402,-2500.0,681.83763358560543,187.24619111660851,-2334.6872874187807,-13.055638945900226,103.14243879053137,-3.7898142412370457,1522.1662331027944,-349.16818768928874,-92.504419051953391,92.504419051953391,349.16818768928874,2763.8569352965119,0.0
387154.6038362722,4780833.5216966402,-2500.0,652.20038544290492,-13.982671963346769,-2525.3037202110563,-5.5281272752005526,110.75389502974437,-3.9725301238628452,1591.2680084184392,-573.0540147439242,-42.521633699155302,42.521633699155302,573.0540147439242,2911.971944413413,0.0
392154.6038362722,4780833.5216966402,-2500.0,592.33189761202868,-224.78990346949681,-2651.4701432678385,2.5980811870150631,115.82236444310513,-4.0766437019731843,1639.9382150577187,-795.17636490807263,12.508399423852836,-12.508399423852836,795.17636490807263,3022.4459958045154,0.0
397154.6038362722,4780833.5216966402,-2500.0,504.60089311179445,-432.46849408116083,-2710.7647703832872,10.820081598606995,118.24060789963715,-4.1012839864962549,1667.3961274953724,-1004.3422348425908,69.60595509248617,-69.60595509248617,1004.3422348425908,3092.7449754976524,0.0
402154.6038362722,4780833.5216966402,-2500.0,393.96123262559695,-625.61244803300292,-2705.9894665546549,18.671750471707988,118.10279692279491,-4.0510164949110381,1674.0119853725409,-1190.9917562618243,125.77884070466359,-125.77884070466359,1190.9917562618243,3122.715686382001,0.0
407154.6038362722,4780833.5216966402,-2500.0,267.09505834148405,-795.21904169087361,-2644.1379523990599,25.769570602277536,115.66741424542799,-3.9347396666572356,1661.1490689972538,-1348.0253780320513,178.35129596996671,-178.35129596996671,1348.0253780320513,3114.3142000516182,0.0
412154.6038362722,4780833.5216966402,-2500.0,131.42589705195792,-935.263967198562,-2535.0046707197262,31.839107892667609,111.30572065841876,-3.7641367460320687,1630.9288110407904,-1471.1742703634034,225.19860545577944,-225.19860545577944,1471.1742703634034,3071.1590029102244,0.0
327154.6038362722,4785833.5216966402,-2500.0,259.16422338282274,333.14215817300351,202.88804942870064,-8.777816848000489,-0.82638103851248879,-0.40156821308956625,334.50977653624938,418.30760369461166,-119.45429488069621,119.45429488069621,-418.30760369461166,623.79349937342977,0.0
332154.6038362722,4785833.5216966402,-2500.0,269.58057235806336,393.8214961099585,124.65759942449515,-11.76242245300964,2.4429169459696847,-0.54243120737284067,400.69672351185335,442.07837941966079,-131.21265177926071,131.21265177926071,-442.07837941966079,721.48538174728878,0.0
337154.6038362722,4785833.5216966402,-2500.0,286.61362859720583,455.43337339267845,14.91810801965886,-14.864281430165484,6.8922996871889932,-0.71442322496534905,475.6307935718927,458.90107767344267,-143.35342139844562,143.35342139844562,-458.90107767344267,837.48083286796202,0.0
342154.6038362722,4785833.5216966402,-2500.0,311.64196188516223,513.05497995138523,-129.13977693068068,-17.88261809284834,12.617263365351802,-0.91819176382200762,558.88185575828243,464.75146270644927,-155.03227045475114,155.03227045475114,-464.75146270644927,972.27813426274929,0.0
347154.6038362722,4785833.5216966402,-2500.0,345.16861866141011,560.62611324575494,-308.15478852607004,-20.569931833236474,19.63238950411754,-1.1521057143480899,649.49093015510198,455.11748417403629,-165.09504703144574,165.09504703144574,-455.11748417403629,1125.095843864568,0.0
352154.6038362722,4785833.5216966402,-2500.0,386.42489602944516,591.44862693605467,-519.90315928596488,-22.651165206970134,27.847042662925126,-1.4117861580511351,745.89793870053745,425.43726758064463,-172.13401931353835,172.13401931353835,-425.43726758064463,1293.6926234927635,0.0
357154.6038362722,4785833.5216966402,-2500.0,433.11187924186089,598.94659278068514,-758.87062214333696,-23.852719337346855,37.050664825278091,-1.6899061964946362,845.92880521774441,371.69995822797915,-174.61144727687366,174.61144727687366,-371.69995822797915,1474.3252461303955,0.0
362154.6038362722,4785833.5216966402,-2500.0,481.38490357948484,577.5949960464377,-1016.2497272510957,-23.938000371098031,46.913255597785344,-1.9763909503119379,946.85869460916467,291.13048144270641,-171.04416651431526,171.04416651431526,-291.13048144270641,1661.8720159004272,0.0
367154.6038362722,4785833.5216966402,-2500.0,526.14553876570847,523.85365890027697,-1280.4592670526561,-22.743499240457115,57.004390270473671,-2.259045102064436,1045.5566933661312,182.83123359763445,-160.22385928434048,160.22385928434048,-182.83123359763445,1850.1303569369272,0.0
372154.6038362722,4785833.5216966402,-2500.0,561.63270183415671,436.90633433327929,-1538.171140920469,-20.208099391493008,66.8302236793687,-2.5245888735249604,1138.7012426087665,48.2335076480353,-141.43172710848319,141.43172710848319,-48.2335076480353,2032.2685238263873,0.0
377154.6038362722,4785833.5216966402,-2500.0,582.22063299644628,319.0239941564443,-1775.7063529494469,-16.388862771476042,75.883694720766897,-2.7599842983977196,1223.0419963743107,-108.7677117172847,-114.60027225121402,114.60027225121402,108.7677117172847,2201.3836844749671,0.0
382154.6038362722,4785833.5216966402,-2500.0,583.26321085015604,175.4469704110823,-1980.5546099250423,-11.459095449527075,83.699362231941336,-2.9537786486752311,1295.669208297104,-282.05821567041369,-80.382241914711699,80.382241914711699,282.05821567041369,2351.0878786175167,0.0
387154.6038362722,4785833.5216966402,-2500.0,561.80315041567258,13.794790792757819,-2142.7364933378758,-5.6886671442675265,89.902924243870004,-3.0972993766108079,1354.2510679948955,-463.90288577753472,-40.107451525347898,40.107451525347898,463.90288577753472,2476.0385943066658,0.0
392154.6038362722,4785833.5216966402,-2500.0,516.99679745578237,-156.87519451854115,-2255.7633997486478,0.5894384067134103,94.246726722945965,-3.1854066532123344,1397.2042877040908,-645.78800285381089,4.3651001067469792,-4.3651001067469792,645.78800285381089,2572.3386216822068,0.0
397154.6038362722,4785833.5216966402,-2500.0,450.18049630437986,-327.16413661527497,-2317.0526882686477,7.0194127183791917,96.625966340680336,-3.2168094128367626,1423.7768589262296,-819.34490545626534,50.868130441181506,-50.868130441181506,819.34490545626534,2637.7564728187699,0.0
402154.6038362722,4785833.5216966402,-2500.0,364.59521273851499,-488.37104737458429,-2327.7854545293758,13.262008261025292,97.074860146207286,-3.1938298132496605,1434.0392617034627,-977.18676324526973,97.174483029319788,-97.174483029319788,977.18676324526973,2671.7543669371075,0.0
342154.6038362722,4790833.5216966402,-2500.0,280.07144751828378,453.19100149643998,-152.62683321769279,-15.426016535512915,11.819378748588521,-0.77513623973030443,502.60327011705851,399.75501749891663,-136.36248981238265,136.36248981238265,-399.75501749891663,872.84592135740706,0.0
347154.6038362722,4790833.5216966402,-2500.0,308.90395290227622,488.94316785891976,-306.63879552358156,-17.457032891853995,17.584400867432503,-0.95688873073131775,578.27664355676598,387.59850116420108,-143.84737796932887,143.84737796932887,-387.59850116420108,1001.6047942528794,0.0
352154.6038362722,4790833.5216966402,-2500.0,343.35743405179471,510.46651078422008,-485.52096471925819,-18.98801271916825,24.226461154242287,-1.1562534326522507,658.18019911488045,358.9936415931474,-148.66480146297243,148.66480146297243,-358.9936415931474,1142.2520305144872,0.0
357154.6038362722,4790833.5216966402,-2500.0,381.50489842468482,512.97272476754733,-684.67980688205569,-19.825465402255986,31.578027534849532,-1.3678031756897655,740.6087126099967,311.10814126698051,-149.67203270842964,149.67203270842964,-311.10814126698051,1291.7902402114473,0.0
362154.6038362722,4790833.5216966402,-2500.0,420.34842729225193,492.53087780439148,-897.2166645210142,-19.805309067313303,39.390986409549711,-1.5843571523092448,823.47699636344532,242.06958977600419,-145.7930419894389,145.7930419894389,-242.06958977600419,1446.261675798441,0.0
367154.6038362722,4790833.5216966402,-2500.0,456.04517665370855,446.68877906708195,-1114.3296243707775,-18.816162840606218,47.350753607165366,-1.7974026230598816,904.42508254162112,151.38666234084428,-136.16852748314653,136.16852748314653,-151.38666234084428,1600.9664004426074,0.0
372154.6038362722,4790833.5216966402,-2500.0,484.32208227605742,374.95446553172894,-1326.0377692476311,-16.817859825150052,55.101449064819874,-1.9977896275654974,980.96834517951595,40.236953373699244,-120.29868795824368,120.29868795824368,-40.236953373699244,1750.7785190268185,0.0
377154.6038362722,4790833.5216966402,-2500.0,501.01800434801709,279.02853693369894,-1522.1354757464328,-13.851286900374026,62.279000275980486,-2.176544790753733,1050.676192734818,-88.454203099514814,-98.149458611456794,98.149458611456794,88.454203099514814,1890.5283188540686,0.0
382154.6038362722,4790833.5216966402,-2500.0,502.65366115894312,162.72523028196107,-1693.2233774510785,-10.037160210294045,68.546978163082059,-2.3257270234829241,1111.3554068889703,-230.18001005260226,-70.198207821500262,70.198207821500262,230.18001005260226,2015.4017732985071,0.0
387154.6038362722,4790833.5216966402,-2500.0,486.91753247684431,31.586848517083656,-1831.6427529038697,-5.5636606452500947,73.629319956396131,-2.4391792036691662,1161.2136181596009,-379.24853308327306,-37.406992542659964,37.406992542659964,379.24853308327306,2121.3058787815826,0.0
392154.6038362722,4790833.5216966402,-2500.0,452.97384045539127,-107.73675035842246,-1932.1587923075947,-0.66523510133802566,77.334579130149478,-2.5130446104615594,1198.9806987187815,-529.34309057843154,-1.1272706047287784,1.1272706047287784,529.34309057843154,2205.1517421950957,0.0
352154.6038362722,4580833.5216966402,-7500.0,434.39488744456776,33.234642304902998,-1359.1593076534143,19.842339780035388,-121.12534481244253,-7.5911751191271275,903.16201722526137,-246.98678933883684,44.490650855778327,-44.490650855778327,246.98678933883684,1633.3925433670918,0.0
357154.6038362722,4580833.5216966402,-7500.0,449.84513051182535,143.23829292187301,-1235.1593321876649,29.087034023591155,-107.03790807282898,-6.5075805511404479,859.78507006424968,-120.17351493627251,1.290216395909809,-1.290216395909809,120.17351493627251,1541.7530979770449,0.0
362154.6038362722,4580833.5216966402,-7500.0,450.04258672309277,240.58009651632753,-1082.868681945354,36.630637513468201,-90.619592874213183,-5.3004003473084396,807.87597319483837,0.59801789795726279,-38.653744889602834,38.653744889602834,-0.59801789795726279,1435.7755007893625,0.0
367154.6038362722,4580833.5216966402,-7500.0,436.8733852623443,320.08801250470384,-908.68735872628918,42.044837501868372,-72.554857049673416,-4.0198100088971858,748.91572014324061,110.23102996261679,-73.689799345405959,73.689799345405959,-110.23102996261679,1319.1424804488854,0.0
372154.6038362722,4580833.5216966402,-7500.0,413.38217956200941,378.00834952809356,-720.78461283727347,45.058881902401794,-53.664384497685376,-2.7219047279255411,684.72126191874349,204.54521644825809,-102.56308862271599,102.56308862271599,-204.54521644825809,1196.2219406552351,0.0
377154.6038362722,4580833.5216966402,-7500.0,383.36911138336484,412.45117034645682,-528.33305024161405,45.593206636961185,-34.830456234806967,-1.4637009360695945,617.31421212261102,280.68936548945192,-124.53654916945115,124.53654916945115,-280.68936548945192,1071.7592198683794,0.0
382154.6038362722,4580833.5216966402,-7500.0,350.86641437507546,423.57432249427734,-340.58179427417963,43.767758553296957,-16.911759960728943,-0.29786558176341055,548.76525621268229,337.36819933119727,-139.4397869790871,139.4397869790871,-337.36819933119727,950.50279190269214,0.0
387154.6038362722,4580833.5216966402,-7500.0,319.59793079843229,413.47087672558825,-165.9279368210608,39.88323945847322,-0.66158555081789749,0.73193097164699839,481.04074592406499,374.8472350428151,-147.63881074060009,147.63881074060009,-374.8472350428151,836.80405825321407,0.0
392154.6038362722,4580833.5216966402,-7500.0,292.52571493133149,385.78760228368287,-11.140874577161114,34.378886904328709,13.337629336327218,1.5943842303540721,415.87778714784906,394.74704943329471,-149.93634604584,149.93634604584,-394.74704943329471,734.22335476521619,0.0
397154.6038362722,4580833.5216966402,-7500.0,271.56320006561623,345.15893659451132,119.1416046073018,27.77500277561435,24.713967643055273,2.272217391048295,354.73905965832216,399.68147281361229,-147.4262034559884,147.4262034559884,-399.68147281361229,645.17825626008289,0.0
402154.6038362722,4580833.5216966402,-7500.0,257.49027001890067,296.57317755571927,222.5906236784343,20.611039936973501,33.316099988016866,2.76205360209017,299.28314083554079,392.82088772035081,-141.33217273550031,141.33217273550031,-392.82088772035081,570.68888746958123,0.0
342154.6038362722,4585833.5216966402,-7500.0,397.55853727956895,-263.11083030258425,-1729.7456787868703,-4.7734158772473538,-165.92696459217322,-10.944276527135131,1103.719279522126,-598.61770454104658,165.3472358295644,-165.3472358295644,598.61770454104658,2028.209450425994,0.0
347154.6038362722,4585833.5216966402,-7500.0,456.98711125873939,-122.67008753469287,-1670.2104971697622,8.9516423773500762,-156.42723111116709,-10.000495210583917,1078.2001241386263,-453.25992433667454,112.34600658022165,-112.34600658022165,453.25992433667454,1966.8413390466894,0.0
352154.6038362722,4585833.5216966402,-7500.0,497.93319533303537,18.70290364674382,-1567.56271289305,22.052175043918709,-142.86078799616513,-8.7995228476440523,1039.860184005476,-300.50209677050265,58.137039963854974,-58.137039963854974,300.50209677050265,1881.5241013430107,0.0
357154.6038362722,4585833.5216966402,-7500.0,518.90788067122639,152.96295806034161,-1423.3846867344764,33.734862046792742,-125.55834490329691,-7.3794114774302004,989.32938828394595,-147.30144067799543,5.254682178624023,-5.254682178624023,147.30144067799543,1774.3101903862291,0.0
362154.6038362722,4585833.5216966402,-7500.0,520.30838475271219,272.08238911992532,-1242.6382196047266,43.257294439345827,-105.16127067723427,-5.7970076834537805,927.90110851369218,-0.95256274129640062,-43.766056474773947,43.766056474773947,0.95256274129640062,1648.6808779026849,0.0
367154.6038362722,4585833.5216966402,-7500.0,504.46939161124209,369.02126943031624,-1033.4970799059038,50.018720283961599,-82.588108350673195,-4.1239551794475897,857.47692882465992,131.69293890724151,-86.66830904011583,86.66830904011583,-131.69293890724151,1509.4060556540546,0.0
372154.6038362722,4585833.5216966402,-7500.0,475.38688807352855,438.64408688977909,-806.6814171046309,53.639484805521803,-58.957975829588726,-2.4403590299152342,780.43682682730628,244.99952534909792,-121.73054690944363,121.73054690944363,-244.99952534909792,1362.2395035299319,0.0
377154.6038362722,4585833.5216966402,-7500.0,438.14392235383002,478.3941567895983,-574.36465271540385,54.013070076971999,-35.479945656730337,-0.82697656614460979,699.44978774542631,335.16493799439576,-147.95164217527963,147.95164217527963,-335.16493799439576,1213.4738925601744,0.0
382154.6038362722,4585833.5216966402,-7500.0,398.14656167750223,488.57659468951238,-348.82732299263165,51.319064949781897,-13.325674638753986,0.64290608400114835,617.25130357854152,400.55946423806245,-165.12675016034302,165.12675016034302,-400.55946423806245,1069.3966605198582,0.0
387154.6038362722,4585833.5216966402,-7500.0,360.33003676012896,472.18528227549541,-141.10211637988496,45.993584221985799,6.4927004813891758,1.9104499367524057,536.4229618164851,441.72467910119292,-173.80095686005302,173.80095686005302,-441.72467910119292,935.6950446128352,0.0
392154.6038362722,4585833.5216966402,-7500.0,328.50471426600274,434.32091198957397,40.13875902337297,38.663356826005078,23.217943686248269,2.9360825751868487,459.2267931644252,461.05188947551204,-175.11690966095438,175.11690966095438,-461.05188947551204,816.86761264849451,0.0
397154.6038362722,4585833.5216966402,-7500.0,304.96671132471965,381.33994573284571,189.26816048154501,30.057501211432591,36.401560749718023,3.7014781242895092,387.64305373601758,462.23140820453989,-170.59535245189298,170.59535245189298,-462.23140820453989,715.70733414480321,0.0
402154.6038362722,4585833.5216966402,-7500.0,290.42104977839102,319.9235515172951,303.88511178263883,20.914669313857274,45.910998162560375,4.2086571010055618,326.34209697671002,449.60473124181533,-161.8976932250927,161.8976932250927,-449.60473124181533,632.96237010571997,0.0
407154.6038362722,4585833.5216966402,-7500.0,284.18479761235983,256.24939875771003,384.53292584078008,11.902209119470445,51.895107696422819,4.4767494858961676,302.84775186275192,427.55272432974266,-150.61599037329191,150.61599037329191,-427.55272432974266,567.3359459358129,0.0
412154.6038362722,4585833.5216966402,-7500.0,284.57783189588793,195.39496756175288,434.08476240538567,3.5589269820789711,54.720391585054912,4.5373009036985064,288.44703562196992,400.01880249866917,-138.1208407964665,138.1208407964665,-400.01880249866917,515.94724843774804,0.0
417154.6038362722,4585833.5216966402,-7500.0,289.38575376925871,141.02505171357214,456.96635209474755,-3.7340073651026651,54.893610018092602,4.4290375233923456,272.47608632573582,370.21440416373622,-125.47831558645225,125.47831558645225,-370.21440416373622,475.16602719682629,0.0
332154.6038362722,4590833.5216966402,-7500.0,238.07270691658613,-637.87186282935318,-1962.1236979619957,-41.863352890834257,-203.22395849546854,-14.303566041556726,1281.8647196543889,-1010.742764415499,316.87149571858106,-316.87149571858106,1010.742764415499,2387.2745396764435,0.0
337154.6038362722,4590833.5216966402,-7500.0,346.43398372420921,-501.41601503648582,-2000.0884244219753,-26.279295316058473,-202.43020788405258,-13.801366963945359,1285.9907944650217,-880.72422434969189,265.49653044367983,-265.49653044367983,880.72422434969189,2381.154431973177,0.0
342154.6038362722,4590833.5216966402,-7500.0,442.1503337356616,-345.20416112653697,-1992.4171943225774,-9.4423226781276366,-196.69974031881659,-12.929527216129301,1275.0062248351032,-726.47440967316209,206.61600198883355,-206.61600198883355,726.47440967316209,2345.2359477987247,0.0
347154.6038362722,4590833.5216966402,-7500.0,519.42390536740595,-176.27069161435944,-1932.9268510920729,7.7930802515561712,-185.63736000530974,-11.684197679717242,1247.9300603027607,-553.39503515296042,142.50156615942177,-142.50156615942177,553.39503515296042,2278.2485918607699,0.0
352154.6038362722,4590833.5216966402,-7500.0,573.70791121660966,-3.8537599160232698,-1818.6023378541452,24.404380562174804,-169.20114241049623,-10.089309473738084,1204.5371811450591,-369.02385785913009,76.103333191906103,-76.103333191906103,369.02385785913009,2180.6104199984015,0.0
357154.6038362722,4590833.5216966402,-7500.0,602.50054609264851,161.38523823227871,-1650.6021785087758,39.295468711803963,-147.77629230638803,-8.1988088670306531,1145.489079678624,-182.47896855864525,10.805059630834592,-10.805059630834592,182.47896855864525,2054.6870062926187,0.0
362154.6038362722,4590833.5216966402,-7500.0,605.9091078347659,308.54834830909027,-1434.8129640988784,51.42245855444515,-122.19928943888442,-6.0948660661062863,1072.3790265742914,-3.5524931819362635,-49.931560607053278,49.931560607053278,3.5524931819362635,1904.8628501231406,0.0
367154.6038362722,4590833.5216966402,-7500.0,586.80823707720754,427.9249083960284,-1181.7323823444385,59.931742705663922,-93.716493190460696,-3.8817125470153782,987.66878236627736,158.42507306265867,-102.98050990714501,102.98050990714501,-158.42507306265867,1737.375703770781,0.0
372154.6038362722,4590833.5216966402,-7500.0,550.49239688400155,512.38009434343678,-905.58084022302455,64.283769312703697,-63.873876267564931,-1.6756365740236823,894.5110114431493,295.74452694133896,-145.94447816146288,145.94447816146288,-295.74452694133896,1559.8969906777934,0.0
377154.6038362722,4590833.5216966402,-7500.0,503.85058461825173,558.39754029440951,-622.7249016695605,64.33512089541189,-34.350781985850453,0.40746735961727276,796.47574637514526,403.25981182687656,-177.44322848653212,177.44322848653212,-403.25981182687656,1380.8841424997813,0.0
382154.6038362722,4590833.5216966402,-7500.0,454.22989784590368,566.52210029879325,-349.68587965122993,60.358871259002541,-6.7659883749279119,2.2647410049507624,697.22431586572441,478.90494949859772,-197.23328740359682,197.23328740359682,-478.90494949859772,1208.767945488132,0.0
387154.6038362722,4590833.5216966402,-7500.0,408.24936900926684,541.09065880265041,-101.12861867696468,52.997012142290515,17.507358062098085,3.8170269277378241,600.19168642528155,523.68026001338353,-206.13572356413422,206.13572356413422,-523.68026001338353,1051.0496643230229,0.0
392154.6038362722,4590833.5216966402,-7500.0,370.84230244552037,489.32898801425131,111.7582504864893,43.155835759471806,37.482399867124691,5.0156379348870193,508.38701099847231,541.14181765993828,-205.79905004736622,205.79905004736622,-541.14181765993828,913.40269585942167,0.0
397154.6038362722,4590833.5216966402,-7500.0,344.7258691557127,420.04996515614118,282.1967384853603,31.868186911982189,52.631115347796644,5.8443860221938264,424.87229914312263,536.54893980062957,-198.36248006692699,198.36248006692699,-536.54893980062957,798.9013417531612,0.0
402154.6038362722,4590833.5216966402,-7500.0,330.3635323748357,342.26846880653517,407.96352611083739,20.152646805762043,62.882264079092764,6.3169769041289001,367.50473743326125,515.89089949350614,-186.10144406505501,186.10144406505501,-515.89089949350614,707.60015471976783,0.0
407154.6038362722,4590833.5216966402,-7500.0,326.34737416807019,264.02372687430966,490.83866507579762,8.8964427873636982,68.555584054608133,6.4709071182444031,348.68680272882955,485.00591377218808,-171.12730388855522,171.12730388855522,-485.00591377218808,636.75573135120658,0.0
412154.6038362722,4590833.5216966402,-7500.0,330.03436939308426,191.59723979333052,535.59322500941437,-1.2207322408525334,70.254991628213304,6.3594108031850007,330.5293477754459,448.9389007122204,-155.18544740455386,155.18544740455386,-448.9389007122204,581.80275439086097,0.0
417154.6038362722,4590833.5216966402,-7500.0,338.24589040959353,129.18079562905919,548.7992126467401,-9.7573572445811934,68.747333952903858,6.0431497929356564,310.16720461050568,411.59340201734426,-139.56249155816286,139.56249155816286,-411.59340201734426,537.7406370989662,0.0
422154.6038362722,4590833.5216966402,-7500.0,347.87474079642533,78.936664123162842,537.70862041539851,-16.501018558468989,64.849769969677126,5.5829503442983288,287.93469164669381,375.65353712935826,-125.08694248191759,125.08694248191759,-375.65353712935826,500.30537661492855,0.0
427154.6038362722,4590833.5216966402,-7500.0,356.30989765883913,41.32522158010098,509.36295107352481,-21.431867538099699,59.3408499770117,5.0343768897735179,264.44430647510029,342.70187555545817,-112.19287064277349,112.19287064277349,-342.70187555545817,466.52848335027119,0.0
322154.6038362722,4595833.5216966402,-7500.0,-51.523067245879794,-1008.3158057943198,-1985.0597981445867,-85.532706257265545,-223.7252444820646,-17.017400148538659,1408.8420650788271,-1402.7407351580614,471.74056436524916,-471.74056436524916,1402.7407351580614,2651.1660990537462,0.0
327154.6038362722,4595833.5216966402,-7500.0,88.10511085488865,-918.67400794968478,-2124.0938763783965,-72.400454688056158,-233.73189779027325,-17.215668975025643,1450.1341439134806,-1327.407832241636,436.99596234841732,-436.99596234841732,1327.407832241636,2717.2466541710278,0.0
332154.6038362722,4595833.5216966402,-7500.0,230.16797332717675,-794.86602778111103,-2231.7908997744548,-56.120629750413343,-239.52282569035924,-17.015529242256417,1477.7107463428381,-1216.0505573628639,389.57346968366221,-389.57346968366221,1216.0505573628639,2755.1376903965438,0.0
337154.6038362722,4595833.5216966402,-7500.0,367.03379912336027,-638.32633529495206,-2295.9269440638536,-37.121654020734162,-239.96245427533159,-16.3527310812763,1488.8484538637763,-1068.7573336570781,329.98528666110161,-329.98528666110161,1068.7573336570781,2759.830319578964,0.0
342154.6038362722,4595833.5216966402,-7500.0,490.28490036371437,-453.84336556566439,-2304.8346685857023,-16.176046148566019,-234.07287308889963,-15.185440161184415,1481.2393447478919,-888.54621140933887,259.83415020731854,-259.83415020731854,888.54621140933887,2727.3467608848059,0.0
347154.6038362722,4595833.5216966402,-7500.0,591.6995634654387,-249.85455068767973,-2249.0401550163474,5.6045969897783419,-221.19646251029999,-13.504880066209024,1453.2912379596646,-681.72209914999087,181.88212901256441,-181.88212901256441,681.72209914999087,2655.3730463326442,0.0
352154.6038362722,4595833.5216966402,-7500.0,664.47532413704573,-38.172630821215769,-2123.0677511343429,26.834734761629949,-201.15756855279801,-11.343928310944404,1404.4125532444789,-457.77956289894041,99.94261104945295,-99.94261104945295,457.77956289894041,2543.8509471930925,0.0
357154.6038362722,4595833.5216966402,-7500.0,704.47573523051187,166.98946551583873,-1927.0779823415753,45.985693865325167,-174.38956148657709,-8.7811129258230025,1335.2347276932369,-228.73239486320344,18.565843197932622,-18.565843197932622,228.73239486320344,2395.4273614382255,0.0
362154.6038362722,4595833.5216966402,-7500.0,711.19484193006895,350.67716884144534,-1667.903643079416,61.571996734508865,-141.98894715600301,-5.9381009279228323,1247.712271983439,-7.8630210690031745,-57.466515224487758,57.466515224487758,7.8630210690031745,2215.6350572988613,0.0
367154.6038362722,4595833.5216966402,-7500.0,688.13039115666368,499.3051359059362,-1359.0890603947075,72.364201416296325,-105.66707537676875,-2.969826156719134,1145.0587397688782,191.9459440402934,-123.76195514987926,123.76195514987926,-191.9459440402934,2012.7136823074468,0.0
372154.6038362722,4595833.5216966402,-7500.0,642.36531187978051,602.79491951348098,-1019.7142748944477,77.584775174424678,-67.589661188963362,-0.048177667096630211,1031.5024539700239,359.98003430296387,-176.92792979972273,176.92792979972273,-359.98003430296387,1797.0280245361855,0.0
377154.6038362722,4595833.5216966402,-7500.0,583.368448268252,656.21939308859601,-672.09320070119634,77.039890204591401,-30.122975194494263,2.6581559761139122,911.88634787359217,489.15859804012428,-215.03003900201807,215.03003900201807,-489.15859804012428,1580.1101812915119,0.0
382154.6038362722,4595833.5216966402,-7500.0,521.27399305017195,660.5129429063079,-338.77402818554543,71.151812237149187,4.4666879263168138,5.0038492001240744,791.18362696250597,576.84133899466462,-237.78502135590148,237.78502135590148,-576.84133899466462,1373.4190849548975,0.0
387154.6038362722,4595833.5216966402,-7500.0,465.07443313625254,622.04658620267367,-39.496568730129113,60.880915137268673,34.298406538825851,6.8832092073310633,674.04199182198818,624.79007947685773,-246.44623951258069,246.44623951258069,-624.79007947685773,1186.9353623858765,0.0
392154.6038362722,4595833.5216966402,-7500.0,421.19392256720727,551.1978863506788,211.20637602382359,47.556243003998247,58.086442470207196,8.2395037528971073,564.6276093908765,638.34284147253152,-243.42665652342882,243.42665652342882,-638.34284147253152,1027.7524309751727,0.0
397154.6038362722,4595833.5216966402,-7500.0,392.7673431794808,460.3243788206417,405.28477168132815,32.656994846898257,75.236283804475946,9.0661562746107194,469.56692059940639,625.07123893055882,-231.77277913980566,231.77277913980566,-625.07123893055882,898.9231187208967,0.0
402154.6038362722,4595833.5216966402,-7500.0,379.70931847966654,361.67544671743673,541.18624400150657,17.596467762093596,85.81965744520781,9.4005225574411178,425.82154795629617,593.29855427049552,-214.62815348351961,214.62815348351961,-593.29855427049552,799.03132716589232,0.0
407154.6038362722,4595833.5216966402,-7500.0,379.41689851614649,265.71179068350642,622.81633927751693,3.5523049138483422,90.451516985090123,9.3124534213101828,404.54442813268167,550.82385608822847,-194.80196729086248,194.80196729086248,-550.82385608822847,722.97604214199737,0.0
412154.6038362722,4595833.5216966402,-7500.0,387.80601319519002,180.10366020634783,657.87120462322844,-8.6320557770276594,90.111012479054139,8.8905971466253284,381.1861148653598,504.06797582915169,-174.50584960942729,174.50584960942729,-504.06797582915169,663.88212104295678,0.0
417154.6038362722,4595833.5216966402,-7500.0,400.36497911590675,109.44321939585487,656.01585507383641,-18.472122842698845,85.951528689839776,8.2292447673110249,355.07119169939375,457.69408739815935,-155.26341811483738,155.26341811483738,-457.69408739815935,615.2217138124189,0.0
422154.6038362722,4595833.5216966402,-7500.0,412.9925825374545,55.525922949945375,627.2858244107606,-25.807964224431245,79.135949955412912,7.4176757778091549,326.90328437249207,414.62727724669242,-137.95553497559197,137.95553497559197,-414.62727724669242,572.15347000105635,0.0
427154.6038362722,4595833.5216966402,-7500.0,422.51351269761557,17.970679807463615,580.92244572177731,-30.733823554384422,70.717273577942152,6.5330430128185357,297.62476327577241,376.33137057784808,-122.94592725922452,122.94592725922452,-376.33137057784808,531.82093006822492,0.0
432154.6038362722,4595833.5216966402,-7500.0,426.87575071554835,-5.04620802228433,524.6912648813734,-33.514858561364029,61.569432825009535,5.6367354712852702,268.35397489752825,343.19773573192066,-110.23516493674623,110.23516493674623,-343.19773573192066,492.98317282931879,0.0
317154.6038362722,4600833.5216966402,-7500.0,-291.48939219442053,-1266.853063798304,-2002.8237762654003,-119.90565769919048,-242.18310423828316,-19.512578606920322,1542.4272519724759,-1691.5365381712836,589.49468640610758,-589.49468640610758,1691.5365381712836,2915.8052331973249,0.0
322154.6038362722,4600833.5216966402,-7500.0,-137.51985497079122,-1217.9285991489526,-2205.7137471565716,-109.32525672792622,-259.72362143598826,-20.192091680333917,1612.1110720905313,-1661.0385635124107,569.30925130388869,-569.30925130388869,1661.0385635124107,3036.7949675407144,0.0
327154.6038362722,4600833.5216966402,-7500.0,31.161355141713237,-1128.0751357375227,-2390.1459497325127,-94.398523630654736,-273.81125865213505,-20.447297357888132,1669.6508645136903,-1588.9523805853473,533.60703152065332,-533.60703152065332,1588.9523805853473,3132.0510381937825,0.0
332154.6038362722,4600833.5216966402,-7500.0,207.15405202189297,-994.04786771257943,-2541.261908353013,-75.136807708792261,-282.85790930251409,-20.166315034094861,1711.147531769936,-1471.0145442126629,481.33166460069236,-481.33166460069236,1471.0145442126629,3194.0647795061664,0.0
337154.6038362722,4600833.5216966402,-7500.0,380.72391550047695,-815.96910449946802,-2642.5287420077129,-51.967423859350681,-285.23623468023055,-19.251817727071881,1732.7576811597592,-1305.7859261727101,412.58283138003964,-412.58283138003964,1305.7859261727101,3215.6503582520691,0.0
342154.6038362722,4600833.5216966402,-7500.0,540.52067754030486,-598.47021901199548,-2677.3383923893916,-25.814469021281294,-279.4739212437853,-17.638056409706032,1731.068070943131,-1095.7164119458339,328.95681965387536,-328.95681965387536,1095.7164119458339,3190.7519504410634,0.0
347154.6038362722,4600833.5216966402,-7500.0,674.87772725145203,-351.41403939289114,-2631.2931091699897,1.8812887104909766,-264.49754892309619,-15.308427899342126,1703.5376745865999,-847.897832806716,233.73971348772687,-233.73971348772687,847.897832806716,3115.3831465249973,0.0
352154.6038362722,4600833.5216966402,-7500.0,773.59187059275018,-89.82630939137546,-2494.9266204998989,29.233823409504151,-239.89061805127409,-12.310120474248794,1648.9457651317662,-574.19396630217682,131.84700570690009,-131.84700570690009,574.19396630217682,2988.5669724712106,0.0
357154.6038362722,4600833.5216966402,-7500.0,829.88167927817256,167.25718477816562,-2266.3663412590263,54.091260347584857,-206.11123705235772,-8.7613150861044957,1567.7676380630626,-290.4933085311863,29.435943117811007,-29.435943117811007,290.4933085311863,2813.1077445548563,0.0
362154.6038362722,4600833.5216966402,-7500.0,842.03710214799753,399.09344136634445,-1953.2294222708335,74.31346316881546,-164.60364267142918,-4.8473746198219061,1462.3789327354145,-15.000181535254129,-66.810728596154703,66.810728596154703,15.000181535254129,2595.984920287332,0.0
367154.6038362722,4600833.5216966402,-7500.0,814.21485197162804,586.3899448495381,-1573.0390904342817,88.104476347561018,-117.7478444107234,-0.80439251029320746,1337.0089053934225,234.23703816696349,-150.62603919394786,150.62603919394786,-234.23703816696349,2348.1950968758483,0.0
372154.6038362722,4600833.5216966402,-7500.0,755.9797186971573,714.65029245391202,-1151.7018532862746,94.32761145902569,-68.623925110218664,3.1082714878918827,1197.4046401731196,442.0667624659971,-217.12439724696884,217.12439724696884,-442.0667624659971,2083.9437026587884,0.0
377154.6038362722,4600833.5216966402,-7500.0,680.54609384072171,776.82588992614933,-720.10641983016012,92.721011176239017,-20.617878883304844,6.6415381658098571,1050.2398710738421,598.56559573457787,-263.54557827300584,263.54557827300584,-598.56559573457787,1819.2061297829528,0.0
382154.6038362722,4600833.5216966402,-7500.0,602.12121305982203,774.48563051196049,-309.51480230172189,83.949927631510491,23.053368471745376,9.5892697738575716,902.38564149451622,700.32950143952792,-289.57356606731264,289.57356606731264,-700.32950143952792,1569.7840579573619,0.0
387154.6038362722,4600833.5216966402,-7500.0,533.09317974802286,717.13372500461514,53.136995192022809,69.475832867100621,59.789409763342725,11.813058669690676,760.27614259031134,750.38850426786007,-297.15050107996126,297.15050107996126,-750.38850426786007,1349.0539718490184,0.0
392154.6038362722,4600833.5216966402,-7500.0,481.86597497613872,619.8960717705329,348.8567934272063,51.276385103819521,87.923072716845567,13.254347651164224,630.21494829194592,756.84348808895857,-289.8635740956986,289.8635740956986,-756.84348808895857,1165.6977623600146,0.0
397154.6038362722,4600833.5216966402,-7500.0,451.88915800731286,500.30646151339892,568.33064432628112,31.493093255194491,106.8429729144168,13.932545468058104,533.0141836468573,730.71380078905167,-272.10774646091591,272.10774646091591,-730.71380078905167,1022.0089563004859,0.0
402154.6038362722,4600833.5216966402,-7500.0,441.97344820433295,375.11395691196458,711.6093188178545,12.096098944368547,116.91678501203921,13.931146897693226,500.05506345917786,683.64759451541795,-248.26184069608865,248.26184069608865,-683.64759451541795,913.7386200077957,0.0
407154.6038362722,4600833.5216966402,-7500.0,447.56818351161667,257.88483108345946,786.18380178152995,-5.3609569584719114,119.26371400679304,13.376541732647153,473.24039165877542,626.06891386437769,-222.06813692529502,222.06813692529502,-626.06891386437769,832.15291159683773,0.0
412154.6038362722,4600833.5216966402,-7500.0,462.45072347355773,157.77537545306831,804.23507498906883,-19.861547135812749,115.45380125472141,12.414843353685205,442.8601700133737,566.07005100494928,-196.30103085597466,196.30103085597466,-566.07005100494928,767.47341902900996,0.0
417154.6038362722,4600833.5216966402,-7500.0,480.3019011396687,79.435187943726746,779.85246377668693,-30.92757046614522,107.21120779365157,11.191284547023331,409.22594695016676,509.06754746084289,-172.70881699376923,172.70881699376923,-509.06754746084289,711.75823117187258,0.0
422154.6038362722,4600833.5216966402,-7500.0,495.83167271267126,23.718274496621003,726.78649440133836,-38.534367108570557,96.176726613867359,9.8351741074226222,373.55712334013646,458.03712715968447,-152.14850416423988,152.14850416423988,-458.03712715968447,660.05167312994399,0.0
427154.6038362722,4600833.5216966402,-7500.0,505.35048226957559,-11.213385812511714,656.98492174344551,-42.982314221033668,83.754017971623156,8.451222391174511,337.42074251158243,414.06526744429112,-134.81528193461457,134.81528193461457,-414.06526744429112,610.09243815966136,0.0
432154.6038362722,4600833.5216966402,-7500.0,506.85999313796901,-28.748764501521563,579.8950538305246,-44.762812130342802,71.037995407828262,7.11671683010454,303.01401028820817,376.98408003559774,-120.48515041578867,120.48515041578867,-376.98408003559774,561.43212913615321,0.0
437154.6038362722,4600833.5216966402,-7500.0,499.82360267596499,-32.873624272449597,502.35989420725218,-44.443801309634004,58.80762988034131,5.8828797058372739,274.09838756412591,345.93526227622453,-108.72048547475553,108.72048547475553,-345.93526227622453,514.5672358351336,0.0
312154.6038362722,4605833.5216966402,-7500.0,-590.23561294856358,-1497.9896465149573,-1927.6227351832142,-156.50789022348499,-252.57805656005127,-21.757009527334482,1655.6892098411686,-1953.0576899030684,702.74689604922867,-702.74689604922867,1953.0576899030684,3141.4707267488448,0.0
317154.6038362722,4605833.5216966402,-7500.0,-439.32730723861596,-1505.9318531755589,-2184.8962384738211,-150.73806515862861,-277.86831687311417,-23.021725765971404,1756.9540672995313,-1982.9319806853441,703.90073551609612,-703.90073551609612,1982.9319806853441,3324.1994309055312,0.0
322154.6038362722,4605833.5216966402,-7500.0,-260.06630958445345,-1472.1287308031478,-2442.2446955237583,-139.80594661343599,-301.22449224623296,-23.881509351444564,1849.7500745136535,-1971.2961444330551,688.59040498047148,-688.59040498047148,1971.2961444330551,3487.895902483092,0.0
327154.6038362722,4605833.5216966402,-7500.0,-57.26994285955508,-1388.0271727535298,-2684.9483440507142,-123.12811900990849,-320.79021417430238,-24.172838867294448,1929.2978697733965,-1909.0557013649966,653.84776214107137,-653.84776214107137,1909.0557013649966,3623.0949099065615,0.0
332154.6038362722,4605833.5216966402,-7500.0,160.5938510146122,-1247.2456425589248,-2894.1477503255687,-100.49964211301598,-334.39316052664253,-23.728828869255089,1990.3267854440332,-1788.7878887103629,597.53391560750617,-597.53391560750617,1788.7878887103629,3719.5409546378683,0.0
337154.6038362722,4605833.5216966402,-7500.0,381.3541343993615,-1047.4269730446561,-3047.6961652265977,-72.274870538790097,-339.70794757951666,-22.400429119638876,2027.4281113380521,-1606.3835964195991,518.94052172063755,-518.94052172063755,1606.3835964195991,3766.9741476657177,0.0
342154.6038362722,4605833.5216966402,-7500.0,589.83754589529042,-792.15503326850228,-3122.0930891713074,-39.521230874893249,-334.5249083291078,-20.083948120105696,2035.5675532867253,-1362.7894663946925,419.38158875183143,-419.38158875183143,1362.7894663946925,3756.2457728338013,0.0
347154.6038362722,4605833.5216966402,-7500.0,769.5134063660596,-492.45021888917671,-3095.6071987233804,-4.0925969143614775,-317.11452550538814,-16.750628355080892,2010.7342557663233,-1065.4578128948106,302.62096859539497,-302.62096859539497,1065.4578128948106,3680.709153369975,0.0
352154.6038362722,4605833.5216966402,-7500.0,905.0440247023912,-167.20872969829279,-2952.3419362169957,31.434828490998864,-286.63907520461345,-12.472138940518908,1950.6435446107657,-728.97871995501509,174.94621789685482,-174.94621789685482,728.97871995501509,3537.7075903729537,0.0
357154.6038362722,4605833.5216966402,-7500.0,985.35404581875787,158.01122021695861,-2686.5527800959503,64.003883254372155,-243.52526146098725,-7.4336137083092382,1855.3714968428615,-374.38937605469755,44.728826970007361,-44.728826970007361,374.38937605469755,3329.8962564431545,0.0
362154.6038362722,4605833.5216966402,-7500.0,1006.4541491243004,454.13704201884076,-2306.0733710943487,90.491945017987277,-189.68390208027631,-1.9272826665475833,1727.7533038427921,-26.887786345960542,-78.581408871424003,78.581408871424003,26.887786345960542,3066.0411157985613,0.0
367154.6038362722,4605833.5216966402,-7500.0,973.05816628879018,693.33716767468115,-1833.5650531758431,108.23696948907627,-128.47154581948797,3.6764217000307911,1573.3975303511174,287.84981843034461,-185.89753855285636,185.89753855285636,-287.84981843034461,2760.970005827256,0.0
372154.6038362722,4605833.5216966402,-7500.0,898.19521418211184,854.34713812550922,-1304.6359329421221,115.55299149042354,-64.340990368863999,8.9769255220656774,1400.2304178050067,547.98881622035333,-270.04965654095446,270.04965654095446,-547.98881622035333,2434.4568907041971,0.0
377154.6038362722,4605833.5216966402,-7500.0,800.61107406022745,926.84575753314925,-762.75546528732912,112.0891423611364,-2.2174703658602102,13.601080661153972,1217.6115389445265,739.33175425126524,-327.02077999756438,327.02077999756438,-739.33175425126524,2109.0164603556664,0.0
382154.6038362722,4605833.5216966402,-7500.0,700.58108848746281,913.43966949642345,-252.02662964314075,98.915023147086501,53.266544568461818,17.256839269941405,1035.2304084069926,857.44475581526353,-356.487372112706,356.487372112706,-857.44475581526353,1806.7745154204611,0.0
387154.6038362722,4605833.5216966402,-7500.0,615.42892994603687,828.54742348914783,190.24617287015889,78.295462336094786,98.486299347909565,19.770685937594816,862.31833364065233,907.48433758513443,-361.50953961010504,361.50953961010504,-907.48433758513443,1545.7319291403351,0.0
392154.6038362722,4605833.5216966402,-7500.0,556.17839133003019,694.57296170738653,539.12002880232751,53.218184901206833,131.30707560054699,21.101185237602955,710.50827935737539,901.90148909089999,-347.51081678720317,347.51081678720317,-901.90148909089999,1336.0340678948728,0.0
397154.6038362722,4605833.5216966402,-7500.0,526.27130165037613,536.69772282365011,784.34335826685276,26.815411337599532,151.22866128974294,21.328271347732294,627.44246062258333,856.91610024228976,-320.91579047159121,320.91579047159121,-856.91610024228976,1177.616744300193,0.0
402154.6038362722,4605833.5216966402,-7500.0,522.42369044221005,377.93688126935524,929.29112262587148,1.8394959383850811,159.19751001635424,20.623651141352624,593.83626468144041,788.93234794571265,-287.86903684507809,287.86903684507809,-788.93234794571265,1061.1602290733626,0.0
407154.6038362722,4605833.5216966402,-7500.0,536.93759431701073,235.73559432442568,987.43336359834245,-19.687101033920666,157.18777470257282,19.211847063574098,558.82470689203058,711.84982674095784,-253.34616823583417,253.34616823583417,-711.84982674095784,972.73850184870719,0.0
412154.6038362722,4605833.5216966402,-7500.0,560.45375980422898,120.59686897598586,977.78988830498406,-36.602986277176882,147.69572518223896,17.33129825201226,518.99598418104506,635.69361224669206,-220.76455312558011,220.76455312558011,-635.69361224669206,899.39330092319324,0.0
417154.6038362722,4605833.5216966402,-7500.0,584.27723154446073,36.488361812571831,920.7082771126868,-48.547483547072446,133.27950112902647,15.202972437271072,475.5569261285803,566.46707845716844,-192.02359683820077,192.02359683820077,-566.46707845716844,832.37050715476687,0.0
422154.6038362722,4605833.5216966402,-7500.0,601.8175455379768,-17.650671744103924,834.78071452726704,-55.779096868735614,116.2253903362584,13.010303931198706,430.57192914450815,506.81660899983274,-167.80911563830077,167.80911563830077,-506.81660899983274,767.41761281628794,0.0
427154.6038362722,4605833.5216966402,-7500.0,609.10559245332445,-46.031772812984627,735.12850371980539,-58.950380536493618,98.3641521867916,10.890406826661273,386.7394141579303,457.03864408125537,-147.99126480250405,147.99126480250405,-457.03864408125537,703.52024523982413,0.0
432154.6038362722,4605833.5216966402,-7500.0,604.61652127362686,-54.305802467133837,632.86224392124961,-58.898933945218516,81.017692681052822,8.9344405083870804,347.6943179054104,416.06977657320249,-131.99367121911618,131.99367121911618,-416.06977657320249,641.40988955478247,0.0
437154.6038362722,4605833.5216966402,-7500.0,588.7118244436349,-48.289313330503077,535.33807460450021,-56.487084460212984,65.035747417945757,7.1937590259696353,316.52334021390323,382.26564164706019,-119.07307713819691,119.07307713819691,-382.26564164706019,582.43549740149535,0.0
442154.6038362722,4605833.5216966402,-7500.0,562.97044635498196,-33.181219525674024,446.82615799689438,-52.498805648754434,50.880279865226825,5.6886886217258308,291.62712827539235,353.91449442261313,-108.49746905674711,108.49746905674711,-353.91449442261313,527.88741457091248,0.0
447154.6038362722,4605833.5216966402,-7500.0,529.58387103741302,-13.193541074782761,369.30117373924656,-47.587230635427794,38.724644207018613,4.4176563676698946,269.57988603479009,329.5168203178348,-99.638635459652988,99.638635459652988,-329.5168203178348,478.6749157939999,0.0
307154.6038362722,4610833.5216966402,-7500.0,-929.60314756031994,-1672.7041452914384,-1759.4417999334867,-192.33324364524677,-253.08534713138565,-23.551995991487289,1739.8385185333152,-2158.9501951874799,800.2081698534754,-800.2081698534754,2158.9501951874799,3310.3455146687293,0.0
312154.6038362722,4610833.5216966402,-7500.0,-803.98773784070715,-1747.2304571657198,-2052.0090735752128,-193.49103373236318,-285.29319148209055,-25.462043307111731,1873.3952219218918,-2258.7993149853583,827.77904861526406,-827.77904861526406,2258.7993149853583,3556.7136454539268,0.0
317154.6038362722,4610833.5216966402,-7500.0,-638.36347563893287,-1786.8774251057907,-2365.724067342639,-189.37351496409153,-317.71354516111836,-27.042311846834473,2004.2748559413305,-2324.427028596644,840.64019903570738,-840.64019903570738,2324.427028596644,3795.0844177941858,0.0
322154.6038362722,4610833.5216966402,-7500.0,-432.69167755819757,-1778.7957696127596,-2689.4413256465405,-178.7482899956116,-348.54133355863564,-28.083717138914128,2127.4426195460069,-2342.8726104544912,834.0872356599865,-834.0872356599865,2342.8726104544912,4015.2664488392038,0.0
327154.6038362722,4610833.5216966402,-7500.0,-190.92174975560459,-1709.9960959827258,-3006.1385954752991,-160.58015590289503,-375.37294794668259,-28.345102898955759,2236.7510817977309,-2300.7347684061742,803.50115564132216,-803.50115564132216,2300.7347684061742,4204.9849017406714,0.0
332154.6038362722,4610833.5216966402,-7500.0,77.895025596340034,-1569.2993575333492,-3292.4107476717095,-134.27960555510506,-395.25673866821114,-27.573149935164434,2325.1280818652722,-2185.8596277437209,745.03955781303353,-745.03955781303353,2185.8596277437209,4350.3451204404164,0.0
337154.6038362722,4610833.5216966402,-7500.0,359.02050630783731,-1350.0117685711573,-3519.0060332858693,-99.993470255289537,-404.88191178790896,-25.535766605492515,2384.9941164730908,-1989.6840650287531,656.53682618967923,-656.53682618967923,1989.6840650287531,4436.781877905094,0.0
342154.6038362722,4610833.5216966402,-7500.0,632.47048938978526,-1053.0210430126435,-3652.9562379422841,-58.883387190875276,-400.94220715664966,-22.067463414257087,2408.9471462381171,-1709.9982674773341,538.49451778341927,-538.49451778341927,1709.9982674773341,4450.5677616879111,0.0
347154.6038362722,4610833.5216966402,-7500.0,874.93530643054612,-689.63228024836212,-3661.6870252373865,-13.305337975122258,-380.67628444580384,-17.120743844444117,2390.7038249049428,-1353.5799850301969,394.93057306460281,-394.93057306460281,1353.5799850301969,4380.8489155412917,0.0
352154.6038362722,4610833.5216966402,-7500.0,1063.3375167182965,-283.10024483978657,-3519.0009795282704,33.214238282241034,-342.52428599329255,-10.81176434208764,2326.1984189503237,-937.84710468435242,233.7626577963793,-233.7626577963793,937.84710468435242,4221.9927324797618,0.0
357154.6038362722,4610833.5216966402,-7500.0,1179.607148991397,132.2979372272641,-3212.0405462055737,76.292471881664653,-286.76534602069154,-3.4443203249646972,2214.6505586109947,-490.56562654901239,66.398547080100741,-66.398547080100741,490.56562654901239,3975.8405333557089,0.0
362154.6038362722,4610833.5216966402,-7500.0,1215.5203167180985,515.42691209747636,-2747.4375257053889,111.3139620866568,-215.93980814358048,4.5019121527986945,2059.327732789216,-46.921612455958964,-93.646278221743628,93.646278221743628,46.921612455958964,3653.2783435105271,0.0
367154.6038362722,4610833.5216966402,-7500.0,1175.9080238985623,825.47529683248126,-2154.3231103615967,134.27392983795275,-134.8560345742234,12.425166832918967,1867.7166682820866,355.97180822236874,-232.9705230405682,232.9705230405682,-355.97180822236874,3274.4984720459124,0.0
372154.6038362722,4610833.5216966402,-7500.0,1078.6443735492983,1030.5780531519979,-1482.2411700753444,142.63616781754888,-50.066743238583328,19.689915291889189,1650.9236469682025,685.99526757124659,-340.83478900061618,340.83478900061618,-685.99526757124659,2867.4878875177374,0.0
377154.6038362722,4610833.5216966402,-7500.0,950.79317150075508,1115.219972634291,-793.47185247901234,135.9416093511939,31.138093943856195,25.729174742288627,1422.3419261112276,922.35707094415397,-411.26488099821944,411.26488099821944,-922.35707094415397,2464.5776444897811,0.0
382154.6038362722,4610833.5216966402,-7500.0,821.86244995817913,1083.7139830740221,-151.43970636873115,115.94867938990575,101.9899310127269,30.134034508309927,1195.9951187714355,1059.2081976312256,-443.99476149916546,443.99476149916546,-1059.2081976312256,2097.2377346237945,0.0
387154.6038362722,4610833.5216966402,-7500.0,716.47583471803478,958.34324986289312,391.34603226580504,86.235183541245348,157.40462868337522,32.708028793135831,986.00062147478377,1105.3094269479545,-443.93695375333954,443.93695375333954,-1105.3094269479545,1789.6474610676169,0.0
392154.6038362722,4610833.5216966402,-7500.0,649.08141411257543,772.8699044448017,802.0331513694955,51.384129118396409,194.72130031876569,33.475693716057485,820.28559184844448,1080.0709538839383,-419.43939369738712,419.43939369738712,-1080.0709538839383,1552.4742862519763,0.0
397154.6038362722,4610833.5216966402,-7500.0,622.33287764623526,563.90693968427411,1070.4659304027382,16.018454734363068,213.8420126514294,32.649150754379498,754.91629500982606,1007.6512682244387,-380.02014413893278,380.02014413893278,-1007.6512682244387,1380.1213718726817,0.0
402154.6038362722,4610833.5216966402,-7500.0,629.09435314016821,363.16529239426279,1206.485376301529,-16.024185402949115,216.81097649565743,30.566642198316739,713.6856819330402,911.26918583140912,-334.3514994300366,334.3514994300366,-911.26918583140912,1254.8540762748771,0.0
407154.6038362722,4610833.5216966402,-7500.0,656.62248070805913,192.69577517740575,1233.4559151401822,-42.178691959956637,207.04343723461099,27.621468849951707,667.11049533008566,809.32806010435866,-289.00164889930539,289.00164889930539,-809.32806010435866,1156.0886488995829,0.0
412154.6038362722,4610833.5216966402,-7500.0,691.04150320366239,63.677008016557394,1180.7496284416357,-61.254067026347528,188.47711860068759,24.19814509494821,614.48074142368409,713.8862159312207,-248.04603119635979,248.04603119635979,-713.8862159312207,1068.1966400641272,0.0
417154.6038362722,4610833.5216966402,-7500.0,720.69385295860582,-22.042300885842813,1077.4139373670082,-73.232345417971885,164.86784732652819,20.626687880507045,558.19808142790339,631.05551368183001,-213.34279761171877,213.34279761171877,-631.05551368183001,982.93540583120773,0.0
422154.6038362722,4610833.5216966402,-7500.0,737.81957745317322,-69.016304320089091,948.11776156613143,-78.909146823791048,139.34132570876596,17.158748884639813,501.65918626327283,562.47212005146184,-185.14472422082963,185.14472422082963,-562.47212005146184,897.96923442722152,0.0
427154.6038362722,4610833.5216966402,-7500.0,738.75464885117231,-85.133457302207063,811.40862514982007,-79.512784613785797,114.20590619853813,13.963068645653044,448.94702740290052,507.02572304243813,-162.76016922965206,162.76016922965206,-507.02572304243813,814.3091291016035,0.0
432154.6038362722,4610833.5216966402,-7500.0,723.1963988738371,-79.1624691882093,679.6918790354639,-76.390742872054034,90.963818680206501,11.134433650149088,403.78777507757559,462.32875097736996,-145.09163896361156,145.09163896361156,-462.32875097736996,734.21859617730672,0.0
437154.6038362722,4610833.5216966402,-7500.0,693.10115972820017,-59.169966021724846,560.18447946324068,-70.798767340945858,70.437993203529643,8.7094125954170014,366.60584207192943,425.7240478949268,-130.9939678932154,130.9939678932154,-425.7240478949268,659.93712736452869,0.0
442154.6038362722,4610833.5216966402,-7500.0,651.61426284653896,-31.733581244054484,456.22272026017276,-63.788453188958606,52.942559950847759,6.6836474879984884,334.69324986338779,394.84579649520936,-119.46697732577192,119.46697732577192,-394.84579649520936,593.07341073751752,0.0
447154.6038362722,4610833.5216966402,-7500.0,602.23542356526696,-1.7298774866384254,368.52978544101239,-56.16996463451072,38.449354980069749,5.0273850674912399,305.85058044452893,367.84713265358869,-109.72828301742339,109.72828301742339,-367.84713265358869,534.42877141112263,0.0
452154.6038362722,4610833.5216966402,-7500.0,548.2701103278489,27.537357887592297,296.25330773175898,-48.522183890925589,26.72599424394555,3.6976121790084178,279.21129251927772,343.42279990245544,-101.21420223523371,101.21420223523371,-343.42279990245544,484.05703826872923,0.0
302154.6038362722,4615833.5216966402,-7500.0,-1280.884059227033,-1766.9509525246253,-1512.3401510483793,-223.9882463747814,-243.05686704292492,-24.724146057298462,1787.9388131463052,-2284.9443706687698,871.14908888901323,-871.14908888901323,2284.9443706687698,3408.2759051133276,0.0
307154.6038362722,4615833.5216966402,-7500.0,-1203.3335757143955,-1907.8545583270102,-1814.4802325218066,-233.56040149426059,-280.29506798788202,-27.275905707235076,1951.4677587627768,-2455.1713974756631,927.02807742818709,-927.02807742818709,2455.1713974756631,3714.0853515486237,0.0
312154.6038362722,4615833.5216966402,-7500.0,-1079.7662019460433,-2028.0567401832686,-2156.9441228670257,-238.64628507121768,-320.18617719854444,-29.629035436067003,2119.7661913755742,-2605.3983725134108,972.8368868440067,-972.8368868440067,2605.3983725134108,4026.3806387447535,0.0
317154.6038362722,4615833.5216966402,-7500.0,-904.15811660749989,-2113.0955694179875,-2535.0330775424686,-237.49710560837204,-361.35135446812518,-31.546753510251072,2288.4081016201576,-2721.2484944247935,1002.9263929631124,-1002.9263929631124,2721.2484944247935,4335.986789421806,0.0
322154.6038362722,4615833.5216966402,-7500.0,-673.35514962573257,-2145.6755446650486,-2938.0306113978058,-228.25975152311634,-401.62686864241113,-32.724207575489359,2451.3419225304892,-2785.4640822000424,1010.7610749295163,-1010.7610749295163,2785.4640822000424,4630.5479936873016,0.0
327154.6038362722,4615833.5216966402,-7500.0,-389.00655779685707,-2106.852713391519,-3347.2817933853289,-209.21155081659043,-437.9451598296057,-32.797981570215022,2600.7911787421108,-2778.89967515947,989.41306507276875,-989.41306507276875,2778.89967515947,4894.4071453899651,0.0
332154.6038362722,4615833.5216966402,-7500.0,-59.602122466065289,-1978.3794267421929,-3734.6913967676978,-179.11435278525195,-466.32944919618592,-31.374554178634206,2727.3703702397611,-2682.53111020817,932.44385373297428,-932.44385373297428,2682.53111020817,5108.9536689331289,0.0
337154.6038362722,4615833.5216966402,-7500.0,297.9365982082669,-1746.3824739109909,-4062.4261681595358,-137.67011496929592,-482.08782977538152,-28.083249994687165,2820.5314188016473,-2480.6459877046386,835.19916737753965,-835.19916737753965,2480.6459877046386,5253.6775721981585,0.0
342154.6038362722,4615833.5216966402,-7500.0,657.93719318537194,-1406.1633697073792,-4284.8283575690957,-86.007177173160358,-480.28858436511911,-22.653705213584324,2869.4396761214884,-2165.0657163395576,696.40545385329506,-696.40545385329506,2165.0657163395576,5308.1299303291244,0.0
347154.6038362722,4615833.5216966402,-7500.0,987.86306792709024,-967.26444761307755,-4353.4859811111974,-27.060896988463025,-456.55265192080685,-15.008325370251915,2864.3105870637346,-1739.7199756494451,519.75056020478041,-519.75056020478041,1739.7199756494451,5254.8448041282645,0.0
352154.6038362722,4615833.5216966402,-7500.0,1253.0428829784132,-457.17780186019849,-4225.8085565210595,34.338090308954627,-408.09961942453049,-5.3476562635295455,2798.1144057965694,-1224.2614558367352,314.91545747061559,-314.91545747061559,1224.2614558367352,5083.0141517591264,0.0
357154.6038362722,4615833.5216966402,-7500.0,1423.9912162812957,78.450090891336444,-3876.1542736537608,91.849338350176509,-334.83990127920237,5.8036582646219319,2668.371687602752,-654.95417151772551,97.417234856911477,-97.417234856911477,654.95417151772551,4792.3191886917111,0.0
362154.6038362722,4615833.5216966402,-7500.0,1484.6855892752421,580.96842285028413,-3306.7984712933567,138.56046878715807,-240.17330800416198,17.620515707538964,2478.5908469251754,-81.255693124689373,-113.21050344184894,113.21050344184894,81.255693124689373,4395.9526960785861,0.0
367154.6038362722,4615833.5216966402,-7500.0,1438.8588074963407,989.52805327204612,-2554.5885813267214,168.35694417587703,-131.11344361446208,29.084231014205123,2238.810595356174,442.31893617622285,-296.85279863777242,296.85279863777242,-442.31893617622285,3921.6485684460004,0.0
372154.6038362722,4615833.5216966402,-7500.0,1311.1261164258237,1255.262328772206,-1689.2609584575864,177.37417400226917,-17.492133490635759,39.154346910500877,1964.8633520627725,867.45404558850635,-437.06588607158062,437.06588607158062,-867.45404558850635,3409.7185197338522,0.0
377154.6038362722,4615833.5216966402,-7500.0,1141.2986394838631,1354.1464166282219,-801.79364700950111,165.04613424994264,89.70243168045549,46.958401223575954,1676.3722751346741,1162.8839360106626,-524.75028793396291,524.75028793396291,-1162.8839360106626,2907.5388090590627,0.0
382154.6038362722,4615833.5216966402,-7500.0,973.26024466037063,1293.3120313100353,14.634108046684222,134.33431878546338,180.43989729395705,51.942829021550743,1394.3633136146677,1320.7567413505249,-559.84617632216305,559.84617632216305,-1320.7567413505249,2460.5632939675488,0.0
387154.6038362722,4615833.5216966402,-7500.0,842.63644382232269,1107.9038122188911,684.77499762956359,91.004293749751284,247.57150298842799,53.944192476649796,1142.9990883388421,1356.0222089048384,-550.40307842224638,550.40307842224638,-1356.0222089048384,2100.8389912685593,0.0
392154.6038362722,4615833.5216966402,-7500.0,768.23140667521034,849.75810716590922,1165.3900113681755,42.191351341714068,287.96204813981535,53.170885179152449,983.87489393423948,1299.4204659853613,-509.5158578165466,509.5158578165466,-1299.4204659853613,1836.6851177176768,0.0
397154.6038362722,4615833.5216966402,-7500.0,750.19174001624629,572.76383216524277,1448.9614744904111,-5.2345137657879368,302.53964415749641,50.114317154078542,923.63670465468613,1187.3720151154434,-451.47231751772773,451.47231751772773,-1187.3720151154434,1651.1900515316086,0.0
402154.6038362722,4615833.5216966402,-7500.0,774.42208364709734,320.56135982422666,1557.4953575333304,-45.969506239556416,295.39172021076166,45.423513242803345,869.39838601310271,1052.8292964151001,-388.54700510145864,388.54700510145864,-1052.8292964151001,1513.8986468609119,0.0
407154.6038362722,4615833.5216966402,-7500.0,820.17383227652294,120.12671474026152,1530.6337344768851,-76.918992348820765,272.34828596855448,39.778340471790372,806.40236716017273,919.80609218103336,-329.27599347665665,329.27599347665665,-919.80609218103336,1397.0582466717908,0.0
412154.6038362722,4615833.5216966402,-7500.0,867.26265556969008,-18.452908277934853,1413.2441817727085,-97.162643785547004,239.56366451501086,33.788474337772904,736.03171460042722,802.06912203376623,-278.24057566132814,278.24057566132814,-802.06912203376623,1284.2710223455649,0.0
417154.6038362722,4615833.5216966402,-7500.0,900.68492507607777,-98.063663082607164,1246.1349004215208,-107.45455271704688,202.4650539047262,27.93212829977665,662.45807075107962,704.7980973777336,-236.84948240753388,236.84948240753388,-704.7980973777336,1170.0387791797298,0.0
422154.6038362722,4615833.5216966402,-7500.0,912.19566127537769,-129.19832099875876,1061.1344787204248,-109.54720528720874,165.20022577178986,22.535281163924346,590.8336720321347,627.49367940865352,-204.48652621869189,204.48652621869189,-627.49367940865352,1055.5259641591274,0.0
427154.6038362722,4615833.5216966402,-7500.0,899.63302584915209,-125.15806630521271,879.91980312651651,-105.57112488256844,130.5226616871926,17.78202717397145,526.10222897363019,566.78615264811924,-179.56092224619175,179.56092224619175,-566.78615264811924,944.56528489135383,0.0
432154.6038362722,4615833.5216966402,-7500.0,865.1464286281016,-98.753596924718636,715.19220702889857,-97.590062688317886,99.960371316880298,13.742731485677322,470.74885842044074,518.4822099900266,-160.25005007815,160.25005007815,-518.4822099900266,841.13462218375037,0.0
437154.6038362722,4615833.5216966402,-7500.0,813.26534594992563,-60.568290306621101,572.85012820150439,-87.351322614565717,74.110606789356709,10.407825690151267,423.6141377024706,478.74307918991315,-144.91641915607462,144.91641915607462,-478.74307918991315,748.15370705763871,0.0
442154.6038362722,4615833.5216966402,-7500.0,749.33095058915956,-18.40614278395563,454.24001602507479,-76.193326166140409,52.94719002717278,7.7189778722487556,382.2944627195763,444.57928928176182,-132.27599691199256,132.27599691199256,-444.57928928176182,667.13330718431087,0.0
447154.6038362722,4615833.5216966402,-7500.0,678.45709946612067,22.547294952411853,358.025117960508,-65.054740211668189,36.079784327879807,5.5936460232599678,345.21878534339157,413.92086804442749,-121.41487468158013,121.41487468158013,-413.92086804442749,598.28226097197307,0.0
452154.6038362722,4615833.5216966402,-7500.0,604.97428635312565,59.237331888339575,281.53703658471358,-54.535268430270818,22.944702970932532,3.9421370529903088,311.65533796502467,385.47946919544552,-111.73288705970066,111.73288705970066,-385.47946919544552,540.81786471728833,0.0
297154.6038362722,4620833.5216966402,-7500.0,-1609.4730876561284,-1767.5766980095898,-1212.425499840891,-248.32415784032088,-223.25858403666783,-25.158049074980983,1796.1183067928666,-2316.3521200208866,907.69214449582034,-907.69214449582034,2316.3521200208866,3427.2674920751629,0.0
302154.6038362722,4620833.5216966402,-7500.0,-1597.9323808959214,-1963.7193927121934,-1497.0183036147214,-266.76292737512489,-262.86075353518265,-28.275198484667403,1984.2760332478338,-2547.0216318057483,989.75882091974108,-989.75882091974108,2547.0216318057483,3782.190249119185,0.0
307154.6038362722,4620833.5216966402,-7500.0,-1542.531434715876,-2157.9083503923948,-1834.9581150413476,-282.38179541022578,-307.38953679260487,-31.368011768791142,2185.4056204227736,-2776.4420501250061,1068.6228804376524,-1068.6228804376524,2776.4420501250061,4159.7381552961633,0.0
312154.6038362722,4620833.5216966402,-7500.0,-1432.0422131224673,-2337.5938780632987,-2229.0967615854302,-293.22782690382309,-356.19674955442076,-34.199533693272215,2396.5798144149762,-2992.0571074338995,1138.9103838539841,-1138.9103838539841,2992.0571074338995,4553.5731508566587,0.0
317154.6038362722,4620833.5216966402,-7500.0,-1255.7427051606107,-2485.4219818569854,-2677.9489411250079,-296.91101688701406,-407.84195939034942,-36.429256154626273,2613.0356791121221,-3176.6234587726176,1193.5221793209585,-1193.5221793209585,3176.6234587726176,4953.6806504227652,0.0
322154.6038362722,4620833.5216966402,-7500.0,-1005.3912164952408,-2579.0399853227646,-3173.0141864447901,-290.72582553330363,-459.80963240470032,-37.60198814426942,2827.7511266067759,-3307.9718279361769,1223.6745331247139,-1223.6745331247139,3307.9718279361769,5345.5765302296295,0.0
327154.6038362722,4620833.5216966402,-7500.0,-678.01010812304332,-2591.9223642611728,-3695.5952054793743,-271.93196614478234,-508.25380034516354,-37.154987342011275,3031.1242894571378,-3359.65812710809,1219.3336591844468,-1219.3336591844468,3359.65812710809,5709.7584321977483,0.0
332154.6038362722,4620833.5216966402,-7500.0,-279.27070186455313,-2495.8506372030765,-4213.6542699412294,-238.23984775318246,-547.87117058183389,-34.457684238483466,3210.9051719416939,-3303.05702723385,1170.2403270494353,-1170.2403270494353,3303.05702723385,6021.7165436167625,0.0
337154.6038362722,4620833.5216966402,-7500.0,173.18407854780705,-2265.6210171853581,-4679.788205109121,-188.50554274574577,-572.04900869285427,-28.896930218146821,3352.5756581093347,-3111.4049000397736,1067.6711293544358,-1067.6711293544358,3111.4049000397736,6252.9130963067646,0.0
342154.6038362722,4620833.5216966402,-7500.0,647.72744639772145,-1886.1187878407197,-5031.9905545329111,-123.5554326097357,-573.45333150861234,-20.013280610328405,3440.3858162566248,-2765.9477472762369,906.90525387299351,-906.90525387299351,2765.9477472762369,6373.1602421430562,0.0
347154.6038362722,4620833.5216966402,-7500.0,1099.782483827765,-1360.9179039825617,-5199.1807246856206,-46.936308548807702,-545.17516367119674,-7.6747069409268036,3459.1940343024726,-2263.5518409264696,690.02555594884882,-690.02555594884882,2263.5518409264696,6354.692469703642,0.0
352154.6038362722,4620833.5216966402,-7500.0,1477.5588682231862,-720.07445340210484,-5112.9412158647328,34.737433609874437,-482.39428123424398,7.754786352656561,3397.0670415071713,-1623.9125271347298,428.22586127177203,-428.22586127177203,1623.9125271347298,6177.8253393242294,0.0
357154.6038362722,4620833.5216966402,-7500.0,1732.9621352293459,-23.332386233780554,-4724.9920498304718,112.20573640634485,-384.25540231700955,25.32032891420571,3248.2876753963219,-893.28832851407356,142.43232149717079,-142.43232149717079,893.28832851407356,5837.4395474856801,0.0
362154.6038362722,4620833.5216966402,-7500.0,1835.6608030345658,645.32418735245278,-4026.6081888109843,174.97424439017058,-255.36385910715964,43.52636199495786,3016.0389310052065,-141.3705270318822,-138.87995248338427,138.87995248338427,141.3705270318822,5348.7175477070732,0.0
367154.6038362722,4620833.5216966402,-7500.0,1785.3500990171046,1193.6716281624294,-3062.729899316545,213.57257116233311,-106.17495665570515,60.562845538537324,2713.7854567566364,550.50460235907531,-384.974762745416,384.974762745416,-550.50460235907531,4749.955696256091,0.0
372154.6038362722,4620833.5216966402,-7500.0,1615.847258365925,1544.8814597262267,-1932.4818302737647,222.05324972923486,48.241600286463097,74.662054251305449,2364.5193024577829,1107.8871080224067,-570.07461247601941,570.07461247601941,-1107.8871080224067,4100.2609344876373,0.0
377154.6038362722,4620833.5216966402,-7500.0,1386.8767078269736,1660.4791981539049,-771.56257591401993,199.82182111272778,191.01255876147894,84.46953519419408,1997.8149300805753,1482.3157428518775,-679.95071642596668,679.95071642596668,-1482.3157428518775,3470.5583060917975,0.0
382154.6038362722,4620833.5216966402,-7500.0,1165.2832286352386,1552.2629929593877,279.82307183826845,151.99745042552135,307.08572633431646,89.298765724066428,1646.8064025329434,1662.9655089348598,-715.07298649183906,715.07298649183906,-1662.9655089348598,2927.4249239146752,0.0
387154.6038362722,4620833.5216966402,-7500.0,1003.6175499351614,1276.9092069567198,1111.6643831061667,88.058653153947489,386.45505846090617,89.196467362430909,1358.5491441430411,1675.5760334177164,-688.92681919724305,688.92681919724305,-1675.5760334177164,2511.8593154906189,0.0
392154.6038362722,4620833.5216966402,-7500.0,925.91049144341684,915.62383814787438,1667.4422262722476,19.265755679140483,425.87443701267085,84.830561810104626,1218.6028376792183,1569.6860747714777,-622.46315714187449,622.46315714187449,-1569.6860747714777,2222.9021292947441,1.0
397154.6038362722,4620833.5216966402,-7500.0,926.17020194414465,548.64759514587934,1947.9673886468347,-44.142253022203178,428.58922634774132,77.270191914055317,1149.5751588227763,1400.8613729293365,-537.3910236873545,537.3910236873545,-1400.8613729293365,2022.8837586799241,0.0
402154.6038362722,4620833.5216966402,-7500.0,977.87103171301055,235.57513549174587,1997.7350102007435,-94.985245110827378,402.44225198976932,67.736354093107252,1075.3070036132067,1215.8194173783022,-451.05063791172063,451.05063791172063,-1215.8194173783022,1864.4339788826369,0.0
407154.6038362722,4620833.5216966402,-7500.0,1047.7597001439026,7.3623837945139945,1882.9866772295782,-129.89734744008487,357.27388855536299,57.384507095681123,988.14294093827425,1045.0385642712909,-374.20045431278436,374.20045431278436,-1045.0385642712909,1714.4537543949725,0.0
412154.6038362722,4620833.5216966402,-7500.0,1107.3009897507932,-130.89087654185019,1671.3594611464596,-148.90025574164059,302.57886948619858,47.15561071830242,892.07610234769186,902.73273587721258,-311.40925851058307,311.40925851058307,-902.73273587721258,1559.688175801658,0.0
417154.6038362722,4620833.5216966402,-7500.0,1138.4989926582448,-191.31832850112525,1418.840346358963,-154.3002878315522,246.00622133108908,37.708023721723372,793.97175632316237,791.16715125758037,-262.86034248538846,262.86034248538846,-791.16715125758037,1400.6142545315756,0.0
422154.6038362722,4620833.5216966402,-7500.0,1134.4217059671682,-193.92052374142679,1164.7478836237776,-149.47001050569784,192.79697270876079,29.419979200202839,701.06656045780358,705.99114374589351,-226.38820059152059,226.38820059152059,-705.99114374589351,1243.7083060947962,0.0
427154.6038362722,4620833.5216966402,-7500.0,1096.5952415419151,-159.48733687541613,932.46069499621854,-137.88665130691578,145.92168015456483,22.438158099125424,618.61845416773167,640.52405971934013,-199.06025565926382,199.06025565926382,-640.52405971934013,1096.2087079495798,0.0
432154.6038362722,4620833.5216966402,-7500.0,1031.4784323394711,-105.61062767395292,732.95262460502704,-122.5551071777321,106.57934970166713,16.745079375836067,547.92436363647721,588.35111509322701,-178.11690182450994,178.11690182450994,-588.35111509322701,963.57401995869486,0.0
437154.6038362722,4620833.5216966402,-7500.0,947.40597597099827,-45.240255548809984,568.90543727208501,-105.77180480110124,74.780170980921284,12.224280811234408,487.20122235878625,544.46120283686082,-161.37649306460523,161.37649306460523,-544.46120283686082,848.72844509462675,0.0
442154.6038362722,4620833.5216966402,-7500.0,852.52653934262366,13.185258014389911,438.21565783103375,-89.117022872694633,49.852631510546644,8.712296623069113,434.21088653484395,505.45518205466283,-147.30369108745245,147.30369108745245,-505.45518205466283,752.24829611736982,0.0
447154.6038362722,4620833.5216966402,-7500.0,753.70802668435101,64.882631672071099,336.51166213555126,-73.5646329343529,30.815753382544834,6.034315347207782,387.43125591684418,469.30204913590501,-134.91479427015727,134.91479427015727,-469.30204913590501,672.94531448165151,0.0
452154.6038362722,4620833.5216966402,-7500.0,656.15227836547854,107.69529216262512,258.73921095663508,-59.630005928374871,16.618463436467973,4.025419624909838,345.94064742489775,434.95652310121721,-123.63291844246788,123.63291844246788,-434.95652310121721,608.55025382491317,0.0
457154.6038362722,4620833.5216966402,-7500.0,563.43677586447552,141.17431106725752,200.03988692785683,-47.511266912736545,6.2742894610560027,2.5410738357239877,309.1183541163881,401.99966158392454,-113.15124748758902,113.15124748758902,-401.99966158392454,556.33996279217456,0.0
292154.6038362722,4625833.5216966402,-7500.0,-1881.8320692521067,-1675.6457360982217,-892.40680312515883,-263.07076332470376,-195.76027111968403,-24.819150289644128,1764.2519312338388,-2251.4610291828717,906.55949542822702,-906.55949542822702,2251.4610291828717,3366.9028299619804,0.0
297154.6038362722,4625833.5216966402,-7500.0,-1944.866123702601,-1907.1126685319196,-1136.6877543313788,-289.6269907702216,-234.77797380975764,-28.359260239620127,1969.3018438435704,-2523.963780501223,1008.9064061527248,-1008.9064061527248,2523.963780501223,3755.7317670927036,0.0
302154.6038362722,4625833.5216966402,-7500.0,-1974.5444966679886,-2155.6634256365819,-1438.7042187698671,-315.63529526946854,-280.38839217239172,-32.06794608502647,2195.145551119751,-2814.6336995600695,1115.7883826522768,-1115.7883826522768,2814.6336995600695,4182.6865842953111,0.0
307154.6038362722,4625833.5216966402,-7500.0,-1957.0429247763516,-2413.6708651642375,-1807.7247231262077,-339.34013714364733,-332.79581313381328,-35.738981195038818,2441.0152559142002,-3115.5812178932829,1223.3304607986202,-1223.3304607986202,3115.5812178932829,4645.6382339849151,0.0
312154.6038362722,4625833.5216966402,-7500.0,-1876.3460319190065,-2668.3016001227384,-2251.5318528619591,-358.30353374780316,-391.59713664836897,-39.037366640019101,2704.5053011479276,-3413.8193722888927,1325.5729502203021,-1325.5729502203021,3413.8193722888927,5139.1136588412783,0.0
317154.6038362722,4625833.5216966402,-7500.0,-1715.3640858606996,-2900.0093607086455,-2774.0421417037887,-369.34950247174987,-455.41209532762673,-41.461049469972785,2980.916039408743,-3689.8370114377894,1414.0022064001541,-1414.0022064001541,3689.8370114377894,5653.0076582852425,0.0
322154.6038362722,4625833.5216966402,-7500.0,-1458.1657464554173,-3081.3598475692206,-3371.7454015276298,-368.63742562347971,-521.42857929040463,-42.311029484730327,3262.5254536883886,-3916.4608630802409,1477.2732987947506,-1477.2732987947506,3916.4608630802409,6171.1799464977812,0.0
327154.6038362722,4625833.5216966402,-7500.0,-1093.6449898405322,-3176.8966210986423,-4028.9110477137742,-351.96170227401842,-584.92498868096084,-40.687801435360051,3537.8992418415196,-4058.6245948058267,1501.3893062470013,-1501.3893062470013,4058.6245948058267,6670.1779913907212,0.0
332154.6038362722,4625833.5216966402,-7500.0,-620.67015244617562,-3145.1121448471558,-4711.9809450902085,-315.38305568314092,-638.9094446675673,-35.542245696053229,3791.4440267201385,-4074.9670081198919,1470.6990995964072,-1470.6990995964072,4074.9670081198919,7118.5212826200777,0.0
337154.6038362722,4625833.5216966402,-7500.0,-54.125893179191124,-2943.79993204011,-5364.4277458695688,-256.25663301970741,-674.11419409986092,-25.813273491371348,4003.5171961269793,-3922.3670993914411,1370.0976662666262,-1370.0976662666262,3922.3670993914411,7477.2068497201371,0.0
342154.6038362722,4625833.5216966402,-7500.0,569.80372160549507,-2539.7725939073721,-5904.5600266207584,-174.59610899392288,-679.6601783000375,-10.674038853115203,4151.4850866343058,-3564.2936159817905,1188.6372570761446,-1188.6372570761446,3564.2936159817905,7702.2539538621777,0.0
347154.6038362722,4625833.5216966402,-7500.0,1192.0163402797468,-1922.6668338131781,-6229.9278514037578,-74.486759079506641,-644.68390130824639,10.126859934119242,4212.1096915881772,-2982.8308523384221,924.25848767357434,-924.25848767357434,2982.8308523384221,7750.0735903306904,0.0
352154.6038362722,4625833.5216966402,-7500.0,1736.148878300977,-1119.9821973131113,-6232.0992063385711,35.016913684841889,-560.98523218724188,35.910071289441959,4165.4112941369031,-2192.1478958155476,588.48477532188838,-588.48477532188838,2192.1478958155476,7585.9565734094349,0.0
357154.6038362722,4625833.5216966402,-7500.0,2123.9825803069971,-207.13822314393664,-5823.2217422684898,140.23725669098502,-426.26722841325716,64.850569869296109,3999.643592467201,-1248.4227740532158,208.96985556441746,-208.96985556441746,1248.4227740532158,7194.8987353596176,0.0
362154.6038362722,4625833.5216966402,-7500.0,2298.9909475792006,695.82103940865443,-4969.9933825388434,225.00668085821619,-246.92603873360241,94.081340231743297,3716.2762300658096,-249.36597235598359,-172.56231453000836,172.56231453000836,249.36597235598359,6592.3901860173019,0.0
367154.6038362722,4625833.5216966402,-7500.0,2250.1102328611637,1446.9950366112241,-3722.8562218657585,274.46057228720042,-38.985914741712612,120.20185694979423,3333.2123481396688,681.97746969488935,-508.31744282383971,508.31744282383971,-681.97746969488935,5831.2002287614769,0.0
372154.6038362722,4625833.5216966402,-7500.0,2023.1161438900167,1922.348667881382,-2223.5268057200069,279.41100406136439,173.90188175460722,140.07460603856305,2884.4896223631904,1427.9144032056756,-756.87045294594418,756.87045294594418,-1427.9144032056756,4999.4426717313099,0.0
377154.6038362722,4625833.5216966402,-7500.0,1709.4203105580455,2057.8651886026191,-678.92641983441649,239.55764287803575,365.35454982386989,151.59705397743087,2416.2023111908779,1910.6708850835403,-895.31912738246376,895.31912738246376,-1910.6708850835403,4205.6431326657348,1.0
382154.6038362722,4625833.5216966402,-7500.0,1413.5802086522685,1873.0227802811087,694.21614088997467,163.99593116661202,512.5856207662689,154.12323518500847,1983.9148775525491,2114.6513296736812,-925.34679406921907,925.34679406921907,-2114.6513296736812,3548.4176046401831,0.0
387154.6038362722,4625833.5216966402,-7500.0,1214.7852701493355,1461.4694688114735,1731.3512760737594,68.604046316020487,601.8402196325485,148.4107954027391,1676.7290192475818,2084.7257541199288,-870.08287856383117,870.08287856383117,-2084.7257541199288,3076.2446720517078,0.0
392154.6038362722,4625833.5216966402,-7500.0,1142.5129383781605,953.21874882618613,2359.9255709564309,-28.660396450919098,630.89925855215256,136.21964841921752,1547.4614021525447,1902.2660707173525,-763.72683280134538,763.72683280134538,-1902.2660707173525,2764.4597472730056,0.0
397154.6038362722,4625833.5216966402,-7500.0,1177.1165796599216,468.96973268713845,2601.2993810562161,-112.59460778585809,607.93282576996091,119.79029186439681,1457.5519692716273,1653.0139380604321,-639.59345805121416,639.59345805121416,-1653.0139380604321,2541.3852275446707,0.0
402154.6038362722,4625833.5216966402,-7500.0,1270.0713787462998,88.530097614606319,2541.1397332828656,-173.8813212767154,547.60257325342241,101.37179195677733,1351.6183963359952,1402.7092465282922,-521.93345192185075,521.93345192185075,-1402.7092465282922,2341.109386105973,0.0
407154.6038362722,4625833.5216966402,-7500.0,1369.1135558948031,-157.26001673899418,2288.7303511438568,-209.72936363021341,466.31653550783449,82.877828812017583,1226.8642852635001,1188.0675897893198,-423.52496303604642,423.52496303604642,-1188.0675897893198,2131.0668838325009,0.0
412154.6038362722,4625833.5216966402,-7500.0,1435.7649261838289,-276.11920903712411,1944.1431767436297,-222.4848640513984,378.43626405074343,65.696994569746508,1091.7097422659251,1020.6330991181107,-347.67831345363419,347.67831345363419,-1020.6330991181107,1907.5935982125252,0.0
417154.6038362722,4625833.5216966402,-7500.0,1451.2632212863316,-296.77726263845136,1581.3871265704336,-217.35913140615577,294.3110147057759,50.653317393376646,957.3912830102646,896.32898906593255,-291.99212407766521,291.99212407766521,-896.32898906593255,1681.2838222886176,0.0
422154.6038362722,4625833.5216966402,-7500.0,1413.8223556416156,-253.50205359412334,1245.6538509849413,-200.33061070364346,220.01041831335715,38.081249462400962,833.77183557103001,804.60036652715598,-251.77183320853709,251.77183320853709,-804.60036652715598,1465.6017874416116,0.0
427154.6038362722,4625833.5216966402,-7500.0,1332.2750991548703,-176.5624150167327,958.56225792144664,-176.75958068120585,158.09361027214632,27.959590899028623,726.18649003657686,734.41158012999495,-222.23474937290183,222.23474937290183,-734.41158012999495,1271.1004108363743,0.0
432154.6038362722,4625833.5216966402,-7500.0,1219.901047474071,-88.350857896827293,725.84133238549725,-150.75986979092474,108.73303807639215,20.052810375745231,634.76461357538949,677.0284598637943,-199.53080556058239,199.53080556058239,-677.0284598637943,1103.6330794111095,0.0
437154.6038362722,4625833.5216966402,-7500.0,1090.1196115956106,-3.1911495396897687,544.21250869261553,-125.1123360595985,70.749713815067864,14.02665628503877,556.93347223284559,626.64087312485276,-180.97502693132978,180.97502693132978,-626.64087312485276,964.65031592014282,0.0
442154.6038362722,4625833.5216966402,-7500.0,954.20739978368806,71.129201061137564,406.32101866436278,-101.46426506036025,42.378046272734672,9.527419406792756,490.02060174354563,579.93161283704205,-164.89190675396651,164.89190675396651,-579.93161283704205,852.33399179989033,0.0
447154.6038362722,4625833.5216966402,-7500.0,820.51812343907511,131.40456120106768,303.74984031272351,-80.622813296627413,21.746396059107298,6.2275316170144297,432.0613734648299,535.33071702286338,-150.33897547165316,150.33897547165316,-535.33071702286338,762.91505600758387,0.0
452154.6038362722,4625833.5216966402,-7500.0,694.58071124421815,177.28210534441564,228.59856859686712,-62.834942596329135,7.1341861381499561,3.8463657698337368,381.66786274610411,492.32442390407448,-136.84488293378897,136.84488293378897,-492.32442390407448,691.85810501484445,0.0
457154.6038362722,4625833.5216966402,-7500.0,579.59385036975914,209.97088523213003,174.14677817976261,-48.010104235300432,-2.9196341106429453,2.1554483405647473,337.80733387813268,450.94443516606475,-124.21009251711814,124.21009251711814,-450.94443516606475,634.74839744912254,0.0
462154.6038362722,4625833.5216966402,-7500.0,477.01984865278718,231.38070998390958,135.00386666944027,-35.878612365288696,-9.5947360901944911,0.97519273052300448,299.89512133830317,411.44068592774721,-112.37372887602504,112.37372887602504,-411.44068592774721,587.81601383143175,0.0
287154.6038362722,4630833.5216966402,-7500.0,-2072.4920452285514,-1505.8812627423201,-584.54127187452491,-267.26564862716509,-163.49985558365591,-23.759646457319871,1695.9109878203656,-2101.5754553267739,869.65468367944447,-869.65468367944447,2101.5754553267739,3234.2562530083796,0.0
292154.6038362722,4630833.5216966402,-7500.0,-2207.2831553930646,-1748.6070261879167,-774.35196877112389,-300.12892855916795,-199.26404321680849,-27.535730388536471,1908.8341414112851,-2392.6123354152905,983.83143274364284,-983.83143274364284,2392.6123354152905,3639.1472561978803,0.0
297154.6038362722,4630833.5216966402,-7500.0,-2325.230856672059,-2023.5187779761266,-1017.7749659613846,-334.88368426182251,-242.40510625941536,-31.661952799161256,2148.919739421227,-2717.9336798929462,1109.5575213258851,-1109.5575213258851,2717.9336798929462,4094.8462408116775,0.0
302154.6038362722,4630833.5216966402,-7500.0,-2413.3606186456036,-2329.2588474523754,-1327.6807791257061,-370.32580512890553,-293.87943838113301,-35.988394965925195,2417.7976587437479,-3075.7264830501463,1245.2331460140667,-1245.2331460140667,3075.7264830501463,4603.954129183765,0.0
307154.6038362722,4630833.5216966402,-7500.0,-2454.5976141871383,-2660.5066153291882,-1718.3093675423702,-404.49834639772723,-354.34532621085043,-40.228837721971388,2716.028722595674,-3460.1786261187963,1387.4255678498821,-1387.4255678498821,3460.1786261187963,5166.8220925157402,0.0
312154.6038362722,4630833.5216966402,-7500.0,-2427.5693297263006,-3005.8788458458334,-2204.0208199872523,-434.46898807404051,-423.81793042594495,-43.897466820395877,3042.4021195745713,-3859.4833758890791,1530.0783299366276,-1530.0783299366276,3859.4833758890791,5780.1450605077907,0.0
317154.6038362722,4630833.5216966402,-7500.0,-2307.2204578036731,-3345.3584112105477,-2796.8171927054696,-456.14481448450795,-501.15637595981951,-46.234528308739655,3393.0032533446365,-4253.4179526908483,1663.6162115599873,-1663.6162115599873,4253.4179526908483,6435.1130353825574,0.0
322154.6038362722,4630833.5216966402,-7500.0,-2066.8703057747816,-3647.5918760526633,-3502.0752476256207,-464.22467872594001,-583.36996484707788,-46.135323426149675,3760.0678487822174,-4610.8012279079294,1774.1173849197683,-1774.1173849197683,4610.8012279079294,7115.1673637551294,0.0
327154.6038362722,4630833.5216966402,-7500.0,-1682.4697280418829,-3867.883429532113,-4311.9926861419335,-452.45001204519224,-664.79465367437263,-42.112853009500213,4130.7248574079995,-4887.5550765864982,1842.9035709435786,-1842.9035709435786,4887.5550765864982,7793.5918057866365,0.0
332154.6038362722,4630833.5216966402,-7500.0,-1139.6865087474409,-3948.4193058715118,-5196.6964665195228,-414.36435869019323,-736.31516018610409,-32.349553712868101,4485.8728920879757,-5026.6972391409336,1847.1273184627671,-1847.1273184627671,5026.6972391409336,8431.4660966041938,0.0
337154.6038362722,4630833.5216966402,-7500.0,-443.74844413274707,-3823.0315733986117,-6094.0974760935142,-344.77924892487283,-784.99930138350987,-14.912376685056991,4799.6418173714765,-4962.2528817335715,1762.1371719609924,-1762.1371719609924,4962.2528817335715,8976.9381834170126,0.0
342154.6038362722,4630833.5216966402,-7500.0,369.6393794207479,-3429.1313076360188,-6901.6500603500417,-241.98074300182736,-794.71802813288753,11.795999671840375,5040.1120384211426,-4629.3607480287874,1566.3650934267453,-1566.3650934267453,4629.3607480287874,9367.2268073742143,0.0
347154.6038362722,4630833.5216966402,-7500.0,1226.560198076178,-2728.3199625614211,-7475.9670289095238,-110.31790179309378,-748.40051980408634,48.340833743779996,5172.0909334763728,-3981.9682015691178,1248.8852469154388,-1248.8852469154388,3981.9682015691178,9535.0251439774038,0.0
352154.6038362722,4630833.5216966402,-7500.0,2017.2280869743381,-1733.3906486982171,-7648.3795723232115,37.776518184832369,-632.26789917129156,93.45820136503437,5162.5716218992602,-3016.4619225022238,818.33782725897845,-818.33782725897845,3016.4619225022238,9420.6133432546103,0.0
357154.6038362722,4630833.5216966402,-7500.0,2615.5193895994357,-532.64970167548699,-7262.9618251348957,181.77639357665575,-441.49428986952904,143.51327324847688,4988.7680699057755,-1794.0916975541629,309.76162067999007,-309.76162067999007,1794.0916975541629,8989.4697327421327,0.0
362154.6038362722,4630833.5216966402,-7500.0,2917.1547757657486,704.52771790128088,-6234.6250574599444,296.33813382665056,-185.4252518355631,192.69057190102842,4647.2538435794959,-449.22642531868689,-215.76664152835519,215.76664152835519,449.22642531868689,8252.2576979460682,0.0
367154.6038362722,4630833.5216966402,-7500.0,2885.3655419470838,1757.1941088227377,-4608.4588833523649,357.85602949820515,110.44931802987254,234.19576793779487,4161.1407282996897,830.1872173682093,-682.73606998680339,682.73606998680339,-830.1872173682093,7280.2938304093905,0.0
372154.6038362722,4630833.5216966402,-7500.0,2579.5822280797602,2419.487211721731,-2586.5112531162013,352.25918453208379,408.00379196222889,262.17010353612045,3581.671976006452,1853.105514978502,-1022.8473341907214,1022.8473341907214,-1853.105514978502,6206.4779969537676,0.0
377154.6038362722,4630833.5216966402,-7500.0,2142.4362156490961,2580.1610318727312,-491.56235692286947,280.5943715796235,665.33619151802009,273.42154820770651,2983.3050848005446,2489.5996822589041,-1198.0512489282585,1198.0512489282585,-2489.5996822589041,5200.3934024039727,0.0
382154.6038362722,4630833.5216966402,-7500.0,1742.3564101397328,2271.0262996483434,1330.9155985844341,159.48065347454889,847.94840299037492,268.07090515733358,2463.1592805668961,2715.4642556999511,-1212.6560496739821,1212.6560496739821,-2715.4642556999511,4409.3370416609596,1.0
387154.6038362722,4630833.5216966402,-7500.0,1501.563237032186,1650.9661394823468,2628.07436933496,15.91797885881831,937.78338120367482,248.94091747478853,2151.7220115997161,2610.0943260897729,-1107.2978555938193,1107.2978555938193,-2610.0943260897729,3881.4074421139717,0.0
392154.6038362722,4630833.5216966402,-7500.0,1452.9537464435271,933.0980864598049,3310.4294736658399,-121.32988020584361,936.56527543498885,220.30193200771055,2011.8852460051814,2309.9771241652834,-938.90019256590881,938.90019256590881,-2309.9771241652834,3542.1617523896393,0.0
397154.6038362722,4630833.5216966402,-7500.0,1547.8011817601207,300.33407814665583,3445.6779569633786,-230.02253681584651,862.51058386648231,186.69652881281823,1883.9197566835103,1948.7548062040753,-758.89331637431246,758.89331637431246,-1948.7548062040753,3270.9107813029382,0.0
402154.6038362722,4630833.5216966402,-7500.0,1699.0844576553336,-144.8931050730132,3194.4158750251809,-299.07574470744316,742.47283412137631,152.14073994729227,1724.8564265698633,1617.2338758908561,-600.37972259733147,600.37972259733147,-1617.2338758908561,2987.8693282431491,0.0
407154.6038362722,4630833.5216966402,-7500.0,1827.0564366540975,-383.05432787186265,2734.4127938971669,-328.40360780134455,603.3737229952186,119.67319795292558,1538.8834380957705,1355.1918445592814,-476.75595456943023,476.75595456943023,-1355.1918445592814,2672.7469597160007,0.0
412154.6038362722,4630833.5216966402,-7500.0,1884.155298044963,-449.36965504684287,2209.4765969160248,-325.35609757953347,466.26670588879199,91.189229663429074,1343.0480403628396,1165.0261299010979,-387.50095179379809,387.50095179379809,-1165.0261299010979,2340.819146036868,0.0
417154.6038362722,4630833.5216966402,-7500.0,1857.1474722043711,-400.23742564859606,1711.592036287198,-300.27175084651736,344.20062919133807,67.522727845246294,1155.5428145635913,1030.9797324083318,-325.44335021773691,325.44335021773691,-1030.9797324083318,2017.4080112609922,0.0
422154.6038362722,4630833.5216966402,-7500.0,1756.5643487098248,-289.55837339667033,1286.1554353887939,-263.06518546012751,243.02119737051623,48.698943939939895,989.08338322299846,933.6012202730808,-282.10817142445779,282.10817142445779,-933.6012202730808,1723.6628483306654,0.0
427154.6038362722,4630833.5216966402,-7500.0,1603.8841759737838,-157.89559696908174,946.33534526120889,-221.47334936079733,163.50532939729533,34.243503491777538,848.07787537660215,856.99838420826177,-250.42045178295666,250.42045178295666,-856.99838420826177,1471.7925420838662,0.0
432154.6038362722,4630833.5216966402,-7500.0,1422.0242818882857,-30.799246115206564,687.23462249112401,-180.65503337291588,103.56325475778962,23.453014878467915,730.49212081898168,790.76726615095617,-225.46678683098838,225.46678683098838,-790.76726615095617,1265.3822642484079,0.0
437154.6038362722,4630833.5216966402,-7500.0,1230.2555451828396,78.439333899866568,496.13082981259822,-143.54159117180532,59.904225255861874,15.583364000246164,632.08889098851535,729.25904363201175,-204.2641890351785,204.2641890351785,-729.25904363201175,1101.672835865701,0.0
442154.6038362722,4630833.5216966402,-7500.0,1042.5018570755603,164.89961413485975,358.55094270683128,-111.4444998641784,29.064531965337284,9.9558593904787607,549.05209659818456,670.06077276660574,-185.21192023833794,185.21192023833794,-670.06077276660574,974.21703448837241,0.0
447154.6038362722,4630833.5216966402,-7500.0,867.56662713093408,228.61732361540768,261.25939671884385,-84.639641707464193,7.9290147547317691,6.0022437784997233,478.52825195503686,612.60383373938225,-167.56602489217303,167.56602489217303,-612.60383373938225,875.21813615840188,0.0
452154.6038362722,4630833.5216966402,-7500.0,710.16188314350518,272.12919741710493,193.36290765147041,-62.819094398253114,-6.0741392344239333,3.2721326875101151,418.47992416109798,557.18086913663171,-151.05058022627134,151.05058022627134,-557.18086913663171,797.22437442283319,0.0
457154.6038362722,4630833.5216966402,-7500.0,572.08611436597891,298.92361182983177,146.43366040122297,-45.397984160128971,-14.957503240594681,1.4217175191028619,371.00693525688473,504.35728893143687,-135.60987004846092,135.60987004846092,-504.35728893143687,734.06624579924699,0.0
462154.6038362722,4630833.5216966402,-7500.0,453.24918357564081,312.56838609027824,114.20672473495752,-31.7027598427483,-20.24016615218914,0.19536425862469969,356.69081264107405,454.66915608049976,-121.26778445327122,121.26778445327122,-454.66915608049976,681.13452935367877,0.0
467154.6038362722,4630833.5216966402,-7500.0,352.45264544478829,316.28265785116361,92.150799290959014,-21.075648294490577,-23.039597218263065,-0.59342884366253013,343.05906766902797,408.49888497466725,-108.0572655688508,108.0572655688508,-408.49888497466725,635.23949319304711,0.0
282154.6038362722,4635833.5216966402,-7500.0,-2168.7241744939361,-1282.5396663886368,-314.40797593919484,-261.34744199404497,-129.67014617557928,-22.105690084418082,1597.6137005405999,-1887.7990743810615,803.31704585794375,-803.31704585794375,1887.7990743810615,3042.371531945505,0.0
287154.6038362722,4635833.5216966402,-7500.0,-2362.274801742818,-1513.6690465960546,-445.64553789812169,-298.04172534340159,-160.23721884569008,-25.916902244085819,1809.399568040888,-2174.2472535939605,920.14249933904534,-920.14249933904534,2174.2472535939605,3445.4608553135877,0.0
292154.6038362722,4635833.5216966402,-7500.0,-2557.582035413001,-1785.4804513272747,-620.23841319539758,-338.77782399729551,-198.05123076526692,-30.221551472302217,2052.5280675828385,-2505.0877601483598,1053.5340683159884,-1053.5340683159884,2505.0877601483598,3907.7219770680172,0.0
297154.6038362722,4635833.5216966402,-7500.0,-2745.4567237634187,-2102.2549317349008,-851.39641803751783,-383.09497357293009,-244.55066559357903,-34.939013069442517,2330.7979103480152,-2884.2027139662096,1204.2596968116898,-1204.2596968116898,2884.2027139662096,4436.0584365389241,0.0
302154.6038362722,4635833.5216966402,-7500.0,-2912.1664734098399,-2466.5053236558497,-1155.5532609828633,-429.89540618606549,-301.19721266147434,-39.864443835812352,2647.7136373222725,-3313.5105551810898,1371.9675141046223,-1371.9675141046223,3313.5105551810898,5036.647717513134,0.0
307154.6038362722,4635833.5216966402,-7500.0,-3038.156846891648,-2877.1821176674985,-1552.4274129143148,-477.13262441263259,-369.24444766399182,-44.590168653789405,3005.9333726676032,-3791.2064326517047,1554.3890047621633,-1554.3890047621633,3791.2064326517047,5713.8187848860371,0.0
312154.6038362722,4635833.5216966402,-7500.0,-3096.9114072716793,-3326.973648953553,-2064.3608169975423,-521.43177115074093,-449.32196420201922,-48.395435042238034,3406.4201785155792,-4309.1698836178066,1746.2217883428857,-1746.2217883428857,4309.1698836178066,6468.3435537053128,0.0
317154.6038362722,4635833.5216966402,-7500.0,-3054.4621374284734,-3798.536696974295,-2714.2774416446023,-557.69266491826488,-540.75568676677108,-50.104032888777162,3847.2137811814564,-4849.402733500523,1937.682527724586,-1937.682527724586,4849.402733500523,7294.9854817089335,0.0
322154.6038362722,4635833.5216966402,-7500.0,-2870.4475530813652,-4259.7505810997181,-3521.2977683773879,-578.80218857107377,-640.55667810476382,-47.925349860519731,4321.7726247430301,-5379.5909125133257,2112.8502347240687,-2112.8502347240687,5379.5909125133257,8179.2222312201347,0.0
327154.6038362722,4635833.5216966402,-7500.0,-2502.0620699946589,-4658.6873223833254,-4492.8044034172062,-575.69891717034864,-742.08086250927749,-39.326829488241231,4816.9263760507529,-5848.4035912756817,2248.175960612728,-2248.175960612728,5848.4035912756817,9093.2520945262895,0.0
332154.6038362722,4635833.5216966402,-7500.0,-1912.5335292779964,-4920.1125311537708,-5611.887060862914,-538.17110797111616,-833.54368247861532,-21.038936972791934,5310.6731958305991,-6182.1011058748454,2311.9562105917894,-2311.9562105917894,6182.1011058748454,9991.7999949058922,0.0
337154.6038362722,4635833.5216966402,-7500.0,-1085.3930677229023,-4947.0038144677028,-6820.1922722331819,-456.84980485113545,-896.91508470142605,10.638469870663616,5770.3850957323357,-6285.4383078975479,2266.1057477119975,-2266.1057477119975,6285.4383078975479,10808.921005285754,0.0
342154.6038362722,4635833.5216966402,-7500.0,-43.904884976182046,-4632.3217189558727,-7999.0925909596353,-326.70484211857985,-908.19372262840307,59.019289270221158,6152.438117805993,-6051.3327422220063,2071.9602251732945,-2071.9602251732945,6051.3327422220063,11457.934157057938,0.0
347154.6038362722,4635833.5216966402,-7500.0,1129.2770963313963,-3886.5462980267398,-8957.3667370545154,-151.71624457397482,-840.43048913602104,125.57821173886437,6404.7325462827785,-5384.0750298705398,1701.4713411155838,-1701.4713411155838,5384.0750298705398,11837.550091365611,0.0
352154.6038362722,4635833.5216966402,-7500.0,2283.5978742723064,-2682.3729730982691,-9440.232836753903,50.832890170342083,-670.5831267557204,208.07019983029195,6473.7100770989045,-4237.6554977233754,1153.1066745003775,-1153.1066745003775,4237.6554977233754,11847.576039647503,0.0
357154.6038362722,4635833.5216966402,-7500.0,3219.5814590958853,-1106.2979983020969,-9177.5832527901166,249.33810274962417,-389.64745209545345,299.03730195762989,6316.6999490907656,-2661.4951257574412,467.50259502254062,-467.50259502254062,2661.4951257574412,11416.062095372921,0.0
362154.6038362722,4635833.5216966402,-7500.0,3746.8776979735735,610.86038884833545,-7979.0492734190029,403.11873868385089,-12.572551738152253,386.0386499178536,5918.2508601931777,-831.54051758893468,-267.01135946901525,267.01135946901525,831.54051758893468,10535.230837948428,0.0
367154.6038362722,4635833.5216966402,-7500.0,3770.3296206488258,2123.3195751708522,-5852.2105916524624,474.31413791149771,417.94945037955563,454.59469056691131,5305.6587922294984,964.92975530819444,-929.66756779593675,929.66756779593675,-964.92975530819444,9295.4833416166366,0.0
372154.6038362722,4635833.5216966402,-7500.0,3359.0030767707754,3079.8296281939229,-3078.9896643369698,442.14481338431176,838.53069903438632,493.13582015665918,4556.4024723535949,2409.6708742237493,-1404.9699567043194,1404.9699567043194,-2409.6708742237493,7896.9894260920319,0.0
377154.6038362722,4635833.5216966402,-7500.0,2739.0226600753717,3277.3258710000509,-174.08166075270927,312.22912992900854,1182.0152876190903,497.21941866096682,3793.7090844219906,3275.3265629620155,-1627.4818075064095,1627.4818075064095,-3275.3265629620155,6609.6738158275102,0.0
382154.6038362722,4635833.5216966402,-7500.0,2190.6552045462445,2766.0235467433026,2291.9607206158548,115.74174798481499,1397.2027119234344,470.25608150346937,3181.4609458967002,3519.5940167392205,-1606.9505744004532,1606.9505744004532,-3519.5940167392205,5656.2969658489101,0.0
387154.6038362722,4635833.5216966402,-7500.0,1907.8250937441596,1823.3136287312757,3917.3955294056809,-101.15694158655988,1462.9483736123807,420.71051380122219,2855.2988894833738,3285.2898090250696,-1416.4354993758375,1416.4354993758375,-3285.2898090250696,5065.8774543279887,0.0
392154.6038362722,4635833.5216966402,-7500.0,1918.4872746843257,807.6598999705667,4601.3527730002688,-292.73851608619805,1391.572827826403,358.39403327074604,2676.6097540356068,2806.7474338539191,-1152.3474986056904,1152.3474986056904,-2806.7474338539191,4673.3964521961425,0.0
397154.6038362722,4635833.5216966402,-7500.0,2113.2667153513439,-3.0631693711644541,4512.062052989022,-427.5079557084411,1220.9623039585033,292.08462990057058,2478.3879602927741,2293.916499387878,-894.01368080961356,894.01368080961356,-2293.916499387878,4296.5253990256433,0.0
402154.6038362722,4635833.5216966402,-7500.0,2339.0703045378013,-489.23913327651701,3945.7409626923081,-494.69684239745317,999.28034385311219,228.57942132180682,2226.312908635025,1867.4245856460821,-684.41566539900111,684.41566539900111,-1867.4245856460821,3856.7278165996208,0.0
407154.6038362722,4635833.5216966402,-7500.0,2480.3186572598756,-668.76906896631442,3185.8799118332431,-501.66331765573824,769.70622184915476,172.38539065287344,1939.7699494670303,1560.1638847681784,-533.51142822945428,533.51142822945428,-1560.1638847681784,3365.5398374774086,0.0
412154.6038362722,4635833.5216966402,-7500.0,2488.5151867165732,-629.97359149154886,2429.3652735828286,-465.6804856226384,561.57984364311051,125.7383750537157,1651.5460275850105,1353.4824867537016,-432.19663087117789,432.19663087117789,-1353.4824867537016,2869.450437827652,0.0
417154.6038362722,4635833.5216966402,-7500.0,2370.0588697003313,-471.56739054956563,1778.377469303485,-405.60759947204826,389.23990694934258,88.985848627860463,1389.0030017107574,1212.8172718757271,-365.39097478155486,365.39097478155486,-1212.8172718757271,2412.242862720927,0.0
422154.6038362722,4635833.5216966402,-7500.0,2159.6154740424286,-270.898666674195,1265.635069780714,-336.78767409576017,255.64233330225301,61.22507122379578,1165.9280226304952,1107.9038526448298,-319.5584799755726,319.5584799755726,-1107.9038526448298,2020.6480218111474,0.0
427154.6038362722,4635833.5216966402,-7500.0,1897.8759902644226,-76.291498117900517,884.82300044789463,-269.41688975561073,157.16092854921914,40.951824990982665,982.95380975379794,1019.0737063207723,-285.23774096674606,285.23774096674606,-1019.0737063207723,1703.7010800487233,0.0
432154.6038362722,4635833.5216966402,-7500.0,1619.3310777817182,88.210761572489716,613.32563702453001,-209.06286893376455,87.453562467568133,26.542154093079489,833.87528215424732,936.2107406504515,-256.83601870142456,256.83601870142456,-936.2107406504515,1457.4219775640038,0.0
437154.6038362722,4635833.5216966402,-7500.0,1348.2263211905579,214.71766993400945,425.36364087263814,-157.97364541212048,39.837389032310107,16.526267551707537,711.60692362146176,855.51047604636096,-231.50647702996781,231.50647702996781,-855.51047604636096,1270.4579421135563,0.0
442154.6038362722,4635833.5216966402,-7500.0,1099.068332223831,304.36025285483362,298.01827415620926,-116.37051944158748,8.4328566461274246,9.6989508465610061,610.51111062085624,776.51965153812091,-208.0375105504894,208.0375105504894,-776.51965153812091,1128.9431170593218,0.0
447154.6038362722,4635833.5216966402,-7500.0,878.87660203380653,362.38046253309022,213.13299690456304,-83.4210289196795,-11.464244715172898,5.1314994483220131,526.94307106190365,700.15617220199192,-186.05548740321996,186.05548740321996,-700.15617220199192,1019.8946648056993,0.0
452154.6038362722,4635833.5216966402,-7500.0,689.62629230407299,395.23421315184561,157.2435306000452,-57.864595790003001,-23.405838602204565,2.1372101118477609,479.06143267620592,627.6174127685581,-165.54295941364211,165.54295941364211,-627.6174127685581,932.94372327132703,0.0
457154.6038362722,4635833.5216966402,-7500.0,530.25526503068249,409.10830185448413,120.77553571620358,-38.368330618305052,-29.973000660531969,0.22248318747203197,459.08000996185592,559.88819100545879,-146.58513213653598,146.58513213653598,-559.88819100545879,860.6921953514086,0.0
462154.6038362722,4635833.5216966402,-7500.0,398.09755937491218,409.29589849337452,97.111811363270078,-23.703903416148332,-32.991525028137602,-0.96052518884634597,437.64274431301942,497.58667036763745,-129.2554619809755,129.2554619809755,-497.58667036763745,798.27897638127547,0.0
467154.6038362722,4635833.5216966402,-7500.0,289.81570662288453,400.03748291279737,81.771466290149604,-12.818104134217966,-33.727203631991578,-1.6534885114750963,414.9115077763696,440.97358437308213,-113.57645844883388,113.57645844883388,-440.97358437308213,742.69351535251951,0.0
282154.6038362722,4640833.5216966402,-7500.0,-2404.3945668091869,-1235.5486953779125,-174.61624374102519,-284.80391940143119,-121.49265518804309,-23.692939433707284,1680.4070010800488,-1898.9139557605445,827.91470250636576,-827.91470250636576,1898.9139557605445,3193.5212032271425,0.0
287154.6038362722,4640833.5216966402,-7500.0,-2655.6957293318815,-1479.7879276839062,-282.2576086102913,-328.26455916507507,-152.24375569992799,-27.937373387994572,1916.2710478072959,-2209.6509883606041,958.2188864116772,-958.2188864116772,2209.6509883606041,3641.9259897344023,0.0
292154.6038362722,4640833.5216966402,-7500.0,-2921.521794896908,-1774.0346612144997,-431.30627251187497,-377.56926728049183,-190.97398385547825,-32.750437602754111,2190.5958379183617,-2575.945416170779,1110.1410563756735,-1110.1410563756735,2575.945416170779,4163.0752825260925,0.0
297154.6038362722,4640833.5216966402,-7500.0,-3194.3287802739846,-2126.5802961486283,-636.50248621462288,-432.59313230900818,-239.53335487267304,-38.021233108535085,2509.2353530323185,-3005.7802455909832,1286.0376592204796,-1286.0376592204796,3005.7802455909832,4767.8125648091955,0.0
302154.6038362722,4640833.5216966402,-7500.0,-3461.3021700487279,-2545.1874524467394,-917.25566984640045,-492.5121422747909,-299.94150392280039,-43.46146851262607,2878.2400275863888,-3506.2971503233484,1487.4565774141292,-1487.4565774141292,3506.2971503233484,5467.1929574274372,0.0
307154.6038362722,4640833.5216966402,-7500.0,-3702.2308211711329,-3035.3420559034162,-1298.5233953581733,-555.36614666216087,-374.15776646809815,-48.47927696002143,3303.3237804361106,-4082.0283129588156,1714.2337402106928,-1714.2337402106928,4082.0283129588156,6271.3906734508137,0.0
312154.6038362722,4640833.5216966402,-7500.0,-3887.056576202318,-3597.2471788455182,-1811.2329105744082,-617.46811369103398,-463.60770656056633,-51.988780442116436,3788.9436008159973,-4731.9557576465595,1963.0840220855468,-1963.0840220855468,4731.9557576465595,7187.8385574030581,0.0
317154.6038362722,4640833.5216966402,-7500.0,-3973.5452999277422,-4221.04096231315,-2491.4880722112816,-672.68733801109965,-568.32265983130458,-52.141680868811285,4336.8287682495993,-5444.9473690459608,2225.5478472132818,-2225.5478472132818,5444.9473690459608,8218.2852536977862,0.0
322154.6038362722,4640833.5216966402,-7500.0,-3906.0999823013108,-4879.8099047287506,-3377.2260315052067,-711.73990380299756,-685.52577441282392,-45.987384057061163,4943.7932309909647,-6193.2071530538178,2485.2552055162887,-2485.2552055162887,6193.2071530538178,9354.4564716299519,0.0
327154.6038362722,4640833.5216966402,-7500.0,-3617.6254107363479,-5520.4869596782592,-4500.2453208548432,-721.81790433815979,-807.54768491293044,-29.122325345513833,5598.731891615007,-6923.8337255552142,2714.7615978770323,-2714.7615978770323,6923.8337255552142,10572.154389598743,0.0
332154.6038362722,4640833.5216966402,-7500.0,-3037.438930563791,-6054.0917930656096,-5870.8877319719522,-687.19019484631644,-919.18381020775803,4.4981111283620905,6278.9096984339067,-7549.7478166067785,2872.8300374844357,-2872.8300374844357,7549.7478166067785,11824.062583548772,0.0
337154.6038362722,4640833.5216966402,-7500.0,-2108.9279061393768,-6349.4829972077177,-7452.9210405235344,-591.72551649169566,-995.16423672328722,62.229940458492869,6946.0930528381969,-7943.5307887673926,2904.0774075489253,-2904.0774075489253,7943.5307887673926,13032.425617333207,0.0
342154.6038362722,4640833.5216966402,-7500.0,-819.53082144060033,-6238.9453797285114,-9128.9722168441094,-424.31460477406119,-999.39321713498225,151.34040843764998,7543.8103333184017,-7941.1888868433525,2744.202978885874,-2744.202978885874,7941.1888868433525,14084.268253919148,0.0
347154.6038362722,4640833.5216966402,-7500.0,759.79931834076808,-5548.0732083173207,-10664.643803600247,-187.27352942637651,-888.75459697400811,275.98167506898602,7998.0194629338448,-7366.3959780560499,2334.7025381553603,-2334.7025381553603,7366.3959780560499,14833.841387563787,0.0
352154.6038362722,4640833.5216966402,-7500.0,2440.5788016580641,-4161.5665958430691,-11693.728056808703,94.662448423097857,-624.43281504946219,432.62899493325835,8224.36694432892,-6085.4635007622819,1649.0330552955197,-1649.0330552955197,6085.4635007622819,15118.930373040499,0.0
357154.6038362722,4640833.5216966402,-7500.0,3919.545450557011,-2121.4107812517218,-11763.111840017085,370.70725278492483,-190.81319718763791,605.73288485337594,8145.1975544145089,-4091.7464428417647,725.03023471423649,-725.03023471423649,4091.7464428417647,14797.98494255154,0.0
362154.6038362722,4640833.5216966402,-7500.0,4855.3601565467161,282.83397920153362,-10474.946764861046,573.09392008836494,384.89893100010596,767.39892263265369,7717.0002178365867,-1589.1568516108605,-313.75410329240981,313.75410329240981,1589.1568516108605,13810.495053407116,0.0
367154.6038362722,4640833.5216966402,-7500.0,5024.2987911200826,2514.8584479358478,-7714.3748263006391,640.50898746042446,1025.967486209172,884.7677764429136,6962.7529415461595,991.24596508791637,-1273.2772074371665,1273.2772074371665,-991.24596508791637,12249.06160504848,0.0
372154.6038362722,4640833.5216966402,-7500.0,4481.072439358476,3960.025473419325,-3849.0891915231514,545.40923480166805,1623.0182821377457,933.70481721392366,5995.4182730191769,3107.3784009487281,-1953.6712969764724,1953.6712969764724,-3107.3784009487281,10405.077999212806,0.0
377154.6038362722,4640833.5216966402,-7500.0,3586.6880975559534,4226.7382647774584,285.22359555818662,307.79053167466185,2069.1890796844341,909.98523943008013,5017.3882246291632,4339.6455691327747,-2238.0923656360328,2238.0923656360328,-4339.6455691327747,8715.0531285572506,0.0
382154.6038362722,4640833.5216966402,-7500.0,2824.275957535318,3386.7833210785998,3706.3608722451677,-12.70243682054817,2293.7892384945781,828.67000544230746,4282.8456206770716,4601.0406301625735,-2146.9077215108737,2146.9077215108737,-4601.0406301625735,7531.0428147931107,0.0
387154.6038362722,4640833.5216966402,-7500.0,2512.0919523852831,1939.6548036546164,5747.1280410973932,-338.57036492224086,2279.5422214695923,713.04345641170551,3898.5714450734176,4152.8583203645539,-1814.0256647592551,1814.0256647592551,-4152.8583203645539,6836.7851335530386,0.0
392154.6038362722,4640833.5216966402,-7500.0,2648.2400678852005,505.99425681494591,6318.8471348081302,-599.31310052961544,2062.5730459071506,584.09689929162971,3633.3338650078886,3408.5577137022528,-1404.9041748794232,1404.9041748794232,-3408.5577137022528,6318.1440005964387,0.0
397154.6038362722,4640833.5216966402,-7500.0,2998.2167177650185,-494.85988859482558,5804.9253122823593,-752.75131470869064,1717.0006977958378,457.18949736065946,3302.2374396068553,2699.5286961908992,-1040.5162645448545,1040.5162645448545,-2699.5286961908992,5722.3414918970257,0.0
402154.6038362722,4640833.5216966402,-7500.0,3299.78068510506,-955.0088579204911,4744.9345734266171,-794.17031069435609,1327.0909890378923,342.76838431403917,2887.6183671150961,2173.3569290034493,-771.28781662512915,771.28781662512915,-2173.3569290034493,5001.7482958566361,0.0
407154.6038362722,4640833.5216966402,-7500.0,3401.6016948963943,-985.12833295689279,3576.54178582433,-748.06051078549865,960.05170586697727,246.91331894778446,2440.6035071424708,1832.2822358891713,-594.55678903530918,594.55678903530918,-1832.2822358891713,4229.6405486145559,0.0
412154.6038362722,4640833.5216966402,-7500.0,3279.910974554914,-766.87021924457883,2546.9149572250935,-650.18804267473081,653.44347068499542,171.54790721090288,2018.1848346418185,1617.5570794723521,-484.83341761185204,484.83341761185204,-1617.5570794723521,3497.7499555025674,0.0
417154.6038362722,4640833.5216966402,-7500.0,2987.6907616768817,-455.77080976187824,1744.3522427819662,-532.57431575387193,418.20439202118729,115.3410775938702,1655.6514232794441,1468.9789668374272,-415.3626641669166,415.3626641669166,-1468.9789668374272,2867.7085656105423,0.0
422154.6038362722,4640833.5216966402,-7500.0,2600.0057598536541,-149.72868355574201,1165.2962669962487,-416.94895842684224,248.77434539243731,75.157592903125163,1361.8946533577989,1346.9299130435379,-366.87425459281951,366.87425459281951,-1346.9299130435379,2363.3212486911411,0.0
427154.6038362722,4640833.5216966402,-7500.0,2181.976095086934,104.48948920969335,768.65867752063446,-314.83956775466385,132.6298329731618,47.367276611448546,1128.7432900710198,1232.1290500242344,-328.21612682191568,328.21612682191568,-1232.1290500242344,1979.9088731526922,0.0
432154.6038362722,4640833.5216966402,-7500.0,1778.0670288943086,293.39107092762697,506.73143233378306,-230.44553085144756,56.305077556354647,28.648243614610269,943.31529624321172,1118.3877691762627,-294.02569754838589,294.02569754838589,-1118.3877691762627,1696.9746860804751,0.0
437154.6038362722,4640833.5216966402,-7500.0,1413.1737861417439,420.86528723184745,338.35935373244081,-163.6980944168811,8.1818369365157402,16.315650960808057,794.72728653257536,1005.9080721949539,-262.24947182569429,262.24947182569429,-1005.9080721949539,1488.9762341689789,0.0
442154.6038362722,4640833.5216966402,-7500.0,1097.8153936967697,497.76285877980672,232.3582890975209,-112.51118627950628,-20.722298728549074,8.3565603423856984,679.76975149072223,897.06474364728706,-232.40694731998906,232.40694731998906,-897.06474364728706,1332.5257201382794,0.0
447154.6038362722,4640833.5216966402,-7500.0,833.47569372095893,536.23692762165751,166.74071343547459,-74.142796710843058,-36.917157343747704,3.332647393727143,634.4865726585117,794.3185655580578,-204.6055033883091,204.6055033883091,-794.3185655580578,1209.7180761405996,0.0
452154.6038362722,4640833.5216966402,-7500.0,616.69715420426019,547.18462830987119,126.68146453874894,-45.898775274584679,-44.928678030828458,0.24818366925384261,601.92577196978618,699.43402839532087,-179.06653766517775,179.06653766517775,-699.43402839532087,1108.4511470387317,0.0
457154.6038362722,4640833.5216966402,-7500.0,441.78796719378238,539.40171786666497,102.48046883114507,-25.433262746996707,-47.814855850556782,-1.5716502033721773,567.81455087043639,613.35040748180666,-155.94003237875788,155.94003237875788,-613.35040748180666,1021.2365346598442,0.0
462154.6038362722,4640833.5216966402,-7500.0,302.43183150138032,519.55814052809137,87.92828403265284,-10.831685194583368,-47.598290907326195,-2.577534861979498,532.87907554779497,536.31529863193725,-135.25955186451631,135.25955186451631,-536.31529863193725,943.70951389784159,0.0
467154.6038362722,4640833.5216966402,-7500.0,192.55173127870373,492.49973739271087,79.119411406164758,-0.59094141992287774,-45.593168045568142,-3.0672975455132292,498.07659123072068,468.08522188372086,-116.95527578553646,116.95527578553646,-468.08522188372086,873.41250731100604,0.0
472154.6038362722,4640833.5216966402,-7500.0,106.71172945007272,461.63089684971669,73.636880669772012,6.4402323298949167,-42.638842786698255,-3.2360937229068183,464.15363662724928,408.11048763561433,-100.88434791234704,100.88434791234704,-408.11048763561433,808.97086419470224,0.0
277154.6038362722,4645833.5216966402,-7500.0,-2344.1896688400311,-947.3576957418195,28.369076309344674,-263.00952354360305,-86.049208462484742,-21.091537496012943,1532.4474484528148,-1598.3623752421138,719.0935295417728,-719.0935295417728,1598.3623752421138,2904.5358283170021,0.0
282154.6038362722,4645833.5216966402,-7500.0,-2625.5179116357594,-1148.4245243243338,-22.91424314913154,-306.09795925965057,-109.20336731046834,-25.074141660273256,1752.8350934514342,-1870.9068473656921,837.87853243807979,-837.87853243807979,1870.9068473656921,3322.8647027958114,0.0
287154.6038362722,4645833.5216966402,-7500.0,-2938.5038328296873,-1396.4747110344667,-99.654377803784172,-356.3696369571461,-138.92430816499197,-29.708984298742017,2012.0155539576567,-2198.2547181088266,979.2876705058577,-979.2876705058577,2198.2547181088266,3814.6881561820301,0.0
292154.6038362722,4645833.5216966402,-7500.0,-3282.3475132991371,-1702.426246669381,-212.61732364018735,-414.53179852657001,-177.04180533899446,-34.97122905433735,2317.2660568464007,-2591.6176313836331,1147.4014253964615,-1147.4014253964615,2591.6176313836331,4393.6811179669012,0.0
297154.6038362722,4645833.5216966402,-7500.0,-3652.9537496686153,-2078.9963551502092,-376.91750448225127,-480.94246829524604,-225.77547753494551,-40.701824692199672,2676.9407721515995,-3063.7225740809104,1346.5333327004969,-1346.5333327004969,3063.7225740809104,5075.4731230384223,0.0
302154.6038362722,4645833.5216966402,-7500.0,-4040.8722473112275,-2540.2508136497836,-613.58081105193537,-555.24619628988648,-287.68627181743955,-46.488292083056365,3100.3433561126399,-3628.243409620819,1580.7777550875644,-1580.7777550875644,3628.243409620819,5877.3565167650386,0.0
307154.6038362722,4645833.5216966402,-7500.0,-4428.3605632274439,-3100.3430199673585,-951.42804483141799,-635.79775775871565,-365.47129915519719,-51.464503192898071,3597.3363680762932,-4298.4360957272675,1853.133666942967,-1853.133666942967,4298.4360957272675,6817.4710354547715,0.0
312154.6038362722,4645833.5216966402,-7500.0,-4785.4419088053764,-3770.8118182331045,-1429.0513802527096,-718.80547205290463,-461.45613096348279,-53.987741347773216,4177.5061984969661,-5084.406193128154,2163.9523606263474,-2163.9523606263474,5084.406193128154,7913.1120599246196,0.0
317154.6038362722,4645833.5216966402,-7500.0,-5065.0983939087992,-4555.506164802463,-2096.2400221401749,-797.16105079969032,-576.55255943954899,-51.144675773141735,4848.6296750451584,-5988.1840377719145,2508.384396406906,-2508.384396406906,5988.1840377719145,9177.6728250828583,0.0
322154.6038362722,4645833.5216966402,-7500.0,-5198.3873480750126,-5441.9347438580089,-3013.4156324223381,-859.04638779640425,-708.35591899351618,-38.053656332796699,5614.1203796465052,-6995.5629079606251,2872.4948008693236,-2872.4948008693236,6995.5629079606251,10615.606894137058,0.0
327154.6038362722,4645833.5216966402,-7500.0,-5091.5548087866964,-6387.9009723219751,-4246.3023432587124,-886.70487540606234,-848.02598958381759,-7.0067362589048905,6469.1279483311,-8063.7214937839635,3227.9261922366281,-3227.9261922366281,8063.7214937839635,12214.801323793161,0.0
332154.6038362722,4645833.5216966402,-7500.0,-4629.3529419022916,-7303.3266656862179,-5851.1727993193108,-856.33013722381509,-975.80772912666453,53.298267570223345,7395.1120397516743,-9104.530403957202,3525.6855507288401,-3525.6855507288401,9104.530403957202,13936.056457557774,0.0
337154.6038362722,4645833.5216966402,-7500.0,-3691.506560382415,-8030.3672439323755,-7844.1884740295682,-740.8544459401005,-1055.8566800198257,157.75715764970744,8353.1640915011212,-9966.0777005332802,3691.2000034958432,-3691.2000034958432,9966.0777005332802,15700.250195564469,0.0
342154.6038362722,4645833.5216966402,-7500.0,-2191.071762109334,-8331.7636453888881,-10148.68356429636,-518.09855073257984,-1032.9035366308499,322.75073837476089,9277.2568775409327,-10420.550218510716,3625.4944964254887,-3625.4944964254887,10420.550218510716,17375.491836415473,0.0
347154.6038362722,4645833.5216966402,-7500.0,-140.05061932229955,-7908.3424963815869,-12521.567623871069,-185.93231902133792,-836.25872534604628,560.05615405724245,10070.057110333604,-10175.689807133407,3220.5516541166739,-3220.5516541166739,10175.689807133407,18769.332388681505,0.0
352154.6038362722,4645833.5216966402,-7500.0,2268.6323295641778,-6477.132427718092,-14482.235639688757,218.56185327391674,-398.79905062379254,865.75058862777712,10605.937292321834,-8936.4193451146439,2397.5223495828873,-2397.5223495828873,8936.4193451146439,19635.18096279079,0.0
357154.6038362722,4645833.5216966402,-7500.0,4609.5677414310176,-3934.5026305809838,-15309.540475937969,608.33334328989213,305.74552054786403,1207.3066418078968,10748.18147123933,-6539.8633893476435,1167.5867998000144,-1167.5867998000144,6539.8633893476435,19708.065047790813,0.0
362154.6038362722,4645833.5216966402,-7500.0,6292.2381882671834,-571.23323271759091,-14213.245891349423,863.44771765852261,1220.8185947960708,1519.6283017224548,10388.401240459778,-3144.2990893373203,-309.64642157709068,309.64642157709068,3144.2990893373203,18790.283357306322,0.0
367154.6038362722,4645833.5216966402,-7500.0,6818.5921745169126,2812.9231368160504,-10744.359991340685,882.9731806955192,2195.4618310696733,1723.8101223016979,9509.7603604676569,643.03082320341412,-1725.6546305209267,1725.6546305209267,-643.03082320341412,16895.89808357905,0.0
372154.6038362722,4645833.5216966402,-7500.0,6144.036273071998,5123.0798975682001,-5289.7454748394985,642.32749934600338,3031.8499631988379,1767.5093023656134,8254.009523277442,3887.340552618869,-2728.3852720055565,2728.3852720055565,-3887.340552618869,14401.286003172983,0.0
377154.6038362722,4645833.5216966402,-7500.0,4836.107652186216,5557.8211990630189,783.98929633896137,206.32888022961833,3567.9992576027757,1657.0424519405778,6942.9466217785739,5766.2367177666765,-3100.3240452655245,3100.3240452655245,-5766.2367177666765,12026.299124599038,0.0
382154.6038362722,4645833.5216966402,-7500.0,3759.0010763382243,4188.2098908035323,5700.217513201761,-310.59804859784958,3728.9805608075808,1446.9276003357343,5972.3443083047659,6065.6038969150031,-2879.9548197191993,2879.9548197191993,-6065.6038969150031,10403.405587995218,0.0
387154.6038362722,4645833.5216966402,-7500.0,3458.8117729092723,1944.4596615404212,8279.8552874081488,-788.74585113248781,3523.5516917402274,1197.0721482883021,5438.0686115169028,5271.825660009803,-2315.4369345019836,2315.4369345019836,-5271.825660009803,9471.9191085672937,0.0
392154.6038362722,4645833.5216966402,-7500.0,3836.9635580108202,-61.508935499654243,8517.9290340285352,-1127.5528630879019,3030.1019502022309,945.28580262204559,4995.7174522147925,4140.8389483216561,-1692.66677407255,1692.66677407255,-4140.8389483216561,8670.5888888756181,0.0
397154.6038362722,4645833.5216966402,-7500.0,4403.0246359750199,-1212.5173952943001,7259.7735378696661,-1273.3720051547723,2382.1400246287185,711.97153599469345,4419.0448637581212,3195.9111803053079,-1191.7193456548098,1191.7193456548098,-3195.9111803053079,7656.8986246768382,0.0
402154.6038362722,4645833.5216966402,-7500.0,4728.9127376625092,-1502.67565374682,5473.8009466843077,-1238.952913966506,1723.6227240066059,510.90721875151814,3731.8231604277789,2584.5398352175862,-859.73240514360509,859.73240514360509,-2584.5398352175862,6463.7537694774082,0.0
407154.6038362722,4645833.5216966402,-7500.0,4660.368959777792,-1242.1680229334227,3797.5819080267484,-1084.7003299715479,1156.1561628161046,350.18369860763028,3042.5870671304619,2229.8910479137548,-663.85606707899024,663.85606707899024,-2229.8910479137548,5269.9227960057497,0.0
412154.6038362722,4645833.5216966402,-7500.0,4259.4806144968006,-757.91877430978604,2490.8090054707773,-879.23663598681173,720.81094814604148,230.35921527725023,2437.7791089064035,2009.0444341670348,-551.17239642165555,551.17239642165555,-2009.0444341670348,4223.3902190709678,0.0
417154.6038362722,4645833.5216966402,-7500.0,3668.5270445454307,-264.38264177498183,1575.969596600047,-672.95763024673863,413.76305397855731,146.01446775633343,1950.7051365915663,1836.1281985164651,-480.09709141791291,480.09709141791291,-1836.1281985164651,3390.8320001436837,0.0
422154.6038362722,4645833.5216966402,-7500.0,3018.0969088688735,138.86095510956099,978.14996607005628,-492.63624873731339,210.4709497095532,89.213016707129896,1573.6084374108725,1671.3078474165054,-426.63137197962305,426.63137197962305,-1671.3078474165054,2771.9648660936123,0.0
427154.6038362722,4645833.5216966402,-7500.0,2394.9790086990279,426.33642083530623,605.48982365842244,-347.33946685553758,82.680449252228328,52.220858369955337,1283.4893202931212,1504.0543882503803,-379.8541158527911,379.8541158527911,-1504.0543882503803,2329.4156859811601,0.0
432154.6038362722,4645833.5216966402,-7500.0,1844.042038703773,608.52528115613381,381.11937996904726,-236.20592606535021,6.2635314090915379,28.758657729391803,1060.1529519599658,1336.776959884889,-336.05743117082136,336.05743117082136,-1336.776959884889,2014.4934192123881,0.0
437154.6038362722,4645833.5216966402,-7500.0,1380.9835930999316,708.143632867978,249.77048666329665,-154.15218896971857,-36.774289638948808,14.221372779350579,918.77696233240943,1175.2338733254162,-294.68761284165407,294.68761284165407,-1175.2338733254162,1783.6285133409306,0.0
442154.6038362722,4645833.5216966402,-7500.0,1004.702990937522,748.50514692241541,174.77881678642768,-95.09897269928247,-58.877259274830095,5.4319638533289183,860.16195520754923,1024.4049288915314,-256.19154882432736,256.19154882432736,-1024.4049288915314,1605.0882973272442,0.0
447154.6038362722,4645833.5216966402,-7500.0,706.0424000166131,749.08078670084205,132.97655995574243,-53.454525326409097,-68.260427973560908,0.28011159472658292,805.68640556477158,887.34748243520096,-221.08869228206947,221.08869228206947,-887.34748243520096,1458.7574500352937,0.0
452154.6038362722,4645833.5216966402,-7500.0,473.03444479976417,724.58263715469388,110.19352872881781,-24.622130838370275,-70.180972044140887,-2.6028007947174259,750.60477210304055,765.31835485445549,-189.67256343652241,189.67256343652241,-765.31835485445549,1333.0260742211108,0.0
457154.6038362722,4645833.5216966402,-7500.0,293.67545622031014,685.47044935121778,97.973834444302852,-5.0430828777308578,-67.926002823743502,-4.0906080167038255,696.05189545090707,658.26850703691457,-161.98127254643407,161.98127254643407,-658.26850703691457,1221.5636645426091,0.0
462154.6038362722,4645833.5216966402,-7500.0,157.18897836335123,638.8629551870489,91.381059035824109,7.9420189263635823,-63.509517183633768,-4.7352965709538486,643.22635070747356,565.34103485746243,-137.85844203019985,137.85844203019985,-565.34103485746243,1120.9912949174659,0.0
467154.6038362722,4645833.5216966402,-7500.0,54.455199325398667,589.42733594636502,87.600252567583382,16.27747098739427,-58.1390841292883,-4.8826029852534134,592.9815340250592,485.25543970503901,-117.02767428485521,117.02767428485521,-485.25543970503901,1029.4636489610732,0.0
472154.6038362722,4645833.5216966402,-7500.0,-21.978259388111422,540.10701476822953,85.073301844922085,21.364929965900071,-52.518974796863667,-4.7473172105136792,545.82997925507243,416.56794579490338,-99.153874717893501,99.153874717893501,-416.56794579490338,945.88752709461198,0.0
272154.6038362722,4650833.5216966402,-7500.0,-2203.1491348988511,-675.98292694794986,164.84471759694119,-235.73955162357007,-55.820228006585786,-18.336976401818603,1375.7165854689833,-1300.1884505908311,605.02871757042647,-605.02871757042647,1300.1884505908311,2598.8657425757519,0.0
277154.6038362722,4650833.5216966402,-7500.0,-2489.6732919129972,-827.84184431816993,155.18829491795415,-275.99661593513548,-71.834034100748482,-21.915687213155401,1575.099033862959,-1525.2431236785781,707.08883112122908,-707.08883112122908,1525.2431236785781,2976.2748955310053,0.0
282154.6038362722,4650833.5216966402,-7500.0,-2818.0113137123703,-1018.3895895527451,133.58809230634199,-323.83288925270352,-92.714528747737234,-26.160299919147551,1811.1670575022556,-1798.5734485593355,830.14459618657133,-830.14459618657133,1798.5734485593355,3423.1109510443384,0.0
287154.6038362722,4650833.5216966402,-7500.0,-3192.7696134999719,-1258.2931926445813,93.727906497857589,-380.49574317723176,-119.98754608001782,-31.110012862535232,2091.6520334502097,-2131.8386882917125,978.87821559917245,-978.87821559917245,2131.8386882917125,3953.9598232683729,0.0
292154.6038362722,4650833.5216966402,-7500.0,-3617.5819290362915,-1561.0869574128124,26.226112338625693,-447.20551888338406,-155.6195935082074,-36.716984984239339,2425.9148058787337,-2539.4646220010586,1158.8743499778152,-1158.8743499778152,2539.4646220010586,4586.4533661140003,0.0
297154.6038362722,4650833.5216966402,-7500.0,-4093.8136049459804,-1943.6913386317856,-82.810296053964393,-524.93010037173735,-202.08421437436132,-42.74989212838959,2825.168197770513,-3039.0377785737974,1376.6005330103335,-1376.6005330103335,3039.0377785737974,5341.6675085735014,0.0
302154.6038362722,4650833.5216966402,-7500.0,-4618.4134302656657,-2426.7377530038607,-253.85348664863582,-613.96874284328771,-262.36503954875587,-48.618341328765837,3302.6115198698176,-3651.4649070016198,1639.1753125962764,-1639.1753125962764,3651.4649070016198,6244.3425210062705,0.0
307154.6038362722,4650833.5216966402,-7500.0,-5180.4990124159594,-3034.3339716860023,-516.82020254865324,-713.23211664978487,-339.79618107983674,-53.062323121023333,3873.3556695475827,-4400.5496923314095,1953.7200454239837,-1953.7200454239837,4400.5496923314095,7322.6922407955226,0.0
312154.6038362722,4650833.5216966402,-7500.0,-5756.1758685585983,-3792.5716149242162,-914.83137606967193,-819.06971684534244,-437.54796772823545,-53.619149576085363,4553.932099915598,-5311.3461453826912,2325.9534148590765,-2325.9534148590765,5311.3461453826912,8607.409407129946,0.0
317154.6038362722,4650833.5216966402,-7500.0,-6301.1480276722114,-4725.5385428091822,-1508.6639798160604,-923.49162396308554,-557.4144259828438,-45.745205371101854,5361.0607848996633,-6406.1864808194705,2757.5002911140373,-2757.5002911140373,6406.1864808194705,10129.25643883166,0.0
322154.6038362722,4650833.5216966402,-7500.0,-6741.1219339585332,-5846.8342097298237,-2380.9198869340003,-1011.7353450196638,-697.34425419722675,-21.451357526229515,6309.2095472211331,-7696.6340628210328,3241.1866866903561,-3241.1866866903561,7696.6340628210328,11914.374353017005,0.0
327154.6038362722,4650833.5216966402,-7500.0,-6961.3264907619623,-7143.7511592111159,-3637.2524424212356,-1059.5039891993565,-846.93995187888959,32.619633114419678,7406.3620916561604,-9168.9064448785848,3753.5278713766661,-3753.5278713766661,9168.9064448785848,13976.246480600987,0.0
332154.6038362722,4650833.5216966402,-7500.0,-6799.3755045968692,-8551.0205632246671,-5398.8319102919368,-1031.1247761010288,-980.17572393509465,137.42880364958637,8647.4241211031385,-10760.037877472716,4244.0631538136786,-4244.0631538136786,10760.037877472716,16303.288803511694,0.0
337154.6038362722,4650833.5216966402,-7500.0,-6050.8900077650414,-9912.9631219273142,-7775.2525920607777,-881.64422905249501,-1045.5062728982614,322.97272707822202,10004.981433609277,-12323.454755348825,4622.8986011509969,-4622.8986011509969,12323.454755348825,18841.498247540996,0.0
342154.6038362722,4650833.5216966402,-7500.0,-4504.4018188596419,-10940.285897735937,-10801.33969747845,-568.29301168082441,-956.64609461746488,626.00235680061735,11417.73918372317,-13588.225873370327,4751.9091755141462,-4751.9091755141462,13588.225873370327,21472.360436248528,0.0
347154.6038362722,4650833.5216966402,-7500.0,-2027.1550682600393,-11185.435246005794,-14319.967505194703,-77.621588653460989,-594.06265811159744,1078.6158060726443,12777.712389421371,-14130.031246841048,4452.2625043287408,-4452.2625043287408,14130.031246841048,23986.587934716859,0.0
352154.6038362722,4650833.5216966402,-7500.0,1285.7537081441749,-10091.898544883024,-17810.989828244947,532.56306129182497,163.97937709235475,1681.8540579167416,13918.38927850558,-13398.111513826054,3548.9427225287154,-3548.9427225287154,13398.111513826054,26055.278210906123,0.0
357154.6038362722,4650833.5216966402,-7500.0,4936.536276854059,-7206.0345571587777,-20235.734253966057,1101.0468896097339,1364.1806956501539,2367.6516763761374,14611.541746528655,-10875.37713697548,1970.3301353329562,-1970.3301353329562,10875.37713697548,27213.570060341015,0.0
362154.6038362722,4650833.5216966402,-7500.0,7979.0050139683199,-2605.3330776370181,-20114.390563282945,1395.5565489877808,2878.1610273151368,2978.3039096151902,14598.175551951226,-6436.3167930712771,-117.17916401931552,117.17916401931552,6436.3167930712771,26922.419292939379,0.0
367154.6038362722,4650833.5216966402,-7500.0,9359.3389925294177,2646.8620372137411,-16159.756805247698,1242.6266802133059,4377.5097816237094,3315.0349941748673,13698.829595888896,-785.00757588905185,-2243.2599004326921,2243.2599004326921,785.00757588905185,24832.447788964542,0.0
372154.6038362722,4650833.5216966402,-7500.0,8677.0781211642752,6599.3111927518212,-8441.9132769583775,668.3755967722991,5480.4926860952764,3265.3210055939767,12007.271551085552,4484.2550270223383,-3782.2042917947351,3782.2042917947351,-4484.2550270223383,21255.668909145108,0.0
377154.6038362722,4650833.5216966402,-7500.0,6760.0265399682021,7511.0404394095704,848.19579742647772,-119.65597635221305,5980.7896843088074,2901.3447213255172,10031.580137625646,7650.5913416682115,-4307.4373118268641,4307.4373118268641,-7650.5913416682115,17424.895068665948,0.0
382154.6038362722,4650833.5216966402,-7500.0,5207.7711528223326,5308.2358392662818,8298.768469716957,-910.06332014396219,5899.6732083417564,2412.2213722105248,8507.7842230418246,8097.597333276356,-3876.3384209272926,3876.3384209272926,-8097.597333276356,14746.036100306725,0.0
387154.6038362722,4650833.5216966402,-7500.0,5018.8463780757893,1791.1776572637252,11633.483558563661,-1572.6686444627198,5326.3592696497171,1933.7107396572012,7642.0763607156232,6750.9159559248201,-2948.2132452826486,2948.2132452826486,-6750.9159559248201,13260.228551623326,0.0
392154.6038362722,4650833.5216966402,-7500.0,5825.2123102938913,-960.9230620411455,11139.013821544582,-1987.2515815866209,4366.778112451967,1494.3814475383738,6870.1691004778468,5068.8043678443164,-2018.057575205067,2018.057575205067,-5068.8043678443164,11909.224879708125,0.0
397154.6038362722,4650833.5216966402,-7500.0,6622.5765086094061,-2102.1143717680284,8669.0820508446977,-2071.207374698437,3228.5342420389661,1094.6138907720795,5870.9142904294731,3870.8722372634338,-1347.314647688406,1347.314647688406,-3870.8722372634338,10171.342895229285,0.0
402154.6038362722,4650833.5216966402,-7500.0,6781.2047522621806,-1965.2863639923357,5915.2985292527792,-1869.4763716495168,2160.7513946788554,753.43770164233001,4758.1488294009223,3213.2690810967151,-955.66178111490967,955.66178111490967,-3213.2690810967151,8242.736509337903,0.0
407154.6038362722,4650833.5216966402,-7500.0,6267.3093789649311,-1237.9508473089486,3705.2046025924919,-1516.2685254229948,1317.7545191708718,489.30351424910839,3731.9964313072896,2857.1434412750386,-750.95216931262803,750.95216931262803,-2857.1434412750386,6469.1641482431442,0.0
412154.6038362722,4650833.5216966402,-7500.0,5345.3894382031576,-429.02262484564449,2198.6659285548526,-1137.418337844312,729.13818211379896,302.3719423022456,2900.0982121210332,2600.8831277196905,-639.33500148723965,639.33500148723965,-2600.8831277196905,5049.0774133248797,0.0
417154.6038362722,4650833.5216966402,-7500.0,4294.1775479239404,224.99699562423618,1266.5112364189281,-804.92464501904931,352.62104525497926,178.78354206584879,2269.3536324422839,2352.6720655659833,-563.7633951101501,563.7633951101501,-2352.6720655659833,4013.950439210224,0.0
422154.6038362722,4650833.5216966402,-7500.0,3296.0487439901563,668.27381444379625,725.22486910458497,-543.28573150471425,127.47949101814302,100.91875788167947,1801.1401129662288,2092.8968934804452,-499.13704148795432,499.13704148795432,-2092.8968934804452,3298.162437696953,0.0
427154.6038362722,4650833.5216966402,-7500.0,2436.9775575591129,926.3774064800798,425.2394661018663,-350.50839166007233,0.97133135769828083,53.533519157974709,1463.5874336374291,1830.4526989099061,-437.84502868122922,437.84502868122922,-1830.4526989099061,2806.4438348091353,0.0
432154.6038362722,4650833.5216966402,-7500.0,1739.8222365661977,1047.5632094879945,265.50683446704693,-214.37627959907778,-64.926642225674271,25.489425179922556,1294.4820200498737,1578.9916235915694,-379.32708696739076,379.32708696739076,-1578.9916235915694,2455.1496151775191,0.0
437154.6038362722,4650833.5216966402,-7500.0,1194.9266045110351,1077.3251136692388,183.83481647643663,-121.07213843383929,-95.150850280887312,9.3433475523542633,1196.5162515074217,1348.4474610534053,-324.87484447505869,324.87484447505869,-1348.4474610534053,2186.8254183951649,0.0
442154.6038362722,4650833.5216966402,-7500.0,779.72862793891954,1050.7685830126939,143.97720678909818,-58.630279444295191,-105.1869298570915,0.36558137864616441,1103.5769572939889,1143.782729960363,-275.65950120822686,275.65950120822686,-1143.782729960363,1967.7283115756411,0.0
447154.6038362722,4650833.5216966402,-7500.0,469.15146922686688,992.43293247876295,125.57577373714481,-17.784988657823003,-104.32049322111506,-4.3630667584697056,1012.9752319417664,966.12319499372757,-232.24588009845337,232.24588009845337,-966.12319499372757,1779.8704385664021,0.0
452154.6038362722,4650833.5216966402,-7500.0,240.2637528490462,918.44100915726403,117.54042019072776,8.2343324775744762,-97.975007777397451,-6.6132136737812885,926.18485714274686,814.23015615734926,-194.64924471534215,194.64924471534215,-814.23015615734926,1614.0985316691342,0.0
457154.6038362722,4650833.5216966402,-7500.0,73.871026250065029,838.88483658910684,114.0212564391209,24.215159918786931,-89.240326859228745,-7.4468985183695589,844.55813485686213,685.65593255214071,-162.52192242679195,162.52192242679195,-685.65593255214071,1465.7160421349442,0.0
462154.6038362722,4650833.5216966402,-7500.0,-45.34294281253495,759.78321048153668,112.0617152600941,33.47723916568615,-79.82431773158288,-7.4956085729395276,768.89361708446609,577.50024295858884,-135.32479056998227,135.32479056998227,-577.50024295858884,1332.1189222086605,0.0
467154.6038362722,4650833.5216966402,-7500.0,-129.26261176950587,684.50861984310689,110.26630066781277,38.294953754551784,-70.62917434146793,-7.1314865176527196,699.50078490558656,486.84904296682322,-112.44843187611303,112.44843187611303,-486.84904296682322,1211.6341358737693,0.0
472154.6038362722,4650833.5216966402,-7500.0,-186.9543249919752,614.76624568007639,108.05848392204221,40.214247785723344,-62.09481803794489,-6.5712192439661488,636.34104625999362,411.00073645761165,-93.287353473796799,93.287353473796799,-411.00073645761165,1102.9899194890313,0.0
477154.6038362722,4650833.5216966402,-7500.0,-225.2623590740024,551.24105473702423,105.27403092862816,40.279788692645681,-54.40117816454449,-5.9386621539965985,579.15419529608266,347.56248616284995,-77.279980834626514,77.279980834626514,-347.56248616284995,1005.0913769881154,0.0
272154.6038362722,4655833.5216966402,-7500.0,-2279.404121203685,-543.543649775924,261.38294717115252,-241.77925808056912,-41.571742665935702,-18.717154016265251,1394.4119120845201,-1200.5079637874583,578.09163767651671,-578.09163767651671,1200.5079637874583,2624.7391555109916,0.0
277154.6038362722,4655833.5216966402,-7500.0,-2596.463149044027,-676.24003608415512,276.15367027227126,-284.81640276849373,-54.75906389351718,-22.440095030982167,1602.8782835491181,-1415.3125957542447,679.14553702928549,-679.14553702928549,1415.3125957542447,3017.8798400941146,0.0
282154.6038362722,4655833.5216966402,-7500.0,-2966.3965142705765,-845.81949092439322,285.94514730290763,-336.53870425222732,-72.273025071541724,-26.864328059153216,1851.6780984822101,-1679.0882963116562,802.35414101025049,-802.35414101025049,1679.0882963116562,3487.1033344523912,0.0
287154.6038362722,4655833.5216966402,-7500.0,-3397.8376733983314,-1063.7130217497051,286.49186752201518,-398.60652690567963,-95.586511646300593,-32.019642701841917,2150.0352233078206,-2004.9637233558192,953.25101446196811,-953.25101446196811,2004.9637233558192,4049.7852280613224,0.0
292154.6038362722,4655833.5216966402,-7500.0,-3899.8697816551971,-1345.0833890401595,270.96766747042773,-472.78101074505031,-126.65063105903835,-37.820740442852632,2509.4381398898636,-2409.8750134115467,1138.7515246289436,-1138.7515246289436,2409.8750134115467,4727.5536826281896,0.0
297154.6038362722,4655833.5216966402,-7500.0,-4481.1354696415192,-1709.9544053340048,228.5221083913315,-560.70589542513721,-167.99721182726711,-43.93471455540292,2944.1356597168724,-2915.591556091224,1367.376094904102,-1367.376094904102,2915.591556091224,5547.2158403848725,0.0
302154.6038362722,4655833.5216966402,-7500.0,-5148.0864436502789,-2184.5089660692988,142.00259060939095,-663.45514236343308,-222.79235373000256,-49.529776110783075,3471.6540890862252,-3549.8533588087653,1649.3624148411322,-1649.3624148411322,3549.8533588087653,6541.7252395635151,0.0
307154.6038362722,4655833.5216966402,-7500.0,-5901.7919065645601,-2802.3562807854123,-15.547352579253516,-780.67323088280261,-294.73118774365668,-52.808753772074283,4113.2473536711886,-4347.4243359583079,1996.4776672623238,-1996.4776672623238,4347.4243359583079,7751.0313709986394,0.0
312154.6038362722,4655833.5216966402,-7500.0,-6732.435971489148,-3605.2414859821884,-286.15041227501007,-909.04423911341814,-387.53815926172052,-50.162724480402943,4894.1026015308043,-5350.5817982541339,2421.1651410446821,-2421.1651410446821,5350.5817982541339,9222.4981431874057,0.0
317154.6038362722,4655833.5216966402,-7500.0,-7610.3267392577882,-4642.0247912917121,-734.49384234414424,-1039.7360544049693,-503.6034210495643,-34.679169868815926,5842.9868578614542,-6608.0162184664159,2934.3662164709631,-2934.3662164709631,6608.0162184664159,11010.350232545195,0.0
322154.6038362722,4655833.5216966402,-7500.0,-8472.133363119543,-5963.5844789209605,-1458.1282571406427,-1154.4711934937295,-640.89262816624148,6.3764651826899463,6990.8436386077792,-8170.1389448208756,3540.9236166258561,-3540.9236166258561,8170.1389448208756,13173.334661828274,0.0
327154.6038362722,4655833.5216966402,-7500.0,-9201.6937321357891,-7609.3995759058571,-2599.2768524484486,-1220.2281304262467,-786.71159137170821,95.521932551301433,8367.6643224052605,-10077.199971273874,4230.9499652578106,-4230.9499652578106,10077.199971273874,15769.544549621447,0.0
332154.6038362722,4655833.5216966402,-7500.0,-9607.267323357195,-9579.0743450590726,-4353.8787922310175,-1183.8428599478939,-906.42125442369638,270.52880688209507,9996.889812477024,-12334.416774246549,4965.2686953018801,-4965.2686953018801,12334.416774246549,18847.341793823478,0.0
337154.6038362722,4655833.5216966402,-7500.0,-9403.402126129653,-11780.156048700479,-6966.050169823232,-970.94285329399918,-925.71623222912081,589.96958120921545,11886.683652630794,-14866.133579011053,5653.9161338604836,-5653.9161338604836,14866.133579011053,22431.363530893566,0.0
342154.6038362722,4655833.5216966402,-7500.0,-8217.6177963809841,-13945.888273880642,-10682.446384615117,-499.68516748991561,-709.18574445499473,1133.2878069314495,14017.072566552255,-17441.030552150693,6130.6829499757478,-6130.6829499757478,17441.030552150693,26500.650620905308,0.0
347154.6038362722,4655833.5216966402,-7500.0,-5660.1193505340816,-15531.031742607014,-15620.251700508503,273.06822445707843,-50.737799211654114,1981.649749424261,16318.654251177102,-19568.093317048188,6136.8324577459489,-6136.8324577459489,19568.093317048188,30944.856854373131,0.0
352154.6038362722,4655833.5216966402,-7500.0,-1513.7623481089549,-15637.77362714441,-21481.65032395818,1260.1818677974786,1282.4482808401774,3157.3387399062935,18628.906533196488,-20394.222930248983,5346.3338405395161,-5346.3338405395161,20394.222930248983,35455.970536429872,0.0
357154.6038362722,4655833.5216966402,-7500.0,3906.6823323879448,-13133.25230776323,-27076.740018888358,2145.355739998437,3390.449383283953,4513.7493087074636,20607.712080225931,-18732.437427277771,3488.443990276528,-3488.443990276528,18732.437427277771,39305.089324252884,0.0
362154.6038362722,4655833.5216966402,-7500.0,9340.6013031759539,-7286.2484130467637,-29894.037786729667,2428.8025871164423,5978.6513830869599,5649.9021231556244,21652.587553422498,-13537.209110592103,608.39011925855539,-608.39011925855539,13537.209110592103,41138.46406403547,0.0
367154.6038362722,4655833.5216966402,-7500.0,12721.530386784392,954.99758709727382,-26672.586688336247,1778.4174516500946,8265.034552769419,6042.5284902770891,21039.570945683492,-5065.5457089450847,-2659.249284525979,2659.249284525979,5065.5457089450847,39377.009781754663,0.0
372154.6038362722,4655833.5216966402,-7500.0,12597.951651325144,8233.9369393023408,-15957.280539787282,445.50703564445877,9438.7866914370061,5481.8683370416993,18529.425086112045,4129.1437605985657,-5197.4782609360673,5197.4782609360673,-4129.1437605985657,33676.389067572207,0.0
377154.6038362722,4655833.5216966402,-7500.0,9884.8591137197254,10577.968348679935,-972.52934713457171,-895.07662579867815,9396.6004583824688,4392.1697554229677,14968.375035293382,10202.627663972264,-6092.7211209339002,6092.7211209339002,-10202.627663972264,26294.263418042498,1.0
382154.6038362722,4655833.5216966402,-7500.0,7590.9533844539937,7126.6855289339519,11242.813256792371,-1900.2404637727564,8718.6217664060059,3434.6576773978604,12063.93654095523,11168.023088102722,-5364.2048350504137,5364.2048350504137,-11168.023088102722,20905.354861954223,0.0
387154.6038362722,4655833.5216966402,-7500.0,7714.267253508383,1543.5624305000983,15758.41657184416,-2721.1433487911095,7671.5820533834376,2797.9638782775601,10556.918711749597,8876.4753936163288,-3861.5920072609051,3861.5920072609051,-8876.4753936163288,18285.157573494711,0.0
392154.6038362722,4655833.5216966402,-7500.0,9170.9358397564356,-2076.6653169680935,13840.780006707138,-3250.7247270864582,6092.1515258066383,2244.7968141422148,9275.4932788013211,6395.1443383242386,-2452.7505203105538,2452.7505203105538,-6395.1443383242386,16065.64711376816,0.0
397154.6038362722,4655833.5216966402,-7500.0,9993.0860995314888,-2825.9064567723908,9587.1129503318516,-3214.7048393843438,4221.9973647270554,1649.6332605519028,7633.7639117914287,4956.2919962510105,-1538.8781765440788,1538.8781765440788,-4956.2919962510105,13222.208983886234,0.0
402154.6038362722,4655833.5216966402,-7500.0,9484.5318233950693,-1911.0767543169352,5762.2641568605995,-2700.5117081849403,2563.6365792573224,1095.5177984694681,5928.4562470126411,4281.7029298949046,-1078.6845927698093,1078.6845927698093,-4281.7029298949046,10274.05997183995,0.0
407154.6038362722,4655833.5216966402,-7500.0,8040.2261021690447,-603.77377175226718,3179.056094281008,-2012.6958267084617,1373.4419126747885,669.76751448340883,4487.3604775260137,3867.4188282020496,-869.06980999808206,869.06980999808206,-3867.4188282020496,7812.2385553011036,0.0
412154.6038362722,4655833.5216966402,-7500.0,6280.5959252067896,464.39701783635513,1674.5731074868943,-1378.5369197488762,630.55501944496598,384.37213174683325,3402.8867839063646,3466.5839993560089,-754.75841769386852,754.75841769386852,-3466.5839993560089,6030.2275806440302,0.0
417154.6038362722,4655833.5216966402,-7500.0,4621.0186403936277,1144.6921484307245,873.9219874727504,-885.45873512071887,209.46540377480721,208.72579331262551,2627.5401530145214,3033.4198480405689,-664.75416236669298,664.75416236669298,-3033.4198480405689,4836.3698018975247,0.0
422154.6038362722,4655833.5216966402,-7500.0,3239.3105553839023,1494.3182306609378,474.73867698356054,-536.00804294100192,-10.589835050344439,106.22619782819743,2128.0706541959694,2594.1878817739885,-578.41102779924631,578.41102779924631,-2594.1878817739885,4044.5827446618196,0.0
427154.6038362722,4655833.5216966402,-7500.0,2166.6716508719037,1616.6008944594871,287.29903776121853,-301.68507728502937,-114.82380880609382,48.564564007627972,1888.3009885412098,2180.8763746906043,-494.48003049983549,494.48003049983549,-2180.8763746906043,3491.4892430485979,0.0
432154.6038362722,4655833.5216966402,-7500.0,1368.6450088673894,1600.9819917153375,205.30659140010172,-150.28052300488449,-155.92616001727177,17.153715406122998,1713.375006611318,1812.7004969190098,-416.1513827597264,416.1513827597264,-1812.7004969190098,3072.0945411247244,0.0
437154.6038362722,4655833.5216966402,-7500.0,791.34103669840943,1510.4089645771367,172.88482559074794,-55.331860220594969,-164.3212435434566,0.70076962624657524,1551.056663541186,1496.4494846385635,-346.03133607572931,346.03133607572931,-1496.4494846385635,2729.9851119340078,0.0
442154.6038362722,4655833.5216966402,-7500.0,382.27682945436641,1384.8564667524163,161.96264426112234,2.400113930364534,-156.86683445772832,-7.3898510975865213,1398.6179280615522,1231.0414392489015,-285.22711422236853,285.22711422236853,-1231.0414392489015,2437.591138465174,0.0
447154.6038362722,4655833.5216966402,-7500.0,97.605065691720966,1248.0133683717108,159.04879635554101,36.09702442800986,-142.613887223078,-10.890624021494364,1257.5419485856132,1011.4766537199446,-233.66882010796058,233.66882010796058,-1011.4766537199446,2181.6851921322127,0.0
452154.6038362722,4655833.5216966402,-7500.0,-96.769796411455189,1113.0476185714138,158.037595309067,54.509209024428159,-126.26187002219612,-11.933330444916169,1128.8963760060556,831.357221846431,-190.60888251705904,190.60888251705904,-831.357221846431,1955.4723262960754,0.0
457154.6038362722,4655833.5216966402,-7500.0,-226.36712601838903,986.6900010693081,156.44564636895913,63.343406276948805,-110.13525432049093,-11.711703445275935,1012.9004068424188,684.24716298101794,-155.00384017199502,155.00384017199502,-684.24716298101794,1754.8640091013358,0.0
462154.6038362722,4655833.5216966402,-7500.0,-309.88123167408224,871.890436350811,153.49405608287651,66.282068930109446,-95.28657036413081,-10.887268799815249,909.12876020495378,564.30377175919136,-125.74909335567156,125.74909335567156,-564.30377175919136,1576.8845747279377,0.0
467154.6038362722,4655833.5216966402,-7500.0,-360.83934464949965,769.46544619021518,149.15314643317319,65.683968626582455,-82.103072552056631,-9.8208772846739301,816.76911686214157,466.50112923157678,-101.80317975329933,101.80317975329933,-466.50112923157678,1419.0442685898313,0.0
472154.6038362722,4655833.5216966402,-7500.0,-388.96112542755634,679.08900606288842,143.6800142521333,63.050015463429553,-70.636744033510979,-8.7041126233773891,734.82065533032505,386.64757115546081,-82.242700517145096,82.242700517145096,-386.64757115546081,1279.1175268262314,0.0
477154.6038362722,4655833.5216966402,-7500.0,-401.20199539560485,599.87334776974581,137.40412116069504,59.327669482166655,-60.781618516894326,-7.6337898079637609,662.22522747326343,321.31068515593932,-66.277967231905862,66.277967231905862,-321.31068515593932,1155.0761321533516,0.0
272154.6038362722,4660833.5216966402,-7500.0,-2314.2626119481051,-390.84715491466562,345.92148903668851,-243.71085260757832,-25.718981553692853,-18.823344536509499,1399.0509589583594,-1073.6725865001142,538.35303817067415,-538.35303817067415,1073.6725865001142,2622.5528917736115,0.0
277154.6038362722,4660833.5216966402,-7500.0,-2653.5228680031305,-496.88165167696076,383.82632994082059,-288.4989497855035,-35.38031649518291,-22.611148197120418,1613.4048568637165,-1269.8945324548827,634.75136988393842,-634.75136988393842,1269.8945324548827,3024.9484930221288,0.0
282154.6038362722,4660833.5216966402,-7500.0,-3055.2572703979304,-635.10969475154093,424.12139871509282,-342.81826778881202,-48.523349622619435,-27.110498905616989,1870.965784109635,-1512.9679952345914,753.32634956893241,-753.32634956893241,1512.9679952345914,3508.4767524912213,0.0
287154.6038362722,4660833.5216966402,-7500.0,-3532.1770471426203,-816.59453599836922,465.12999534553643,-408.68962261026331,-66.434807299365133,-32.331957192466497,2182.2892405954108,-1816.5075638155176,900.11026049786142,-900.11026049786142,1816.5075638155176,4092.9483385838266,0.0
292154.6038362722,4660833.5216966402,-7500.0,-4099.2021333895118,-1056.5823983900293,503.53791186916146,-488.36399357646781,-90.862184520056701,-38.136534492698161,2560.8351094291679,-2198.6710812787833,1082.9143808701515,-1082.9143808701515,2198.6710812787833,4803.624208705568,0.0
297154.6038362722,4660833.5216966402,-7500.0,-4773.3047971691858,-1376.1481177919059,533.19796542567701,-584.12128425428989,-124.1347072571597,-44.059200742549201,3023.783844572662,-2683.7874706243033,1311.8121818480372,-1311.8121818480372,2683.7874706243033,5672.7553169003213,0.0
302154.6038362722,4660833.5216966402,-7500.0,-5572.7367910218809,-1804.4332499994512,543.09687438469814,-697.79412737698328,-169.24973650952819,-48.962314599856157,3593.0373414194669,-3304.5370160744365,1599.6661605034083,-1599.6661605034083,3304.5370160744365,6741.4868092964689,0.0
307154.6038362722,4660833.5216966402,-7500.0,-6515.0490669972833,-2381.5763943279894,513.90913488969113,-829.77320560586429,-229.8104169964646,-50.364967986463839,4296.3975106320731,-4104.7872268344836,1962.5847777642668,-1962.5847777642668,4104.7872268344836,8062.1415983033048,0.0
312154.6038362722,4660833.5216966402,-7500.0,-7612.8747647834898,-3162.276774265365,412.19415144809273,-977.07963309108766,-309.54429135654368,-43.163585036927373,5168.8634222362571,-5143.0766490490687,2420.0322499527401,-2420.0322499527401,5143.0766490490687,9700.8398907478277,0.0
317154.6038362722,4660833.5216966402,-7500.0,-8865.7899426528966,-4219.4760397432001,180.75449725533119,-1129.855582957264,-410.81074860086721,-17.239501595269715,6253.9103901514354,-6496.4122283865472,2993.9944399507094,-2993.9944399507094,6496.4122283865472,11740.355952687132,0.0
322154.6038362722,4660833.5216966402,-7500.0,-10245.713554207352,-5646.5370763185656,-276.97356747533797,-1265.4026743864742,-530.88768921505971,46.880413020014245,7604.5308328415294,-8263.2278522251254,3706.0230074001402,-3706.0230074001402,8263.2278522251254,14283.153514277361,0.0
327154.6038362722,4660833.5216966402,-7500.0,-11672.569424237197,-7553.9354545658625,-1121.0255431668011,-1339.0065793237484,-653.77435980166956,185.49280929617768,9283.813314601437,-10562.534101285068,4570.0315515835464,-4570.0315515835464,10562.534101285068,17454.934985876476,0.0
332154.6038362722,4660833.5216966402,-7500.0,-12977.385063300962,-10052.004407400389,-2608.9320172515518,-1272.136320590382,-733.81409741615107,463.39580848974254,11365.115727433958,-13522.59849522333,5577.4381760880506,-5577.4381760880506,13522.59849522333,21410.234078650581,0.0
337154.6038362722,4660833.5216966402,-7500.0,-13853.932604360263,-13204.080705656674,-5135.394284121804,-943.27273817623052,-666.58357820300796,988.7280083336824,13932.379810352919,-17245.637274705154,6670.1400170408415,-6670.1400170408415,17245.637274705154,26343.058144404025,0.0
342154.6038362722,4660833.5216966402,-7500.0,-13810.765292209158,-16925.47651030924,-9256.8816968103747,-198.2848411135343,-245.91361537194217,1921.6971952271128,17079.942103828769,-21723.260865145778,7697.4022201378521,-7697.4022201378521,21723.260865145778,32501.062526303369,0.0
347154.6038362722,4660833.5216966402,-7500.0,-12154.816294476339,-20795.92006045852,-15641.882427461704,1080.9697179602867,875.88590576298964,3445.982315643249,20899.526379864841,-26657.099436799184,8357.9384698744943,-8357.9384698744943,26657.099436799184,40164.206109499057,0.0
352154.6038362722,4660833.5216966402,-7500.0,-8074.2714912684069,-23751.410640038717,-24796.697258267861,2792.3714098777459,3151.9009103718531,5633.1643169104555,25401.009513673984,-31108.179406732757,8145.103992731878,-8145.103992731878,31108.179406732757,49420.025012337734,0.0
357154.6038362722,4660833.5216966402,-7500.0,-1017.1888081665211,-23705.620496862273,-36204.100914982206,4324.6035506327298,6851.239625846566,8129.0486822786434,30241.608364547974,-32951.410312795429,6372.4081547263322,-6372.4081547263322,32951.410312795429,59383.45450371904,0.0
362154.6038362722,4660833.5216966402,-7500.0,8205.1193067859258,-17782.438399006034,-46442.013747733108,4517.7233453049303,11365.813797203602,9829.4554404438659,34063.605224627565,-28768.259461963127,2519.4909654683306,-2519.4909654683306,28768.259461963127,66896.434288460165,0.0
367154.6038362722,4660833.5216966402,-7500.0,16106.342946135268,-5066.0438455033463,-47907.443724373152,2598.1852691098493,14728.582895948715,9277.6350268941624,34455.650367710987,-16234.4155031891,-2886.0105471862498,2886.0105471862498,16234.4155031891,66748.065492163834,0.0
372154.6038362722,4660833.5216966402,-7500.0,18502.137928814256,9182.9787810073649,-33823.777245715355,-416.20908723527731,14956.266477466495,6310.0998267252671,30309.854376844844,1219.143386910021,-7751.7757751233303,7751.7757751233303,-1219.143386910021,56331.681575517185,0.0
377154.6038362722,4660833.5216966402,-7500.0,15336.489765468383,15730.583747601611,-7935.7159674034083,-2331.03707285984,12606.178876583015,3182.7009961370181,22991.620937339703,14517.930349144184,-9714.2434211791751,9714.2434211791751,-14517.930349144184,40519.956844500462,0.0
382154.6038362722,4660833.5216966402,-7500.0,11925.611527003366,10536.441523893112,14069.975417016505,-2721.4331993644651,10807.876718159318,2237.1428038683243,16565.800313942593,16872.652719103789,-8507.7854289264214,8507.7854289264214,-16872.652719103789,28721.756885177267,0.0
387154.6038362722,4660833.5216966402,-7500.0,12653.561885231216,1656.8041114023881,20254.960013723285,-3648.3502431925972,10111.849946994715,2860.8792344950343,13856.362710801668,12535.667763894382,-5858.753043756622,5858.753043756622,-12535.667763894382,24146.032235408718,0.0
392154.6038362722,4660833.5216966402,-7500.0,14604.768206186969,-2615.419750984689,15724.543636481854,-4784.8664895229967,8165.6951762991903,3082.5700983189859,11993.926231991823,8727.2463991304103,-3341.5259058418255,3341.5259058418255,-8727.2463991304103,20884.421397810871,0.0
397154.6038362722,4660833.5216966402,-7500.0,14533.616360578057,-2356.5017754517016,9323.0764514181428,-4705.5034698706513,5255.7594649068133,2441.2012166298932,9589.7396904833768,6970.0465963172219,-1858.4722660486086,1858.4722660486086,-6970.0465963172219,16622.93089920521,0.0
402154.6038362722,4660833.5216966402,-7500.0,12356.983095361908,-485.4280722490812,4779.3869862484698,-3671.3616042894278,2786.0972301892098,1569.7928242323553,7210.2512970278894,6130.2640667054602,-1247.2275399567952,1247.2275399567952,-6130.2640667054602,12508.920351819483,0.0
407154.6038362722,4660833.5216966402,-7500.0,9353.2278776016574,1180.6033231731024,2281.6241191258018,-2471.2739245898701,1219.2828324042532,891.31585009156618,5339.9387791248682,5400.0870881534647,-1016.302676475103,1016.302676475103,-5400.0870881534647,9419.9392199684717,0.0
412154.6038362722,4660833.5216966402,-7500.0,6516.8100272121465,2162.6915356433137,1084.1702126537702,-1507.0075573485501,374.28193585221555,466.62538724382756,4038.5605847919646,4608.3544414235712,-885.28093852996653,885.28093852996653,-4608.3544414235712,7383.4284613026839,0.0
417154.6038362722,4660833.5216966402,-7500.0,4246.8643219544374,2565.7763939246365,561.09156955019398,-845.04416618402718,-32.116788339660133,227.07587338339158,3275.9237373812957,3816.6259751912057,-765.88990588179445,765.88990588179445,-3816.6259751912057,6068.1638180759192,0.0
422154.6038362722,4660833.5216966402,-7500.0,2580.5424419544474,2605.7799875474034,351.99504562839962,-426.25726328461508,-203.66441636124065,99.394808464499334,2861.2433274381037,3096.8053862073457,-646.69207817737674,646.69207817737674,-3096.8053862073457,5160.7124852893558,0.0
427154.6038362722,4660833.5216966402,-7500.0,1416.887081543289,2454.5183764364674,277.70427406951927,-174.34057719539385,-258.62553064399128,34.021801595840877,2535.520886325769,2482.7407338565995,-534.04417203685864,534.04417203685864,-2482.7407338565995,4472.1968076131761,0.0
432154.6038362722,4660833.5216966402,-7500.0,630.40041554190998,2220.1329813781526,255.90695313603578,-28.870013592046913,-259.54908566373325,2.0007894954265386,2243.4557106892835,1978.6221488429981,-433.81924509164105,433.81924509164105,-1978.6221488429981,3910.4179921509131,0.0
437154.6038362722,4660833.5216966402,-7500.0,112.49012097954081,1963.0554064229502,251.08209485493134,51.26844484367512,-237.87322112624619,-12.584702989177256,1979.9572822010794,1573.7836515364338,-348.42030292301274,348.42030292301274,-1573.7836515364338,3433.7416571293693,0.0
442154.6038362722,4660833.5216966402,-7500.0,-219.56566823343627,1713.9981768536468,249.08085261013477,92.264987332223924,-208.77688555593315,-18.246970366534903,1745.0376377978318,1252.4986934828798,-277.68387525787676,277.68387525787676,-1252.4986934828798,3022.4960827991072,0.0
447154.6038362722,4660833.5216966402,-7500.0,-425.17715350584632,1486.7393743783316,245.07593902569164,110.27560712450286,-179.22616210421023,-19.476766332524992,1537.9202352812847,998.91536065992022,-220.13032304492771,220.13032304492771,-998.91536065992022,2665.6969361060137,0.0
452154.6038362722,4660833.5216966402,-7500.0,-545.75247247182403,1285.9746748431282,238.06693233961192,115.09830793947806,-152.1373280454379,-18.620217314638968,1356.7340312112324,799.06500105452153,-173.81289226996159,173.81289226996159,-799.06500105452153,2355.7244188426439,0.0
457154.6038362722,4660833.5216966402,-7500.0,-609.70290550916593,1111.8202096402381,228.45749531246275,112.61277479329074,-128.48371865310563,-16.887745074020195,1198.9828110857511,641.40286265805253,-136.7763121187109,136.7763121187109,-641.40286265805253,2086.4012375796442,0.0
462154.6038362722,4660833.5216966402,-7500.0,-636.3599751768345,962.2818984096325,217.03270049273149,106.31508549104944,-108.34673541473856,-14.890267991905223,1061.9641520181517,516.70393659958518,-107.2629450636561,107.2629450636561,-516.70393659958518,1852.3582410072295,0.0
467154.6038362722,4660833.5216966402,-7500.0,-638.81735357756668,834.56318211527218,204.56118166797836,98.260378584918456,-91.432855289194109,-12.923422361958306,943.03593581977839,417.73040319143661,-83.780721966670683,83.780721966670683,-417.73040319143661,1648.8472888120416,0.0
472154.6038362722,4660833.5216966402,-7500.0,-625.91680888240899,725.72651103331111,191.66625700362835,89.635546075547396,-77.322064835172753,-11.118390613702253,839.7570108850025,338.85702971858956,-65.103392191128194,65.103392191128194,-338.85702971858956,1471.6816890757859,0.0
477154.6038362722,4660833.5216966402,-7500.0,-603.61121378575729,633.00523266887978,178.80684516152448,81.105951772885831,-65.582322239777866,-9.5220513444342103,749.94687155986003,275.7300601298947,-50.242168904200199,50.242168904200199,-275.7300601298947,1317.2009662715479,0.0
267154.6038362722,4665833.5216966402,-7500.0,-2007.563306085766,-168.98692271600751,363.80121547730812,-203.87251025788669,-4.9867750065494763,-15.500423968450495,1208.0324994664768,-785.91357327621199,414.89003909914777,-414.89003909914777,785.91357327621199,2253.489144038741,0.0
272154.6038362722,4665833.5216966402,-7500.0,-2301.4772689794631,-224.05802219827993,413.40599163582522,-241.03297423517171,-8.9174666697397473,-18.629550480389582,1388.4245292573839,-923.44670215208305,486.57507536749802,-486.57507536749802,923.44670215208305,2590.2615710993705,0.0
277154.6038362722,4665833.5216966402,-7500.0,-2651.7063404267351,-297.21755666519022,471.12972889731446,-286.28699047818071,-14.533250674238735,-22.391027411101213,1604.8667894488335,-1093.23322312355,574.5867509431589,-574.5867509431589,1093.23322312355,2994.3300804796413,0.0
282154.6038362722,4665833.5216966402,-7500.0,-3071.1860147150901,-395.11815683567079,538.16279525888149,-341.52899529480521,-22.52444367068286,-26.844630870326945,1866.3146220548019,-1304.7741477108575,683.48487607353036,-683.48487607353036,1304.7741477108575,3482.4024224188493,0.0
287154.6038362722,4665833.5216966402,-7500.0,-3576.103239683147,-527.16827055968486,615.59110614161239,-409.02251370024379,-33.861030971884681,-31.971373559557673,2184.3386172916712,-1570.9359841984647,819.30310139660378,-819.30310139660378,1570.9359841984647,4076.0657237163664,0.0
292154.6038362722,4665833.5216966402,-7500.0,-4186.6475556751166,-706.79692637355788,704.07013205928604,-491.36099701419676,-49.892827282056608,-37.56331327692434,2573.9762918241281,-1909.3366744501852,990.06586587370043,-990.06586587370043,1909.3366744501852,4803.3821746384583,0.0
297154.6038362722,4665833.5216966402,-7500.0,-4927.8053358075786,-953.34085674695075,803.1670589444758,-591.28112569184566,-72.461991541101128,-42.99783388389023,3054.8740774241473,-2344.3733096206652,1206.4808599650366,-1206.4808599650366,2344.3733096206652,5701.0403147091656,0.0
302154.6038362722,4665833.5216966402,-7500.0,-5830.039944744336,-1294.8665931638855,910.06816367115141,-711.16179985149131,-103.98972376753693,-46.781745579829042,3652.8157411111292,-2910.2159788906251,1482.8454175933616,-1482.8454175933616,2910.2159788906251,6817.2634258190437,0.0
307154.6038362722,4665833.5216966402,-7500.0,-6929.4980320950935,-1772.3749144205728,1017.0745319913369,-851.88785954154218,-147.42501838498998,-45.637238999256439,4401.7612225427547,-3655.255069047269,1838.1806057916465,-1838.1806057916465,3655.255069047269,8215.7613960758354,0.0
312154.6038362722,4665833.5216966402,-7500.0,-8266.9995810386863,-2445.9941484149463,1106.7868598330431,-1010.4846143128154,-205.76772810918916,-32.682361252532978,5346.5691108160736,-4648.7276533452259,2297.5301328776554,-2297.5301328776554,4648.7276533452259,9981.184392335017,0.0
317154.6038362722,4665833.5216966402,-7500.0,-9884.3675513630333,-3403.8670665666641,1142.8915079360911,-1175.4849780589038,-280.48102472460346,6.149727824959685,6546.679721953471,-5990.5474561735073,2893.164120638462,-2893.164120638462,5990.5474561735073,12226.92581068194,0.0
322154.6038362722,4665833.5216966402,-7500.0,-11815.46141384379,-4774.2295736650749,1052.6513553728687,-1318.3849464120958,-367.2655985637374,99.011948334181625,8081.3207385986188,-7825.6217356114466,3664.9891928423131,-3664.9891928423131,7825.6217356114466,15107.120428976834,0.0
327154.6038362722,4665833.5216966402,-7500.0,-14067.436487644371,-6739.983822007327,694.09743083862054,-1379.0825310778118,-446.03060382094964,300.92130536745287,10057.545494942695,-10363.704528238002,4658.5607894230088,-4658.5607894230088,10363.704528238002,18837.148667567813,0.0
332154.6038362722,4665833.5216966402,-7500.0,-16585.451254434036,-9551.2513178253648,-203.63177127956837,-1244.1012552697482,-459.17797657479031,715.63430824165619,12624.112683263149,-13903.673619164183,5917.3524154439792,-5917.3524154439792,13903.673619164183,23732.328434578612,0.0
337154.6038362722,4665833.5216966402,-7500.0,-19192.488669058126,-13521.751330012901,-2142.3945192885881,-722.08341212686355,-269.16485898724051,1527.2873012898292,15996.808518551301,-18853.152007252538,7462.7433212951346,-7462.7433212951346,18853.152007252538,30282.594593910111,0.0
342154.6038362722,4665833.5216966402,-7500.0,-21497.120444664615,-18975.092553790932,-6010.5767627309142,461.1640059522191,413.28552214007237,3027.3041917413052,20500.241291210077,-25711.626920924977,9249.0149625343001,-9249.0149625343001,25711.626920924977,39278.425494380324,0.0
347154.6038362722,4665833.5216966402,-7500.0,-22756.688918204356,-26071.680218550773,-13272.02520596736,2584.207369841874,2122.6239144199976,5570.1961757729905,26610.750220425631,-34924.752592519217,11064.975148417998,-11064.975148417998,34924.752592519217,51927.341488106395,0.0
352154.6038362722,4665833.5216966402,-7500.0,-21616.654973172586,-34345.290761548189,-26069.402600320183,5631.8902026581463,5678.0197539305382,9264.2720817687205,34936.569448592934,-46332.715347546415,12306.108442222459,-12306.108442222459,46332.715347546415,69581.857341551382,0.0
357154.6038362722,4665833.5216966402,-7500.0,-15630.177717490342,-41382.537463734385,-46616.357221895996,8614.746290331017,11857.70415509263,13069.404114305487,46577.305808468154,-57424.526320696445,11490.85262903657,-11490.85262903657,57424.526320696445,91951.617371214161,0.0
362154.6038362722,4665833.5216966402,-7500.0,-2077.664346091733,-40163.017004601279,-73038.515450183433,8915.6440816882896,19877.201097168072,13583.823685230442,56717.336644867144,-59871.669208136416,5999.2587010437564,-5999.2587010437564,59871.669208136416,112494.6950763145,0.0
367154.6038362722,4665833.5216966402,-7500.0,15456.050423162307,-21641.25879334916,-89153.380787645248,4225.3766203517953,24820.991063515001,6394.6264404382136,59628.492526839276,-41431.253991500416,-5313.9540673724659,5313.9540673724659,41431.253991500416,115689.97603686113,0.0
372154.6038362722,4665833.5216966402,-7500.0,25632.009611884983,6857.9145656131604,-70924.035854524962,-2188.450100729242,20646.65164167888,-7118.0979752959411,51829.647560419318,-5090.6357285459089,-17268.804433328467,17268.804433328467,5090.6357285459089,93100.656152371404,0.0
377154.6038362722,4665833.5216966402,-7500.0,25950.099696659076,23758.456791062192,-22823.995077072184,-3679.727783814652,9513.6824037003062,-15393.247705862379,36427.468979106787,26136.027733005682,-21437.608562791054,21437.608562791054,-26136.027733005682,63853.306935281602,0.0
382154.6038362722,4665833.5216966402,-7500.0,22260.147301314861,16290.86156575086,18364.025052614405,862.06938458146715,6369.2803923672263,-10909.901057044865,24841.777237952469,30598.816539657484,-18532.108686217667,18532.108686217667,-30598.816539657484,43661.270182599117,0.0
387154.6038362722,4665833.5216966402,-7500.0,22669.596730167901,4050.4721975281332,23799.742514475263,-1653.7842595285356,11949.165723109694,-1198.694966958114,18152.753700202662,20629.933872881753,-12450.022590016653,12450.022590016653,-20629.933872881753,32919.885994761054,1.0
392154.6038362722,4665833.5216966402,-7500.0,21972.788414387363,335.19711519849864,15185.365707274923,-6144.9186049746968,10734.826541413386,3778.0654178840714,14565.467621702361,13651.800150350631,-5613.1016740988334,5613.1016740988334,-13651.800150350631,26701.094056883314,0.0
397154.6038362722,4665833.5216966402,-7500.0,18623.657756580174,1545.6773901230924,7461.9334632883611,-6426.6250545660732,6096.8842997349502,3625.5001654083776,11836.216764557848,10708.865475176039,-2331.8384503379511,2331.8384503379511,-10708.865475176039,20608.527347704643,0.0
402154.6038362722,4665833.5216966402,-7500.0,13621.864751410163,3483.0515462550848,3306.3834693255135,-4551.7380207545657,2587.9284959525935,2212.9007601719886,8857.7054198177793,8977.5979758478934,-1381.3437110504674,1381.3437110504674,-8977.5979758478934,15411.900657792381,0.0
407154.6038362722,4665833.5216966402,-7500.0,8841.2655377895262,4519.8173066574363,1516.5252953115298,-2665.9771688122732,744.96577445262994,1136.269314300323,6653.5123273102263,7346.8552049409172,-1125.1902710087361,1125.1902710087361,-7346.8552049409172,11868.241688780601,0.0
412154.6038362722,4665833.5216966402,-7500.0,5171.4758824812134,4688.1003164685035,834.84722666295806,-1367.1330332135219,-62.876877862272394,528.30152626361212,5341.2609939323565,5808.583964350084,-976.15879527343395,976.15879527343395,-5808.583964350084,9580.3739834206553,0.0
417154.6038362722,4665833.5216966402,-7500.0,2654.725583310214,4371.5487746341341,596.82793447967072,-593.07905383981642,-360.06825391831927,220.70630744872031,4531.8952912495924,4489.4833455864718,-823.29459257779899,823.29459257779899,-4489.4833455864718,7995.3687735519443,0.0
422154.6038362722,4665833.5216966402,-7500.0,1035.7546840319342,3860.9835130383594,517.45281150925223,-166.01977915965807,-431.33607595892403,73.609240156297091,3894.8891569201296,3430.9467092748009,-670.55697206859895,670.55697206859895,-3430.9467092748009,6786.6118275160643,0.0
427154.6038362722,4665833.5216966402,-7500.0,39.718989990170648,3315.349496452654,486.56746620218831,55.33518191567228,-411.71351492689007,6.718840688891083,3349.2558509593096,2612.1811810977433,-532.28554679601393,532.28554679601393,-2612.1811810977433,5805.8458031588143,0.0
432154.6038362722,4665833.5216966402,-7500.0,-547.24929908645561,2807.0485084794532,465.48378413463803,160.86790743987504,-361.26033402431011,-21.325552096618175,2879.3890700098582,1990.2915034768457,-415.33923166408192,415.33923166408192,-1990.2915034768457,4987.7179383251651,0.0
437154.6038362722,4665833.5216966402,-7500.0,-873.46548304120677,2362.2597073128372,442.75746375649828,203.28267700791636,-305.27569716949318,-31.011065642438062,2477.8439667264715,1521.3817985632486,-320.40681401605661,320.40681401605661,-1521.3817985632486,4298.5670314423214,0.0
442154.6038362722,4665833.5216966402,-7500.0,-1036.6624489448043,1985.1300602964745,416.53867943317925,212.39463796338259,-253.5228772637422,-32.325900794458491,2136.9348119207148,1168.188399818255,-245.17743011009196,245.17743011009196,-1168.188399818255,3716.3641479138414,0.0
447154.6038362722,4665833.5216966402,-7500.0,-1099.6822881106912,1670.462014607471,387.85815166787182,204.75524821060509,-209.03401427683835,-30.089345602515433,1848.5479622398148,901.47568299977979,-186.37951644913215,186.37951644913215,-901.47568299977979,3223.9622649280518,0.0
452154.6038362722,4665833.5216966402,-7500.0,-1102.4322891233826,1409.8853854910478,358.23522957289697,189.42127367821587,-172.06443266450103,-26.590878744915546,1604.8462373483089,699.14731331729581,-140.7725217650231,140.7725217650231,-699.14731331729581,2807.0140543725615,0.0
457154.6038362722,4665833.5216966402,-7500.0,-1070.0736346978435,1194.6629774541948,328.93711899289559,171.26096038678605,-141.83957149428451,-22.884309461236491,1398.7389687922275,544.79587960193248,-105.53399933525512,105.53399933525512,-544.79587960193248,2453.3268586875452,0.0
462154.6038362722,4665833.5216966402,-7500.0,-1018.3737481513468,1016.8328939220996,300.83344472216606,152.81496604341524,-117.30474205371651,-19.422642232329213,1224.063139514323,426.32399122879434,-78.352187712028979,78.352187712028979,-426.32399122879434,2152.5736449748051,0.0
467154.6038362722,4665833.5216966402,-7500.0,-957.1388071693334,869.57454823968658,274.44360728588305,135.33840150876495,-97.429031025615799,-16.370667175373885,1075.5934781865769,334.82336795846118,-57.394618250139757,57.394618250139757,-334.82336795846118,1896.0782740683769,0.0
472154.6038362722,4665833.5216966402,-7500.0,-892.39491139624727,747.22712346827871,250.02654607327665,119.38339787565656,-81.312101420271517,-13.759075304878987,948.96400609695729,263.71935548783847,-41.234511101723214,41.234511101723214,-263.71935548783847,1676.6014938605738,0.0
477154.6038362722,4665833.5216966402,-7500.0,-827.77226866489877,645.1710804296448,227.66420206592042,105.12492111976886,-68.207100678670798,-11.560179158333002,840.55699266453462,208.13879071866356,-28.771508641314426,28.771508641314426,-208.13879071866356,1488.1316654205416,0.0
267154.6038362722,4670833.5216966402,-7500.0,-1947.3804601415322,-25.568140969489676,399.52926753601946,-197.25578502773803,8.6201224953685767,-15.088456268100009,1183.8326251376016,-644.81339261744154,362.47413498082847,-362.47413498082847,644.81339261744154,2196.755881000608,0.0
272154.6038362722,4670833.5216966402,-7500.0,-2237.4304848494726,-51.211359034353585,459.91885139695557,-233.49701419063544,8.026290698681489,-18.125504831583136,1361.9409189939845,-755.62981751671543,424.4667327329779,-424.4667327329779,755.62981751671543,2527.130954683395,0.0
277154.6038362722,4670833.5216966402,-7500.0,-2585.2121749182884,-87.503866812643949,532.34389560221882,-277.75989549025957,6.7120487644403104,-21.763792560941944,1576.260145485958,-892.50331729811808,500.66173522391489,-500.66173522391489,892.50331729811808,2924.6003161989975,0.0
282154.6038362722,4670833.5216966402,-7500.0,-3004.9724274745413,-138.92858038699939,619.65949612445411,-331.97494326362386,4.2991699626735382,-26.043488539852646,1836.0636560940643,-1063.3150507333557,595.1297415906896,-595.1297415906896,1063.3150507333557,3406.3226892642961,0.0
287154.6038362722,4670833.5216966402,-7500.0,-3515.0693051346998,-212.05431000354653,725.42412036623921,-398.47041062990786,0.23514436060872385,-30.906958712706249,2153.4739890268029,-1278.9007198443328,713.33251592071576,-713.33251592071576,1278.9007198443328,3994.7267098082793,0.0
292154.6038362722,4670833.5216966402,-7500.0,-4139.2776229840492,-316.62330357014559,854.00932340097063,-479.94082903309078,-6.2747120756833388,-36.066563389807371,2544.4744229780013,-1554.3924297183198,862.66754583900911,-862.66754583900911,1554.3924297183198,4719.3902116296558,0.0
297154.6038362722,4670833.5216966402,-7500.0,-4908.5115593236778,-467.27103421758426,1010.6283262908574,-579.25610630057076,-16.3429608143244,-40.730018280614054,3030.3249776933312,-1911.2884807952669,1053.2469886376234,-1053.2469886376234,1911.2884807952669,5619.6863869940807,0.0
302154.6038362722,4670833.5216966402,-7500.0,-5863.0720522973334,-686.28442737113312,1201.1251383590291,-698.91404360374099,-31.450261410509196,-43.03332547402573,3639.5677098649849,-2380.7193248514413,1299.0171190236488,-1299.0171190236488,2380.7193248514413,6748.5702434136547,0.0
307154.6038362722,4670833.5216966402,-7500.0,-7055.5208607403456,-1008.0867596849529,1431.15485503953,-839.73618715725161,-53.367626356633458,-38.871901683219434,4410.9122958816506,-3008.7294394306118,1619.3711692379402,-1619.3711692379402,3008.7294394306118,8178.1253744554624,0.0
312154.6038362722,4670833.5216966402,-7500.0,-8554.2405479290992,-1486.6287298550087,1703.912098122707,-998.01860356195914,-83.672146794257486,-19.492726834106776,5397.5019189248997,-3865.0492550717358,2041.4750722767908,-2041.4750722767908,3865.0492550717358,10008.006372896669,0.0
317154.6038362722,4670833.5216966402,-7500.0,-10447.613171208179,-2207.7088211740129,2014.480637711885,-1159.6468170582691,-122.14902733313058,33.446223900797548,6673.5067201197935,-5058.0565436615507,2603.6160048187285,-2603.6160048187285,5058.0565436615507,12379.074312736737,0.0
322154.6038362722,4670833.5216966402,-7500.0,-12848.458677793746,-3309.6614755053306,2336.3996456913414,-1288.5519793390135,-162.38101033168022,157.87882121272054,8345.0408120721131,-6760.9034670348383,3360.0005175015222,-3360.0005175015222,6760.9034670348383,15497.326345140578,0.0
327154.6038362722,4670833.5216966402,-7500.0,-15897.674466544027,-5017.9604375212875,2590.4250000230786,-1305.5175641432882,-180.69304607666305,430.93148591188975,10569.84209643342,-9257.7145039817588,4387.5114690209766,-4387.5114690209766,9257.7145039817588,19679.917742613186,0.0
332154.6038362722,4670833.5216966402,-7500.0,-19764.174137821359,-7701.3585975606002,2573.2611867452538,-1053.2527858764561,-110.61054585611481,1004.6395270118393,13595.245816671595,-13024.189871579687,5794.5788941863266,-5794.5788941863266,13024.189871579687,25449.560055797945,0.0
337154.6038362722,4670833.5216966402,-7500.0,-24633.2623414306,-11954.608924145074,1800.674064228941,-250.06708852501922,210.60141271235406,2160.9382653458083,17831.379055693258,-18858.794574970587,7729.4667494853065,-7729.4667494853065,18858.794574970587,33726.320111654088,0.0
342154.6038362722,4670833.5216966402,-7500.0,-30664.473418856043,-18690.920739316953,-811.49407445120949,1540.6307271936964,1138.6323455590064,4359.9810120456905,23976.782521192428,-28057.587990814616,10371.463684024251,-10371.463684024251,28057.587990814616,46166.980662190625,0.0
347154.6038362722,4670833.5216966402,-7500.0,-37873.387203296756,-29168.007275511663,-7503.0548130050383,4841.1840388516866,3361.7587291888294,8140.1330743807393,33194.181122747868,-42525.71819133684,13832.455320300727,-13832.455320300727,42525.71819133684,65564.385391669581,0.0
352154.6038362722,4670833.5216966402,-7500.0,-45678.723833247859,-44790.1770932773,-22468.415177739924,9933.31590236796,8058.1697608481818,13376.889456025167,48587.711139286497,-64425.183344724814,17671.583744452852,-17671.583744452852,64425.183344724814,95733.376430823977,0.0
357154.6038362722,4670833.5216966402,-7500.0,-50450.371255936814,-65780.018081776856,-52944.013003180436,15999.274951801119,17062.992258889339,16688.32334988935,71068.16924477712,-93598.519252876169,18940.95653870338,-18940.95653870338,93598.519252876169,138937.5480646248,0.0
362154.6038362722,4670833.5216966402,-7500.0,-38837.922471839251,-82256.563673608238,-106681.7119682967,18844.150915294918,31697.699950981256,6672.9131033803415,93435.065547990554,-115620.29785827154,7746.7073980826608,-7746.7073980826608,115620.29785827154,184769.06910097547,0.0
367154.6038362722,4670833.5216966402,-7500.0,-569.1029702962677,-57953.951573355014,-157197.04016939324,9775.0826655704786,41594.996146079415,-31393.722029573502,103387.23061683436,-85042.363468182564,-26287.591800904069,26287.591800904069,85042.363468182564,190282.79138856704,0.0
372154.6038362722,4670833.5216966402,-7500.0,25687.680128197018,2035.4911455846573,-115458.73696470627,-3747.494370584629,18171.514974812177,-83325.041436365602,74777.874593733126,2183.9397369036633,-58398.193210040292,58398.193210040292,-2183.9397369036633,132153.32814165467,0.0
377154.6038362722,4670833.5216966402,-7500.0,48736.23459362705,23886.549574495646,-26236.965044512657,-71.146568977987044,-34864.577760067361,-89382.333488142307,80944.921646055373,58057.562265949404,-46327.144166418519,46327.144166418519,-58057.562265949404,140359.75854496518,0.0
382154.6038362722,4670833.5216966402,-7500.0,67990.676973422087,18413.884614403109,32648.048938301123,36341.74779256546,-27075.693330762213,-65757.633788054649,81731.524904121325,69016.424554975049,-55662.493229080821,55662.493229080821,-69016.424554975049,146933.16860418639,0.0
387154.6038362722,4670833.5216966402,-7500.0,41214.237044673922,20428.295999811155,23081.032895240893,7956.7555793097345,17085.417889226075,-18922.465039625073,41458.420025258521,44744.863597104479,-36438.853715959682,36438.853715959682,-44744.863597104479,71919.226624702453,0.0
392154.6038362722,4670833.5216966402,-7500.0,23613.423384884452,14013.436999796104,12362.596864763069,-7397.9471330095248,14219.952838542911,4606.6980651546037,22744.748637341858,23389.742561918283,-9657.5395566261577,9657.5395566261577,-23389.742561918283,40421.957234391499,0.0
397154.6038362722,4670833.5216966402,-7500.0,15967.979743339009,11474.785084805935,5792.3964560505601,-7932.9653239098416,6106.0130392879955,5522.4720266506674,16226.185350391799,15972.586889020156,-2222.7593828257459,2222.7593828257459,-15972.586889020156,28319.958922518781,0.0
402154.6038362722,4670833.5216966402,-7500.0,9469.5446693985268,10329.287500301485,3000.1453305591785,-4763.946834423421,1679.2183144798919,3001.7165156418555,12067.853176545619,12015.057624111458,-1106.0401396084335,1106.0401396084335,-12015.057624111458,20939.684744728333,0.0
407154.6038362722,4670833.5216966402,-7500.0,4493.5723249953453,8989.0539993193834,1929.625214234153,-2222.2676360151008,-71.997792428660716,1343.8855996979216,9348.3115528850958,8901.6827002299724,-1006.9995892931324,1006.9995892931324,-8901.6827002299724,16299.048066307101,0.0
412154.6038362722,4670833.5216966402,-7500.0,1275.8722173620886,7512.2038471540582,1485.3384813021923,-770.04524005040707,-622.04550019411636,534.14176693739432,7570.9686227273305,6459.3756468031088,-915.45533909880305,915.45533909880305,-6459.3756468031088,13152.519090836322,0.0
417154.6038362722,4670833.5216966402,-7500.0,-586.8010699850671,6130.2413391483406,1252.8979017767529,-46.244413783644916,-711.61484907685156,174.00143139241442,6239.4706891943742,4644.071190365059,-766.00553073207584,766.00553073207584,-4644.071190365059,10808.739265965036,0.0
422154.6038362722,4670833.5216966402,-7500.0,-1567.6649358880668,4950.2212279108235,1093.2948063907218,277.26047851603192,-646.00361108135212,22.900846400697485,5172.6148433953422,3336.8396099396241,-604.85275739041322,604.85275739041322,-3336.8396099396241,8965.2009165945437,0.0
427154.6038362722,4670833.5216966402,-7500.0,-2018.9923050051302,3988.1636795141803,962.91506278953761,397.54659719765453,-541.71113178190012,-35.233813882435328,4305.9521167690264,2407.3281656855529,-460.80284573545271,460.80284573545271,-2407.3281656855529,7482.1465226306154,0.0
432154.6038362722,4670833.5216966402,-7500.0,-2167.4031334511333,3220.9044308796392,848.96212185698414,420.03579006976196,-439.93232094107776,-53.149188855355582,3601.2790904835838,1747.4933701378827,-343.04575671351779,343.04575671351779,-1747.4933701378827,6278.8338527720771,0.0
437154.6038362722,4670833.5216966402,-7500.0,-2149.888793896218,2614.4461156960692,747.86351012392436,398.54535684853414,-352.9300035546521,-54.375038343801513,3028.1472154833605,1277.1250981150604,-251.09817850806189,251.09817850806189,-1277.1250981150604,5298.3059504113335,0.0
442154.6038362722,4670833.5216966402,-7500.0,-2046.6938093378503,2135.88312121235,658.41212965603813,359.79538623329512,-282.35753411352141,-49.297835809467443,2561.0876231278457,939.42171578042394,-181.04267302699941,181.04267302699941,-939.42171578042394,4496.3926340177468,0.0
447154.6038362722,4670833.5216966402,-7500.0,-1903.8551451962187,1757.3170268431425,579.77570488400488,316.65706187654803,-226.37697593436539,-42.415296267112915,2179.1193215514199,694.91672875950871,-128.37458884696645,128.37458884696645,-694.91672875950871,3837.876387403498,0.0
452154.6038362722,4670833.5216966402,-7500.0,-1747.2408408087967,1456.4221998878743,511.0424193616102,275.01907613735756,-182.34580071360378,-35.587647994510576,1865.2858899863218,516.3279760417995,-89.068632230903859,89.068632230903859,-516.3279760417995,3294.5948925320386,0.0
457154.6038362722,4670833.5216966402,-7500.0,-1590.9622896833218,1215.8156389956393,451.20247587613648,237.29547201630922,-147.76093538132449,-29.501784966790684,1606.0605447711887,384.75532989659905,-59.859188441749296,59.859188441749296,-384.75532989659905,2844.096784782309,0.0
462154.6038362722,4670833.5216966402,-7500.0,-1442.3308661992685,1022.1298042249307,399.21962200177001,204.20835316967512,-120.52890994948895,-24.334037203874505,1390.7258881731507,287.02645640036303,-38.215383627528894,38.215383627528894,-287.02645640036303,2468.5305900269514,0.0
467154.6038362722,4670833.5216966402,-7500.0,-1304.76481819526,865.13102919767414,354.09650437864997,175.69113202597111,-98.988360316257896,-20.050802649078019,1210.8131733105679,213.8870961572145,-22.220752357156229,22.220752357156229,-213.8870961572145,2153.7181569110121,0.0
472154.6038362722,4670833.5216966402,-7500.0,-1179.4853482823657,736.98242872333026,314.91431838230085,151.34183241282238,-81.85221253848735,-16.543395568648538,1059.6263451756145,158.7770081204477,-10.440807671266654,10.440807671266654,-158.7770081204477,1888.387139378653,0.0
477154.6038362722,4670833.5216966402,-7500.0,-1066.5084598230487,631.66514247235466,280.8515111041005,130.64698842732406,-68.133950461852237,-13.686904258884073,931.85865989987064,117.00215629193411,-1.8073234186671883,1.8073234186671883,-117.00215629193411,1663.5557302467532,0.0
267154.6038362722,4675833.5216966402,-7500.0,-1846.6298438485824,114.25989994990647,416.95455190983853,-186.96150421214227,21.560305825306447,-14.446080054029352,1147.2172853953934,-496.52508576351704,304.27488804358609,-304.27488804358609,496.52508576351704,2116.3254498988194,0.0
272154.6038362722,4675833.5216966402,-7500.0,-2121.924719922647,118.4465209659692,483.28877334492756,-221.16878921012255,24.221377392792636,-17.319392677016353,1319.7435734858823,-577.6796826757718,354.62376012554955,-354.62376012554955,577.6796826757718,2433.9577631397478,0.0
277154.6038362722,4675833.5216966402,-7500.0,-2452.8426756614949,120.05094462783825,564.053241104471,-262.93441509026599,27.141960853640434,-20.739730530292128,1527.5791053654179,-677.3626673045087,416.27356924801074,-416.27356924801074,677.3626673045087,2816.4222925452527,0.0
282154.6038362722,4675833.5216966402,-7500.0,-2853.6190676939673,117.22359899993553,663.22906415153318,-314.07185369251982,30.280811004600118,-24.721396045153693,1779.9151211222966,-801.15613480359684,492.44840168367864,-492.44840168367864,801.15613480359684,3280.545322699169,0.0
287154.6038362722,4675833.5216966402,-7500.0,-3342.9077609587853,107.02266025578224,786.11062969976092,-376.75746711665209,33.547320432175091,-29.162126982028468,2088.8556188040097,-956.79612347730233,587.49547349466991,-587.49547349466991,956.79612347730233,3848.4753756618579,0.0
292154.6038362722,4675833.5216966402,-7500.0,-3945.4009513466217,84.738362448932634,939.7906088337204,-453.48130306520522,36.778451477059882,-33.692154307777358,2470.5105149123242,-1155.2218860264384,707.35183150073817,-707.35183150073817,1155.2218860264384,4549.68692348065,0.0
297154.6038362722,4675833.5216966402,-7500.0,-4694.1473959354971,42.754774599799298,1133.8222729640643,-546.81888360141977,39.718288366821049,-37.358205356428634,2946.5719280786966,-1412.2661863220999,860.24132871955157,-860.24132871955157,1412.2661863220999,5423.8859762985512,0.0
302154.6038362722,4675833.5216966402,-7500.0,-5633.9352547012249,-31.407030633602282,1381.0942177297402,-658.79784294348792,42.027396266830991,-37.962314969917685,3546.6344410340639,-1751.4720938671153,1057.7393161791574,-1057.7393161791574,1751.4720938671153,6525.3305239328965,0.0
307154.6038362722,4675833.5216966402,-7500.0,-6826.3626937322233,-158.53637973456432,1698.8955929421536,-789.38601691987958,43.404053334165731,-30.673122411147332,4311.7127025864593,-2208.9732867875996,1316.4475404581142,-1316.4475404581142,2208.9732867875996,7929.4930929071425,0.0
312154.6038362722,4675833.5216966402,-7500.0,-8357.7204052741927,-373.97489861340244,2109.9427647497137,-933.13058652594816,44.0466736355961,-5.0935179170133544,5299.8098557876283,-2842.3132332011328,1660.7300384314904,-1660.7300384314904,2842.3132332011328,9743.8931334462741,0.0
317154.6038362722,4675833.5216966402,-7500.0,-10351.861526085466,-739.27921688581648,2642.4822904358039,-1072.0176159048997,46.067092859915412,60.941814713100989,6595.3022183252588,-3747.1071984834625,2127.400583996442,-2127.400583996442,3747.1071984834625,12127.057806866233,0.0
322154.6038362722,4675833.5216966402,-7500.0,-12992.486391717892,-1364.774402549825,3326.6303176912711,-1160.9206548092436,57.417326854042045,214.38385561581282,8326.1042041493201,-5089.8978749532871,2774.2077473869276,-2774.2077473869276,5089.8978749532871,15324.864209221783,0.0
327154.6038362722,4675833.5216966402,-7500.0,-16563.94146498651,-2454.6490043900712,4178.368538007905,-1099.5646736052627,102.15017489587731,553.49346126569799,10697.857470644107,-7175.2033038920263,3695.9837196739563,-3695.9837196739563,7175.2033038920263,19746.62496761584,0.0
332154.6038362722,4675833.5216966402,-7500.0,-21527.829609486049,-4399.0486856333991,5146.062242942261,-683.53729589011016,245.6515539859339,1277.8083398779388,14065.729178868711,-10584.155527547933,5055.8934127074463,-5055.8934127074463,10584.155527547933,26132.663475501431,0.0
337154.6038362722,4675833.5216966402,-7500.0,-28659.977410272346,-7958.8029973413613,5949.1378186178827,465.26538400006109,651.5394748496974,2764.3639831864089,19081.341090093771,-16452.177838329371,7141.3994072988735,-7141.3994072988735,16452.177838329371,35911.864318175249,0.0
342154.6038362722,4675833.5216966402,-7500.0,-39250.851566958627,-14593.685014559805,5635.1639226283878,2948.3450261920939,1691.4685596632989,5610.4341952421182,26952.829001627295,-26956.79741461965,10432.678738380839,-10432.678738380839,26956.79741461965,51838.531218798184,0.0
347154.6038362722,4675833.5216966402,-7500.0,-55275.506801823802,-26844.86756832129,1569.5016451980791,7480.6265631680672,4092.8330327329845,10327.51980522759,39885.596752227095,-45884.558993963052,15535.710822941379,-15535.710822941379,45884.558993963052,78651.010139958045,0.0
352154.6038362722,4675833.5216966402,-7500.0,-79394.677333035521,-48311.700264765437,-12017.922596479335,14484.911410439599,8972.0228901767023,15594.237809898363,62607.41143104987,-78463.698948898425,22328.857896419227,-22328.857896419227,78463.698948898425,122619.19485925755,0.0
357154.6038362722,4675833.5216966402,-7500.0,-113282.25065745952,-83785.479984549136,-45033.594847809589,24456.655698329821,18205.585010047482,11771.09812976196,95854.018426856579,-129007.44868786493,25474.999973489343,-25474.999973489343,129007.44868786493,188706.73033237935,0.0
362154.6038362722,4675833.5216966402,-7500.0,-134214.11267523107,-134232.89250889138,-118179.85245774596,38814.011816862236,39936.231225383533,-36550.819078676192,141088.23683188259,-184225.04574539274,-4138.966892219818,4138.966892219818,184225.04574539274,267561.12625147228,0.0
367154.6038362722,4675833.5216966402,-7500.0,-54199.120279491559,-115460.10612050322,-222513.70117454624,28220.935270564281,62534.611943551463,-177325.31561757511,159932.90637534671,-124228.11528090409,-110050.9274906814,110050.9274906814,124228.11528090409,277272.4816967583,0.0
372154.6038362722,4675833.5216966402,-7500.0,27602.837566344842,41883.497003351724,-57431.909541489789,-14211.958507693385,-78094.777269733866,-273647.73665306933,174998.9477966477,115011.64281143261,-127301.13429865801,127301.13429865801,-115011.64281143261,310694.47091374663,1.0
377154.6038362722,4675833.5216966402,-7500.0,78616.074082037157,-89487.499956621774,34919.661063276959,3795.9242069862348,-196696.15529117431,-77280.676382485544,228504.6419148008,730.65990324999439,67574.690518057891,-67574.690518057891,-730.65990324999439,399420.13232400699,1.0
382154.6038362722,4675833.5216966402,-7500.0,586877.50595934899,122071.47018922666,90874.95204867523,402054.24020345107,-118210.67944561194,-439076.63365020184,672943.90723840683,453661.82291397796,-485724.24520453584,485724.24520453584,-453661.82291397796,1166744.6243846586,1.0
387154.6038362722,4675833.5216966402,-7500.0,-1520.9539753016236,78690.952039624652,48563.211294300345,290.99754188723637,47054.149932788197,-62168.302350824742,103429.42114301115,94371.90726747505,-83555.706773519327,83555.706773519327,-94371.90726747505,185589.13548493432,1.0
392154.6038362722,4675833.5216966402,-7500.0,-10497.382296342668,38631.448140708868,18370.20748937282,-8046.5317219051212,15905.06880350623,7909.0247744940434,44718.838357991583,28778.576288154545,-8500.854796906111,8500.854796906111,-28778.576288154545,77917.295692781787,0.0
397154.6038362722,4675833.5216966402,-7500.0,-4767.7887489715276,23956.72043200969,9932.7804140507815,-7381.3584343727598,4220.7510141072207,8136.7079800742567,26174.220875584324,17239.096224861882,625.3884433147341,-625.3884433147341,-17239.096224861882,46169.256641396714,0.0
402154.6038362722,4675833.5216966402,-7500.0,-4227.206511350897,16994.684345754296,6299.1647675026006,-3306.1327030161278,108.67517849410179,3676.8298751553411,18086.286840312605,12086.813014718024,196.04139527137522,-196.04139527137522,-12086.813014718024,31454.130430869558,0.0
407154.6038362722,4675833.5216966402,-7500.0,-5056.252107167752,12552.350804072776,4435.76690572601,-752.43848058607023,-992.08077855413183,1392.1713648654566,13485.019499990609,8306.3328333384907,-411.68045978779446,411.68045978779446,-8306.3328333384907,23405.292733831055,0.0
412154.6038362722,4675833.5216966402,-7500.0,-5514.0923938416954,9401.4301264347578,3322.9246560029746,402.51472190117687,-1115.4871644748816,442.35585226716165,10454.412747502331,5606.4627035507183,-573.95996930368892,573.95996930368892,-5606.4627035507183,18174.558199678722,0.0
417154.6038362722,4675833.5216966402,-7500.0,-5472.1773068752236,7116.3111383707819,2582.4355469111933,816.33189261699101,-969.00152049433859,75.374356726202791,8263.0325069308965,3766.501372634295,-522.43596767302029,522.43596767302029,-3766.501372634295,14412.164116439691,0.0
422154.6038362722,4675833.5216966402,-7500.0,-5124.8645698908113,5447.5861893305882,2055.0409933526066,894.59830962336832,-778.33825655845021,-54.543616680516337,6612.933138024202,2536.4016358916219,-409.69839650769973,409.69839650769973,-2536.4016358916219,11580.229205349904,0.0
427154.6038362722,4675833.5216966402,-7500.0,-4642.7573149222044,4220.3426560536936,1663.2099115058395,837.13657081173096,-608.36750843792652,-90.957592231821792,5348.3002116153539,1716.1332281989355,-297.61105720606884,297.61105720606884,-1716.1332281989355,9403.5741023176033,0.0
432154.6038362722,4675833.5216966402,-7500.0,-4128.8417860010404,3309.5080145590373,1363.9572832887122,734.66466138557155,-472.07267746286448,-92.144406078280127,4368.4028794887345,1166.1466472090046,-205.02961803003768,205.02961803003768,-1166.1466472090046,7709.6876700032526,0.0
437154.6038362722,4675833.5216966402,-7500.0,-3636.0085145655471,2626.3063032816622,1130.9159207207615,625.96364018577856,-366.94055935155569,-81.523939844934503,3601.9264635479167,794.07891909966145,-134.2219941797822,134.2219941797822,-794.07891909966145,6378.5462093128281,0.0
442154.6038362722,4675833.5216966402,-7500.0,-3187.4650289814231,2108.0275978687296,946.70942493038262,526.14584938566372,-286.92406966801451,-68.291137626037923,2996.8440628273293,539.85793042807688,-82.137972276981031,82.137972276981031,-539.85793042807688,5322.9917199644815,0.0
447154.6038362722,4675833.5216966402,-7500.0,-2790.5050583477373,1710.3378108923393,799.31369578260626,439.88261484753809,-226.14003657646859,-55.829259625159381,2514.7872636432649,364.46761592177802,-44.69514276291963,44.69514276291963,-364.46761592177802,4478.6085247509563,0.0
452154.6038362722,4675833.5216966402,-7500.0,-2444.5291118690598,1401.7344682153921,680.12566660378138,367.45800681824699,-179.79533872257815,-45.171053061746953,2127.2784760797927,242.40715687547464,-18.210805488747681,18.210805488747681,-242.40715687547464,3797.3483860754795,0.0
457154.6038362722,4675833.5216966402,-7500.0,-2145.4085920323273,1159.6573832492477,582.8416641265743,307.49343642035797,-144.22952178044957,-36.433138986182541,1813.0475387705314,156.84247578497013,0.25152485089212462,-0.25152485089212462,-156.84247578497013,3243.1146983314738,0.0
462154.6038362722,4675833.5216966402,-7500.0,-1887.7587662351766,967.80095665276724,502.76006254891365,258.1432893182,-116.72030529154543,-29.409677567608973,1556.0993766059596,96.532237131423557,12.910664759340904,-12.910664759340904,-96.532237131423557,2788.6060956623828,0.0
467154.6038362722,4675833.5216966402,-7500.0,-1666.0584095811955,814.25983207671129,436.32328455551203,217.59129859633825,-95.26237802286245,-23.81277666913849,1344.3126182576327,53.879033796064554,21.399943279049815,-21.399943279049815,-53.879033796064554,2413.0213954344908,0.0
472154.6038362722,4675833.5216966402,-7500.0,-1475.1638841303263,690.25204832375778,380.80718971555871,184.23275503517749,-78.380525786225718,-19.364302984996449,1168.428949328021,23.687404407664843,26.906147518333213,-26.906147518333213,-23.687404407664843,2100.394832094536,0.0
477154.6038362722,4675833.5216966402,-7500.0,-1310.5071174152083,589.23271385121893,334.10394747748057,156.71871702795161,-64.986063559928965,-15.825700596999372,1021.3193087304494,2.3639108289392254,30.286393995136265,-30.286393995136265,-2.3639108289392254,1838.3785109712358,0.0
482154.6038362722,4675833.5216966402,-7500.0,-1168.13653178858,506.27481568352283,294.56723535070444,133.9437079855112,-54.271023002708972,-13.002888742943622,897.44952823134747,-12.603555367553604,32.158227597060126,-32.158227597060126,12.603555367553604,1617.3493939137948,0.0
267154.6038362722,4680833.5216966402,-7500.0,-1708.4357913297849,243.36734822068578,416.26642818283619,-173.31763931190289,33.187023140232085,-13.593702352730325,1098.9715720491604,-347.47162529782588,242.80768150278061,-242.80768150278061,347.47162529782588,2014.1793927904237,0.0
272154.6038362722,4680833.5216966402,-7500.0,-1958.6084468350259,275.40555355432593,483.49698306490495,-204.4568417834686,38.781514803687074,-16.238685786157077,1262.7652993404965,-398.04677168001359,280.33298152122387,-280.33298152122387,398.04677168001359,2313.1519521998985,0.0
277154.6038362722,4680833.5216966402,-7500.0,-2258.7609603127225,312.61803317041819,565.8250805824332,-242.31732215056996,45.528788660939284,-19.35664942113792,1459.9167196724484,-459.0437017016381,325.75436491144734,-325.75436491144734,459.0437017016381,2672.7120277385429,0.0
282154.6038362722,4680833.5216966402,-7500.0,-2621.6778765215358,355.82798461635923,667.65707569829942,-288.44320338654524,53.701028084733444,-22.932105049676892,1699.1177502726473,-533.38527581520577,381.19924712031946,-381.19924712031946,533.38527581520577,3108.5606354874635,0.0
287154.6038362722,4680833.5216966402,-7500.0,-3064.1869319393882,405.87153159060347,794.99629368968067,-344.64007478486678,63.64053891332005,-26.81700662110504,1991.8437418998412,-625.10403026607435,449.50733766890164,-449.50733766890164,625.10403026607435,3641.4035707232501,0.0
292154.6038362722,4680833.5216966402,-7500.0,-3608.7254934158732,463.45646455457495,956.13625533278503,-412.87960355749465,75.780725443856539,-30.567461252003902,2353.4271880599645,-739.91613184422681,534.5274308745386,-534.5274308745386,739.91613184422681,4298.8828195340338,0.0
297154.6038362722,4680833.5216966402,-7500.0,-4285.6672111332045,528.85438061965488,1162.7011635519846,-494.99719771328699,90.679041069515634,-33.102246570657542,2804.6337603470383,-886.19456545657488,641.57372498422444,-641.57372498422444,886.19456545657488,5118.4257218679477,0.0
302154.6038362722,4680833.5216966402,-7500.0,-5136.8993592829238,601.25028037320226,1431.2244279142039,-591.93177025624459,109.078516986439,-31.985310219102931,3374.0421977195256,-1076.7019203402708,778.15933656427922,-778.15933656427922,1076.7019203402708,6151.5884017453236,0.0
307154.6038362722,4680833.5216966402,-7500.0,-6221.5808932111204,677.37565187503878,1785.5578299159004,-701.97975087572149,132.04407699325475,-21.905917402297302,4101.7842507414643,-1331.8416139107742,955.2441837900534,-955.2441837900534,1331.8416139107742,7470.9925522285776,0.0
312154.6038362722,4680833.5216966402,-7500.0,-7625.9743936216901,748.59767655989492,2260.5330624710168,-816.96610040618873,161.30274636403459,8.5712477935520255,5045.7639271692706,-1686.1003953843451,1189.5101822657998,-1189.5101822657998,1686.1003953843451,9182.1498801828729,0.0
317154.6038362722,4680833.5216966402,-7500.0,-9481.4907480499569,794.55060212951798,2907.3721380203915,-914.10379411971974,200.1466287821282,83.994534995019364,6292.8310125642292,-2201.5293079773423,1507.8413533489256,-1507.8413533489256,2201.5293079773423,11445.427555839808,0.0
322154.6038362722,4680833.5216966402,-7500.0,-12000.503700359892,768.6511627070181,3800.976427344312,-939.22170196305728,255.88497816642618,256.97453885512385,7980.8140721812506,-2997.4196102079686,1956.8175388574164,-1956.8175388574164,2997.4196102079686,14521.07315629939,0.0
327154.6038362722,4680833.5216966402,-7500.0,-15552.676314745793,563.57374430571917,5046.8128522037086,-773.84071711910337,346.49983118447557,639.15622455516177,10346.000883088005,-4318.4450852788686,2623.936218712437,-2623.936218712437,4318.4450852788686,18870.093714523624,0.0
332154.6038362722,4680833.5216966402,-7500.0,-20834.860078462902,-74.873641421715973,6774.4091219097963,-176.26682497384914,518.39875755792889,1459.313180478608,13830.61797034277,-6695.0330218002046,3685.410939469476,-3685.410939469476,6695.0330218002046,25390.791952109226,0.0
337154.6038362722,4680833.5216966402,-7500.0,-29244.299787430624,-1767.9070517014445,9061.7208645339288,1303.8729648388098,892.26063108619803,3141.397511079409,19319.136144263633,-11316.955026626276,5504.4088485692318,-5504.4088485692318,11316.955026626276,35951.113270822367,0.0
342154.6038362722,4680833.5216966402,-7500.0,-43597.921817156101,-6042.5112924463465,11576.786875385542,4383.6007500801961,1776.6742814538611,6258.2166703440798,28586.937355815015,-20829.551751654115,8764.2182256607484,-8764.2182256607484,20829.551751654115,54366.704110901061,0.0
347154.6038362722,4680833.5216966402,-7500.0,-68985.627754066998,-16344.182834001202,12249.386110707241,9838.0964311970856,3924.752394555615,10642.560989643574,44869.968375560144,-40540.375566106646,14285.783145751475,-14285.783145751475,40540.375566106646,87230.449439229356,0.0
352154.6038362722,4680833.5216966402,-7500.0,-112134.05320738841,-38011.220576953921,3971.4716696804753,17203.557691998201,8668.489099399143,11453.096698031781,72095.719935126719,-77767.383589859513,21131.136566318386,-21131.136566318386,77767.383589859513,140900.67278664469,0.0
357154.6038362722,4680833.5216966402,-7500.0,-180159.03135653349,-71768.433037184193,-24487.674871031715,22353.067787033495,13720.707493318281,-11817.621751383793,108323.8127304341,-132331.79849525355,21610.584722870452,-21610.584722870452,132331.79849525355,209481.12596278207,0.0
362154.6038362722,4680833.5216966402,-7500.0,-267992.61573296849,-121714.09057197509,-77281.848443320705,32715.09543288458,9901.4370956600833,-127933.58379864076,157537.41752548382,-184736.71445795271,-23594.846287143111,23594.846287143111,184736.71445795271,277892.55306513922,0.0
367154.6038362722,4680833.5216966402,-7500.0,-177145.20006279525,-126677.87149951425,-209849.43526817486,-49985.04015824978,-22921.605342987415,-349278.79338546999,162219.76306526974,-112336.75849841157,-113591.4621676837,113591.4621676837,112336.75849841157,286851.19052233303,1.0
372154.6038362722,4680833.5216966402,-7500.0,261960.31631829296,188883.9436983323,36973.922360936958,-37755.961340646456,-676923.91763623129,638078.09751081199,765559.80260772817,45041.279381307831,700396.00302627636,-700396.00302627636,-45041.279381307831,1327663.6574464887,1.0
377154.6038362722,4680833.5216966402,-7500.0,1136310.5255713826,-34210.348756609375,448289.46363842994,779644.68634611566,106426.79878556647,-742601.65622997133,1225051.8806671435,734717.72509350348,-1019322.9652810493,1019322.9652810493,-734717.72509350348,2138219.2027974394,1.0
382154.6038362722,4680833.5216966402,-7500.0,-308938.73371553986,11287.934313351852,-80512.630436386753,-150520.58067849503,-1936.4052354853716,261113.76999340081,322564.3096844696,-211417.89372962169,270877.85487953702,-270877.85487953702,211417.89372962169,561503.61224095628,1.0
387154.6038362722,4680833.5216966402,-7500.0,-170299.69868600747,41685.729016263402,63023.645647471727,-12589.741486261481,52882.614694460892,-36881.025545107361,135554.85102218279,-3099.8743934018312,-32037.814598228037,32037.814598228037,3099.8743934018312,234923.28946607388,1.0
392154.6038362722,4680833.5216966402,-7500.0,-89545.496667710322,32283.963239559384,37086.562493176549,384.79505190043295,13597.099439750111,16150.94656039684,73722.201478529634,-5401.2357249493271,7541.1280646590167,-7541.1280646590167,5401.2357249493271,132305.3613993809,0.0
397154.6038362722,4680833.5216966402,-7500.0,-42702.309074759789,23522.432799633199,20558.837501622835,-2325.7741516444612,1589.5701220494661,10006.418741884823,39495.275803156379,3864.7994670517992,6867.8009493885647,-6867.8009493885647,-3864.7994670517992,71620.461518452794,0.0
402154.6038362722,4680833.5216966402,-7500.0,-25626.202727878739,16963.143445313144,12626.170831836087,349.32308268757913,-1124.8675544653029,3726.154451235775,25600.134744803756,5049.0974892604499,2580.9651557402467,-2580.9651557402467,-5049.0974892604499,45490.816554344114,0.0
407154.6038362722,4680833.5216966402,-7500.0,-18283.978145921257,12245.247395123672,8351.6408759763781,1732.2231705770841,-1472.3634033897083,1158.4109417441941,18209.559832728795,3808.2677672217073,714.54808438768896,-714.54808438768896,-3808.2677672217073,32170.580195539169,0.0
412154.6038362722,4680833.5216966402,-7500.0,-14124.034915171746,8934.317536682529,5824.2560320696202,2043.2333398482674,-1273.8942703752446,232.73574123701854,13557.026266878169,2483.1852468350726,87.840815475376303,-87.840815475376303,-2483.1852468350726,23969.085383008656,0.0
417154.6038362722,4680833.5216966402,-7500.0,-11282.493775639805,6617.0413582666051,4226.5925316439661,1898.9462277467171,-999.24271102420369,-72.670983794400513,10362.045479118733,1514.180290271077,-71.33112964498207,71.33112964498207,-1514.180290271077,18371.361769572879,0.0
422154.6038362722,4680833.5216966402,-7500.0,-9161.2779857062924,4981.3351287737069,3164.5177767815308,1617.5376543552961,-761.26640408293338,-153.08587719741249,8070.7112899458971,875.11998203670032,-76.125243790774107,76.125243790774107,-875.11998203670032,14355.089443219149,0.0
427154.6038362722,4680833.5216966402,-7500.0,-7517.3688415673787,3811.129260591098,2430.0693955265233,1328.2058130629141,-576.87959948270088,-155.8087580374837,6385.0869121489759,469.59664703230339,-40.393037700121369,40.393037700121369,-469.59664703230339,11392.116180495637,0.0
432154.6038362722,4680833.5216966402,-7500.0,-6221.3354698476096,2961.0955359051013,1905.7137340086199,1074.5305751356932,-439.08712505438228,-135.08380504348261,5121.821358579843,216.7907457829769,-2.1184541928408152,2.1184541928408152,-216.7907457829769,9163.7668041835968,0.0
437154.6038362722,4680833.5216966402,-7500.0,-5189.2022384343227,2333.9578100199224,1521.3218055729901,865.62736685465086,-337.09306772743605,-110.32977984665696,4160.1909624987093,61.161536950006443,28.135119659124875,-28.135119659124875,-61.161536950006443,7461.5740461737241,0.0
442154.6038362722,4680833.5216966402,-7500.0,-4360.7425139536581,1864.2131521693102,1233.1682093030433,698.21674092056946,-261.46661281391846,-87.92306981759107,3417.8554805694639,-33.146388307475732,49.122068245270995,-49.122068245270995,33.146388307475732,6143.3328841744024,0.0
447154.6038362722,4680833.5216966402,-7500.0,-3690.9237790767979,1507.2651793392438,1012.9761380551804,565.53288586043391,-205.0045592851244,-69.43195100242086,2837.3946688168353,-88.805595932052242,62.337848498060012,-62.337848498060012,88.805595932052242,5109.5841598635188,0.0
452154.6038362722,4680833.5216966402,-7500.0,-3145.5098712506947,1232.3466127792135,841.88747654943745,460.66825515466599,-162.46041990300978,-54.751339767294596,2378.0833061372596,-120.09268621676824,69.738684366848815,-69.738684366848815,120.09268621676824,4289.5109217911458,0.0
457154.6038362722,4680833.5216966402,-7500.0,-2698.2677938511206,1017.9306523808109,706.98886940441446,377.65544001553047,-130.07612145252648,-43.287188615471656,2010.6110763258891,-136.02239322481486,73.036887812428603,-73.036887812428603,136.02239322481486,3631.939328435486,0.0
462154.6038362722,4680833.5216966402,-7500.0,-2328.9887379412835,848.74195329436236,599.23253268506267,311.67278700623109,-105.16815606847787,-34.386630414749696,1713.5978101110011,-142.31766533308883,73.553463487079284,-73.553463487079284,142.31766533308883,3099.3975953739068,0.0
467154.6038362722,4680833.5216966402,-7500.0,-2022.0276980740507,713.79158707811473,512.15046098507514,258.94233059135848,-85.813639476449552,-27.477445066980358,1471.2513688470729,-142.63299992018665,72.250321401141434,-72.250321401141434,142.63299992018665,2664.110468530504,0.0
472154.6038362722,4680833.5216966402,-7500.0,-1765.2069319355865,605.06902683331214,441.03537532505982,216.54495535763212,-70.625234989731382,-22.098098666689285,1271.7670158401522,-139.31330288410001,69.805949164579147,-69.805949164579147,139.31330288410001,2305.2500027270057,0.0
477154.6038362722,4680833.5216966402,-7500.0,-1548.9934620805961,516.66137814982142,382.4064214259468,182.23718472850027,-58.593431755702618,-17.890016111892692,1106.2212046712154,-133.8675485934337,66.689130436536217,-66.689130436536217,133.8675485934337,2007.027139659293,0.0
482154.6038362722,4680833.5216966402,-7500.0,-1365.8804538310317,444.1523078952203,333.65248509763717,154.29567594395377,-48.976808185376505,-14.579437146894644,967.79692414182875,-127.26693606931556,63.218550485145471,-63.218550485145471,127.26693606931556,1757.3495747356728,0.0
267154.6038362722,4685833.5216966402,-7500.0,-1538.6046896054374,355.30745627201219,399.25003945396941,-156.88027313903555,42.932590880515356,-12.564203788898901,1040.4281009192857,-204.09790063483615,180.83127797976056,-180.83127797976056,204.09790063483615,1893.3910824075754,0.0
272154.6038362722,4685833.5216966402,-7500.0,-1754.8960673615827,410.98891902372662,462.76628864411884,-184.09704175510075,50.923645519696393,-14.928606208478774,1192.7027600172478,-225.3041757111356,205.25720609912003,-205.25720609912003,225.3041757111356,2168.6500966940571,0.0
277154.6038362722,4685833.5216966402,-7500.0,-2012.4930349795179,478.35952149372821,540.41919704833083,-216.8910349939122,60.779123137466534,-17.677663867237875,1375.4462671633441,-249.0967828977673,234.02489118632758,-234.02489118632758,249.0967828977673,2498.5499057923416,0.0
282154.6038362722,4685833.5216966402,-7500.0,-2321.4526204680064,560.49610134615546,636.34185681203292,-256.41260369080982,73.013624058704252,-20.765266077479641,1596.4699792424201,-275.77869603937393,268.07598443232939,-268.07598443232939,275.77869603937393,2896.9730752076798,0.0
287154.6038362722,4685833.5216966402,-7500.0,-2694.8577987656308,661.44311589888014,756.19224404514375,-303.91860269158047,88.299827323463475,-24.001902606339655,1866.0558451268537,-305.69213355467571,308.59386238880086,-308.59386238880086,305.69213355467571,3382.1548423546919,0.0
292154.6038362722,4685833.5216966402,-7500.0,-3149.9485998928444,786.55947433830158,907.84309327577455,-360.60944066482324,107.51767612023929,-26.888026812379191,2197.9065991186981,-339.26645584369345,357.08455902635859,-357.08455902635859,339.26645584369345,3978.350989506619,0.0
297154.6038362722,4685833.5216966402,-7500.0,-3709.8119152497775,942.99722467403592,1102.4460668001941,-427.2281441380602,131.8153587760705,-28.268865656525303,2610.5501753241247,-377.15852673747389,415.50709266080588,-415.50709266080588,377.15852673747389,4718.3132590189343,0.0
302154.6038362722,4685833.5216966402,-7500.0,-4406.029920941186,1140.355225831971,1356.1074891715716,-503.15612702262405,162.68054435467636,-25.613901455563646,3129.4874438731927,-420.63382750338678,486.51063664602123,-486.51063664602123,420.63382750338678,5647.1086659736438,0.0
307154.6038362722,4685833.5216966402,-7500.0,-5283.111670896451,1391.545639275495,1692.587364910308,-584.45865082011335,202.01479593198258,-13.495630212315051,3790.6425924924019,-472.56377736508074,573.92591664729628,-573.92591664729628,472.56377736508074,6828.3510597918421,0.0
312154.6038362722,4685833.5216966402,-7500.0,-6406.5516030554572,1713.8550134443199,2147.7433054737735,-659.76032137320715,252.19656015905221,19.657118927388179,4646.3016894324528,-539.99897184740769,683.89682814870741,-683.89682814870741,539.99897184740769,8355.1776013524523,0.0
317154.6038362722,4685833.5216966402,-7500.0,-7878.9410218903913,2129.9559173787911,2777.006373879954,-701.70879470717864,316.11946668871764,98.534789455366507,5776.3016024582148,-640.79148673450038,827.67832857910855,-827.67832857910855,640.79148673450038,10371.542291510876,0.0
322154.6038362722,4685833.5216966402,-7500.0,-9875.3880070560372,2667.820611653678,3668.1659194253702,-649.76860001750526,397.26088146408557,275.82299764496162,7311.3830639304997,-820.720375130918,1028.8164899233077,-1028.8164899233077,820.720375130918,13118.052863616482,0.0
327154.6038362722,4685833.5216966402,-7500.0,-12727.928127596922,3355.695007345571,4963.3316812216071,-377.24220641955009,500.21542363347896,662.59587273940372,9486.5377991942096,-1198.024251411606,1341.640226168385,-1341.640226168385,1198.024251411606,17039.695301399577,0.0
332154.6038362722,4685833.5216966402,-7500.0,-17137.634412036663,4198.4362791566355,6895.531862369402,365.44398129063654,633.81237041631584,1481.9525854517171,12768.540008802105,-2078.9006701818507,1896.6549593431494,-1896.6549593431494,2078.9006701818507,23049.53089983308,0.0
337154.6038362722,4685833.5216966402,-7500.0,-24713.304044212397,5086.0916671167315,9841.2552830723362,2025.8849757608366,826.44975792751973,3116.1809566928296,18153.955852546038,-4249.4854344602882,2993.8033101551682,-2993.8033101551682,4249.4854344602882,33148.588023594726,0.0
342154.6038362722,4685833.5216966402,-7500.0,-39254.797125810379,5460.6076251382201,14343.12241486456,5288.1768049803941,1202.6113782368814,5867.6763254597245,27803.634276286568,-9656.9145163282101,5174.6177246408006,-5174.6177246408006,9656.9145163282101,51652.607475154306,0.0
347154.6038362722,4685833.5216966402,-7500.0,-69105.703445091116,3196.2131555660262,20734.937848453959,10963.937025251114,2408.631354047895,8007.6176358235443,46106.324047435759,-22645.149527067355,8475.555324817873,-8475.555324817873,22645.149527067355,86594.28672762886,0.0
352154.6038362722,4685833.5216966402,-7500.0,-127098.37101200447,-7765.6825599536023,26185.28408624342,18663.301542547953,7634.7127371224133,-2799.7429931326692,79236.901332203532,-49633.791429793942,7251.0430546023272,-7251.0430546023272,49633.791429793942,145924.02231033664,0.0
357154.6038362722,4685833.5216966402,-7500.0,-214386.72241666541,-29165.588493274976,17004.288154879741,4857.2226782432053,16427.700947015233,-63354.941574273238,120890.61630914276,-81881.487116304561,-9974.6401322206511,9974.6401322206511,81881.487116304561,211748.15883103455,0.0
362154.6038362722,4685833.5216966402,-7500.0,-346177.62449470785,-101617.92510998483,-23205.595573048438,-80873.637699510553,-68855.043789478601,-189767.95685562989,217029.21837803625,-150332.54217545415,34275.353887657118,-34275.353887657118,150332.54217545415,378262.16173094598,0.0
367154.6038362722,4685833.5216966402,-7500.0,-159845.33528468522,-124617.3149968792,-254905.14327389651,-430508.13916341926,57176.884863637904,-562499.8432329559,497888.90587766725,-2218.4094139319932,-137090.66521240684,137090.66521240684,2218.4094139319932,863306.75161933468,1.0
372154.6038362722,4685833.5216966402,-7500.0,-1878774.6153886786,-1126194.7846862869,118261.72599068483,218601.65525268231,491272.41189899575,5787031.876339986,4118171.675450176,-3491118.8172394214,3691132.4763628822,-3691132.4763628822,3491118.8172394214,7219155.0091223028,1.0
377154.6038362722,4685833.5216966402,-7500.0,-1590311.5620987113,-652945.4802762972,-316339.90426485159,-500174.72273420304,-296519.29941745009,-668025.70081449847,1035248.6315708688,-949026.59640315338,371968.53070699051,-371968.53070699051,949026.59640315338,1895246.0770040448,1.0
382154.6038362722,4685833.5216966402,-7500.0,-499362.14169619826,-77343.786300725595,43221.782761048533,-51865.4548263662,13748.469628778488,-76990.954386742247,286557.3747838834,-212581.29839010088,60654.713649511352,-60654.713649511352,212581.29839010088,519813.658788445,1.0
387154.6038362722,4685833.5216966402,-7500.0,-238598.38983683134,-46678.826876717336,21794.152336024919,14425.534607456257,47117.575857191623,19146.974243346416,159060.09543970056,-131254.828057782,26456.663775444751,-26456.663775444751,131254.828057782,284505.1893794334,0.0
392154.6038362722,4685833.5216966402,-7500.0,-129666.87937944441,-11381.403610379035,32164.380157853087,6334.5428755459125,11305.175082546948,23023.570537201736,85396.562728399964,-58448.29248069274,26718.247924240881,-26718.247924240881,58448.29248069274,160268.68541777905,0.0
397154.6038362722,4685833.5216966402,-7500.0,-71758.017881928114,4759.3436014169329,24681.597686506739,4583.3629442650335,1097.7925984022575,9301.3938264971512,48635.930207120415,-20948.147947419682,12452.255777978666,-12452.255777978666,20948.147947419682,90490.22224578973,0.0
402154.6038362722,4685833.5216966402,-7500.0,-44648.249739812694,7588.5548105285015,16605.489352989935,4929.6868813538931,-857.2389721049168,2906.4861745164471,31810.126837109237,-8510.294643771942,4973.3400432728431,-4973.3400432728431,8510.294643771942,57865.677054320615,0.0
407154.6038362722,4685833.5216966402,-7500.0,-30563.716361096365,6889.8476424621695,11170.61655776828,4542.3132596279002,-1070.3100481771633,650.33513646712277,22308.732412967092,-4336.4817818090587,2038.59253401809,-2038.59253401809,4336.4817818090587,40263.11537600834,0.0
412154.6038362722,4685833.5216966402,-7500.0,-22196.941654217353,5587.7218234048114,7718.8986187011651,3776.5292963822603,-922.87019305904312,-64.221249308077404,16287.580514830315,-2727.2140645944032,937.94790685308953,-937.94790685308953,2727.2140645944032,29354.818643699808,0.0
417154.6038362722,4685833.5216966402,-7500.0,-16729.084101533474,4396.5511376001014,5499.4147257506174,2993.6454175947492,-730.2507201466974,-247.94116607160419,12219.533634546038,-1974.5407339872804,521.40737315323531,-521.40737315323531,1974.5407339872804,22042.179766955018,0.0
422154.6038362722,4685833.5216966402,-7500.0,-12934.104569983869,3443.9554472304872,4032.0558115821732,2328.0388682860375,-563.73145894387812,-259.13537958673061,9364.7766479377624,-1544.9305610427361,357.12915958317444,-357.12915958317444,1544.9305610427361,16919.073370386981,0.0
427154.6038362722,4685833.5216966402,-7500.0,-10196.075486292162,2711.7187435075016,3032.5662324237869,1801.8543191038086,-433.45232278955973,-221.7819511829594,7307.8141931135669,-1258.2806133681452,285.77366817570396,-285.77366817570396,1258.2806133681452,13225.016938185478,0.0
432154.6038362722,4685833.5216966402,-7500.0,-8166.419611338395,2154.2123995714996,2332.3367490071155,1398.2684831225706,-334.74099969684619,-177.25606733061045,5794.080445785643,-1047.2697235197943,248.55140455173796,-248.55140455173796,1047.2697235197943,10502.278311205842,0.0
437154.6038362722,4685833.5216966402,-7500.0,-6630.4688909109545,1728.8034087949018,1829.1049360269089,1092.0211363963238,-260.57025836739416,-137.98341405666511,4659.6554547108326,-883.18446962349731,223.8833828246041,-223.8833828246041,883.18446962349731,8458.1677409019085,0.0
442154.6038362722,4685833.5216966402,-7500.0,-5448.3076339681065,1401.8531307825785,1459.1286716938207,859.86353944215932,-204.74669408409088,-106.48760991239675,3795.5705672547965,-751.70796124488265,204.02524617657213,-204.02524617657213,751.70796124488265,6898.4688199745169,0.0
447154.6038362722,4685833.5216966402,-7500.0,-4525.1381797754675,1148.2385173326636,1181.5642865189313,683.14808075250164,-162.46897612708423,-82.166039356516166,3127.6450693351208,-644.51157794964888,186.34503905917836,-186.34503905917836,644.51157794964888,5690.9007978808731,0.0
452154.6038362722,4685833.5216966402,-7500.0,-3794.9075074299412,949.53940719143077,969.54802422228056,547.72336257719826,-130.18173894892314,-63.659723200889474,2604.3728438105181,-556.11676054354791,170.04609932721939,-170.04609932721939,556.11676054354791,4743.4799623804411,0.0
457154.6038362722,4685833.5216966402,-7500.0,-3210.5859948058069,792.29707104372119,804.97991111082808,443.10124865539206,-105.29563558800417,-49.632352425534911,2189.3632369036145,-482.61246739749663,154.94267766159032,-154.94267766159032,482.61246739749663,3991.0977695575066,0.0
462154.6038362722,4685833.5216966402,-7500.0,-2738.084823523106,666.642820589179,675.39227531352276,361.57535599007684,-85.931731533606694,-38.981117170012126,1856.4915431536613,-421.06573089236224,141.01542085674518,-141.01542085674518,421.06573089236224,3386.9247091233415,0.0
467154.6038362722,4685833.5216966402,-7500.0,-2352.315961591511,565.29101955667579,572.02335572050129,297.48857646226094,-70.72304974571378,-30.854840555097599,1586.7270935475544,-369.21386392018707,128.26227324186317,-128.26227324186317,369.21386392018707,2896.7857305036268,0.0
472154.6038362722,4685833.5216966402,-7500.0,-2034.5621843822898,482.81707920556033,488.60179412707936,246.67389117815677,-58.669185824257355,-24.615449352097361,1366.0160973327561,-325.28107798216433,116.65796348496497,-116.65796348496497,325.28107798216433,2495.4006454546702,0.0
477154.6038362722,4685833.5216966402,-7500.0,-1770.6879490249778,415.1452582052305,420.56384249902658,206.04430181049858,-49.032474679714291,-19.790417466017686,1183.8486375741659,-287.85831849047656,106.15094269480107,-106.15094269480107,287.85831849047656,2163.8348589828047,0.0
267154.6038362722,4690833.5216966402,-7500.0,-1345.1564155596975,445.02503242864242,369.07366137075309,-138.38988056133834,50.3686417695004,-11.400438938217421,973.3857233494266,-72.233837808438523,121.08002412010629,-121.08002412010629,72.233837808438523,1757.9343751195627,0.0
272154.6038362722,4690833.5216966402,-7500.0,-1521.3331459348869,518.40159640955665,425.28144259848682,-161.09093129413426,60.058925148796888,-13.44838560581343,1111.9065401795151,-67.21679169026622,133.04679334883878,-133.04679334883878,67.21679169026622,2005.6537756615787,0.0
277154.6038362722,4690833.5216966402,-7500.0,-1728.0674220056403,608.00700871623906,493.42465079273478,-188.02606261684954,72.073374674351072,-15.785421966145529,1277.2723526517962,-58.007798874693499,146.02301120423468,-146.02301120423468,58.007798874693499,2300.8212599649783,0.0
282154.6038362722,4690833.5216966402,-7500.0,-1971.8383834411195,718.38066107728423,576.83556065272023,-219.87867349596786,87.062990394068578,-18.337371105619532,1476.1190213441985,-42.712932950428069,159.85400600172841,-159.85400600172841,42.712932950428069,2655.0066021183202,0.0
287154.6038362722,4690833.5216966402,-7500.0,-2260.7091143300045,855.61044515373192,680.02739676897158,-257.25752449852837,105.87419183551933,-20.882623912965379,1717.0977830153627,-18.602261047745586,174.19619727896117,-174.19619727896117,18.602261047745586,3083.2441409626845,0.0
292154.6038362722,4690833.5216966402,-7500.0,-2604.7659321238552,1027.9631245749804,809.21335790855505,-300.46136303623314,129.59952685101157,-22.892065655198319,2011.6202180820824,18.26824710307389,188.40053566735813,-188.40053566735813,-18.26824710307389,3605.3026372407021,0.0
297154.6038362722,4690833.5216966402,-7500.0,-3016.7243983163962,1246.8184038104716,973.10343534723495,-348.98169097815912,159.62538450392472,-23.203802133301014,2374.9514077154604,73.597177416892904,201.3408535991453,-201.3408535991453,-73.597177416892904,4247.5562097566453,0.0
302154.6038362722,4690833.5216966402,-7500.0,-3512.841333412744,1528.082702083733,1184.1576849491573,-400.48261914197565,197.64915659204559,-19.355506352953849,2827.8801592763475,155.58303750738116,211.1814802014394,-211.1814802014394,-155.58303750738116,5045.8704191874485,0.0
307154.6038362722,4690833.5216966402,-7500.0,-4114.4888872176734,1894.3863428547704,1460.6090318576325,-448.74078945187824,245.5952370956098,-6.1989545658072469,3399.4247547035711,275.87166497351848,215.12137213776106,-215.12137213776106,-275.87166497351848,6050.3552888496488,0.0
312154.6038362722,4690833.5216966402,-7500.0,-4851.363691296433,2378.620232052202,1829.8225174655083,-479.5344383019235,305.26136011856516,27.004342200283297,4131.593293988255,450.52321900570797,209.30008697579211,-209.30008697579211,-450.52321900570797,7333.9180900260344,0.0
317154.6038362722,4690833.5216966402,-7500.0,-5769.063390721969,3029.9084315017931,2334.0493380026023,-462.57143749614522,377.31095134069653,102.69014082191175,5088.6706118862348,700.26616340961255,189.48991300073345,-189.48991300073345,-700.26616340961255,9009.3555609961895,0.0
322154.6038362722,4690833.5216966402,-7500.0,-6948.8319955229317,3924.3878080776039,3040.6154948501221,-336.15490835214564,458.78654533511673,267.62740394908201,6377.402942651117,1047.811714157853,154.37586200550078,-154.37586200550078,-1047.811714157853,11267.245441723877,0.0
327154.6038362722,4690833.5216966402,-7500.0,-8561.7361775399004,5186.445371032999,4060.6475502069807,19.801263408310223,537.57361507830433,617.37123604313865,8194.6446004243389,1506.4834580093482,115.90636839836998,-115.90636839836998,-1506.4834580093482,14466.65638747407,0.0
332154.6038362722,4690833.5216966402,-7500.0,-11019.49295162065,7035.1242608853636,5585.1209301606668,822.6453803886784,581.78734398104211,1333.443955936747,10942.856336833036,2048.4667034577969,124.6577336384106,-124.6577336384106,-2048.4667034577969,19357.610664901535,0.0
337154.6038362722,4690833.5216966402,-7500.0,-15384.160518499695,9896.4017472666055,7959.4635535708685,2410.7110401049599,526.81836977466833,2681.5685127417501,15499.751284220134,2544.6322975649764,304.18435027721353,-304.18435027721353,-2544.6322975649764,27598.174970927936,0.0
342154.6038362722,4690833.5216966402,-7500.0,-24383.440710342162,14695.298707504053,11860.607807748196,5143.0992047820164,300.44118325703784,4610.323844045598,23818.395407383854,2773.9485952641194,723.60536922539859,-723.60536922539859,-2773.9485952641194,42789.001415064973,0.0
347154.6038362722,4690833.5216966402,-7500.0,-44307.538239666632,23624.503830646307,18824.162479075363,9016.074047790049,143.70601973423055,4183.8797477814032,40259.371530561599,3297.9424576880879,-78.783373845274127,78.783373845274127,-3297.9424576880879,72069.173978629085,0.0
352154.6038362722,4690833.5216966402,-7500.0,-84417.341478602466,42022.774956715148,33070.067197110024,11966.292526727011,2806.501840361796,-15502.643834250483,73215.432164549275,11578.056101910755,-12981.27033290984,12981.27033290984,-11578.056101910755,127306.18278887642,0.0
357154.6038362722,4690833.5216966402,-7500.0,-132292.79077739606,86791.346260608756,64115.654117082064,-41786.157901845268,25455.880719817887,-82206.01344747527,142339.07342174911,64173.982526973406,-48305.639255429131,48305.639255429131,-64173.982526973406,247038.3864249925,0.0
362154.6038362722,4690833.5216966402,-7500.0,-572932.04240014846,194573.48902937552,237430.10079092017,-308152.41842576629,-68151.656869634302,500530.8094493738,653488.39299575309,-139399.34239508637,504159.74738036148,-504159.74738036148,139399.34239508637,1162540.2582292473,1.0
367154.6038362722,4690833.5216966402,-7500.0,-4132229.7619049139,-2881836.0793533525,-3408795.5605523675,-2693050.6579872123,-2338754.1665374995,597884.92233130499,5093754.1616230849,-4810524.4023605473,4208251.8161344305,-4208251.8161344305,4810524.4023605473,9086101.0059073754,1.0
372154.6038362722,4690833.5216966402,-7500.0,154117.91824895426,561045.29467904894,-186167.31225598181,-141887.67711748771,-282435.25320215325,882670.03867825575,837284.24757541681,137480.94347687496,615714.56175939552,-615714.56175939552,-137480.94347687496,1462367.457265429,1.0
377154.6038362722,4690833.5216966402,-7500.0,-249476.99526414636,-385293.20929845906,-511417.5605115334,90359.931718981054,48605.397015164999,-219512.73635682996,418439.42665256542,-490557.82546030637,-49286.83746073689,49286.83746073689,490557.82546030637,744509.46836268518,1.0
382154.6038362722,4690833.5216966402,-7500.0,-338608.86893925624,-214061.7920672264,-105732.82791100272,42120.749986596515,36097.313500408047,39523.189032802977,260176.87691961555,-347177.52292747359,92270.518804152205,-92270.518804152205,347177.52292747359,505822.18262746843,0.0
387154.6038362722,4690833.5216966402,-7500.0,-195603.95811517508,-95186.876321945281,-16100.620678515072,11407.992252809732,18118.816187987657,44472.446766889349,144473.71081088332,-170432.12494915762,64856.406016138098,-64856.406016138098,170432.12494915762,274445.87453547498,0.0
392154.6038362722,4690833.5216966402,-7500.0,-119364.07594914432,-42292.475375863185,12759.190761117572,9876.9513367376694,7144.0971311325366,19393.457019105215,80027.614298903587,-82737.234023039055,31409.733133497917,-31409.733133497917,82737.234023039055,155527.64808882002,0.0
397154.6038362722,4690833.5216966402,-7500.0,-77879.323575281029,-16907.843972214272,17434.616878272231,9837.1736475561884,2510.039746987974,6388.4424352975684,51172.090799019592,-41443.169218309922,13792.268253538889,-13792.268253538889,41443.169218309922,96544.017005653994,0.0
402154.6038362722,4690833.5216966402,-7500.0,-53114.376805273663,-5949.9098665618731,14509.755315817822,8513.8330945126563,770.46271106974677,1569.8099572408287,34978.349667900642,-22580.5045686415,6188.2198236192853,-6188.2198236192853,22580.5045686415,64736.805906357564,0.0
407154.6038362722,4690833.5216966402,-7500.0,-37596.647776105077,-1483.9213864949725,10811.53632708612,6754.6741588134028,113.29686813617045,28.570247238976172,24837.30869714143,-13522.305438575422,3058.712204901879,-3058.712204901879,13522.305438575422,45619.757606063438,0.0
412154.6038362722,4690833.5216966402,-7500.0,-27442.531032040843,274.66568508271445,7878.9140620013195,5147.3465420582461,-128.04139836170194,-375.40499533842183,18136.401636152899,-8767.562787212757,1730.8206209569603,-1730.8206209569603,8767.562787212757,33225.665170860826,0.0
417154.6038362722,4690833.5216966402,-7500.0,-20544.883715692707,912.53700473447634,5775.7474566307556,3865.3731656983937,-202.9015660591138,-415.44682935604277,13551.02363262216,-6039.7494195580693,1122.8198026104742,-1122.8198026104742,6039.7494195580693,24811.19461655417,0.0
422154.6038362722,4690833.5216966402,-7500.0,-15713.250200660796,1084.7113911574615,4299.1797283761452,2898.9168081417261,-210.91041207413096,-355.06035622376822,10329.982006464927,-4353.7654227566454,812.56855689339091,-812.56855689339091,4353.7654227566454,18918.008638791864,0.0
427154.6038362722,4690833.5216966402,-7500.0,-12241.782113951918,1066.798336770772,3257.8032862848213,2186.2978140150713,-193.68239351045682,-279.5705101503541,8016.9803247021482,-3248.8938011892806,633.18386484255552,-633.18386484255552,3248.8938011892806,14689.749582001423,0.0
432154.6038362722,4690833.5216966402,-7500.0,-9693.1935483456473,977.16483238468106,2513.1324006349269,1663.8067210414349,-168.83212354902335,-213.5431363774052,6323.1755962945026,-2491.2194183334741,516.35955793827827,-516.35955793827827,2491.2194183334741,11593.156899513448,0.0
437154.6038362722,4690833.5216966402,-7500.0,-7786.6281706533955,866.96928975591766,1971.5660640347755,1279.6450103661075,-143.63669628284202,-161.56582867800705,5060.4960516886376,-1952.7850238809147,432.7049261755368,-432.7049261755368,1952.7850238809147,9283.6612854881623,0.0
442154.6038362722,4690833.5216966402,-7500.0,-6336.3452163696593,757.83962411119853,1570.8053908777388,995.15964852082618,-120.8464442509386,-122.26481286713332,4103.710383945966,-1559.0356917565919,368.71665386244081,-368.71665386244081,1559.0356917565919,7532.5930997142932,0.0
447154.6038362722,4690833.5216966402,-7500.0,-5216.4727310123917,658.20644307281702,1269.2195590873268,782.50926391906467,-101.2443671385404,-92.987946244383267,3367.771212954633,-1264.2196375424696,317.65761107319975,-317.65761107319975,1264.2196375424696,6184.8505018061796,0.0
452154.6038362722,4690833.5216966402,-7500.0,-4339.9073805365151,570.60295384190738,1038.6593915832104,621.90580855211635,-84.793358206693767,-71.246038735398855,2793.8703782739781,-1039.0484359781731,275.82741794012003,-275.82741794012003,1039.0484359781731,5133.2059725296476,0.0
457154.6038362722,4690833.5216966402,-7500.0,-3645.2483097921972,494.99817231095545,859.80514058866493,499.31713214903277,-71.150772141155159,-55.053734874946691,2340.652446595841,-864.11027306092365,240.98018493469198,-240.98018493469198,864.11027306092365,4302.2313842422691,0.0
462154.6038362722,4690833.5216966402,-7500.0,-3088.4876837478087,430.33554612764362,719.18500235212366,404.75708488566585,-59.894817801257631,-42.922465688318958,1978.5735386722786,-726.1617005602302,211.62380038944787,-211.62380038944787,726.1617005602302,3638.0126985843253,0.0
467154.6038362722,4690833.5216966402,-7500.0,-2637.6025597296371,375.23850475594696,607.25509899515782,331.07061008732387,-50.618821500597939,-33.764849080138873,1686.2139908570591,-615.94360508023999,186.6930844212774,-186.6930844212774,615.94360508023999,3101.4369507574138,0.0
472154.6038362722,4690833.5216966402,-7500.0,-2268.9635536400451,328.32377206835747,517.15003006823792,273.08731923978314,-42.965427081134862,-26.794285523945568,1447.8277333795377,-526.84443776108515,165.38736790491362,-165.38736790491362,526.84443776108515,2663.7325892089243,0.0
477154.6038362722,4690833.5216966402,-7500.0,-1964.9112242725439,288.32996417325273,443.85934535251062,227.03622853861899,-36.634299535246456,-21.442761707035437,1251.6902864039869,-454.05582302464609,147.08357516638671,-147.08357516638671,454.05582302464609,2303.4627746267538,0.0
267154.6038362722,4695833.5216966402,-7500.0,-1137.547872848653,509.3879601417982,329.86340156128432,-118.7030521473942,55.249714804165528,-10.151498261081329,899.98048396129536,43.462777948081147,65.995640055334235,-65.995640055334235,-43.462777948081147,1612.3961676453207,0.0
272154.6038362722,4695833.5216966402,-7500.0,-1270.4822413308289,593.52165959719048,376.5773707829066,-136.60529176404074,65.858750888222147,-11.865686175315568,1023.1975788501875,70.078485015508988,66.945860233491118,-66.945860233491118,-70.078485015508988,1830.2195298067143,0.0
277154.6038362722,4695833.5216966402,-7500.0,-1422.3927275043764,696.06279918821292,432.36741864847932,-157.33107385774014,78.967438926491582,-13.773743194177975,1169.1661792017328,106.03081353444755,66.115295044533255,-66.115295044533255,-106.03081353444755,2087.6228874918711,0.0
282154.6038362722,4695833.5216966402,-7500.0,-1595.9219477294382,822.03888395380375,499.52356790018649,-181.08773448376962,95.243398486722128,-15.778884655576352,1343.1735968631237,154.71584887035652,62.494495903712348,-62.494495903712348,-154.71584887035652,2393.6324511053722,0.0
287154.6038362722,4695833.5216966402,-7500.0,-1793.7624632881079,978.1272943917337,581.06562075304316,-207.83553095106143,115.5305059774265,-17.64032870298081,1551.9901078227849,220.89179992295345,54.579409303096654,-54.579409303096654,-220.89179992295345,2759.757465634892,0.0
292154.6038362722,4695833.5216966402,-7500.0,-2018.3659320789868,1173.290687894131,681.03367933856703,-236.99508884054418,140.8729189805162,-18.828721835254139,1804.3667390138999,311.2784817645736,40.130769363405847,-40.130769363405847,-311.2784817645736,3200.8164611753045,0.0
297154.6038362722,4695833.5216966402,-7500.0,-2271.4038208555094,1419.6982608834078,804.92150555009448,-266.88838742326891,172.50804566415522,-18.240348282900893,2111.7461244650171,435.43635492370561,15.821803317063569,-15.821803317063569,-435.43635492370561,3736.1282178426059,0.0
302154.6038362722,4695833.5216966402,-7500.0,-2552.8343610288848,1734.0893523540415,960.33877071831864,-293.67936510870703,211.77222865883533,-13.627440596049217,2489.3277118433634,607.05207694897649,-23.26213377571986,23.26213377571986,-607.05207694897649,4391.3285568722376,0.0
307154.6038362722,4695833.5216966402,-7500.0,-2859.3972962170351,2139.851382639325,1158.048061453748,-309.37853949015715,259.79039165765772,-0.45140935911112323,2957.7844426486836,845.80146911210113,-84.289871056153629,84.289871056153629,-845.80146911210113,5201.3738674601545,0.0
312154.6038362722,4695833.5216966402,-7500.0,-3182.4432624929354,2670.3309650324118,1413.6257640779718,-298.12280125848633,316.66388168565965,30.437203477019445,3546.3308820196526,1179.9990545698238,-177.44790015056958,177.44790015056958,-1179.9990545698238,6216.0512412714761,0.0
317154.6038362722,4695833.5216966402,-7500.0,-3505.5178658588106,3374.4839320928631,1750.1672255282529,-229.39593454693511,379.54480941270219,97.468571283671309,4298.9136672589757,1650.2664042660056,-316.46713412931786,316.46713412931786,-1650.2664042660056,7511.2602563868313,0.0
322154.6038362722,4695833.5216966402,-7500.0,-3803.9930212965755,4327.5239364176432,2202.6885512096842,-46.329406786085833,438.37727848363892,237.45080330857346,5288.1461057052802,2314.5542555595248,-517.94682495874486,517.94682495874486,-2314.5542555595248,9214.2921036195294,0.0
327154.6038362722,4695833.5216966402,-7500.0,-4054.5163881350418,5653.6583567243006,2824.9724491627594,351.84462426983691,467.28696813748138,521.48162103610673,6648.5475035779418,3255.9476428264252,-797.58398551927189,797.58398551927189,-3255.9476428264252,11563.070998363059,1.0
332154.6038362722,4695833.5216966402,-7500.0,-4274.8134498511126,7581.0714018820245,3698.4529792901994,1125.6192875217284,410.36913440771747,1073.1643135144895,8653.5315732337804,4602.1096337981953,-1163.3718821448283,1163.3718821448283,-4602.1096337981953,15041.847883991326,0.0
337154.6038362722,4695833.5216966402,-7500.0,-4628.1769724768501,10586.776824665028,4935.7986953307745,2465.6920603594531,173.4598985830807,2036.7378304579363,11871.790175113132,6605.2884674045099,-1633.3015176198469,1633.3015176198469,-6605.2884674045099,20657.113654286728,0.0
342154.6038362722,4695833.5216966402,-7500.0,-5539.7150416559507,15778.836397386525,6646.064063907872,4366.8015399458664,-292.90359666700448,3213.2856876026544,17441.661769462586,10014.308624231806,-2475.1363751246754,2475.1363751246754,-10014.308624231806,30378.041075150402,0.0
347154.6038362722,4695833.5216966402,-7500.0,-6956.6596455908684,25726.285217481105,8796.0218603780031,5842.8792531595846,-393.23498526181743,2254.9932518785131,27521.239960202663,17636.56857681476,-5619.4524802446613,5619.4524802446613,-17636.56857681476,47710.587482549963,0.0
352154.6038362722,4695833.5216966402,-7500.0,-2055.5135283030336,44612.556776799916,11753.218436134272,2498.5337277432159,4585.9951890353068,-11241.086634516338,45375.822935681419,39440.185875080082,-20301.8766284788,20301.8766284788,-39440.185875080082,80340.274353501372,0.0
357154.6038362722,4695833.5216966402,-7500.0,42661.443955118957,68568.058654615088,35233.711839862684,-22199.574569207351,50927.187295802942,-63532.520972552469,106294.73119539036,103491.26450922486,-81797.435555685865,81797.435555685865,-103491.26450922486,184139.84799991234,0.0
362154.6038362722,4695833.5216966402,-7500.0,195832.29475068126,189655.69248768594,266377.00708170928,81133.407276458922,199842.35806379354,-364892.11989404977,449434.91482195258,419335.02943885309,-452130.74317313061,452130.74317313061,-419335.02943885309,778724.08899554843,1.0
367154.6038362722,4695833.5216966402,-7500.0,173877.54658507864,-200192.91640779504,-317320.25605583726,83858.460135424088,-155197.19667551684,-321185.84010778123,380859.35762832558,-86505.257120479189,-110514.37813730608,110514.37813730608,86505.257120479189,675851.93302069651,1.0
372154.6038362722,4695833.5216966402,-7500.0,-67182.807995411786,-111486.93272392207,-218386.2657684022,81902.391935389212,80663.824412715723,-116641.25084881452,170233.35492523987,-151515.65453241538,-103864.51247766132,103864.51247766132,151515.65453241538,307834.87012020743,1.0
377154.6038362722,4695833.5216966402,-7500.0,-107266.30869059401,-195741.81699149864,-288698.52469555644,112861.0635976816,103162.60596140868,7534.4031826539567,269290.54667393427,-297636.80184415774,-25468.744888026034,25468.744888026034,297636.80184415774,502006.3800371798,0.0
382154.6038362722,4695833.5216966402,-7500.0,-147600.18122718096,-168182.38906105876,-128908.3335269005,41610.421001748829,27715.229125367878,52489.958338071447,187359.09823536762,-248157.7516444762,65755.678655591095,-65755.678655591095,248157.7516444762,359165.73592383537,0.0
387154.6038362722,4695833.5216966402,-7500.0,-119064.33669373606,-98484.831300184422,-40885.132898475735,17889.257142125247,11568.493839364979,28529.714040407758,109350.47039521992,-145661.98187735581,45938.217979377085,-45938.217979377085,145661.98187735581,216371.34525616857,0.0
392154.6038362722,4695833.5216966402,-7500.0,-89893.58027679901,-55917.529244533231,-7001.3757409966729,14399.129292147101,7684.6436036664172,10747.243257911561,70629.113288679582,-85062.545312042377,23224.18662540998,-23224.18662540998,85062.545312042377,137247.32948571679,0.0
397154.6038362722,4695833.5216966402,-7500.0,-67835.397409999787,-31386.984578656178,4881.3253303339498,12618.15980235309,4886.8134600760459,2991.4953373578169,49114.56800187195,-51389.532706972335,11401.599548127786,-11401.599548127786,51389.532706972335,93051.577581831531,0.0
402154.6038362722,4695833.5216966402,-7500.0,-50959.022479829204,-17390.268540089539,7712.4609133351269,10233.241594388774,2852.9856114360091,257.91294301744358,35077.033244540093,-32143.397334918038,5983.0759356413673,-5983.0759356413673,32143.397334918038,65623.048256888695,0.0
407154.6038362722,4695833.5216966402,-7500.0,-38260.581825428068,-9605.3430513294261,7321.1107689801102,7851.6115308999697,1587.3806560958305,-517.49906253457914,25510.241279325703,-20870.930663291037,3485.6455172061342,-3485.6455172061342,20870.930663291037,47446.053455413276,0.0
412154.6038362722,4695833.5216966402,-7500.0,-28904.379069751605,-5314.2329532278154,6094.2823156210206,5871.0487792743679,857.96350575051042,-626.51233016623769,18870.729892106276,-14065.27355936787,2259.8509254125247,-2259.8509254125247,14065.27355936787,35002.795952198656,0.0
417154.6038362722,4695833.5216966402,-7500.0,-22068.684797023139,-2933.8255177929486,4851.750392302858,4356.9493031158099,450.4116479087989,-542.87519541740869,14199.097428273055,-9809.191733494943,1599.4675668119744,-1599.4675668119744,9809.191733494943,26305.242398874077,0.0
422154.6038362722,4695833.5216966402,-7500.0,-17064.333528271174,-1596.1370507739002,3813.4484366233955,3241.0594373402328,225.44437968129546,-425.53832176419633,10864.131698691179,-7051.8111032428696,1205.4182100968669,-1205.4182100968669,7051.8111032428696,20116.137353041628,0.0
427154.6038362722,4695833.5216966402,-7500.0,-13371.007470560109,-834.38584853888221,2999.6359966235282,2429.4107043289896,102.13124666497188,-321.37573414481915,8446.3088518936238,-5205.8308216475671,947.44702582488617,-947.44702582488617,5205.8308216475671,15636.047715746026,0.0
432154.6038362722,4695833.5216966402,-7500.0,-10614.923697614815,-396.35141374201942,2375.6143123650841,1839.6988558947064,35.218726194043192,-239.74058343209936,6665.5821449888517,-3933.0918969749628,765.75450111363693,-765.75450111363693,3933.0918969749628,12338.872391063682,0.0
437154.6038362722,4695833.5216966402,-7500.0,-8532.7715676387343,-143.59828725778306,1899.19391945096,1408.972350932261,-0.34335364897844078,-178.70085130080616,5333.630904687504,-3032.3644615079547,630.86937024078657,-630.86937024078657,3032.3644615079547,9873.4236758543593,0.0
442154.6038362722,4695833.5216966402,-7500.0,-6939.8373663948196,1.3540661953257125,1534.0900771287668,1091.6547238508365,-18.444992467071742,-133.85785127138945,4322.479433253251,-2379.9912561927567,527.02233751597396,-527.02233751597396,2379.9912561927567,8001.9737032286494,0.0
447154.6038362722,4695833.5216966402,-7500.0,-5706.0332710748553,82.745553321107181,1252.1586520967335,855.48436266116084,-26.836589974993455,-101.04865573684702,3544.0504750231603,-1897.679166698219,445.03136002836834,-445.03136002836834,1897.679166698219,6561.2491394292601,0.0
452154.6038362722,4695833.5216966402,-7500.0,-4739.0081525421265,126.31351949898757,1032.4121544251432,677.78589474526723,-29.874068483895197,-76.97906750106722,2936.8945402925633,-1534.4947464484499,379.12028673252973,-379.12028673252973,1534.4947464484499,5437.4628338260691,0.0
457154.6038362722,4695833.5216966402,-7500.0,-3972.5335792003843,147.28287123751952,859.41952424012902,542.60453876672955,-30.020021888239548,-59.210423422996783,2457.5362215158934,-1256.4801228974059,325.41450221046739,-325.41450221046739,1256.4801228974059,4550.1554195610615,0.0
462154.6038362722,4695833.5216966402,-7500.0,-3358.5872761714782,154.78773391829418,721.86204049258708,438.65208286936939,-28.670607018774962,-45.986936395134201,2074.7887449509899,-1040.4883170660573,281.18304216723305,-281.18304216723305,1040.4883170660573,3841.6247256051861,0.0
467154.6038362722,4695833.5216966402,-7500.0,-2861.9504653418353,154.36954593380398,611.40802425786819,357.8781358983822,-26.615597753069711,-36.057564414434722,1765.9782878917131,-870.42163956903789,244.42903456447414,-244.42903456447414,870.42163956903789,3269.9229512909765,0.0
472154.6038362722,4695833.5216966402,-7500.0,-2456.5022306653141,149.41675066386185,521.88400647625633,294.48822356350041,-24.297372816548322,-28.532335960448851,1514.4075693177267,-734.87895923555493,213.65263932373159,-213.65263932373159,734.87895923555493,2804.1589457752571,0.0
477154.6038362722,4695833.5216966402,-7500.0,-2122.6547351149816,142.00911703172912,448.67789444586714,244.27035994858306,-21.958233013670952,-22.77609825106174,1307.6290224796649,-625.65000793482454,187.70462542274174,-187.70462542274174,625.65000793482454,2421.3024615928716,0.0
267154.6038362722,4700833.5216966402,-7500.0,-925.71193056886864,547.44365032862379,286.14369790419249,-98.710004895848741,57.532459085182694,-8.8683867248504704,822.52502624531348,139.88869313274529,17.503847174641216,-17.503847174641216,-139.88869313274529,1461.6287958007326,0.0
272154.6038362722,4700833.5216966402,-7500.0,-1015.520571613727,635.27354151464999,322.71769699727395,-111.84928328998329,68.282974223108155,-10.250152678134722,929.63475052087256,182.62802636860926,9.4657733450108594,-9.4657733450108594,-182.62802636860926,1648.7555403118718,0.0
277154.6038362722,4700833.5216966402,-7500.0,-1113.1757962950001,741.35416186181408,365.48289212893775,-126.46709907731916,81.434761405800671,-11.737884596588213,1055.2239974425015,237.94141342650803,-2.3887111641462582,2.3887111641462582,-237.94141342650803,1867.5226570936265,0.0
282154.6038362722,4700833.5216966402,-7500.0,-1217.8319038565901,870.27385209316947,415.75421649348652,-142.34827920144505,97.562494293978489,-13.219741514035142,1203.1930255739339,309.93187808556291,-19.592281008065527,19.592281008065527,-309.93187808556291,2124.4600530537177,0.0
287154.6038362722,4700833.5216966402,-7500.0,-1327.4051622172783,1027.9380750346286,475.19528896534382,-158.89899948487709,117.35067368857656,-14.450141227373164,1378.388636635053,404.20057199301516,-44.309226394366561,44.309226394366561,-404.20057199301516,2427.6565318847242,0.0
292154.6038362722,4700833.5216966402,-7500.0,-1437.7346623731369,1221.9728202389463,545.94078008054692,-174.8290539554402,141.5711772139355,-14.926988514971146,1586.8586822205491,528.44478691736094,-79.602560863620084,79.602560863620084,-528.44478691736094,2787.1915623075984,0.0
297154.6038362722,4700833.5216966402,-7500.0,-1541.2267713440078,1462.2452488517567,630.78066101519221,-187.58937568489205,170.99676054261991,-13.657694030084542,1836.1899635834909,693.30477853134357,-129.80622789035436,129.80622789035436,-693.30477853134357,3215.7370359138122,0.0
302154.6038362722,4700833.5216966402,-7500.0,-1624.6808963021044,1761.5253385770106,733.4501094649919,-192.37924544701056,206.17136215208188,-8.7107603840783003,2135.985147974106,913.55641723818644,-201.02484854982032,201.02484854982032,-913.55641723818644,3729.4685691040318,0.0
307154.6038362722,4700833.5216966402,-7500.0,-1665.8459328741073,2136.3143554833086,859.10825761739363,-180.40671031861336,246.87289705764138,3.6475013374254059,2498.6195823083208,1209.7725739550799,-301.75477175444212,301.75477175444212,-1209.7725739550799,4349.6210237061587,0.0
312154.6038362722,4700833.5216966402,-7500.0,-1628.074822129596,2607.8819484788614,1015.1576512095724,-135.89049918365669,290.93615955153251,30.61093527551834,2940.6523634015603,1610.5999717698032,-443.53033189547659,443.53033189547659,-1610.5999717698032,5105.4969684262423,0.0
317154.6038362722,4700833.5216966402,-7500.0,-1452.3380045035235,3203.6629787159795,1212.676732833153,-31.089985916108841,331.79832267621089,85.959813186503453,3485.9391437078193,2155.8378410828259,-641.27570417414563,641.27570417414563,-2155.8378410828259,6040.9119309609132,0.0
322154.6038362722,4700833.5216966402,-7500.0,-1046.0394113415723,3959.6108767785322,1468.8859379051326,181.21820887339979,353.68782172605484,195.63366671876778,4173.2659524972141,2900.7200344153753,-912.62978525936296,912.62978525936296,-2900.7200344153753,7228.6407211504566,0.0
327154.6038362722,4700833.5216966402,-7500.0,-268.86728333766655,4925.6502936624247,1811.0365832870175,576.587285969199,323.27662115632415,406.15553313954524,5075.1944576896367,3923.0195680697234,-1275.2848210057409,1275.2848210057409,-3923.0195680697234,8801.9684045028971,0.0
332154.6038362722,4700833.5216966402,-7500.0,1083.9553184142769,6180.6692253548281,2281.0181422281171,1260.1590487007138,179.69747864787971,790.55340133853224,6337.9441522800516,5340.1993946626008,-1744.3984613506068,1744.3984613506068,-5340.1993946626008,11015.133084614861,0.0
337154.6038362722,4700833.5216966402,-7500.0,3312.8118434125981,7870.9627401170001,2936.0243781053346,2328.4300047755851,-156.49960003210748,1418.9862290464864,8231.9710719539962,7364.921552914062,-2353.5149732377081,2353.5149732377081,-7364.921552914062,14325.130823257756,0.0
342154.6038362722,4700833.5216966402,-7500.0,6944.8590875642822,10273.908273580193,3842.7203078657385,3718.7597506545676,-657.48310881385567,2166.2936075766779,11135.903716312991,10485.667186853167,-3316.7541722761448,3316.7541722761448,-10485.667186853167,19418.499627274276,0.0
347154.6038362722,4700833.5216966402,-7500.0,13234.312495387883,13729.883675279447,5205.9391656639136,4936.1244743313327,-614.69086831035986,2035.3269234685517,15331.278462180424,15921.585057458109,-5725.6721265279311,5725.6721265279311,-15921.585057458109,27197.813245830363,0.0
352154.6038362722,4700833.5216966402,-7500.0,24635.496668882028,18169.875329348051,8742.2585168038859,5590.1031158511296,2901.5725709598,-2115.2181224918741,20630.303077438428,26285.038217646812,-13446.06427048084,13446.06427048084,-26285.038217646812,40650.689010566814,0.0
357154.6038362722,4700833.5216966402,-7500.0,40868.513784601448,28743.079696212368,18154.826907031511,11331.128363244559,12890.002828683042,-15382.169655311916,41866.717399745714,47523.809579255292,-34776.49400250183,34776.49400250183,-47523.809579255292,75924.464889243231,1.0
362154.6038362722,4700833.5216966402,-7500.0,78157.728464046493,56950.177418172847,-28664.644260141125,30245.949370033773,385.11772439540175,-33282.24205843488,83999.265366239153,71628.291148111428,-55982.574527096695,55982.574527096695,-71628.291148111428,156206.49700862245,0.0
367154.6038362722,4700833.5216966402,-7500.0,85583.663501991687,19028.25056740097,-117897.98471519475,15292.2370484085,-21805.837351126414,-5121.0483410801289,106717.11625496825,9604.379084647333,-9058.1061292115319,9058.1061292115319,-9604.379084647333,185444.45468489252,1.0
372154.6038362722,4700833.5216966402,-7500.0,58470.312616514275,-38961.03938447289,-207961.21323031865,20040.800859932071,43552.989374199446,23135.334822313613,145548.48214010213,-83136.069251807625,-9456.9831094233959,9456.9831094233959,83136.069251807625,272524.02479172481,1.0
377154.6038362722,4700833.5216966402,-7500.0,855.8437770062061,-101216.25018643694,-188484.88150007027,29568.937984315449,41957.84860884423,37018.235118911114,148601.89940138988,-151704.78486453125,17797.707631765661,-17797.707631765661,151704.78486453125,287477.26791185298,0.0
382154.6038362722,4700833.5216966402,-7500.0,-42698.087422851801,-104539.91408809222,-111171.56914747498,22637.574679671812,23113.167277382541,25072.921639411608,114044.85399168423,-141722.31459614614,27905.953508551931,-27905.953508551931,141722.31459614614,223266.34340813875,0.0
387154.6038362722,4700833.5216966402,-7500.0,-58136.549627079366,-80073.070743138131,-53947.455726607899,17598.010301891354,14693.811450026849,11513.497548928166,81989.779840766118,-106076.19007386474,20858.45003975385,-20858.45003975385,106076.19007386474,159338.60533713899,0.0
392154.6038362722,4700833.5216966402,-7500.0,-57566.785056399647,-55528.874299440715,-22937.259392220818,15019.435826634797,10416.239049933805,3776.6107501176207,59761.473434362772,-74707.33726459177,12713.287780745555,-12713.287780745555,74707.33726459177,114413.87881619927,0.0
397154.6038362722,4700833.5216966402,-7500.0,-50812.764569957217,-36862.57904329586,-7552.9354144362542,12659.788300470707,7123.4218376673725,440.73787778393068,44143.998105538725,-51789.487204865327,7633.6082076320454,-7633.6082076320454,51789.487204865327,83610.441386552266,0.0
402154.6038362722,4700833.5216966402,-7500.0,-42297.30859561851,-23849.938544117231,-558.02970089777568,10156.284551720235,4602.6593765324578,-669.18867601211321,32827.71459101548,-35804.155273925782,4873.0328326030067,-4873.0328326030067,35804.155273925782,61781.894895472979,0.0
407154.6038362722,4700833.5216966402,-7500.0,-34093.324532240178,-15250.634496413573,2203.2317345716356,7836.0692590903791,2869.6670472027781,-872.55194923529893,24565.118957127484,-24909.14131442297,3353.1042484626996,-3353.1042484626996,24909.14131442297,46064.330618932916,0.0
412154.6038362722,4700833.5216966402,-7500.0,-27066.82743493107,-9745.9520012855191,3005.5165878931507,5918.9016490146778,1760.9908933134016,-775.28496185419408,18545.088423944831,-17559.929936659159,2453.7055525951746,-2453.7055525951746,17559.929936659159,34702.982129852207,0.0
417154.6038362722,4700833.5216966402,-7500.0,-21398.719333104476,-6266.9594935534205,2987.7941128499483,4436.573141158241,1076.1567318937177,-612.66992584709681,14158.65131811848,-12593.653761503461,1875.2616117844664,-1875.2616117844664,12593.653761503461,26461.497353308721,0.0
422154.6038362722,4700833.5216966402,-7500.0,-16958.831921127137,-4067.4914773421797,2674.8917556119077,3328.4869765531012,658.41846232856722,-462.39981539705394,10946.889381192121,-9202.8098489675631,1475.8931106874611,-1475.8931106874611,9202.8098489675631,20442.589612036085,0.0
427154.6038362722,4700833.5216966402,-7500.0,-13523.247076859621,-2665.9946400993363,2291.8434547234756,2511.9958315574545,403.73708406504011,-343.01733293617247,8574.7893691733116,-6852.4606207201095,1185.4028078371202,-1185.4028078371202,6852.4606207201095,16004.092611988641,0.0
432154.6038362722,4700833.5216966402,-7500.0,-10871.307428578009,-1762.5952515169506,1926.9456038963724,1912.3008534320618,247.63064418170151,-253.54348368207536,6803.6226745654376,-5195.1221460670185,966.37225830479974,-966.37225830479974,5195.1221460670185,12693.235789145541,0.0
437154.6038362722,4700833.5216966402,-7500.0,-8817.9840583511759,-1172.713840714295,1609.1442092970738,1470.437182432566,151.20733128166225,-188.04312996940945,5465.2158892994412,-4005.6258731489734,797.091693558722,-797.091693558722,4005.6258731489734,10192.953648723869,0.0
442154.6038362722,4700833.5216966402,-7500.0,-7218.3955805389623,-782.56166458676751,1343.0075046743104,1142.6523391070136,91.179031272394909,-140.44656746186448,4441.3403154340267,-3137.0040759171584,663.93194002402697,-663.93194002402697,3137.0040759171584,8281.1184467891562,0.0
447154.6038362722,4700833.5216966402,-7500.0,-5962.6073417544312,-521.38951507236777,1124.023464791095,897.36386018696646,53.560647179321087,-105.83092656781329,3648.5426066116152,-2492.1408254712605,557.77211848642219,-557.77211848642219,2492.1408254712605,6801.2709838401161,0.0
452154.6038362722,4700833.5216966402,-7500.0,-4968.3289810114684,-344.67593361824072,945.06690988893513,712.02560559447511,29.88595069854119,-80.523541521996748,3027.4700133126216,-2005.9120378612083,472.21383780615861,-472.21383780615861,2005.9120378612083,5642.2858641054117,0.0
457154.6038362722,4700833.5216966402,-7500.0,-4174.2038981298974,-224.01978679074668,798.97676624290921,570.57498745762462,14.975491023708782,-61.880039484412528,2535.50220010666,-1633.9566851695945,402.61591766551408,-402.61591766551408,1633.9566851695945,4724.4363451076442,0.0
462154.6038362722,4700833.5216966402,-7500.0,-3534.4206295265567,-141.04722571172596,679.45815527733555,461.53375763602463,5.6241133703735127,-48.024054501985184,2141.7095774364684,-1345.5786925993384,345.53162626368714,-345.53162626368714,1345.5786925993384,3989.8998744785317,0.0
467154.6038362722,4700833.5216966402,-7500.0,-3014.6187442877758,-83.705283613863472,581.28692884326028,376.65006045904363,-0.17453155564616618,-37.629430635907951,1823.398518501788,-1119.2083962872957,298.35682260651424,-298.35682260651424,1119.2083962872957,3396.2694005146295,0.0
472154.6038362722,4700833.5216966402,-7500.0,-2588.8639717515234,-43.981340082185007,500.24596480087246,309.94578578487489,-3.690166469688164,-29.757179513447532,1563.7345561522909,-939.4638101296041,259.09782313761247,-259.09782313761247,939.4638101296041,2912.0969507854375,0.0
477154.6038362722,4700833.5216966402,-7500.0,-2237.4395568788736,-16.481262865399337,432.97598891079156,257.05273518433148,-5.7344776298434432,-23.739044587500388,1350.0947729336744,-795.22069123240306,226.21192673709095,-226.21192673709095,795.22069123240306,2513.80801938891,0.0
267154.6038362722,4705833.5216966402,-7500.0,-719.07417164536434,560.36206886660398,242.25285753791471,-79.251098743088917,57.367660433367611,-7.5996416053062621,743.33808191302694,215.64651856186225,-23.128619776422909,23.128619776422909,-215.64651856186225,1310.3885941396281,0.0
272154.6038362722,4705833.5216966402,-7500.0,-768.81021045001251,645.52070518976529,269.43905540923265,-87.950790723800949,67.565767779871095,-8.6670276774132713,834.26815381095594,268.86126230691264,-37.816670636499552,37.816670636499552,-268.86126230691264,1467.4990497752653,0.0
277154.6038362722,4705833.5216966402,-7500.0,-816.80640964379802,746.83554255992567,300.44081300075754,-96.961659608928642,79.841158543870307,-9.7652906710232799,939.50386421717621,336.02461829209506,-57.525077745315372,57.525077745315372,-336.02461829209506,1648.7907024468223,0.0
282154.6038362722,4705833.5216966402,-7500.0,-859.54986276802879,867.77359198602824,335.90271609571118,-105.7473143914256,94.596238744987218,-10.775918210523312,1061.6430276429746,421.22572685935143,-83.965482374736354,83.965482374736354,-421.22572685935143,1858.5857327226388,0.0
287154.6038362722,4705833.5216966402,-7500.0,-891.4828404870251,1012.5194471915381,376.62673818543834,-113.32254218226453,112.2501052610582,-11.462290845073769,1203.7530988501755,529.86787913346279,-119.45631878816948,119.45631878816948,-529.86787913346279,2102.0201544704314,0.0
292154.6038362722,4705833.5216966402,-7500.0,-903.92879092308408,1186.0375284759616,423.65512736541285,-117.94949406666676,133.16478500596256,-11.371524440773111,1369.4244286852588,669.10576188592722,-167.13224414753108,167.13224414753108,-669.10576188592722,2385.2007771095637,0.0
297154.6038362722,4705833.5216966402,-7500.0,-883.46336408286686,1394.0425757967305,478.42879276420598,-116.63536788067839,157.48073502426919,-9.6558756205577527,1562.8088166044961,848.41267280465604,-231.20543752549492,231.20543752549492,-848.41267280465604,2715.4252504678916,0.0
302154.6038362722,4705833.5216966402,-7500.0,-809.46030902219206,1642.7643324952783,543.10217324430778,-104.30768988281427,184.77298909799151,-4.746775518629061,1788.6404063668519,1080.2914525081242,-317.26009788517905,317.26009788517905,-1080.2914525081242,3101.5562571735418,0.0
307154.6038362722,4705833.5216966402,-7500.0,-650.45015217596847,1938.298381232255,621.18157158987026,-72.480829514903547,213.36099722669795,6.237761392008661,2052.2736116372002,1381.1134255406459,-432.50899052820296,432.50899052820296,-1381.1134255406459,3554.792831463496,0.0
312154.6038362722,4705833.5216966402,-7500.0,-358.8632434961271,2285.1793133028709,718.83437606722987,-7.1684614721057303,238.96853850403696,28.556915073404419,2359.9079590431984,1772.0042375491171,-585.82111600031715,585.82111600031715,-1772.0042375491171,4090.4291077298212,0.0
317154.6038362722,4705833.5216966402,-7500.0,136.17472218323672,2683.6073574682127,847.5827507983189,114.17013273775406,252.22769428035517,71.690954758774367,2719.6445113167629,2279.5930304567119,-787.09651065647165,787.09651065647165,-2279.5930304567119,4731.9488631415888,0.0
322154.6038362722,4705833.5216966402,-7500.0,937.76919405838555,3124.5864100144149,1029.8248802719961,326.44631961696894,234.3533852176117,152.27869971825942,3145.5770111900365,2936.3745262625107,-1045.2090634806573,1045.2090634806573,-2936.3745262625107,5520.0874322547879,0.0
327154.6038362722,4705833.5216966402,-7500.0,2190.0831596952453,3582.4606575092262,1310.0266054724436,679.75955399458542,150.76426607994668,297.83736332040712,3671.994705568095,3780.8133777098874,-1363.6094217148632,1363.6094217148632,-3780.8133777098874,6530.4128667759887,0.0
332154.6038362722,4705833.5216966402,-7500.0,4081.8321412406649,4005.9080097239644,1777.0876137926161,1235.3594720798494,-54.281887349445554,547.96276608001426,4392.4268737742641,4859.4807338374994,-1734.6386833342444,1734.6386833342444,-4859.4807338374994,7898.3852518821186,0.0
337154.6038362722,4705833.5216966402,-7500.0,6833.1363950838613,4313.3751509248305,2608.9758391329806,2042.4958073404923,-446.51770485106158,940.36944036008686,5486.9964996272274,6240.4831442524892,-2144.1049006981602,2144.1049006981602,-6240.4831442524892,9828.8024793804379,0.0
342154.6038362722,4705833.5216966402,-7500.0,10638.570582641527,4414.914878304111,4164.2854169521215,3092.1885736068871,-1028.3723746841756,1452.5839264235833,7096.4814731373635,8062.0337121567072,-2629.5866696057901,2629.5866696057901,-8062.0337121567072,12536.266669531098,0.0
347154.6038362722,4705833.5216966402,-7500.0,15465.853678640586,4376.8963713715993,7144.9478317770727,4346.0934456814593,-1555.2532697637837,1893.7180608808196,9277.5948356665485,10660.154102844614,-3472.6799748018329,3472.6799748018329,-10660.154102844614,16183.373108696627,0.0
352154.6038362722,4705833.5216966402,-7500.0,20530.197610374289,5353.520808463898,12315.403906212356,6197.2505198325607,-1592.8233366471823,2012.8576095875344,12472.972290833133,14861.464479721204,-5389.1469090279588,5389.1469090279588,-14861.464479721204,21611.759390488161,0.0
357154.6038362722,4705833.5216966402,-7500.0,25079.222456354342,11716.336508526098,15600.512263533088,9800.2632174993887,-2468.4047450847333,2623.2444420588176,19064.299438599486,21837.156831075248,-8227.0854650894162,8227.0854650894162,-21837.156831075248,33158.639216661068,1.0
362154.6038362722,4705833.5216966402,-7500.0,32759.683537290548,23351.735713493123,-1400.0995049247713,12029.375097212484,-7893.0730416645938,6959.9656052658411,32687.153423114665,26206.186897250744,-6348.8618837427439,6348.8618837427439,-26206.186897250744,56640.387887662757,1.0
367154.6038362722,4705833.5216966402,-7500.0,41846.691097701339,25270.174792285365,-47426.686823662611,5208.7711833589919,-7263.5081402270162,15339.169458022332,51944.113031064931,14221.577138550245,1465.2041784558387,-1465.2041784558387,-14221.577138550245,91985.778559514831,1.0
372154.6038362722,4705833.5216966402,-7500.0,45042.897114098123,688.49030634288351,-100448.02367008399,1543.6770329475787,8748.8258817624883,19234.554817304859,73115.784416989642,-20774.476428570582,3618.856745198842,-3618.856745198842,20774.476428570582,135340.29634238247,1.0
377154.6038362722,4705833.5216966402,-7500.0,26964.097102193533,-37376.924464173615,-111872.66337599386,6487.0471859562604,19015.91924263701,14783.327264298116,80354.40092105724,-58958.914245541702,4809.484045451416,-4809.484045451416,58958.914245541702,152102.08063733068,0.0
382154.6038362722,4705833.5216966402,-7500.0,-1232.8191592963437,-56961.688288986879,-86757.896946774388,11186.537266489786,19074.894494347136,7776.4613448595901,73213.815300790811,-74789.171187636515,6168.6823317045346,-6168.6823317045346,74789.171187636515,139165.72109479443,0.0
387154.6038362722,4705833.5216966402,-7500.0,-22058.218735536168,-56211.809344403744,-55470.776233605946,12742.184121989407,15496.468659172817,2769.9962000180008,60604.717259979698,-70921.633804413752,6183.6819049923142,-6183.6819049923142,70921.633804413752,115105.28804178172,0.0
392154.6038362722,4705833.5216966402,-7500.0,-31787.388715020941,-46427.549426415033,-31716.577210574982,12236.221578339617,11596.741420215691,150.72080115225143,48172.216991067602,-58927.458212135403,5292.0043765853734,-5292.0043765853734,58927.458212135403,91306.992588867943,0.0
397154.6038362722,4705833.5216966402,-7500.0,-33734.560244186614,-35138.373443135955,-16535.746990939442,10726.139061361657,8212.4454260844068,-892.58258296901181,37618.016458436483,-45895.536572690078,4312.5833686905826,-4312.5833686905826,45895.536572690078,71141.763087271553,0.0
402154.6038362722,4705833.5216966402,-7500.0,-31498.63153138461,-25341.867805084024,-7686.9626744290281,8853.8247959900709,5575.5365363637738,-1121.4385243086404,29122.941681031254,-34577.713757426231,3510.1455353320707,-3510.1455353320707,34577.713757426231,54968.163723781414,0.0
407154.6038362722,4705833.5216966402,-7500.0,-27512.48947467154,-17801.357490745271,-2884.020770516825,7025.2168239408038,3684.1205232672482,-1016.401704311693,22484.426762318442,-25657.708850503273,2875.0742006619312,-2875.0742006619312,25657.708850503273,42373.226232035471,0.0
412154.6038362722,4705833.5216966402,-7500.0,-23170.014424769182,-12357.539310485618,-447.74127751984622,5446.536745043777,2402.0773246459407,-818.08585839209604,17397.399800812804,-18974.848976239715,2362.951860047493,-2362.951860047493,18974.848976239715,32748.348489019547,0.0
417154.6038362722,4705833.5216966402,-7500.0,-19146.282988417403,-8559.897793411872,690.78624397656654,4176.0384661186172,1560.8976762648076,-624.52689193477158,13541.526213527157,-14093.680090312668,1945.0417152766031,-1945.0417152766031,14093.680090312668,25467.431237106088,0.0
422154.6038362722,4705833.5216966402,-7500.0,-15690.518264518068,-5952.0677505273543,1152.3910081837744,3192.8427961335501,1017.1744245454787,-465.7317458748339,10628.851261780126,-10562.662962841297,1603.694298072478,-1603.694298072478,10562.662962841297,19975.385292651586,0.0
427154.6038362722,4705833.5216966402,-7500.0,-12835.805358253876,-4168.6979615176087,1276.8052756251334,2447.1747012549877,666.97379458988314,-344.47979875844442,8424.0428184522098,-8007.8260191909203,1325.7557136963269,-1325.7557136963269,8007.8260191909203,15822.403783277625,0.0
432154.6038362722,4705833.5216966402,-7500.0,-10523.452791442651,-2945.6098026564541,1242.827981205719,1886.4104664719166,440.67244031460598,-254.8388419038038,6745.4581904873921,-6147.9899778905419,1100.0922210744866,-1100.0922210744866,6147.9899778905419,12663.114232319431,0.0
437154.6038362722,4705833.5216966402,-7500.0,-8666.6669782056051,-2100.9207235719828,1141.8395807099705,1465.2201465654741,293.38511997853573,-189.44294859549439,5457.315598687981,-4781.2516956121462,917.06760539138418,-917.06760539138418,4781.2516956121462,10240.198193806722,0.0
442154.6038362722,4705833.5216966402,-7500.0,-7179.085081956765,-1512.2020730414474,1019.1533212929734,1147.8596045721526,196.64812500599638,-141.88370329537909,4459.7365248308515,-3765.598136048583,768.49797530747583,-768.49797530747583,3765.598136048583,8364.7883037272368,0.0
447154.6038362722,4705833.5216966402,-7500.0,-5985.4137666352617,-1097.7008350438193,896.26807888265239,907.34040263178895,132.48591041357446,-107.2069953183375,3679.6958124821931,-3001.8102248792256,647.60041728548435,-647.60041728548435,3001.8102248792256,6899.0006366720181,0.0
452154.6038362722,4705833.5216966402,-7500.0,-5023.8604798103825,-802.80504346695579,782.57240805872118,723.71663477105744,89.512821357068475,-81.775432932357489,3063.7907937314144,-2420.4800541116592,548.86169028198822,-548.86169028198822,2420.4800541116592,5742.1080704221813,0.0
457154.6038362722,4705833.5216966402,-7500.0,-4245.2327610117482,-590.84284110176804,681.42599439790229,582.38454515648175,60.466357368289074,-62.980787591984452,2572.8117083200063,-1972.7697496896774,467.86000156811701,-467.86000156811701,1972.7697496896774,4820.2115476735498,0.0
462154.6038362722,4705833.5216966402,-7500.0,-3610.9620069689136,-436.99270605720102,593.29178967263215,472.67677761728169,40.671045442705868,-48.970734020615694,2177.7874776616545,-1624.0249539401675,401.07760436393608,-401.07760436393608,1624.0249539401675,4078.7420570302688,0.0
467154.6038362722,4705833.5216966402,-7500.0,-3091.0109967397239,-324.29400179596053,517.33409161134909,386.7861833538791,27.085431193035298,-38.432243887982381,1857.1468806432265,-1349.4117189493222,345.72727513107156,-345.72727513107156,1349.4117189493222,3477.0885931743833,0.0
472154.6038362722,4705833.5216966402,-7500.0,-2662.0270166829237,-241.0389090951781,452.22053233445791,318.97318134021231,17.709528867074177,-30.432135912812598,1594.6936772855638,-1130.9457538126601,299.60332605266598,-299.60332605266598,1130.9457538126601,2984.7719052191514,0.0
477154.6038362722,4705833.5216966402,-7500.0,-2305.8288804195081,-179.06088580997957,396.51238231745037,264.9924470305159,11.213912102126697,-24.303731341887914,1378.1610277751358,-955.46254898323309,260.95871126742395,-260.95871126742395,955.46254898323309,2578.7156498428872,0.0
267154.6038362722,4710833.5216966402,-7500.0,-525.70973309657688,551.09428597599515,201.8434292359629,-61.04544919840405,55.067847890927027,-6.3876395558842134,664.5864077144181,270.95877227757245,-55.338987305463377,55.338987305463377,-270.95877227757245,1163.0074762264321,0.0
272154.6038362722,4710833.5216966402,-7500.0,-540.69859957844653,628.52883660485293,221.43699828139671,-65.852997362289514,64.164003616351678,-7.1718639238137349,739.91320478472653,329.42932722446284,-74.309632391102809,74.309632391102809,-329.42932722446284,1292.0480388622152,0.0
277154.6038362722,4710833.5216966402,-7500.0,-546.62788128623686,718.73129087893074,243.31104169166386,-70.057342799407493,74.861326825711515,-7.9281120119015283,825.69827649552599,401.66331246028381,-98.725800505041377,98.725800505041377,-401.66331246028381,1438.7222740928278,0.0
282154.6038362722,4710833.5216966402,-7500.0,-538.38213647615191,823.71735856178861,267.85158185737646,-72.926492055394078,87.351676535135738,-8.539300611937092,923.41376645981939,491.21525541336905,-130.18944590932085,130.18944590932085,-491.21525541336905,1605.5982392561341,0.0
287154.6038362722,4710833.5216966402,-7500.0,-508.54799735151903,945.56913756921006,295.62717364863028,-73.275299200344236,101.74832851258481,-8.7890994295848017,1034.6254529132059,602.58825609995574,-170.76963871424647,170.76963871424647,-602.58825609995574,1795.5589441074346,0.0
292154.6038362722,4710833.5216966402,-7500.0,-446.42214507415849,1086.1933428358775,327.55280934805666,-69.209986473371643,117.97139093012785,-8.2883078615905159,1160.9073135405979,741.45377707431658,-223.10959454586725,223.10959454586725,-741.45377707431658,2011.8309125460544,0.0
297154.6038362722,4710833.5216966402,-7500.0,-336.62125320347877,1246.8476739527421,365.21269273872485,-57.735560395427612,135.53076394253023,-6.3476780630597016,1303.6856257967479,914.8780802082058,-290.5193582496666,290.5193582496666,-914.8780802082058,2258.0628048136205,0.0
302154.6038362722,4710833.5216966402,-7500.0,-157.18523503595611,1427.2691390573184,411.49489408337132,-34.163610408671111,153.12521269105363,-1.7593765051608785,1463.9847322796727,1131.5060475514301,-376.99903968119048,376.99903968119048,-1131.5060475514301,2538.5629250596085,0.0
307154.6038362722,4710833.5216966402,-7500.0,122.88475137575803,1624.1449986251873,471.83698286682426,8.7501818857254889,167.91919885933572,7.5738876633279704,1642.0710223653105,1401.6029622909746,-487.07344388500087,487.07344388500087,-1401.6029622909746,2858.9619509751665,0.0
312154.6038362722,4710833.5216966402,-7500.0,546.51942875769612,1828.556145449232,556.66122905744726,81.980103793422415,174.27730477372143,25.251614974028197,1837.1340225669967,1736.7803444597075,-625.20232646122702,625.20232646122702,-1736.7803444597075,3227.8851070293972,0.0
317154.6038362722,4710833.5216966402,-7500.0,1171.2327496450002,2021.9806098025467,686.0996014940954,201.61134358880653,161.65531190470327,57.33368289277341,2047.916119974805,2149.1667096779147,-794.34784903611353,794.34784903611353,-2149.1667096779147,3660.7774340725664,0.0
322154.6038362722,4710833.5216966402,-7500.0,2069.5799250861342,2170.7483442922648,899.01971842091746,389.8911903337326,111.39634349475406,113.67325892261496,2280.4281825657245,2649.8675705029796,-993.0858883318175,993.0858883318175,-2649.8675705029796,4187.5999752224634,0.0
327154.6038362722,4710833.5216966402,-7500.0,3322.7809632823373,2220.3325000225955,1269.7321684295746,674.42835224387284,-7.2145619800541336,209.29313606417992,2605.716236509892,3247.2678618369,-1210.7727852841272,1210.7727852841272,-3247.2678618369,4865.2872023589362,0.0
332154.6038362722,4710833.5216966402,-7500.0,4997.95302029502,2095.7925409821346,1936.9377744356023,1082.4709524588179,-239.09480292009493,364.48306281662042,3200.2268527213519,3948.3037068891572,-1421.8341316591807,1421.8341316591807,-3948.3037068891572,5789.6031115074074,0.0
337154.6038362722,4710833.5216966402,-7500.0,7092.5301984859843,1728.6129896377827,3146.2685056637888,1627.0528062963854,-636.18109300059041,600.88854763359723,4055.9129055627723,4772.8179798983274,-1585.6128346835358,1585.6128346835358,-4772.8179798983274,7086.4000844976363,0.0
342154.6038362722,4710833.5216966402,-7500.0,9428.0309301421876,1165.1350722881773,5280.2637708943821,2290.7434171155137,-1229.9411577085689,933.56518559954679,5106.5578586610336,5805.3985038492056,-1668.1065864997981,1668.1065864997981,-5805.3985038492056,8858.9082744688258,0.0
347154.6038362722,4710833.5216966402,-7500.0,11524.352586275418,875.27580544407363,8716.8425545489263,3036.1375098611679,-2000.7515582218275,1382.2673825859829,6193.6019210700888,7321.4825052186961,-1696.4326625212407,1696.4326625212407,-7321.4825052186961,11145.929097275126,0.0
352154.6038362722,4710833.5216966402,-7500.0,12754.18857629921,2309.6084103033218,12929.682148184933,3826.2913217667615,-2961.9295004765995,2072.451585279251,7652.4514069154593,9929.3182887298917,-1760.083831777823,1760.083831777823,-9929.3182887298917,14221.404546629374,1.0
357154.6038362722,4710833.5216966402,-7500.0,13516.076935634805,7658.4849584367103,14036.695083885679,4287.4929506857789,-4308.2792401420256,3381.5099411142919,11460.84563134758,14051.170665616195,-1720.7911805972626,1720.7911805972626,-14051.170665616195,19875.751657237663,1.0
362154.6038362722,4710833.5216966402,-7500.0,16407.555783214491,16117.969855221792,3819.8617929738139,2999.9284423827635,-5269.1035641468579,5493.2489877831631,18518.670418666083,17557.801837233594,-1179.5323404860501,1179.5323404860501,-17557.801837233594,32091.153058267097,1.0
367154.6038362722,4710833.5216966402,-7500.0,23167.923440658422,19783.471591033325,-22306.100003512267,-284.00824370588651,-2234.7879442949147,7163.8020226333365,30216.263047852161,14277.955903224687,-1178.3316836331096,1178.3316836331096,-14277.955903224687,52779.058120549038,1.0
372154.6038362722,4710833.5216966402,-7500.0,28711.252322372431,9058.9814140033523,-53400.910585800186,-1459.2111146100842,5705.2320299530465,6535.9702093245614,42335.280635470466,-1200.8547369782596,-2641.7475779018891,2641.7475779018891,1200.8547369782596,75917.866134434167,0.0
377154.6038362722,4710833.5216966402,-7500.0,23974.59410799207,-12108.339415440725,-69055.149131860409,1516.057357437965,12668.343972864361,3939.6264773497105,49126.841151847017,-23318.936962774831,-3253.874872018052,3253.874872018052,23318.936962774831,90112.579131397972,0.0
382154.6038362722,4710833.5216966402,-7500.0,9970.2198432190271,-29396.846273070525,-64309.010466214117,5547.5261669780175,14844.304547262371,1288.6417730031274,48958.499614469489,-39760.638715954934,-1959.3389031170555,1959.3389031170555,39760.638715954934,91070.422755290449,0.0
387154.6038362722,4710833.5216966402,-7500.0,-4853.9572380299487,-36170.105182046609,-49271.64633405389,8005.1983077604455,13469.94780562636,-386.12605523561825,44142.732294709138,-45554.816609272864,-75.29936588221608,75.29936588221608,45554.816609272864,82781.28390318327,0.0
392154.6038362722,4710833.5216966402,-7500.0,-15150.443292024282,-34783.036973713031,-33510.01195026996,8641.9151846825807,10776.011392821931,-1138.1887583469795,37510.066284112283,-43358.665160716911,1320.5171054125167,-1320.5171054125167,43358.665160716911,70658.830514931076,0.0
397154.6038362722,4710833.5216966402,-7500.0,-20268.722607355056,-29536.288275425839,-21034.339673193212,8115.2554239284063,8032.8849561937141,-1314.3222606093473,30807.742304208114,-37355.003684504918,2055.8999857686977,-2055.8999857686977,37355.003684504918,58160.967010416149,0.0
402154.6038362722,4710833.5216966402,-7500.0,-21557.30152061546,-23381.457694262186,-12387.903085127122,7042.1519591393117,5731.9182352422595,-1206.0925225210176,24818.384902738653,-30418.539549250527,2309.154939287193,-2309.154939287193,30418.539549250527,46894.128584978389,0.0
407154.6038362722,4710833.5216966402,-7500.0,-20573.83884521978,-17767.27188883334,-6851.8665534686706,5823.9766696672068,3981.5618692908106,-996.1240646921824,19794.219754687423,-23997.813274169675,2274.981717621049,-2274.981717621049,23997.813274169675,37406.911773998472,0.0
412154.6038362722,4710833.5216966402,-7500.0,-18499.048836704893,-13195.593162290705,-3494.5701673090466,4678.2851749581641,2725.5282569946362,-778.28999862862463,15732.205644750213,-18629.108140836121,2093.3857361935425,-2093.3857361935425,18629.108140836121,29725.149823575317,0.0
417154.6038362722,4710833.5216966402,-7500.0,-16073.955619619115,-9692.2262278490343,-1541.2858440965649,3696.9929270991697,1855.0875425121023,-590.51447593751186,12518.247919695761,-14375.328088562812,1852.6234670999002,-1852.6234670999002,14375.328088562812,23644.550546796265,0.0
422154.6038362722,4710833.5216966402,-7500.0,-13699.914569559358,-7095.4772769423153,-446.6682430812715,2899.2883474717778,1263.1619724365248,-441.81530648519799,10004.0162126379,-11100.113733710707,1602.9132836442841,-1602.9132836442841,11100.113733710707,18887.949214761597,0.0
427154.6038362722,4710833.5216966402,-7500.0,-11560.035514284633,-5203.2310906425728,140.56002441413077,2269.6811364297891,863.85645199553915,-329.0350031288433,8045.5591174702358,-8612.6645738648913,1369.5184825285869,-1369.5184825285869,8612.6645738648913,15183.670722387682,0.0
432154.6038362722,4710833.5216966402,-7500.0,-9714.0523001122037,-3833.8429100360622,435.26373981928094,1780.5138794535121,594.71670993680959,-245.3301005079108,6519.2030927841979,-6731.8936907647521,1162.8548265232102,-1162.8548265232102,6731.8936907647521,12297.604212614186,0.0
437154.6038362722,4710833.5216966402,-7500.0,-8159.6124727218403,-2843.3755696518378,564.88545268426037,1403.1416713025894,412.63021158942848,-183.78560968988583,5325.2068107506784,-5307.9627116459578,985.29685936558599,-985.29685936558599,5307.9627116459578,10040.774765605607,0.0
442154.6038362722,4710833.5216966402,-7500.0,-6867.4733774580427,-2124.5288336561725,603.60787574059543,1112.4635683242921,288.63170541426592,-138.62722453685316,4385.8794970653162,-4224.6532617372141,835.308673666701,-835.308673666701,4224.6532617372141,8265.9656389679003,0.0
447154.6038362722,4710833.5216966402,-7500.0,-5799.9276016902404,-1599.7751225393426,594.06561749627076,888.11493517847362,203.50275454555037,-105.41104283228508,3641.8202906755296,-3394.7176221704171,709.7508468343608,-709.7508468343608,3394.7176221704171,6860.6336236457701,0.0
452154.6038362722,4710833.5216966402,-7500.0,-4919.5865662538272,-1213.9454621298644,560.48926169683386,714.22382705372797,144.53847687766427,-80.85170817844363,3048.0124255830306,-2753.6862291594298,605.07562571814219,-605.07562571814219,2753.6862291594298,5739.5090441262455,0.0
457154.6038362722,4710833.5216966402,-7500.0,-4193.0259378055107,-928.01283463341736,516.46324492582266,578.68179745100167,103.32456001579541,-62.568431421453447,2570.4360445797415,-2254.2162250542769,517.89308342677919,-517.89308342677919,2254.2162250542769,4838.1703002482709,0.0
462154.6038362722,4710833.5216966402,-7500.0,-3591.8611794138887,-714.37464579891184,469.44468423576586,472.3493218937748,74.259050764497786,-48.851060150192886,2183.3513768558141,-1861.5532690942014,445.20017845008215,-445.20017845008215,1861.5532690942014,4107.8895457652152,0.0
467154.6038362722,4710833.5216966402,-7500.0,-3092.6515357059025,-553.44470670841486,423.38145073105147,388.35693206238858,53.5851607125336,-38.474012508608403,1867.2137515897762,-1550.1031335078283,384.44133999041753,-384.44133999041753,1550.1031335078283,3511.6776539795751,0.0
472154.6038362722,4710833.5216966402,-7500.0,-2676.3348038089293,-431.24944520672199,380.22604014988684,321.54229431631171,38.76212944745901,-30.557389558971913,1607.1063498857111,-1300.915878712274,333.49042321271122,-333.49042321271122,1300.915878712274,3021.3120946807567,0.0
267154.6038362722,4715833.5216966402,-7500.0,-351.76174338003977,523.83320046861797,167.54946340118997,-44.641468943499248,51.057855299407485,-5.2659145927549158,588.15813657203284,307.38787200270406,-79.219083638123678,79.219083638123678,-307.38787200270406,1023.1360044561951,0.0
272154.6038362722,4715833.5216966402,-7500.0,-338.7361323162898,590.14550753698029,181.91965323360037,-46.246515381522947,58.68076566382306,-5.8069629979069477,648.97510919698925,366.75853813178912,-100.31432243738755,100.31432243738755,-366.75853813178912,1127.0068580782395,0.0
277154.6038362722,4715833.5216966402,-7500.0,-311.88512556846501,665.26896151727954,197.96656157591471,-46.618962098695043,67.358945777857869,-6.2786173733328354,716.88883252075811,438.6021180909292,-126.65110757189672,126.65110757189672,-438.6021180909292,1243.1452553965005,0.0
282154.6038362722,4715833.5216966402,-7500.0,-265.5523621248999,749.7883643047237,216.19995342717058,-44.956318645207745,77.076316742959548,-6.5720287828446127,792.47403966317188,525.66793427008247,-159.53035422826707,159.53035422826707,-525.66793427008247,1372.889286371771,0.0
287154.6038362722,4715833.5216966402,-7500.0,-192.00366631026503,843.83489943324616,237.49525663914102,-40.053954948380444,87.661820148866781,-6.4991347343863497,876.13903053016224,631.25325155624273,-200.52995293730456,200.52995293730456,-631.25325155624273,1517.6448906436653,0.0
292154.6038362722,4715833.5216966402,-7500.0,-80.732522963222053,946.67650108526459,263.3957222593134,-30.119145416191035,98.654386095800191,-5.7409881942761611,967.96536558724961,759.23982762727587,-251.50858492476044,251.50858492476044,-759.23982762727587,1678.9133449201911,0.0
297154.6038362722,4715833.5216966402,-7500.0,82.387819917862899,1056.0561131775701,296.66159971786647,-12.510890251860557,109.07153871285458,-3.7638345802334152,1067.459294138826,914.0669574597498,-314.54716265394376,314.54716265394376,-914.0669574597498,1858.4182285651621,0.0
302154.6038362722,4715833.5216966402,-7500.0,316.03703517550065,1167.1609514162631,342.26435564172988,16.607079637498771,117.02054059279716,0.31514922283956448,1173.1902958681164,1100.5840437692659,-391.76076125209386,391.76076125209386,-1100.5840437692659,2058.4828360387978,0.0
307154.6038362722,4715833.5216966402,-7500.0,644.24166366935015,1271.0949536968055,409.17449332850055,62.689263570741723,119.06196234175698,7.9372286453343781,1282.3442503908709,1323.7048912851926,-484.86419703147538,484.86419703147538,-1323.7048912851926,2282.9651450380161,0.0
312154.6038362722,4715833.5216966402,-7500.0,1096.4722717407637,1352.7980496131943,513.53535687852309,133.22745977423557,109.20991363424118,21.413753209596308,1390.6454502686763,1587.7909537343519,-594.30456776527285,594.30456776527285,-1587.7909537343519,2539.3093040864615,0.0
317154.6038362722,4715833.5216966402,-7500.0,1705.8291597992722,1388.6843211909818,684.16354562964761,237.92297691265685,77.471564639729394,44.351601637712484,1498.5633790013978,1895.8074027852367,-717.71145076215623,717.71145076215623,-1895.8074027852367,2842.5329908622007,0.0
322154.6038362722,4715833.5216966402,-7500.0,2502.9505705620213,1345.2629464963154,971.64717999379241,388.04113520673593,7.9999937100074989,82.140841545962516,1701.6154261398706,2248.7335518326722,-847.46556332659418,847.46556332659418,-2248.7335518326722,3221.6971653594687,0.0
327154.6038362722,4715833.5216966402,-7500.0,3501.6317360530516,1182.5601688233569,1462.0014944548798,593.8555486058774,-122.49717672587111,142.30153547130149,2076.5953360797821,2646.9459884568701,-967.66486410942787,967.66486410942787,-2646.9459884568701,3727.1644747410619,0.0
332154.6038362722,4715833.5216966402,-7500.0,4670.9994648395786,871.86821897400694,2292.65316616876,858.63448849045039,-344.14740175224114,234.29133465161874,2550.9465222119829,3098.1293888566843,-1052.3368870949562,1052.3368870949562,-3098.1293888566843,4431.2996084452225,0.0
337154.6038362722,4715833.5216966402,-7500.0,5892.8523456664343,447.69758077955305,3655.7871421311997,1168.2567679312692,-687.27250929249624,368.61449598420131,3097.1891462706258,3641.1132523540036,-1070.1444485313652,1070.1444485313652,-3641.1132523540036,5410.765729561791,0.0
342154.6038362722,4715833.5216966402,-7500.0,6924.6463643340448,123.74508091627108,5735.8780950457949,1478.5988149436814,-1165.9653522838314,557.19010293685233,3634.9956377380759,4397.5893366400041,-1004.5313029008983,1004.5313029008983,-4397.5893366400041,6713.5211915382906,0.0
347154.6038362722,4715833.5216966402,-7500.0,7453.2586009898587,474.17502626260267,8445.3204666896654,1703.8865173323506,-1754.8036100044533,821.20863399790619,4411.0497960535449,5639.8868685126181,-892.49774365582107,892.49774365582107,-5639.8868685126181,8376.7474691081916,0.0
352154.6038362722,4715833.5216966402,-7500.0,7416.4451594232078,2492.2994246924668,10765.383942999722,1690.716514063962,-2358.4908518672773,1204.9049914319287,6147.9604670747458,7746.4677779790118,-855.33918619004817,855.33918619004817,-7746.4677779790118,10700.390813602058,1.0
357154.6038362722,4715833.5216966402,-7500.0,7606.7787105118377,6919.444542128721,9918.800959485061,1164.8166285402024,-2690.442826460378,1737.7600784003116,8418.9649238639722,10698.157628888741,-1080.459383077733,1080.459383077733,-10698.157628888741,14925.887166175822,0.0
362154.6038362722,4715833.5216966402,-7500.0,9678.8450177126288,12432.98349324021,1985.9340863695984,-99.225573982897998,-1970.8799494446962,2256.992188029395,13182.657166328267,12986.094763714169,-1806.5758071331047,1806.5758071331047,-12986.094763714169,23077.88988095061,1.0
367154.6038362722,4715833.5216966402,-7500.0,14219.245007939167,14574.028397699594,-14239.49307700694,-1514.8622652644406,823.5983821170189,2310.2676106737972,20440.494227305429,11246.373629686252,-3192.6221887095303,3192.6221887095303,-11246.373629686252,35481.478613100771,1.0
372154.6038362722,4715833.5216966402,-7500.0,18302.744953538298,8978.6600093922425,-33125.196606818899,-1593.4790718257302,5314.1907318806534,1596.246085587863,27658.675085341172,2844.8489915012296,-4663.8088552474155,4663.8088552474155,-2844.8489915012296,48979.055042491935,0.0
377154.6038362722,4715833.5216966402,-7500.0,17447.762998336926,-2963.8849553584619,-45393.568125804755,218.4289213976908,9277.2930137471521,436.6947311444988,32462.499080086469,-10145.321199986829,-5021.7179575510991,5021.7179575510991,10145.321199986829,58771.699311375698,0.0
382154.6038362722,4715833.5216966402,-7500.0,10911.103459505959,-14973.025834948514,-46861.923510324741,2770.5121161610487,10993.74463805706,-576.7305816706446,33763.474150581722,-22086.102405869802,-3916.3492850121966,3916.3492850121966,22086.102405869802,62162.649669624632,0.0
387154.6038362722,4715833.5216966402,-7500.0,1986.6206269950335,-22331.583295219483,-40388.376526697619,4738.6187020285934,10564.912940695191,-1151.8936360809498,32087.775241370524,-29042.079115527446,-2106.0247848406034,2106.0247848406034,29042.079115527446,59756.260240642172,0.0
392154.6038362722,4715833.5216966402,-7500.0,-5875.0205195160934,-24443.697384416886,-30922.62382303358,5665.3513791213563,8973.2577559114943,-1330.686198730557,28666.188900665682,-30729.815705714318,-429.73093733376118,429.73093733376118,30729.815705714318,53779.064676570073,0.0
397154.6038362722,4715833.5216966402,-7500.0,-11132.771694932571,-22963.188018449968,-21856.017994379054,5725.9493455636284,7066.9148827457393,-1265.3558427097582,24594.313739194389,-28825.677833168233,745.608578443429,-745.608578443429,28825.677833168233,46349.455173039489,0.0
402154.6038362722,4715833.5216966402,-7500.0,-13791.310268751678,-19752.975236095815,-14591.341508845904,5262.702552228473,5306.9691287597243,-1087.79830684802,20567.207053101527,-25160.954745388754,1413.5739579423571,-1413.5739579423571,25160.954745388754,38862.609833537383,0.0
407154.6038362722,4715833.5216966402,-7500.0,-14500.841535846175,-16103.898865669689,-9319.8180091808463,4563.965680714171,3867.8689389670549,-881.40625680889445,16936.837521622983,-21019.163457428138,1701.7830059182343,-1701.7830059182343,21019.163457428138,32049.128882414236,0.0
412154.6038362722,4715833.5216966402,-7500.0,-13988.222539026239,-12705.329738529839,-5724.5726524817401,3816.6806698176883,2769.3625559693423,-689.11718167745346,13833.914762463561,-17106.39934411912,1748.1177714947571,-1748.1177714947571,17106.39934411912,26196.191220775931,0.0
417154.6038362722,4715833.5216966402,-7500.0,-12830.656617919221,-9833.1400630540193,-3371.9277436935827,3121.3401231503112,1964.8994843302517,-527.70816763884568,11265.726287033773,-13723.624863299203,1659.4503942117308,-1659.4503942117308,13723.624863299203,21338.757032316367,0.0
422154.6038362722,4715833.5216966402,-7500.0,-11415.014793019785,-7533.7364106177456,-1876.7219392399606,2520.2335609615484,1390.0568819068021,-399.78656769519353,9180.3646866526415,-10939.420672161596,1506.9569652040564,-1506.9569652040564,10939.420672161596,17388.814498990152,0.0
427154.6038362722,4715833.5216966402,-7500.0,-9970.4063961776228,-5749.3016036042591,-947.79278895035213,2022.2058905482568,984.70216677784867,-301.67927469603057,7504.677235639997,-8710.6901466996096,1333.3739889459584,-1333.3739889459584,8710.6901466996096,14212.49180878723,0.0
432154.6038362722,4715833.5216966402,-7500.0,-8616.6553807027431,-4388.2633037877486,-382.65478664195905,1619.7288193714346,700.4501624713663,-227.78906097709,6164.3134583287983,-6953.0309646836577,1162.0347044367882,-1162.0347044367882,6953.0309646836577,11670.943996028738,0.0
437154.6038362722,4715833.5216966402,-7500.0,-7405.9219270828162,-3359.0003045037552,-47.07870100431937,1299.0058509914516,501.19375964665403,-172.62660932226129,5092.7577794925646,-5576.2357442487391,1004.2460820510137,-1004.2460820510137,5576.2357442487391,9638.9279394772966,0.0
442154.6038362722,4715833.5216966402,-7500.0,-6352.0668175349392,-2582.8692456888325,145.43742747752222,1045.2223738506993,361.08667951139108,-131.5589268865622,4234.2540128893152,-4499.4104304886478,864.3923783678797,-864.3923783678797,4499.4104304886478,8011.0401465529949,0.0
447154.6038362722,4715833.5216966402,-7500.0,-5449.2153952068193,-1997.12888885437,249.72033707311493,844.89160345748849,262.04661038869665,-100.94766097131792,3543.734139155772,-3655.6061096237909,743.14790239248123,-743.14790239248123,3655.6061096237909,6701.9030342287515,0.0
452154.6038362722,4715833.5216966402,-7500.0,-4682.6321436917633,-1553.6442898707969,300.18665065776787,686.65161234148343,191.5684224469631,-78.043511678399597,2985.5132535424927,-2991.6982324904657,639.37209554683886,-639.37209554683886,2991.6982324904657,5643.8362185236683,0.0
457154.6038362722,4715833.5216966402,-7500.0,-4034.6877644645183,-1216.267766869566,318.31621647112138,561.32250059656565,141.04182269793745,-60.812022147652307,2531.6515939359861,-2466.4845092734963,551.16984978316759,-551.16984978316759,2466.4845092734963,4783.8148193489396,0.0
462154.6038362722,4715833.5216966402,-7500.0,-3487.8972857463714,-958.15122453863,317.45928241806257,461.65983388059527,104.53653431126419,-47.763643582269161,2160.3857568632047,-2048.3845227994061,476.45229174387737,-476.45229174387737,2048.3845227994061,4080.521695957133,0.0
467154.6038362722,4715833.5216966402,-7500.0,-3026.3088730287936,-759.44745342050919,305.87777343321,382.02097391484557,77.954656037452168,-37.812325284227398,1854.7859869207914,-1713.3181901657263,413.21334486915873,-413.21334486915873,1713.3181901657263,3501.8114363277223,0.0
472154.6038362722,4715833.5216966402,-7500.0,-2636.0026729989154,-605.49382473699916,288.65296667172328,318.03994001583533,58.449550694572487,-30.166462398740578,1601.6656999184968,-1442.9417126506787,359.64939003339089,-359.64939003339089,1442.9417126506787,3022.6453601756721,0.0
272154.6038362722,4720833.5216966402,-7500.0,-167.38495034036447,536.88597999377544,152.47460445286529,-29.543305474303054,51.780421410223568,-4.5998757404952544,563.34055671785768,384.44477402835798,-116.82911601082981,116.82911601082981,-384.44477402835798,975.77788311554082,0.0
277154.6038362722,4720833.5216966402,-7500.0,-117.44228278541544,595.3185402662333,165.97896812502708,-27.10730285065528,58.257846878496387,-4.8477428576932349,615.40724356007513,452.0174491783747,-142.87232294095796,142.87232294095796,-452.0174491783747,1066.1577235398136,0.0
282154.6038362722,4720833.5216966402,-7500.0,-46.018838164928788,658.12681936661113,182.25762969165567,-22.317641883075101,65.061072792574521,-4.9057512442791644,671.69669334705281,532.05687646649233,-174.43838969401929,174.43838969401929,-532.05687646649233,1165.3330311690122,0.0
287154.6038362722,4720833.5216966402,-7500.0,53.774756790176987,724.00470721090426,202.80459528817084,-14.090507025876796,71.800367413399613,-4.6183568373005617,731.80829949575309,626.68448148212269,-212.53722994015735,212.53722994015735,-626.68448148212269,1273.9434518111959,0.0
292154.6038362722,4720833.5216966402,-7500.0,190.70980755318618,790.48571014417632,230.14003187264137,-0.91495246113094808,77.752827505685403,-3.7365830359860941,794.83932353990576,738.17633839541588,-258.20420993804294,258.20420993804294,-738.17633839541588,1392.7574081647924,1.0
297154.6038362722,4720833.5216966402,-7500.0,375.69428017178228,853.35483882021458,268.51621316625778,19.280205141194791,81.653396713870762,-1.867499432682957,859.12160233020359,868.82908422281866,-312.35232180771226,312.35232180771226,-868.82908422281866,1522.9360285583828,0.0
302154.6038362722,4720833.5216966402,-7500.0,621.78582807029761,905.87629973872913,325.08932550077475,49.262202594735392,81.374873157163393,1.5996944963342621,921.88300364605186,1020.7362388041228,-375.49253449538685,375.49253449538685,-1020.7362388041228,1666.6235667310657,1.0
307154.6038362722,4720833.5216966402,-7500.0,943.61977939975941,937.90487257602683,411.82808966865412,92.579649603434987,73.458077255613105,7.5964189170766954,979.10150149550134,1195.4796904534282,-447.24863937284783,447.24863937284783,-1195.4796904534282,1828.1330859779894,0.0
312154.6038362722,4720833.5216966402,-7500.0,1355.6263944344475,935.17343185917537,548.52035111512987,153.47432858225588,52.46998487897298,17.505407523120837,1033.899719220751,1393.833172489944,-525.58594953920647,525.58594953920647,-1393.833172489944,2016.0736234208548,0.0
317154.6038362722,4720833.5216966402,-7500.0,1868.0022793683368,879.58208786078569,767.22488440964992,236.37127946795115,10.242547373303216,33.300087577540246,1198.4019160712301,1615.8200009980001,-605.72566475561325,605.72566475561325,-1615.8200009980001,2246.5901114952344,0.0
322154.6038362722,4720833.5216966402,-7500.0,2478.9860479097783,752.43435596346683,1118.065374788069,344.50950202193536,-64.745829183582188,57.634393520709885,1432.027951436007,1862.0163825512084,-678.93680262865723,678.93680262865723,-1862.0163825512084,2546.937421223749,0.0
327154.6038362722,4720833.5216966402,-7500.0,3162.1178501207996,544.63397560500243,1674.4979230733852,477.07854650874407,-187.12423847449415,93.769945668095062,1705.578695976483,2138.0369975073891,-731.99447092232663,731.99447092232663,-2138.0369975073891,2956.5136879389615,0.0
332154.6038362722,4720833.5216966402,-7500.0,3849.4648368013527,280.7797360053392,2531.0921795052664,624.25214460867096,-372.00528568757528,145.2127845963727,2004.624248996914,2465.5648534144298,-749.31444280353082,749.31444280353082,-2465.5648534144298,3520.9022858847616,0.0
337154.6038362722,4720833.5216966402,-7500.0,4419.8320134599317,65.408327572890229,3774.9711439257126,760.22665025414597,-627.57558466116268,215.11609755216909,2289.1530183725704,2903.4565041480651,-721.44992158492141,721.44992158492141,-2903.4565041480651,4279.2810708662055,0.0
342154.6038362722,4720833.5216966402,-7500.0,4719.2806254092802,149.32679172974721,5391.4143440761336,836.0866961633003,-940.32606582496715,305.95474960828909,2787.2179294248863,3575.0995467207135,-663.84831546450778,663.84831546450778,-3575.0995467207135,5264.2389618322395,0.0
347154.6038362722,4720833.5216966402,-7500.0,4664.2675331014107,968.21351562711016,7050.9097790225933,776.260035299729,-1251.2642702885573,419.5225272057325,3760.8095717668771,4669.2523004785189,-643.44702813506342,643.44702813506342,-4669.2523004785189,6569.752439351686,0.0
352154.6038362722,4720833.5216966402,-7500.0,4455.8907488019695,3006.1013294623185,7794.3509274201433,485.67486798774934,-1420.4926376537726,552.26250105888494,4848.2067646980004,6323.3161990059834,-793.95578979955872,793.95578979955872,-6323.3161990059834,8560.7658045336175,1.0
357154.6038362722,4720833.5216966402,-7500.0,4757.8099530297341,6284.6681475636015,5913.8036584195406,-105.5079873205911,-1181.4618838753433,673.25030684846183,6490.5358863817728,8281.1536913590462,-1285.2483939569329,1285.2483939569329,-8281.1536913590462,12060.422369084159,1.0
362154.6038362722,4720833.5216966402,-7500.0,6401.8844917620627,9621.1367666608166,-319.42643119675176,-903.05876526139878,-156.39047628005662,692.3676504452975,10228.325421217245,9459.1697876827166,-2217.1068010594863,2217.1068010594863,-9459.1697876827166,17877.860682031929,1.0
367154.6038362722,4720833.5216966402,-7500.0,9380.2618572996125,10612.635055249371,-10875.753953793603,-1485.9650717842069,1871.3243384935622,490.33528530767262,14848.553297487248,8080.6272146501578,-3433.4728766229077,3433.4728766229077,-8080.6272146501578,25773.559846553318,0.0
372154.6038362722,4720833.5216966402,-7500.0,12074.707622095137,7302.7482839446493,-22718.019928520931,-1290.0703483785651,4502.7119665991822,48.196746561205138,19306.643723250199,2980.8571341407314,-4411.047743776262,4411.047743776262,-2980.8571341407314,34096.073456389284,0.0
377154.6038362722,4720833.5216966402,-7500.0,12271.953048600517,276.22712197930201,-31364.879852637256,-177.12273692205039,6782.792234934891,-483.52318610060428,22533.154825967555,-4904.2069767127687,-4563.0194754584409,4563.0194754584409,4904.2069767127687,40603.061556521112,0.0
382154.6038362722,4720833.5216966402,-7500.0,9220.3085474348918,-7608.0035503166819,-34217.148718442528,1376.9630564145134,7944.1949332544464,-905.59799509597769,23905.879503766271,-12929.051382364036,-3767.7044112028789,3767.7044112028789,12929.051382364036,43796.883217499235,0.0
387154.6038362722,4720833.5216966402,-7500.0,4110.5151805176438,-13600.791126770035,-31846.389799774079,2745.0290759997379,7899.6498338415968,-1119.8221443490736,23484.543058484716,-18729.502003737529,-2422.2554870438753,2422.2554870438753,18729.502003737529,43554.014927292141,0.0
392154.6038362722,4720833.5216966402,-7500.0,-1225.7728255352747,-16625.287078471003,-26531.698025347116,3586.8248810991249,7039.8638678740645,-1144.4621903552304,21774.944129617932,-21469.913705043618,-1037.962227237027,1037.962227237027,21469.913705043618,40729.959511789559,0.0
397154.6038362722,4720833.5216966402,-7500.0,-5518.5755783835129,-17044.774842092007,-20443.696645766864,3884.3422176329718,5828.5743005244503,-1047.7750476880349,19372.025874932548,-21590.237709493282,69.180286507262281,-69.180286507262281,21590.237709493282,36444.872920949623,0.0
402154.6038362722,4720833.5216966402,-7500.0,-8323.5666159075863,-15781.723804213359,-14896.583380001353,3779.756492409675,4593.2252850590821,-895.21527128766331,16750.148882970578,-20016.376845758248,809.31933171853052,-809.31933171853052,20016.376845758248,31631.517236437143,0.0
407154.6038362722,4720833.5216966402,-7500.0,-9750.1227501560352,-13707.823287392623,-10417.963098870729,3440.4606334305181,3503.0084175794118,-731.30049555065978,14212.781753738413,-17613.11525722465,1224.2166610694876,-1224.2166610694876,17613.11525722465,26904.368954830556,0.0
412154.6038362722,4720833.5216966402,-7500.0,-10135.832478542405,-11427.154656197215,-7059.1068145539184,2999.247911367127,2616.0013165752798,-580.26624887887158,11919.853465546525,-14986.831690437461,1400.223093612849,-1400.223093612849,14986.831690437461,22597.16075759572,0.0
417154.6038362722,4720833.5216966402,-7500.0,-9841.1902400523304,-9279.2773144697021,-4658.0311282492412,2542.3325204396565,1929.3406823171861,-452.14161720642073,9933.4353095284205,-12487.47105369666,1421.5770765453635,-1421.5770765453635,12487.47105369666,18847.462223733201,0.0
422154.6038362722,4720833.5216966402,-7500.0,-9160.2091298723844,-7414.5641531757992,-2996.0740570730072,2117.093848112916,1414.0027525543683,-348.68364708583198,8257.6067342204478,-10278.186551416115,1353.6024984882833,-1353.6024984882833,10278.186551416115,15674.688655240583,0.0
427154.6038362722,4720833.5216966402,-7500.0,-8300.4150282690116,-5870.8008828481488,-1871.0434788554082,1744.4007555690271,1034.4374622635673,-267.63219892859939,6866.7414544759949,-8407.7419099699146,1240.9901587432028,-1240.9901587432028,8407.7419099699146,13036.662407012771,0.0
432154.6038362722,4720833.5216966402,-7500.0,-7393.8205369010057,-4628.8255985356018,-1121.6751334886624,1429.3584081761387,757.77282807392953,-205.27496514204748,5723.2340256312309,-6864.4069454492965,1111.7014096120001,-1111.7014096120001,6864.4069454492965,10865.418857670516,0.0
437154.6038362722,4720833.5216966402,-7500.0,-6516.6847009189896,-3646.4999205506015,-628.9611093507076,1168.8726147282728,557.04218231966945,-157.77865590942258,4787.4564789111801,-5609.8826253084098,981.87584824962596,-981.87584824962596,5609.8826253084098,9087.4670068706237,0.0
442154.6038362722,4720833.5216966402,-7500.0,-5708.0604944190218,-2876.861896215808,-308.9637275237688,956.31998004635727,411.49042995221021,-121.763363756627,4022.6766275717096,-4598.1914606274777,859.98290816504027,-859.98290816504027,4598.1914606274777,7633.9126729023928,0.0
447154.6038362722,4720833.5216966402,-7500.0,-4983.9745490366004,-2276.5250835114398,-104.075005462674,784.14138137744715,305.71918782994953,-94.471784244771129,3397.0206102152806,-3784.9897599207811,749.82476127509972,-749.82476127509972,3784.9897599207811,6444.6178849507369,0.0
452154.6038362722,4720833.5216966402,-7500.0,-4347.1579315175613,-1808.7236837510461,24.600266883563208,645.1270014512894,228.54467531563478,-73.750010094066951,2883.8545042824285,-3131.4096307144837,652.52518353440973,-652.52518353440973,3131.4096307144837,5469.1578451268779,0.0
457154.6038362722,4720833.5216966402,-7500.0,-3793.2691619049551,-1443.7267392722167,103.07404002288547,532.95096500044758,171.93853662946739,-57.957110955760328,2461.4158699367217,-2605.063626668968,567.77188915959528,-567.77188915959528,2605.063626668968,4666.2434801314112,0.0
462154.6038362722,4720833.5216966402,-7500.0,-3314.6620071154457,-1158.1298851177196,148.65174686492242,442.31078336619845,130.16884621106436,-45.860772075257415,2112.1541166811476,-2179.7286749467703,494.55702187080158,-494.55702187080158,2179.7286749467703,4002.5319688408881,0.0
467154.6038362722,4720833.5216966402,-7500.0,-2902.5570897709122,-933.79351784276821,172.81630720939168,368.87922404186912,99.148499322600216,-36.542440084628069,1822.0183350148277,-1834.522248413396,431.60056822033005,-431.60056822033005,1834.522248413396,3451.3061609350198,0.0
472154.6038362722,4720833.5216966402,-7500.0,-2548.2184403240663,-756.77748459181839,183.17736834390718,309.18053606701955,75.958772288916535,-29.319372722161891,1579.7965671848929,-1552.9654117991645,377.58011064669745,-377.58011064669745,1552.9654117991645,2991.2353169109829,0.0
272154.6038362722,4725833.5216966402,-7500.0,-28.178895794274016,475.10271058123334,133.21498874421877,-15.889484581948,44.110656135816846,-3.5637823787393215,484.33964295343935,386.62460003620151,-125.30258482032028,125.30258482032028,-386.62460003620151,840.50198983841699,0.0
277154.6038362722,4725833.5216966402,-7500.0,35.82741717618255,517.21685929368402,146.92783938280377,-11.611890229631907,48.429118113879461,-3.6464549260344539,522.80364662014847,447.59704168530629,-149.49429823181694,149.49429823181694,-447.59704168530629,910.09204989977059,0.0
282154.6038362722,4725833.5216966402,-7500.0,120.70321486928061,559.66618692979591,164.65352861517826,-4.9730174689994069,52.476788788984528,-3.5448509553344816,562.84976900089191,518.20838482092222,-177.96704828742551,177.96704828742551,-518.20838482092222,985.3143196896599,0.0
287154.6038362722,4725833.5216966402,-7500.0,231.81628584033393,600.36357741195661,188.55475640597729,4.9035534554976543,55.731511608859108,-3.1367219924783933,603.5766273611664,599.64354863388576,-211.21337457066184,211.21337457066184,-599.64354863388576,1066.5877663237006,0.0
292154.6038362722,4725833.5216966402,-7500.0,375.4651096609403,636.12569876936618,222.06645244000373,19.15568943749377,57.346344004015521,-2.2376186808396312,643.52631358836959,693.016605399372,-249.58233372870924,249.58233372870924,-693.016605399372,1154.6366321953838,0.0
297154.6038362722,4725833.5216966402,-7500.0,558.67484504560446,662.32460714121839,270.61892275011752,39.214442277425796,55.98794159112758,-0.57411802566253889,680.4607811733681,799.25459492951222,-293.11158675522478,293.11158675522478,-799.25459492951222,1250.8715214401652,0.0
302154.6038362722,4725833.5216966402,-7500.0,788.60552395273476,672.57703249017709,342.72655637997963,66.789568885927793,49.615420169379234,2.2503267407451002,711.27691257425568,918.97527531404739,-341.26666096223204,341.26666096223204,-918.97527531404739,1358.0833956790859,0.0
307154.6038362722,4725833.5216966402,-7500.0,1071.2747136577013,658.68173399617217,451.55630447063652,103.74629668275055,35.201761913516869,6.7939527229965631,755.79814208641574,1052.4399802600142,-392.56870707730002,392.56870707730002,-1052.4399802600142,1481.5816304750124,0.0
312154.6038362722,4725833.5216966402,-7500.0,1409.1686473809257,611.27304735494636,617.0130019589833,151.76105317002796,8.4376860278649097,13.809570297994179,881.79977472849248,1199.7846041931346,-444.12936693961052,444.12936693961052,-1199.7846041931346,1630.7875401019398,1.0
317154.6038362722,4725833.5216966402,-7500.0,1797.2541405712363,522.12793349018011,868.071038205847,211.57532053576043,-36.452397201757343,24.247902916712412,1030.3954632580455,1361.9658212351126,-491.21968269722242,491.21968269722242,-1361.9658212351126,1820.8833947903072,0.0
322154.6038362722,4725833.5216966402,-7500.0,2217.1473894227283,389.78894263319717,1244.2203615063333,281.59927209866242,-106.47125856723204,39.187093635957453,1196.829578112636,1543.2269641609319,-527.24206470274794,527.24206470274794,-1543.2269641609319,2073.3573523185951,0.0
327154.6038362722,4725833.5216966402,-7500.0,2630.3050683141141,230.97932958999169,1792.8786826984838,355.62666696118163,-208.56452239063717,59.624428142175653,1371.5251223365822,1756.2826678490999,-544.92195894685051,544.92195894685051,-1756.2826678490999,2413.894968482306,0.0
332154.6038362722,4725833.5216966402,-7500.0,2974.0627205853175,100.21965883880854,2555.6562686567358,419.67563403337431,-346.25870089139812,86.072626278958765,1531.33190203246,2031.2356122015128,-540.13283531252569,540.13283531252569,-2031.2356122015128,2867.9953229651092,1.0
337154.6038362722,4725833.5216966402,-7500.0,3170.0587365354927,116.25356328720832,3530.4479488995448,448.7167673947099,-512.89974492773831,117.95974991062049,1818.1521570891878,2426.690642218945,-520.00293220601816,520.00293220601816,-2426.690642218945,3461.056990051889,1.0
342154.6038362722,4725833.5216966402,-7500.0,3161.2471443579971,480.69658191313465,4592.9146323785471,405.46833167154136,-680.51675032271123,152.86082438899228,2411.5169752442002,3033.1758541129147,-515.35565910663558,515.35565910663558,-3033.1758541129147,4240.6130912995231,1.0
347154.6038362722,4725833.5216966402,-7500.0,2990.212202738825,1447.2229582025846,5376.2912341879719,245.46804448021169,-785.02320701012104,185.23073332327508,3065.2129754880771,3942.4692210380858,-591.93647640025165,591.93647640025165,-3942.4692210380858,5344.8210931072244,0.0
352154.6038362722,4725833.5216966402,-7500.0,2892.8219519034292,3174.6384153736572,5172.4475341344605,-64.76894401569055,-712.78086870747143,203.41761081880782,3745.7122206215358,5143.3411341867541,-845.52519372382676,845.52519372382676,-5143.3411341867541,7094.5165723760201,0.0
357154.6038362722,4725833.5216966402,-7500.0,3295.5622660061331,5442.3864633574894,3030.6662665444646,-508.3992869420133,-304.75779927194168,184.71003445513776,5467.4952022447142,6339.7305169988904,-1361.1710564641648,1361.1710564641648,-6339.7305169988904,9941.6433193498578,0.0
362154.6038362722,4725833.5216966402,-7500.0,4560.5941521963186,7404.4850912242964,-1744.302305846503,-964.45115568555377,585.97338570837962,95.860648723111026,8135.8537077862784,6822.6206105933834,-2131.9732502845131,2131.9732502845131,-6822.6206105933834,14136.324595572829,0.0
367154.6038362722,4725833.5216966402,-7500.0,6523.1100942673856,7780.7252690386604,-8820.3837938053057,-1198.7267616019565,1960.5079406469818,-86.682744530452325,11141.162525882584,5669.087407355416,-2979.4789286033219,2979.4789286033219,-5669.087407355416,19368.931795051518,0.0
372154.6038362722,4725833.5216966402,-7500.0,8281.8210925722324,5664.7857976091918,-16501.651084202185,-983.6802907615039,3555.6486446257918,-343.52707981304337,14001.423842322474,2367.3042528118326,-3576.0478341773037,3576.0478341773037,-2367.3042528118326,24737.648125484568,0.0
377154.6038362722,4725833.5216966402,-7500.0,8699.2118299934973,1338.3999417808079,-22491.171473768631,-289.80532304889448,4923.7591969714731,-607.15393884806758,16181.631929330699,-2609.1233630294855,-3629.4296397659282,3629.4296397659282,2609.1233630294855,29112.462235981569,0.0
382154.6038362722,4725833.5216966402,-7500.0,7251.6711292446262,-3823.170151235604,-25258.897563338112,666.41875571095056,5700.7343334281195,-802.8323950063259,17328.490909842301,-7955.5974013552041,-3089.2960679984758,3089.2960679984758,7955.5974013552041,31664.380008745909,0.0
387154.6038362722,4725833.5216966402,-7500.0,4343.1683432170821,-8284.890890743176,-24735.215374343621,1580.5748535667274,5797.3148817794581,-893.04846953661786,17394.066101825305,-12329.712683740114,-2160.3794439616813,2160.3794439616813,12329.712683740114,32170.625200009916,0.0
392154.6038362722,4725833.5216966402,-7500.0,882.94805361827889,-11158.713795055093,-21909.492713843549,2240.8002478653598,5362.6664790514278,-884.89497106778231,16579.165482974313,-15004.902726881581,-1136.0692468791276,1136.0692468791276,15004.902726881581,30938.90723507931,0.0
397154.6038362722,4725833.5216966402,-7500.0,-2297.4477961338944,-12336.315677591094,-18023.765948100452,2584.0337671727375,4632.2595748184422,-809.44527323066586,15189.788538164239,-15953.720288433586,-239.46279518562642,239.46279518562642,15953.720288433586,28528.77961879623,0.0
402154.6038362722,4725833.5216966402,-7500.0,-4730.3283826306815,-12183.361563582332,-14040.42157049798,2652.2837477995286,3810.4232140179183,-700.24139008084649,13517.670532057866,-15565.64544187305,427.524936390535,-427.524936390535,15565.64544187305,25503.031608092682,0.0
407154.6038362722,4725833.5216966402,-7500.0,-6297.9634577628776,-11198.434310545665,-10504.41993395459,2528.8666622723872,3028.5847683522197,-582.65666557158477,11783.607394727758,-14340.675727881462,857.13548056539094,-857.13548056539094,14340.675727881462,22300.615843316122,0.0
412154.6038362722,4725833.5216966402,-7500.0,-7097.6253778468599,-9813.7127031124855,-7624.4656737621017,2295.9594891145421,2351.265541020543,-472.02753760376658,10128.856358168014,-12709.862271329599,1089.7557926269074,-1089.7557926269074,12709.862271329599,19209.196997340488,0.0
417154.6038362722,4725833.5216966402,-7500.0,-7312.8923679101854,-8329.2877234668467,-5406.3083910700161,2016.7041630881486,1797.5917589670307,-375.66921193624114,8629.2561602524274,-10975.675081487345,1179.3612371417039,-1179.3612371417039,10975.675081487345,16387.804198379868,0.0
422154.6038362722,4725833.5216966402,-7500.0,-7132.7034686442676,-6920.7976857895565,-3760.9454650295606,1732.4892202822712,1361.6323412393283,-295.68796795168663,7314.9749845138795,-9319.0855636845499,1175.3358959838938,-1175.3358959838938,9319.0855636845499,13903.948276390849,0.0
427154.6038362722,4725833.5216966402,-7500.0,-6714.1672312200008,-5672.568115688181,-2571.4943428094366,1466.8042338746093,1026.5651881099491,-231.32628807279173,6188.0176691473416,-7830.5529184808092,1115.946913816415,-1115.946913816415,7830.5529184808092,11767.872163593778,0.0
432154.6038362722,4725833.5216966402,-7500.0,-6172.9179501529106,-4611.4870847651391,-1726.8234090871567,1230.6448302724039,772.9084770164485,-180.54921854457325,5235.130407837707,-6542.2386793426904,1027.9713045962289,-1027.9713045962289,6542.2386793426904,9958.2460209226792,0.0
437154.6038362722,4725833.5216966402,-7500.0,-5586.8811681308925,-3732.8142822545146,-1134.5075053569301,1027.2533895309525,582.55551364066764,-140.97185070975272,4436.2630913432531,-5453.0606273762096,928.76206969876603,-928.76206969876603,5453.0606273762096,8439.1886498367985,0.0
442154.6038362722,4725833.5216966402,-7500.0,-5004.629280069943,-3017.0365928926462,-723.03312281137278,855.56977864147507,440.30786594636641,-110.3299011851431,3769.6093351178729,-4545.4761088458399,828.8010466360538,-828.8010466360538,4545.4761088458399,7170.4923156136074,0.0
447154.6038362722,4725833.5216966402,-7500.0,-4453.9019129482722,-2439.6987022601497,-439.39872186820338,712.469414873613,334.11108311218601,-86.673174157800389,3214.3066398171986,-3795.5908307278805,733.92392202799783,-733.92392202799783,3795.5908307278805,6113.1650511379421,0.0
452154.6038362722,4725833.5216966402,-7500.0,-3948.6049068093353,-1976.5489532530935,-245.35782372971616,594.09111904905467,254.72263664522674,-68.410608473234277,2751.6836037930475,-3178.6945327660515,646.99901106228435,-646.99901106228435,3178.6945327660515,5232.0502163069314,0.0
457154.6038362722,4725833.5216966402,-7500.0,-3493.9607519371225,-1605.8662731030047,-113.76581196223623,496.55734159684619,195.20009084215886,-54.285518557767602,2365.6678448105504,-2671.9557274795761,569.09329208555823,-569.09329208555823,2671.9557274795761,4496.7484911293477,0.0
462154.6038362722,4725833.5216966402,-7500.0,-3090.0482059113183,-1309.2332789696259,-25.550398924343213,416.32125590046513,150.39142422896825,-43.324599387786932,2042.7505962371636,-2255.4882701456822,500.23918542700414,-500.23918542700414,2255.4882701456822,3881.6352192036406,0.0
467154.6038362722,4725833.5216966402,-7500.0,-2734.1177387485504,-1071.5291790474366,32.611962058057898,350.30022239329821,116.4980854400922,-34.78290366313653,1771.7447027415903,-1912.5550488777476,439.91789377622115,-439.91789377622115,1912.5550488777476,3365.4483241298667,0.0
272154.6038362722,4730833.5216966402,-7500.0,79.787422616386806,410.36131438250948,123.11554859997258,-5.2071306398704662,36.242637771051108,-2.6993787882497764,412.76892560848529,377.432524491572,-127.38723234147089,127.38723234147089,-377.432524491572,722.12640961399279,0.0
277154.6038362722,4730833.5216966402,-7500.0,150.20254539754578,437.95128301454065,138.96301558252392,0.075441475361392632,38.610316782128237,-2.6691498189739189,439.90371247930784,430.79235494834938,-148.79889371493093,148.79889371493093,-430.79235494834938,775.66367833947265,0.0
282154.6038362722,4730833.5216966402,-7500.0,239.12159418507093,463.09171626424842,160.26712898261866,7.5058922137612711,40.267410995704836,-2.4723199724442688,466.71618670981138,491.28187835282057,-173.25810726720096,173.25810726720096,-491.28187835282057,833.02467465233099,0.0
287154.6038362722,4730833.5216966402,-7500.0,350.17314806739898,483.525974277638,189.70157049247666,17.719167772300001,40.644616860133766,-2.0179866615623459,492.04970642567127,559.46562323931198,-200.86315914157942,200.86315914157942,-559.46562323931198,894.74187359001303,0.0
292154.6038362722,4730833.5216966402,-7500.0,487.12350907057549,496.20446573336494,231.27260158829432,31.467720174531767,38.894290184542371,-1.1774291438688258,514.22053593406042,635.78670033841126,-231.49398848467047,231.49398848467047,-635.78670033841126,961.83721079038457,0.0
297154.6038362722,4730833.5216966402,-7500.0,653.42205913657449,497.2195157013295,290.9243439320457,49.586346823397569,33.785789786342448,0.22703646600261751,531.0209159266642,720.53359603330023,-264.67464655437385,264.67464655437385,-720.53359603330023,1036.2283649853371,0.0
302154.6038362722,4730833.5216966402,-7500.0,851.37493018691737,481.94343831798346,377.33992484580421,72.892822221851219,23.585314451265567,2.4322709720021973,581.32652049351589,813.8791860636054,-299.39581328000583,299.39581328000583,-813.8791860636054,1121.3392046608258,0.0
307154.6038362722,4730833.5216966402,-7500.0,1080.7778410303174,445.6217632514082,502.89636786682382,101.9729604152495,5.9466164051518176,5.7382607706831665,668.55980621969888,916.10405353503279,-333.92034879174588,333.92034879174588,-916.10405353503279,1222.885705271904,0.0
312154.6038362722,4730833.5216966402,-7500.0,1336.8557210470663,384.86518062063277,684.55393392193889,136.77358631146814,-22.120632426318348,10.494976650681942,766.86516942680839,1028.2114488914756,-365.6465000712422,365.6465000712422,-1028.2114488914756,1349.6279459379791,0.0
317154.6038362722,4730833.5216966402,-7500.0,1607.5261150463014,300.7407537166506,944.05514357739366,175.90701360187987,-64.062776138612193,17.053416484733024,873.84183110217464,1153.271844757192,-391.20582833236597,391.20582833236597,-1153.271844757192,1513.6187173271624,0.0
322154.6038362722,4730833.5216966402,-7500.0,1870.5085745567426,204.37697834057491,1305.9893900283218,215.58234823067659,-123.11095526271917,25.652617282982668,983.5515439360081,1298.9307320368198,-407.1395101671186,407.1395101671186,-1298.9307320368198,1729.4290527704386,0.0
327154.6038362722,4730833.5216966402,-7500.0,2091.9387335514243,125.81064496636169,1790.8678517906858,248.18389365374372,-200.70408448642689,36.209951729745931,1085.1995152677687,1481.3610983175704,-411.70466391972366,411.70466391972366,-1481.3610983175704,2012.6752103125843,0.0
332154.6038362722,4730833.5216966402,-7500.0,2230.0862597921378,125.32679222095523,2398.4816851953515,260.81061519451555,-293.45973529251904,47.991163660242286,1248.0639139653933,1729.9831218265401,-408.44503818569251,408.44503818569251,-1729.9831218265401,2380.5238192667744,0.0
337154.6038362722,4730833.5216966402,-7500.0,2249.9217280751868,302.25150130093226,3075.8494364186549,234.67155042949787,-388.25920930084328,59.164552436950757,1613.0841861652202,2089.5734349472314,-411.68112782476692,411.68112782476692,-2089.5734349472314,2860.5063181736741,0.0
342154.6038362722,4730833.5216966402,-7500.0,2153.7336660730834,787.83219467367428,3668.193248636002,147.08154978082527,-455.73254439584758,66.265822336211514,2028.4300870058644,2611.2614823225058,-452.30750406560378,452.30750406560378,-2611.2614823225058,3516.0360647903926,0.0
347154.6038362722,4730833.5216966402,-7500.0,2023.3620329418261,1699.5863932338646,3868.2352301509454,-21.418878860972026,-444.24712277507172,63.583259225763939,2461.018189910455,3318.6188408572161,-578.85139245222967,578.85139245222967,-3318.6188408572161,4485.4272745604303,0.0
352154.6038362722,4730833.5216966402,-7500.0,2045.1527140418723,3038.9790712928043,3212.8564894747205,-272.58680616683466,-279.83128022841123,42.57562042015487,3108.8847553223204,4139.5381515619474,-845.37149829149894,845.37149829149894,-4139.5381515619474,5989.6805156881683,0.0
357154.6038362722,4730833.5216966402,-7500.0,2461.41138776049,4557.9455259999258,1205.5288803757999,-570.16075297726275,118.35629033030047,-7.7684817002062587,4648.7364660049316,4825.6024595302697,-1279.9153548797608,1279.9153548797608,-4825.6024595302697,8241.0537575907165,0.0
362154.6038362722,4730833.5216966402,-7500.0,3410.0127010515725,5703.2216081431234,-2397.5388951123409,-825.74065239587389,797.87493278194938,-97.267382795957317,6508.9192639815737,4936.9726393945375,-1841.3788786955886,1841.3788786955886,-4936.9726393945375,11278.099366224431,0.0
367154.6038362722,4730833.5216966402,-7500.0,4723.7661681998379,5783.8864198340652,-7262.5612870325431,-915.44617407274234,1717.1246358756102,-226.18498674687578,8523.8842383842057,3990.5568029417682,-2396.0012334131325,2396.0012334131325,-3990.5568029417682,14851.330895266849,0.0
372154.6038362722,4730833.5216966402,-7500.0,5888.3691739843616,4360.7825089669414,-12410.398065210593,-741.07578864459447,2717.9529602981297,-377.38542931034783,10427.778973021574,1757.3245301316958,-2753.3842693097376,2753.3842693097376,-1757.3245301316958,18447.428961446141,0.0
377154.6038362722,4730833.5216966402,-7500.0,6290.6709628038425,1583.1517955989691,-16596.894133116875,-300.19541220936748,3575.1991201319702,-519.16641506259703,11932.713343028143,-1504.112292400453,-2762.2787485073432,2762.2787485073432,1504.112292400453,21459.019823386141,0.0
382154.6038362722,4730833.5216966402,-7500.0,5594.4933545294689,-1848.8095864806753,-18917.939283548418,301.14423345614119,4103.9749539206832,-620.23775476108676,12833.266282347031,-5114.8028795639784,-2398.0057467830361,2398.0057467830361,5114.8028795639784,23413.633728946959,0.0
387154.6038362722,4730833.5216966402,-7500.0,3918.6438138823814,-5074.2141316889811,-19170.34981108837,908.61507681449257,4239.6037877533663,-664.54015639275065,13069.230946503765,-8311.8979288333539,-1767.3988474420667,1767.3988474420667,8311.8979288333539,24123.194409429139,0.0
392154.6038362722,4730833.5216966402,-7500.0,1704.7674743277689,-7473.9577645536692,-17761.853391280878,1396.6116838414691,4036.3217527524034,-654.62264816208506,12716.067689525815,-10577.670529648836,-1037.1474724495774,1037.1474724495774,10577.670529648836,23683.20255259897,0.0
397154.6038362722,4730833.5216966402,-7500.0,-548.75927338063684,-8824.8487813476768,-15367.048068054422,1706.2943433161415,3610.365636003693,-604.89495231751778,11927.804763816272,-11754.974196534775,-353.50565612878927,353.50565612878927,11754.974196534775,22365.719496376594,0.0
402154.6038362722,4730833.5216966402,-7500.0,-2478.7698088431093,-9220.8141093301965,-12618.344526755547,1839.1402606638189,3081.411391238209,-532.76653143828605,10875.600596989045,-11967.685397307789,197.49967687348544,-197.49967687348544,11967.685397307789,20494.691691903008,0.0
407154.6038362722,4730833.5216966402,-7500.0,-3911.8784265745726,-8911.2858141074739,-9958.1471628891595,1830.8815663766829,2540.456461624482,-452.91479491317557,9707.5192359188422,-11473.914222648364,588.78335706849157,-588.78335706849157,11473.914222648364,18359.92381018279,0.0
412154.6038362722,4730833.5216966402,-7500.0,-4828.0417083410894,-8168.8779187121527,-7625.6935284703904,1727.3595450450455,2042.7682598815873,-375.29113384657256,8532.3944280695068,-10547.117746194745,831.99603012032003,-831.99603012032003,10547.117746194745,16179.39454897597,0.0
417154.6038362722,4730833.5216966402,-7500.0,-5296.4911686537525,-7219.0797498222382,-5707.0571706636611,1570.0627356981015,1614.1143408018613,-305.4200169855244,7419.8458772433223,-9412.881057060853,956.5822711847868,-956.5822711847868,9412.881057060853,14095.575313268309,0.0
422154.6038362722,4730833.5216966402,-7500.0,-5421.0572625420618,-6219.4093518332284,-4195.7580777970679,1390.4009662977539,1260.6371341323784,-245.56865045339396,6407.7674978424729,-8230.2132800207746,995.45947795389293,-995.45947795389293,8230.2132800207746,12188.352597421224,0.0
427154.6038362722,4730833.5216966402,-7500.0,-5305.8439323932544,-5265.3717846129803,-3040.5870753980585,1209.270251026189,977.54981535628804,-195.96738867061464,5511.557349076973,-7097.272045396825,977.64547429850381,-977.64547429850381,7097.272045396825,10492.534425787677,0.0
432154.6038362722,4730833.5216966402,-7500.0,-5038.7932959011841,-4406.0168943095523,-2176.007782517871,1038.9524391524731,755.21493002342606,-155.76134486383606,4732.2776244696261,-6066.0626687815575,925.6883299737774,-925.6883299737774,6066.0626687815575,9013.8082241940592,0.0
437154.6038362722,4730833.5216966402,-7500.0,-4686.8947993682414,-3659.8046179794642,-1538.3985200650652,885.56841068108656,582.78380126449758,-123.64173442892806,4062.8271034879876,-5157.6055451858556,855.692184438391,-855.692184438391,5157.6055451858556,7740.9971380548086,0.0
442154.6038362722,4730833.5216966402,-7500.0,-4297.464571747525,-3027.1557020097803,-1073.0431188965447,751.25252970668691,450.07147114716577,-98.214437169001556,3492.146418590205,-4374.136192759177,778.4187084968944,-778.4187084968944,4374.136192759177,6654.4941347006861,0.0
447154.6038362722,4730833.5216966402,-7500.0,-3901.8173350568491,-2499.1157736104756,-735.94196031977003,635.7903731659776,348.33481153695692,-78.18764311776772,3007.8551991175786,-3707.705134421306,700.62534794456974,-700.62534794456974,3707.705134421306,5731.5978918591691,0.0
452154.6038362722,4730833.5216966402,-7500.0,-3519.3192320383419,-2062.7781686393973,-493.13650158292404,537.73237100194592,270.44624842904608,-62.448705386540475,2597.7672130878323,-3145.7010530060338,626.26234140241831,-626.26234140241831,3145.7010530060338,4949.6128145897019,0.0
457154.6038362722,4730833.5216966402,-7500.0,-3160.9375800287989,-1704.3957047665861,-319.09457496551238,455.09509195188724,210.77777585349656,-50.079914361777391,2250.6708986694798,-2674.129675395674,557.41022660227509,-557.41022660227509,2674.129675395674,4287.4757818978715,0.0
462154.6038362722,4730833.5216966402,-7500.0,-2832.0139403839698,-1410.9927975565338,-194.94010968630496,385.77117931622195,164.97387991846452,-40.344569603040476,1956.6552484563272,-2279.396963911302,494.95890334350656,-494.95890334350656,2279.396963911302,3726.4658053534622,0.0
277154.6038362722,4735833.5216966402,-7500.0,230.08361077130857,362.75182706186013,139.44270487400973,8.3681206349353836,29.362375368219027,-1.8981126639525683,366.9251632856068,406.32342762595448,-142.96427778029368,142.96427778029368,-406.32342762595448,662.24425098819563,0.0
282154.6038362722,4735833.5216966402,-7500.0,316.17721165606571,374.44402855196307,165.19294082929545,15.791946432805496,29.104213559380103,-1.6567978092978519,383.29092968901443,457.17164185081549,-163.168048314495,163.168048314495,-457.17164185081549,706.92367725140832,0.0
287154.6038362722,4735833.5216966402,-7500.0,419.48801208439943,380.17767928959296,200.5964273436681,25.420024793634525,27.312945348834777,-1.2103023943404081,396.82652455149844,513.39026446073137,-185.19189935041427,185.19189935041427,-513.39026446073137,755.37739199954206,0.0
292154.6038362722,4735833.5216966402,-7500.0,541.63024369708478,377.58531821021279,249.77853508960038,37.662426427162892,23.230135946666678,-0.47528163228792009,406.35045323916557,575.15353350568307,-208.66588002091362,208.66588002091362,-575.15353350568307,808.96706170398352,0.0
297154.6038362722,4735833.5216966402,-7500.0,683.30662286542133,364.07361977345664,318.47989829808427,52.869208928408689,15.83459548479931,0.65336144148749187,457.88622040445324,642.62911002744636,-232.91768765755296,232.91768765755296,-642.62911002744636,869.97145111563975,0.0
302154.6038362722,4735833.5216966402,-7500.0,843.53009597065807,337.26816361804856,414.48406397688279,71.200243694882161,3.8057867822390734,2.2999022561501925,519.24482823808239,716.14896620735681,-256.89380926438645,256.89380926438645,-716.14896620735681,941.9785446052299,0.0
307154.6038362722,4735833.5216966402,-7500.0,1018.5423493795209,295.94555766623461,547.9235744953578,92.401351394747977,-14.463339208245252,4.5958773178593697,586.88115126796481,796.59258038890584,-279.12777713648444,279.12777713648444,-796.59258038890584,1030.2330542498642,0.0
312154.6038362722,4735833.5216966402,-7500.0,1200.4855400879794,241.75506530327422,731.12772372956238,115.44845381832855,-40.737053105758022,7.6506370279939286,659.16008023989161,886.12562526065301,-297.8411577962853,297.8411577962853,-886.12562526065301,1141.7467206487834,0.0
317154.6038362722,4735833.5216966402,-7500.0,1376.1178447760904,182.08104516021902,977.33207624890269,138.03103633882114,-76.575600949471578,11.492256840172487,732.74010444497583,989.45602265250022,-311.32801808754607,311.32801808754607,-989.45602265250022,1285.009537152514,0.0
322154.6038362722,4735833.5216966402,-7500.0,1526.3177306762775,134.26658279452337,1297.0336373077971,155.89175763224907,-122.56555389795567,15.964297475114233,803.88437371498765,1115.6757123939515,-318.84621279435174,318.84621279435174,-1115.6757123939515,1469.5219910306737,0.0
327154.6038362722,4735833.5216966402,-7500.0,1627.8364432473975,130.81324390196809,1690.1339529327583,162.15617958858832,-176.91909374776313,20.566056546569143,905.5285350583672,1280.3728037610281,-322.26296603966773,322.26296603966773,-1280.3728037610281,1706.2969581626955,0.0
332154.6038362722,4735833.5216966402,-7500.0,1659.5099632442698,223.63362311154296,2131.7177918625553,147.01073872147421,-233.25894600333879,24.235728105382435,1125.9732230948175,1506.7385101550713,-328.53600820347049,328.53600820347049,-1506.7385101550713,2011.813367341982,1.0
337154.6038362722,4735833.5216966402,-7500.0,1615.0895070935405,482.60431199886881,2550.5986680938522,98.417704834583034,-277.6660013435266,25.101427069719438,1395.9412414521162,1822.6544218828567,-352.52323996080952,352.52323996080952,-1822.6544218828567,2418.628128575715,0.0
342154.6038362722,4735833.5216966402,-7500.0,1522.173627904923,980.24654886592384,2804.7908411917369,4.8688536656628854,-285.72954401589931,20.262057790342229,1685.6115973088649,2248.7357439924699,-418.41728647801642,418.41728647801642,-2248.7357439924699,2992.4685523488101,0.0
347154.6038362722,4735833.5216966402,-7500.0,1459.3795172386351,1753.8955371329439,2668.6319020604105,-138.88552057835707,-221.51114652145827,5.7157543883459212,1974.6087964441051,2772.4456691723335,-556.61370316819875,556.61370316819875,-2772.4456691723335,3842.7586224846623,0.0
352154.6038362722,4735833.5216966402,-7500.0,1553.140681446323,2746.4176345097567,1859.0933664813645,-323.30593818905885,-41.725820088914467,-23.332050572187999,2778.0234675836118,3310.5095986865108,-792.51644812256654,792.51644812256654,-3310.5095986865108,5099.8462894633776,0.0
357154.6038362722,4735833.5216966402,-7500.0,1931.7528951226871,3751.7239899177084,128.98478895011976,-515.78130610961352,291.22893419865403,-71.354584583083394,3916.1960396635141,3679.2713265806842,-1127.1822210737685,1127.1822210737685,-3679.2713265806842,6850.5552165754307,0.0
362154.6038362722,4735833.5216966402,-7500.0,2635.6932432228609,4419.829284200584,-2580.3864420690443,-659.74911526977007,787.21770085289177,-140.17401028809394,5234.1534129057618,3611.3013679200185,-1517.9125668626541,1517.9125668626541,-3611.3013679200185,9066.608848828826,0.0
367154.6038362722,4735833.5216966402,-7500.0,3532.7326489114462,4368.7843774139892,-6004.405773981056,-689.43487980688701,1406.2907644173574,-225.92487783126813,6625.2810345078742,2848.627495616312,-1875.1647211976619,1875.1647211976619,-2848.627495616312,11569.590826632944,0.0
372154.6038362722,4735833.5216966402,-7500.0,4320.4387494077318,3375.9050393763619,-9558.917432697539,-559.64098925488577,2054.842461406733,-317.54061454906207,7934.5734352261097,1286.7353989376456,-2089.0993842772982,2089.0993842772982,-1286.7353989376456,14056.035866895254,0.0
377154.6038362722,4735833.5216966402,-7500.0,4652.8373433951165,1525.8442927365215,-12536.023681921519,-273.56431433125965,2612.806163637199,-399.25461115582931,8998.3395828067514,-924.89818085240472,-2078.1499086233243,2078.1499086233243,924.89818085240472,16181.16969926678,0.0
382154.6038362722,4735833.5216966402,-7500.0,4317.326918105744,-805.65714326628199,-14389.867088924917,113.75585444128154,2980.4643269310695,-456.59663189121437,9693.3651598206779,-3414.4631309593642,-1828.7197642543872,1828.7197642543872,3414.4631309593642,17665.738420639154,0.0
387154.6038362722,4735833.5216966402,-7500.0,3332.9912379922075,-3125.406152329474,-14926.597806774233,520.53640558754626,3114.4218126033138,-481.92229972279779,9969.4309321814198,-5739.5936702120607,-1397.9293063623654,1397.9293063623654,5739.5936702120607,18371.816429633338,0.0
392154.6038362722,4735833.5216966402,-7500.0,1913.1112075844937,-5025.1158779345233,-14299.927423082107,872.77232252255021,3032.1018096747512,-475.97696592720933,9851.1129283305836,-7554.0161891751668,-881.39812032833834,881.39812032833834,7554.0161891751668,18315.498152785243,0.0
397154.6038362722,4735833.5216966402,-7500.0,345.7703664132531,-6292.5272057104376,-12866.474697830467,1126.2993748246258,2790.2429506257422,-445.56396281195634,9415.090463092145,-8693.8620152147341,-372.37774148258086,372.37774148258086,8693.8620152147341,17626.231602141459,0.0
402154.6038362722,4735833.5216966402,-7500.0,-1117.8731041104861,-6908.4205584655228,-11019.802987647348,1269.7406707384839,2456.8358132400535,-399.8090754167917,8759.6621980818072,-9167.8731977131283,64.404451236966452,-64.404451236966452,9167.8731977131283,16486.289019125114,0.0
407154.6038362722,4735833.5216966402,-7500.0,-2319.3338586443797,-6979.0139431465022,-9081.8552521810016,1315.1575052323981,2091.053071197915,-347.20391712747522,7980.0048031745018,-9094.3660647356737,398.68419542332231,-398.68419542332231,9094.3660647356737,15079.253844634219,0.0
412154.6038362722,4735833.5216966402,-7500.0,-3195.4994788989497,-6660.5200376177308,-7264.5997333127425,1285.8670939188451,1734.7330258290315,-294.14719277497119,7154.1851249645861,-8633.1239349131101,627.50687446775282,-627.50687446775282,8633.1239349131101,13559.393621072295,0.0
417154.6038362722,4735833.5216966402,-7500.0,-3753.3734445464097,-6105.8771574209777,-5678.5069459908182,1207.0249060838644,1412.261179544279,-244.68993267776753,6338.6339932620413,-7937.6197437546562,764.07432808106341,-764.07432808106341,7937.6197437546562,12040.392976706205,0.0
422154.6038362722,4735833.5216966402,-7500.0,-4039.2548623783186,-5438.3756877868764,-4360.2461494553427,1100.3611789774075,1134.4044404411093,-200.91771646153066,5569.5273353314933,-7131.4149223488494,828.16065376416782,-828.16065376416782,7131.4149223488494,10596.637913669631,0.0
427154.6038362722,4735833.5216966402,-7500.0,-4114.0499528471564,-4744.9405538599503,-3301.6362094258725,982.25394228870846,902.95087344319836,-163.52920345977233,4866.8183198255138,-6302.2838068535239,839.90812799199603,-839.90812799199603,6302.2838068535239,9270.4360615529604,0.0
432154.6038362722,4735833.5216966402,-7500.0,-4037.7461212766157,-4079.9769047424215,-2472.1193495468929,863.79043977495962,714.62468885289127,-132.37128003093505,4238.7950497013289,-5505.9653271576672,816.69897564316034,-816.69897564316034,5505.9653271576672,8080.7104992622026,0.0
437154.6038362722,4735833.5216966402,-7500.0,-3861.7073962520558,-3473.0768839660882,-1833.4083122792467,751.7168838132568,563.84263011412838,-106.84382505034975,3686.0932477640331,-4773.5102927973967,772.1128932253348,-772.1128932253348,4773.5102927973967,7030.8456640095546,0.0
442154.6038362722,4735833.5216966402,-7500.0,-3626.1917062279622,-2936.8493096831799,-1347.7230258383036,649.59944735596218,444.41355877473774,-86.167675637967221,3204.7914095025508,-4118.800760440251,716.0323386028947,-716.0323386028947,4118.800760440251,6114.8226422512771,0.0
447154.6038362722,4735833.5216966402,-7500.0,-3360.7559950573896,-2473.3103620256325,-981.67084750310005,558.86667873802548,350.45846154923049,-69.543272631419171,2788.5938224262909,-3544.7702137191982,655.24258101942382,-655.24258101942382,3544.7702137191982,5321.5884614034294,0.0
452154.6038362722,4735833.5216966402,-7500.0,-3085.9283567414932,-2078.5006447802803,-707.53040950938839,479.61931091155122,276.82524064230398,-56.233262219883898,2430.2596765967428,-3047.9745117776001,594.15037361148461,-594.15037361148461,3047.9745117776001,4637.9417903247522,0.0
457154.6038362722,4735833.5216966402,-7500.0,-2815.2064317677773,-1745.5491525247849,-503.17325960126453,411.20551644904174,219.20984709080966,-45.59727501823869,2122.4770868826149,-2621.6907737483507,535.44217239417344,-535.44217239417344,2621.6907737483507,4050.315834488375,0.0
462154.6038362722,4735833.5216966402,-7500.0,-2556.9056129303331,-1466.5591835616956,-351.38187734282354,352.60142079730753,174.12411441587327,-37.099536954890752,1858.3489820332966,-2257.8746998831389,480.61562139693899,-480.61562139693899,2257.8746998831389,3545.7853746803107,0.0
277154.6038362722,4740833.5216966402,-7500.0,280.992881054073,295.04074097097566,145.5060684284453,13.792940966254269,21.060738780426551,-1.3081483459128107,303.62281882064741,377.93846085584852,-133.88273079401171,133.88273079401171,-377.93846085584852,568.19978637354347,0.0
282154.6038362722,4740833.5216966402,-7500.0,359.81383901482184,297.23634372249694,175.53300807922781,20.667081835407682,19.390947663729825,-1.0593019136117956,312.0066143845566,420.29487346216001,-150.05569060128354,150.05569060128354,-420.29487346216001,604.27195010066316,0.0
287154.6038362722,4740833.5216966402,-7500.0,450.98631822986715,293.53398126161557,216.05049076901446,29.146346418856197,16.129793080879629,-0.6556954097214438,327.07839781928305,466.46588624162462,-167.08240550714959,167.08240550714959,-466.46588624162462,644.11497031796944,0.0
292154.6038362722,4740833.5216966402,-7500.0,554.54833107470802,282.48685261658187,270.88583343300246,39.370461893289018,10.659434284647467,-0.048880943644965813,367.19186238706931,516.61679527060369,-184.51804007354366,184.51804007354366,-516.61679527060369,689.28331325453826,0.0
297154.6038362722,4740833.5216966402,-7500.0,669.42008890078728,262.94154252453609,345.01066336411156,51.340303745674873,2.212349788357765,0.81421468053098689,411.56363834349497,571.06795439530549,-201.71470281700223,201.71470281700223,-571.06795439530549,742.09849147470231,0.0
302154.6038362722,4740833.5216966402,-7500.0,792.82328190795783,234.61578291707349,444.61863448349084,64.792750837977493,-10.107644111149988,1.9831441848090234,459.75544239863456,630.53042936047757,-217.82399088237381,217.82399088237381,-630.53042936047757,805.81317963298704,0.0
307154.6038362722,4740833.5216966402,-7500.0,919.61383875771571,199.07704385334665,576.91507671330316,79.013210474582166,-27.241627960248866,3.4870842216365316,510.71606654604471,696.51901277809736,-231.87425860835302,231.87425860835302,-696.51901277809736,884.66137960619756,0.0
312154.6038362722,4740833.5216966402,-7500.0,1041.6854067436973,161.26176034446127,749.2873512513288,92.57629405952693,-49.976358962943891,5.3041039106433496,562.70812632910713,772.00383611223435,-242.99110921126044,242.99110921126044,-772.00383611223435,983.75151135831811,1.0
317154.6038362722,4740833.5216966402,-7500.0,1147.7940157225842,131.59850039720288,967.31007309095526,103.02603793121199,-78.553209899560741,7.3102230649032913,614.99047488620533,862.31092429603154,-250.85607569960848,250.85607569960848,-862.31092429603154,1108.9400945085965,0.0
322154.6038362722,4740833.5216966402,-7500.0,1224.4329554373182,128.5363249387413,1230.8022031178018,106.55512026826499,-111.99158885147358,9.2029349505612323,684.25669959135712,976.1171489929983,-256.50330413802806,256.50330413802806,-976.1171489929983,1267.2086491065138,0.0
327154.6038362722,4740833.5216966402,-7500.0,1258.6739682172501,180.68146705715563,1527.0596651103883,97.83146165816612,-147.04844390079643,10.398019320567712,818.51806294955441,1126.0164333953162,-263.49059486222126,263.49059486222126,-1126.0164333953162,1468.5922627453617,0.0
332154.6038362722,4740833.5216966402,-7500.0,1243.9064125469692,326.69741575658691,1820.8347483830735,70.25012290049024,-176.8304102353267,9.9109386583057173,996.45706968518255,1327.4929839183499,-279.26928618241368,279.26928618241368,-1327.4929839183499,1730.9892879763504,0.0
337154.6038362722,4740833.5216966402,-7500.0,1188.5876274868558,609.80384750208657,2042.2999819206746,17.020018560142248,-189.31546891655637,6.2531035533471986,1193.5202683618074,1594.3556749654153,-316.14703636806098,316.14703636806098,-1594.3556749654153,2088.0817947215019,0.0
342154.6038362722,4740833.5216966402,-7500.0,1125.7564496097825,1063.074539293671,2077.7977980226151,-66.489357106121687,-166.47085856440526,-2.5972740136989367,1397.0285785254996,1928.4204928415666,-390.63999707032451,390.63999707032451,-1928.4204928415666,2596.2640134604694,0.0
347154.6038362722,4740833.5216966402,-7500.0,1117.0972705686688,1683.8892213980064,1773.1772537516747,-179.03394838080635,-85.196768163728578,-19.056816610580778,1733.7504165446096,2302.8833405449018,-519.62975879269061,519.62975879269061,-2302.8833405449018,3330.3271116083524,0.0
352154.6038362722,4740833.5216966402,-7500.0,1242.0046678816379,2403.2475367865864,962.52562605126786,-309.19924319574977,78.373252522343861,-45.507609552431319,2439.1156927827942,2643.9897762626429,-712.39533317152689,712.39533317152689,-2643.9897762626429,4359.816451073073,0.0
357154.6038362722,4740833.5216966402,-7500.0,1564.7962099599649,3067.3880989056938,-470.99159079147296,-432.74013263922888,340.36086155768248,-83.470246108673479,3286.7151958372765,2823.543684782172,-960.08419148430085,960.08419148430085,-2823.543684782172,5713.285517072708,0.0
362154.6038362722,4740833.5216966402,-7500.0,2087.0448380901321,3456.4931634771333,-2516.2563509059369,-514.89630142994508,698.00081727998565,-132.44312085872147,4238.3675319216891,2679.1789611619165,-1228.0106696490147,1228.0106696490147,-2679.1789611619165,7348.3700281138254,0.0
367154.6038362722,4740833.5216966402,-7500.0,2712.2537336699284,3353.437639038752,-4978.9915832915058,-519.96779918336199,1121.1858546451713,-188.87284572921212,5224.2448941998946,2069.727216447453,-1458.2974625095426,1458.2974625095426,-2069.727216447453,9142.0686079770057,0.0
372154.6038362722,4740833.5216966402,-7500.0,3257.0082286518414,2640.469119927599,-7499.6007471884686,-425.91310007269925,1553.9349339513501,-246.09666139890737,6150.4085863892869,946.9854543994561,-1586.650818354301,1586.650818354301,-946.9854543994561,10908.685979043192,0.0
377154.6038362722,4740833.5216966402,-7500.0,3517.8414040054595,1368.1799369699768,-9657.5819490947415,-236.21836502289858,1929.0110864637099,-295.84795933380883,6919.4674791523203,-598.61850107263638,-1567.3492955280258,1567.3492955280258,598.61850107263638,12443.288668075618,0.0
382154.6038362722,4740833.5216966402,-7500.0,3359.324975607396,-252.09686143148519,-11114.524001315544,19.185482017098582,2189.8403783872036,-330.857673104404,7455.1504441633242,-2353.8910947482168,-1392.3849541222016,1392.3849541222016,2353.8910947482168,13574.850688392369,0.0
387154.6038362722,4740833.5216966402,-7500.0,2768.7481360101165,-1930.0886084626152,-11716.755943218066,295.17053123383141,2307.8034470709372,-347.13782736360548,7719.7399570046036,-4055.3554798558384,-1093.2296831268845,1093.2296831268845,4055.3554798558384,14206.279182855766,0.0
392154.6038362722,4740833.5216966402,-7500.0,1848.7127142656591,-3400.7385057720862,-11510.039129144512,547.684209659114,2286.4010561522891,-344.7418718853163,7717.69062951264,-5475.6252154082513,-725.75500154343263,725.75500154343263,5475.6252154082513,14326.322237138058,0.0
397154.6038362722,4740833.5216966402,-7500.0,763.63717736119531,-4495.0784802780836,-10679.419573746818,746.03703626145966,2153.096955410489,-326.92343127234898,7486.6888603114303,-6479.3854745456902,-349.05764666323421,349.05764666323421,6479.3854745456902,13994.567096672119,0.0
402154.6038362722,4740833.5216966402,-7500.0,-321.76564826535093,-5156.7527756618983,-9462.9202199949268,876.98821678042873,1945.9917854800233,-298.51521165776336,7082.6760593551053,-7033.2156717174403,-9.3357484233051764,9.3357484233051764,7033.2156717174403,13312.327293693534,0.0
407154.6038362722,4740833.5216966402,-7500.0,-1283.5705827026479,-5417.8517296615828,-8081.6323336415635,942.05682036381836,1702.2637844073402,-264.42632570546061,6565.5085989904492,-7181.6421757795833,266.60320481288636,-266.60320481288636,7181.6421757795833,12393.360133782033,0.0
412154.6038362722,4740833.5216966402,-7500.0,-2052.2951393278631,-5359.824286302839,-6702.934919245934,951.86734120988558,1451.5064049236764,-228.7128610329105,5988.9827355179432,-7011.3995121788284,469.89382353373958,-469.89382353373958,7011.3995121788284,11342.691168773599,0.0
417154.6038362722,4740833.5216966402,-7500.0,-2606.7488899914874,-5078.8147681316605,-5432.6713154462814,920.67537388740368,1213.7029413740468,-194.23657372612254,5395.8626375054046,-6620.2626329451641,604.30172471136302,-604.30172471136302,6620.2626329451641,10245.431086877976,0.0
422154.6038362722,4740833.5216966402,-7500.0,-2959.2226149971702,-4663.2812720335705,-4324.2026120251139,862.53772694651116,1000.1234060825165,-162.71911387321509,4816.7874421478327,-6097.0353872086498,680.4473678149634,-680.4473678149634,6097.0353872086498,9163.6239940558135,0.0
427154.6038362722,4740833.5216966402,-7500.0,-3140.2268018502245,-4183.5873445076068,-3393.4641261533607,789.28515822895395,815.45157682630725,-134.98143846147477,4271.4882907770916,-5512.3123525776109,711.30665157549629,-711.30665157549629,5512.3123525776109,8138.0387897888768,0.0
432154.6038362722,4740833.5216966402,-7500.0,-3186.7222477861715,-3689.9005744884389,-2633.4374545764058,709.8492851532028,660.03567238848564,-111.22241870987342,3770.9986073006803,-4916.7388794721937,709.40166717497277,-709.40166717497277,4916.7388794721937,7192.2106484934257,0.0
437154.6038362722,4740833.5216966402,-7500.0,-3134.6797144829284,-3214.5388307198223,-2025.3004141240585,630.38840113465801,531.74098003747451,-91.26139156228129,3320.0116245094187,-4343.3216019833417,685.41179239688745,-685.41179239688745,4343.3216019833417,6336.9555727966472,0.0
442154.6038362722,4740833.5216966402,-7500.0,-3015.2637590956851,-2775.9698248076415,-1545.8625350731627,554.77416744998186,427.26705245075863,-74.71913280156565,2918.9497113550315,-3811.2702911612373,647.73790113289715,-647.73790113289715,3811.2702911612373,5574.4168054500333,0.0
447154.6038362722,4740833.5216966402,-7500.0,-2853.4920767423664,-2382.8645891057572,-1171.9379610750036,485.16540886326817,342.98366254090092,-61.138840689364102,2565.5893104785196,-3329.9070262051205,602.59973764828328,-602.59973764828328,3329.9070262051205,4901.2823334874556,0.0
452154.6038362722,4740833.5216966402,-7500.0,-2668.3330779654607,-2037.4919809427788,-882.56389916746582,422.52974294898075,275.40442409325192,-50.05905918302814,2256.2408238729522,-2901.9744184754404,554.37163727428151,-554.37163727428151,2901.9744184754404,4311.1431212226244,0.0
457154.6038362722,4740833.5216966402,-7500.0,-2473.4933813501766,-1738.2675158652719,-659.86791247605947,367.06043643511811,221.41698814344747,-41.052930950524704,1986.5516430470257,-2526.1548317104198,505.98047933706243,-505.98047933706243,2526.1548317104198,3796.1120035854492,0.0
282154.6038362722,4745833.5216966402,-7500.0,377.88974789649393,232.88848479799859,187.92355107454162,22.915807083788664,11.302709665853122,-0.63884164315997349,268.89725062971206,383.66080706290563,-135.71009927691455,135.71009927691455,-383.66080706290563,521.6638840531798,0.0
287154.6038362722,4745833.5216966402,-7500.0,455.09761423588577,224.16288283489706,231.9395032315004,29.97417434410394,7.1867589471831055,-0.29733111643355459,299.03176791954115,421.81977286196957,-148.57393261295081,148.57393261295081,-421.81977286196957,556.01827219220161,0.0
292154.6038362722,4745833.5216966402,-7500.0,539.42075183482177,209.92784716032514,289.77740523006059,38.035810802727738,1.1042379451565703,0.17695324870511947,331.95342379325137,463.13709630248275,-161.25955882916529,161.25955882916529,-463.13709630248275,595.85231230347279,0.0
297154.6038362722,4745833.5216966402,-7500.0,628.85022541737374,190.2864841291464,365.31135177076288,46.880906545025816,-7.4623016480852504,0.80203631151015586,367.34273527451558,508.16590533222438,-173.26353359490909,173.26353359490909,-508.16590533222438,643.24917999880324,0.0
302154.6038362722,4745833.5216966402,-7500.0,719.97210629323411,166.54319243082125,462.87501527862025,56.019409558532423,-19.034918104107216,1.5813611943353498,404.55985548061574,557.96743755802277,-184.03774874313089,184.03774874313089,-557.96743755802277,700.85620349247017,0.0
307154.6038362722,4745833.5216966402,-7500.0,807.67936593688455,142.0397967426357,586.73246855805621,64.555827711287009,-34.027699942938057,2.4875636934432861,442.76447442538819,614.46097195607058,-193.11797108918543,193.11797108918543,-614.46097195607058,771.84756830709227,0.0
312154.6038362722,4745833.5216966402,-7500.0,885.11371157435883,123.27322563068374,739.94647199936776,71.027604559700421,-52.540193466272072,3.4368340172483753,482.24109292802603,680.88370406604179,-200.3692058563463,200.3692058563463,-680.88370406604179,859.90818547196284,1.0
317154.6038362722,4745833.5216966402,-7500.0,944.12552021736792,121.1902376145301,922.29437583946549,73.244755900341119,-74.0157723133362,4.2514448211905407,531.93349317917887,762.28266205510317,-206.39025307870548,206.39025307870548,-762.28266205510317,969.49056589683573,0.0
322154.6038362722,4745833.5216966402,-7500.0,976.65463873180261,152.30513941105363,1126.8499130672376,68.195132325904169,-96.730151850063805,4.6099187065318912,616.89608960208318,865.8072006237112,-213.0926533050129,213.0926533050129,-865.8072006237112,1106.814592908371,0.0
327154.6038362722,4745833.5216966402,-7500.0,977.45402212557588,238.86806865267056,1335.0224902230748,52.132361381191892,-117.11174605833695,3.9891414683242723,735.50679607293387,1000.3181242566139,-224.38773715233731,224.38773715233731,-1000.3181242566139,1282.2020607312888,0.0
332154.6038362722,4745833.5216966402,-7500.0,948.30426455898601,406.7747045984969,1510.4506754277818,21.020138263531305,-128.98596378050377,1.611075670454251,871.53415868544039,1174.5110059528517,-246.75135987363109,246.75135987363109,-1174.5110059528517,1513.9522500947055,0.0
337154.6038362722,4745833.5216966402,-7500.0,903.05139366524156,679.53684679061985,1593.4384770493332,-28.472293596301608,-122.9985128882023,-3.5801357825592452,1015.6997981854532,1392.563740712736,-289.19588905246985,289.19588905246985,-1392.563740712736,1832.394784940303,0.0
342154.6038362722,4745833.5216966402,-7500.0,871.32171309788885,1067.0820330764129,1499.5859539254329,-97.315506071069763,-86.693612015082351,-12.870858597460083,1165.7566271056614,1646.7014246610834,-361.96618296416125,361.96618296416125,-1646.7014246610834,2280.1248871820853,0.0
347154.6038362722,4745833.5216966402,-7500.0,897.09361522570828,1550.3238885667081,1128.0601435843462,-181.98498164852271,-5.8991761224570007,-27.610634768110444,1573.2716478831248,1907.6198302023834,-473.3446328939292,473.3446328939292,-1907.6198302023834,2903.7857526707489,0.0
352154.6038362722,4745833.5216966402,-7500.0,1027.9658700635159,2066.7159023713994,384.49542286807747,-272.54185643906669,132.01852922678526,-48.882409649198785,2121.9380796803971,2116.6401970104175,-624.64537378468106,624.64537378468106,-2116.6401970104175,3737.6201144420238,0.0
357154.6038362722,4745833.5216966402,-7500.0,1294.157974763631,2506.6876520434703,-781.88952575050689,-352.19530058029801,333.1167806398455,-77.015894965058251,2760.2935005630752,2186.5341237197144,-804.90886186759667,804.90886186759667,-2186.5341237197144,4785.2839866619142,0.0
362154.6038362722,4745833.5216966402,-7500.0,1683.7210647636891,2731.4103125895126,-2338.0581242335943,-399.73153057969523,591.43233185652605,-111.05696092446131,3460.1280261887505,2017.9169214432593,-988.34845538853074,988.34845538853074,-2017.9169214432593,6007.3517027254211,0.0
367154.6038362722,4745833.5216966402,-7500.0,2128.2145206189398,2613.9071540715727,-4145.1766656553827,-395.22525447143227,885.87242558904779,-148.4475883564732,4175.1686550912509,1531.5902933396719,-1137.7704052698246,1137.7704052698246,-1531.5902933396719,7319.6096907410601,0.0
372154.6038362722,4745833.5216966402,-7500.0,2513.0681651724399,2089.5450296495978,-5975.3238775506588,-327.36683057614664,1182.2956022682695,-185.22278583783191,4846.5547064670254,705.47811490422998,-1214.7027683292165,1214.7027683292165,-705.47811490422998,8604.8238320882792,0.0
377154.6038362722,4745833.5216966402,-7500.0,2714.1398956740363,1189.8585762779253,-7569.1555161943279,-198.85962899546846,1441.4489515275895,-216.84587712695463,5414.0675517715144,-403.59147416050121,-1192.603528308915,1192.603528308915,403.59147416050121,9736.3186353342935,0.0
382154.6038362722,4745833.5216966402,-7500.0,2643.8046424662543,38.756804208250173,-8711.1528710229268,-26.636014991836568,1629.8518916079909,-239.41575110045284,5829.0796509321217,-1668.2789504776397,-1066.5769727907714,1066.5769727907714,1668.2789504776397,10605.897471090479,0.0
387154.6038362722,4745833.5216966402,-7500.0,2281.959945999758,-1188.0437498874792,-9286.7943383855818,163.48882387758914,1728.5869456049772,-250.69503202767817,6064.2343400721147,-2927.1715446013204,-854.53545407644333,854.53545407644333,2927.1715446013204,11145.820827977328,0.0
392154.6038362722,4745833.5216966402,-7500.0,1677.3991880239057,-2318.2058523780092,-9298.0516620326071,344.84860704502097,1736.2621945365479,-250.5018045794761,6116.5839919988957,-4030.8702600018642,-589.86805363903227,589.86805363903227,4030.8702600018642,11337.572802106541,0.0
397154.6038362722,4745833.5216966402,-7500.0,923.79618754351702,-3226.1725144693964,-8838.9459320836795,496.74502908397398,1665.970283208854,-240.39991034381057,6004.1875055955707,-4876.6428328408456,-310.22072607720611,310.22072607720611,4876.6428328408456,11206.781209296709,0.0
402154.6038362722,4745833.5216966402,-7500.0,126.54066498830304,-3850.8509240220515,-8051.2009603486558,607.70955391953373,1538.940757541676,-222.97455472167027,5758.7480052081755,-5420.9850646708055,-47.788957164713793,47.788957164713793,5420.9850646708055,10809.231286601067,0.0
407154.6038362722,4745833.5216966402,-7500.0,-624.22561263765567,-4189.688453157356,-7081.8106897120406,675.20856273978995,1378.1102833925681,-201.0684450447913,5417.5101279824612,-5672.4662497189802,175.88102488666891,-175.88102488666891,5672.4662497189802,10214.587221203425,0.0
412154.6038362722,4745833.5216966402,-7500.0,-1267.4238519717881,-4279.9809856610427,-6054.9589069384265,703.22412703100031,1203.6076531274666,-177.22521823779886,5016.7143290880795,-5674.2158542684228,350.56349488627302,-350.56349488627302,5674.2158542684228,9492.7702763094803,0.0
417154.6038362722,4745833.5216966402,-7500.0,-1772.7109370139206,-4178.2380449833645,-5060.1646480124555,699.2936649795505,1030.6061513571826,-153.40781077746712,4587.5168583093473,-5485.2280389062853,475.15768173499509,-475.15768173499509,5485.2280389062853,8705.1352704654309,0.0
422154.6038362722,4745833.5216966402,-7500.0,-2134.7540739623446,-3944.0143568152635,-4152.3917518428643,672.02920967658633,869.02917222195276,-130.94086371168851,4154.2218857693633,-5165.8747986224316,554.4768327633019,-554.4768327633019,5165.8747986224316,7900.3386532479199,0.0
427154.6038362722,4745833.5216966402,-7500.0,-2364.8882608306362,-3630.1038124597617,-3358.4590206264397,629.49115555279855,724.31422950406727,-110.58776300297893,3734.1789469824203,-4769.1781481128855,596.27630997591041,-596.27630997591041,4769.1781481128855,7113.6834600163666,0.0
432154.6038362722,4745833.5216966402,-7500.0,-2483.2981773199181,-3278.2548057481908,-2685.3012985282221,578.3674288549023,598.56729522497119,-92.682397505403728,3338.6318891116412,-4337.0531625016265,609.07220719525731,-609.07220719525731,4337.0531625016265,6368.5162871787707,0.0
437154.6038362722,4745833.5216966402,-7500.0,-2513.1261953776648,-2918.5975419766714,-2127.5186352471942,523.73352742539612,491.69410462390493,-77.265308435180145,2973.958860114456,-3899.903279733418,600.81383649602276,-600.81383649602276,3899.903279733418,5678.5244222813499,0.0
442154.6038362722,4745833.5216966402,-7500.0,-2476.7170050530485,-2571.0569852661893,-1673.1812925388126,469.15345677263247,402.3186527183845,-64.197678585880368,2642.9424913563325,-3478.0209409142126,578.24016918002576,-578.24016918002576,3478.0209409142126,5050.175399266338,0.0
447154.6038362722,4745833.5216966402,-7500.0,-2393.6316367730474,-2247.5172369871107,-1307.7856832553628,416.93670515659562,328.4439552121998,-53.246524650378518,2345.8845447972203,-3083.6801683716949,546.69306637158161,-546.69306637158161,3083.6801683716949,4484.8971380929224,0.0
452154.6038362722,4745833.5216966402,-7500.0,-2279.8943269636184,-1954.0112826931947,-1016.673498823495,368.43359715434372,267.88280647041944,-44.142222455426072,2081.49457866485,-2723.2563716131135,510.19036444840594,-510.19036444840594,2723.2563716131135,3980.8365361701995,0.0
287154.6038362722,4750833.5216966402,-7500.0,440.69570100213275,170.88189077706562,245.40769021707777,28.83273545668688,0.36534664520400695,-0.084235093875708433,271.81252924464872,381.09286443370075,-130.96589089383605,130.96589089383605,-381.09286443370075,486.25257267178142,0.0
292154.6038362722,4750833.5216966402,-7500.0,507.07478231674781,157.09089019424582,303.54472756828102,34.832011420916245,-5.7507185755727734,0.26550672203612541,298.47777457511324,415.88402098881591,-140.12535930515753,140.12535930515753,-415.88402098881591,522.39914634623653,0.0
297154.6038362722,4750833.5216966402,-7500.0,574.31252894857664,140.94611560909351,376.88351696758951,40.915846565999225,-13.807669087226866,0.68887995405708657,326.45047340621937,454.22191323040136,-148.53792746760737,148.53792746760737,-454.22191323040136,565.65365055044083,0.0
302154.6038362722,4750833.5216966402,-7500.0,639.10386350431543,124.74383622300896,467.96133616445655,46.510074475022869,-24.03233828742286,1.1636364398090415,355.36050777652207,497.37552109178199,-155.94947494256149,155.94947494256149,-497.37552109178199,618.04861473868243,0.0
307154.6038362722,4750833.5216966402,-7500.0,697.12638823861278,112.65963769399858,578.5122301567659,50.716930976948802,-36.465091614917291,1.6355587847613444,385.73931542559484,547.3782384497232,-162.30606890326399,162.30606890326399,-547.3782384497232,681.95605799875523,0.0
312154.6038362722,4750833.5216966402,-7500.0,743.29350719739602,111.4426204298029,708.3152345405806,52.231686169495376,-50.779667894779756,2.0001916301633851,422.60600950978085,607.28204997649254,-167.96850606822335,167.96850606822335,-607.28204997649254,760.25564360401222,0.0
317154.6038362722,4750833.5216966402,-7500.0,772.46187384145981,131.0229910849601,853.37687861480845,49.289584912227511,-66.02073008314035,2.0773688986456351,479.13913452130549,681.31198828301217,-174.01167946721526,174.01167946721526,-681.31198828301217,856.87855724796736,0.0
322154.6038362722,4750833.5216966402,-7500.0,780.7941892153666,184.68859472492269,1003.3459595876867,39.695640685467019,-80.256944602272668,1.5824971053620489,559.34672462295111,774.7065723606745,-182.58138496635939,182.58138496635939,-774.7065723606745,978.00587288321015,0.0
327154.6038362722,4750833.5216966402,-7500.0,767.87796339983345,288.25434240659217,1138.2946911541014,21.013514886746943,-90.184648168341667,0.098395486907996627,654.54512145634385,892.89282278915425,-197.21498595922958,197.21498595922958,-892.89282278915425,1134.0584754569882,0.0
332154.6038362722,4750833.5216966402,-7500.0,739.39970955646868,457.45881249739813,1225.5037982982417,-8.9956911812646805,-90.780983098650225,-2.9411475082382799,757.81575441640223,1039.5434423676672,-222.93278397810701,222.93278397810701,-1039.5434423676672,1342.0112080267468,0.0
337154.6038362722,4750833.5216966402,-7500.0,709.60065790832334,702.88866944933022,1217.6837517272793,-51.616296700170942,-75.19727943839122,-8.2390773321899928,864.46141263876336,1213.1422277744066,-265.8034746106585,265.8034746106585,-1213.1422277744066,1626.4312506044225,0.0
342154.6038362722,4750833.5216966402,-7500.0,701.98803467389962,1022.3900052050645,1054.9453531730819,-106.12809278717994,-35.173055344890834,-16.571911191281494,1050.5822429075376,1402.1645739724856,-331.6603131230861,331.6603131230861,-1402.1645739724856,2016.8969165750273,0.0
347154.6038362722,4750833.5216966402,-7500.0,746.27181704325835,1392.4428237693332,673.16892401942823,-168.67756005944273,37.731548871292389,-28.654864306560725,1410.3748241464584,1580.0299064123374,-423.82368223128481,423.82368223128481,-1580.0299064123374,2540.7724084797346,0.0
352154.6038362722,4750833.5216966402,-7500.0,870.03606576762536,1762.1218211663379,20.206774521999758,-231.53683028132599,149.94935323659777,-44.929028346455141,1839.2355045913869,1702.4234214553721,-540.17699219102008,540.17699219102008,-1702.4234214553721,3213.3018975955056,0.0
357154.6038362722,4750833.5216966402,-7500.0,1085.9471823932417,2054.8187809137817,-922.18925535002131,-283.39683438092356,303.05307230988905,-65.298912842049376,2325.7915252658031,1710.5293274017854,-670.66218278544,670.66218278544,-1710.5293274017854,4028.576144252936,0.0
362154.6038362722,4750833.5216966402,-7500.0,1378.9798067952049,2181.8235645794607,-2117.9394581928518,-311.21672559970261,491.13258702803518,-88.89989575624989,2849.3322972281076,1542.7332955814875,-796.79479298091132,796.79479298091132,-1542.7332955814875,4954.3235423551278,0.0
367154.6038362722,4750833.5216966402,-7500.0,1700.9378883136862,2066.8326554963037,-3468.4733183595386,-303.54822460481904,699.75087344868393,-114.01817342403469,3378.7104962960966,1153.5506336834153,-894.51065421662111,894.51065421662111,-1153.5506336834153,5932.5705752807717,0.0
372154.6038362722,4750833.5216966402,-7500.0,1978.2615035498179,1673.1918061764043,-4825.3971580964871,-254.32520115870764,907.61118325690086,-138.27365223623713,3875.9369703041057,533.26061106917211,-940.2288755559797,940.2288755559797,-533.26061106917211,6887.1866585021571,0.0
377154.6038362722,4750833.5216966402,-7500.0,2132.6994025683075,1021.259676151898,-6023.4187530150239,-165.45822048504419,1090.9595937622594,-159.07682654209955,4302.5221046523357,-281.24230407964649,-918.04972546905253,918.04972546905253,281.24230407964649,7737.1910725802445,0.0
382154.6038362722,4750833.5216966402,-7500.0,2106.4952427178946,186.40685125769426,-6921.7262011629964,-46.862066305259269,1229.263518691303,-174.2214295226419,4626.6157008556529,-1211.1013582892324,-824.91113731932762,824.91113731932762,1211.1013582892324,8412.118217700383,0.0
387154.6038362722,4750833.5216966402,-7500.0,1880.390946533915,-722.04502700547448,-7436.8162846596206,86.213466334369599,1309.8977508715511,-182.38146603144406,4828.5643492934641,-2154.6771913098764,-671.34928236260612,671.34928236260612,2154.6771913098764,8864.5329418984329,0.0
392154.6038362722,4750833.5216966402,-7500.0,1476.895724131238,-1590.9625973068578,-7554.7075717379066,217.31487944830045,1330.099958447099,-183.32364908014625,4903.224343361725,-3012.8995669859523,-477.80445232483453,477.80445232483453,3012.8995669859523,9076.0346311117191,0.0
397154.6038362722,4750833.5216966402,-7500.0,949.53297405242029,-2329.719009034397,-7321.5462986251341,332.61052878271187,1295.9085981994519,-177.79521690439199,4858.7880127492608,-3710.4576748418931,-268.52850296466386,268.52850296466386,3710.4576748418931,9055.9482612654101,0.0
402154.6038362722,4750833.5216966402,-7500.0,365.06137125599093,-2884.3169905138989,-6820.9040873755775,423.15282140995595,1219.1191560036889,-167.19203010413915,4713.1547969858693,-4206.3539044692543,-65.768175401587541,65.768175401587541,4206.3539044692543,8834.6149709085166,0.0
407154.6038362722,4750833.5216966402,-7500.0,-213.33184511693926,-3238.2870756205421,-6148.7314135966453,485.30416586200914,1113.7552262277047,-153.1666765945335,4489.3937973350266,-4493.3353688791631,113.96976316438668,-113.96976316438668,4493.3353688791631,8454.4138924438994,0.0
412154.6038362722,4750833.5216966402,-7500.0,-736.93429224408055,-3404.5686308146655,-5393.8782957996709,519.81879082568594,993.20075603467399,-137.30508445063811,4211.6176847677852,-4589.924530259239,261.15157614553209,-261.15157614553209,4589.924530259239,7961.3040966737044,0.0
417154.6038362722,4750833.5216966402,-7500.0,-1175.5349746869392,-3413.9789914432577,-4627.1197497657322,530.32942766855933,868.47557957619335,-120.92664477842536,3901.996967914682,-4529.8266044770671,372.53993561892548,-372.53993561892548,4529.8266044770671,7398.5107493882724,0.0
422154.6038362722,4750833.5216966402,-7500.0,-1516.2210023112123,-3304.5368794305987,-3897.7989875523144,521.85000666033875,747.59175575293898,-105.00528920985221,3579.0683338196709,-4352.3114825738812,449.54265224351138,-449.54265224351138,4352.3114825738812,6802.7875399833019,0.0
427154.6038362722,4750833.5216966402,-7500.0,-1759.3975265718136,-3113.7261863150211,-3235.5118079311992,499.62442154293302,635.66518105511375,-90.176824093894581,3257.132329323043,-4095.3079235093305,496.37854125969307,-496.37854125969307,4095.3079235093305,6202.9128873407462,0.0
432154.6038362722,4750833.5216966402,-7500.0,-1914.0969295357131,-2874.0266791207869,-2654.2085939275203,468.40633295405701,535.4236053501146,-76.793149463103646,2946.3947350616086,-3791.4495466433082,518.52747905769593,-518.52747905769593,3791.4495466433082,5619.7506404953319,0.0
437154.6038362722,4750833.5216966402,-7500.0,-1993.8328359333236,-2611.0913728066116,-2156.8206657348946,432.11194864256288,447.83711439657498,-64.993108479707104,2653.5205025648129,-3466.5050162466082,521.63639553177836,-521.63639553177836,3466.5050162466082,5067.2079147284876,0.0
442154.6038362722,4750833.5216966402,-7500.0,-2013.5153141124827,-2343.6664313035481,-1739.3553517187113,393.73482586579684,372.70753983588577,-54.770228190021484,2382.3460516203359,-3139.3812355519494,510.86620159081576,-510.86620159081576,3139.3812355519494,4553.5664715931462,0.0
447154.6038362722,4750833.5216966402,-7500.0,-1987.4666062553208,-2084.447413356153,-1394.0523230402646,355.41442679735928,309.14389146473195,-46.028875008360913,2134.5901733035453,-2822.9768732556668,490.5816939778922,-490.5816939778922,2822.9768732556668,4082.8513608135208,0.0
292154.6038362722,4755833.5216966402,-7500.0,465.58012491529496,120.38901715868829,310.88302667217465,30.646652120576423,-10.336170321749449,0.26661234255476524,267.57310170365361,374.91024970901697,-121.64893636504159,121.64893636504159,-374.91024970901697,463.77140326455134,0.0
297154.6038362722,4755833.5216966402,-7500.0,514.57855130268194,109.48319915480309,379.24149981511545,34.442428832224309,-17.513927649383007,0.52682143478373211,289.95117039491413,408.45830446980619,-127.71909271329619,127.71909271329619,-408.45830446980619,503.42211060038375,0.0
302154.6038362722,4755833.5216966402,-7500.0,559.01935129153776,101.58631442826626,460.87819935392054,37.291001406206078,-26.126505652267866,0.77274991093500645,313.69435189914788,446.85310133011228,-133.16956720757887,133.16956720757887,-446.85310133011228,551.05622782041644,0.0
307154.6038362722,4755833.5216966402,-7500.0,595.6298384015189,101.0004445248838,555.5946782776175,38.38956058342103,-35.977144819011471,0.94165827154053461,341.73691764453326,492.0041506510442,-138.22562273131774,138.22562273131774,-492.0041506510442,608.56882801633731,0.0
312154.6038362722,4755833.5216966402,-7500.0,621.05021611100312,113.91398240961151,660.97717417220019,36.669178955715132,-46.516335670095501,0.93025938840106104,381.22685510530408,546.49971335914825,-143.51704863326421,143.51704863326421,-546.49971335914825,678.49598884906243,0.0
317154.6038362722,4755833.5216966402,-7500.0,632.54777889887521,148.53612689611649,770.98643411270632,30.8036207663698,-56.65793465989006,0.57931027488098785,436.58347459678822,613.53696623480926,-150.2702319611976,150.2702319611976,-613.53696623480926,764.65951137931074,0.0
322154.6038362722,4755833.5216966402,-7500.0,629.12678053895229,214.7562803040355,874.19540587133201,19.292810126462822,-64.565171460099251,-0.34141577585911642,504.11218534661327,696.53660127111004,-160.49046876508953,160.49046876508953,-696.53660127111004,873.23258546063619,0.0
327154.6038362722,4755833.5216966402,-7500.0,612.97581914604689,322.96560414329639,951.93123509460384,0.6639769507210318,-67.447080873640445,-2.1438243172876401,578.99753134967864,798.22793081077862,-177.05107788394895,177.05107788394895,-798.22793081077862,1014.0661110173215,0.0
332154.6038362722,4755833.5216966402,-7500.0,590.96143649540238,481.6685906999686,976.91351399505538,-26.171108874158676,-61.444808502835812,-5.2204116642932163,657.59641172055342,918.99876352741649,-203.55678663715997,203.55678663715997,-918.99876352741649,1201.6174487589078,0.0
337154.6038362722,4755833.5216966402,-7500.0,575.54466323074109,693.71458307739942,913.39491802549207,-61.395508311967987,-41.730558730080169,-10.021411160626849,742.36919085823604,1054.4580754407966,-243.82096920382139,243.82096920382139,-1054.4580754407966,1454.3439695671932,0.0
342154.6038362722,4755833.5216966402,-7500.0,584.18531222640172,951.5248008248783,720.10590269810098,-103.66578977729367,-2.9664149938721751,-16.999559918106424,964.66407775100186,1192.5415137956836,-300.8364208028591,300.8364208028591,-1192.5415137956836,1791.6683807928264,0.0
347154.6038362722,4755833.5216966402,-7500.0,636.27953475962579,1232.5907564711129,357.11849684026407,-149.55887891204929,59.763213626285193,-26.516199957591581,1255.9216910081902,1311.0999429595104,-375.28095460195584,375.28095460195584,-1311.0999429595104,2228.8698357074522,0.0
352154.6038362722,4755833.5216966402,-7500.0,747.29496698275852,1497.4830628750221,-203.33081061838141,-193.36369298542121,149.56441789292865,-38.71402839215996,1593.5336275176946,1377.5370138448877,-463.89330378170644,463.89330378170644,-1377.5370138448877,2771.4513827247274,0.0
357154.6038362722,4755833.5216966402,-7500.0,921.1671287802144,1692.9349157249769,-964.07970327341195,-227.5261782661795,266.15004782693052,-53.380948816512742,1968.8753873701992,1352.2022322628261,-558.38352887338897,558.38352887338897,-1352.2022322628261,3410.6500572836285,0.0
362154.6038362722,4755833.5216966402,-7500.0,1143.7486884357613,1761.4332556022314,-1892.6997359480033,-243.91991067095242,404.5868995524508,-69.851516204907242,2366.7973704282635,1196.3332348210595,-645.68126323832689,645.68126323832689,-1196.3332348210595,4121.3242834787397,0.0
367154.6038362722,4755833.5216966402,-7500.0,1381.0050730979158,1655.9469859373423,-2918.9928692805693,-235.77971435671762,555.02789876568147,-87.002379297511382,2765.9762584754162,883.25221410953259,-710.02380542275637,710.02380542275637,-883.25221410953259,4863.1290901113398,0.0
372154.6038362722,4755833.5216966402,-7500.0,1584.5014566795865,1355.091561149279,-3943.9464293439428,-199.72362935413653,703.88097120647444,-103.38105223690582,3141.2367734305435,409.13152410937971,-736.60927460203686,736.60927460203686,-409.13152410937971,5585.3510337891566,0.0
377154.6038362722,4755833.5216966402,-7500.0,1703.4666321364389,872.41158903189262,-4859.1232266334391,-137.06211924010853,836.31292901938434,-117.45806157131136,3467.2560423171267,-201.38926681992479,-715.64116398402098,715.64116398402098,201.38926681992479,6234.6846293483013,0.0
382154.6038362722,4755833.5216966402,-7500.0,1699.0952477811722,255.27211311956597,-5570.3111637289649,-53.781765687099693,939.34056313731787,-127.93193861530217,3722.6573898715706,-897.89044789114087,-645.1734428595546,645.1734428595546,897.89044789114087,6764.0332526961229,0.0
387154.6038362722,4755833.5216966402,-7500.0,1555.2634095938229,-426.53178728537137,-6016.9317538009309,40.844978276651396,1004.4319714552229,-133.98379288855062,3893.301579912707,-1614.6909157875057,-531.60660142382324,531.60660142382324,1614.6909157875057,7139.8760490997574,0.0
392154.6038362722,4755833.5216966402,-7500.0,1281.6316880065788,-1097.7316603184768,-6180.8381935016268,136.46457135955382,1028.7675644990643,-135.39746852343748,3973.8994492362194,-2285.2181605343285,-387.76193658553541,387.76193658553541,2285.2181605343285,7346.2841762520175,0.0
397154.6038362722,4755833.5216966402,-7500.0,908.90270632810109,-1693.6088213240978,-6083.1946446932297,223.82485982533774,1014.9365784836876,-132.52225188639488,3967.7189097411269,-2855.0040100239657,-229.48945415972253,229.48945415972253,2855.0040100239657,7384.9685588899365,0.0
402154.6038362722,4755833.5216966402,-7500.0,479.27305760960843,-2170.2119049468788,-5772.8710853827633,296.26353118460065,969.46948978728904,-126.11741483809777,3884.7949341777617,-3289.5130860221007,-72.164253700956351,72.164253700956351,3289.5130860221007,7272.0838941861493,0.0
407154.6038362722,4755833.5216966402,-7500.0,36.203824605971263,-2507.2673706646324,-5311.8453174986926,350.25044906515757,900.90697293452968,-117.14905174451087,3739.3925546112487,-3575.7748762661495,71.871658385917499,-71.871658385917499,3575.7748762661495,7033.2853823161304,0.0
412154.6038362722,4755833.5216966402,-7500.0,-383.37102090232895,-2705.2127666870347,-4762.3206143864445,385.12429586363038,818.03531386659051,-106.60414777492741,3547.4557400550229,-3719.1524492661592,194.50798069741427,-194.50798069741427,3719.1524492661592,6698.5657766448739,0.0
417154.6038362722,4755833.5216966402,-7500.0,-753.14393315196594,-2779.1043999250492,-4178.0513450154876,402.36163345013813,728.64559638230094,-95.358581402287655,3324.5422726760708,-3737.6169645857372,291.8600986694637,-291.8600986694637,3737.6169645857372,6297.9558540914741,0.0
422154.6038362722,4755833.5216966402,-7500.0,-1058.1671535088835,-2751.9723259043017,-3600.2087431844943,404.71692186567725,638.89042090552573,-84.107732094100513,3084.449343068271,-3655.705443706026,363.50037747870942,-363.50037747870942,3655.705443706026,5858.5708221439463,0.0
427154.6038362722,4755833.5216966402,-7500.0,-1293.3421363053046,-2649.2674253754844,-3056.8112879863834,395.46485345707595,553.13058757673684,-73.34912274564374,2838.5094596110462,-3499.5407273207584,411.38926215612173,-411.38926215612173,3499.5407273207584,5403.0100695732062,0.0
432154.6038362722,4755833.5216966402,-7500.0,-1460.8713674165388,-2495.0509305084029,-2564.3289497182527,377.85011459979819,474.09739503968132,-63.398750995129852,2595.412019888101,-3293.4440451564969,438.8401605713741,-438.8401605713741,3293.4440451564969,4948.8437729421294,0.0
437154.6038362722,4755833.5216966402,-7500.0,-1567.5864208885803,-2309.8835318940723,-2130.2333040404014,354.75569531572472,403.20765402903857,-54.424597680131868,2361.3710958408028,-3058.0822474114061,449.69335064344841,-449.69335064344841,3058.0822474114061,4508.8330908888693,0.0
442154.6038362722,4755833.5216966402,-7500.0,-1622.6731826984076,-2110.0313641393855,-1755.652187130823,328.5502522774492,340.91408117346265,-46.484719959990329,2140.4790884928384,-2809.8015152401326,447.74865052842733,-447.74865052842733,2809.8015152401326,4091.5588188684096,0.0
297154.6038362722,4760833.5216966402,-7500.0,455.24883559172918,90.963643021925165,373.18297070084276,28.103664302563903,-19.238328313755524,0.35111940210798859,258.71898677757855,369.65888226796199,-110.53888625849143,110.53888625849143,-369.65888226796199,452.36943374294191,0.0
302154.6038362722,4760833.5216966402,-7500.0,484.62881954207461,90.801766342358164,443.81680551374501,28.93374961916491,-26.205661558594315,0.43184970248237353,280.4799925675498,404.38775141474719,-114.94641581857874,114.94641581857874,-404.38775141474719,495.63883077523735,0.0
307154.6038362722,4760833.5216966402,-7500.0,506.47069245685196,99.677430876355444,522.04126001393888,27.930368754842348,-33.685591553846031,0.39855673936942609,309.22197739398632,445.49242336261432,-119.51402782438026,119.51402782438026,-445.49242336261432,547.52399391380641,0.0
312154.6038362722,4760833.5216966402,-7500.0,518.83856378193093,122.82006182417301,604.18678979495542,24.268894672812721,-41.045205695540339,0.15952701562081606,348.40748487768639,494.98306397349785,-124.96921461059839,124.96921461059839,-494.98306397349785,610.4555395438025,0.0
317154.6038362722,4760833.5216966402,-7500.0,520.70963266271735,166.56693774877442,683.43367094702182,17.00559140055703,-47.226559420144447,-0.41607381114691411,396.99703322683757,555.05301536014144,-132.48937677550231,132.48937677550231,-555.05301536014144,688.21729301745791,0.0
322154.6038362722,4760833.5216966402,-7500.0,512.77752159068166,237.80669227866093,748.72153155037518,5.1733767376375033,-50.627202673278553,-1.5048547434212751,451.96325905033513,627.62579700948459,-143.7672697642584,143.7672697642584,-627.62579700948459,786.71690313435215,0.0
327154.6038362722,4760833.5216966402,-7500.0,498.34173664187233,342.81204277734594,783.82671055601463,-12.044028410058036,-49.014730830071471,-3.3308908685040413,510.62466262989051,713.52964536881359,-160.97540679374708,160.97540679374708,-713.52964536881359,914.65834599469622,1.0
332154.6038362722,4760833.5216966402,-7500.0,484.02008052705168,485.32667367412932,767.05918431308112,-35.049237997283157,-39.530464911901092,-6.1579975950466235,571.1233636045323,811.23878901486864,-186.55020823438792,186.55020823438792,-811.23878901486864,1083.5702594804443,1.0
337154.6038362722,4760833.5216966402,-7500.0,479.8565058984226,663.97167115161596,672.21015235752384,-63.495673890930206,-18.853759320913952,-10.267216714120153,678.79217730086248,915.26396769132327,-222.72201997295713,222.72201997295713,-915.26396769132327,1306.6119962866223,0.0
342154.6038362722,4760833.5216966402,-7500.0,498.3078433096079,869.40822341909814,471.41065848358016,-95.939571640622916,16.403911716353701,-15.915340227353269,878.83661240484446,1014.5282680010657,-270.7689511781785,270.7689511781785,-1014.5282680010657,1596.0420517811679,0.0
347154.6038362722,4760833.5216966402,-7500.0,551.72450892152528,1082.1746649730933,140.26503740268038,-129.59371937067678,69.045326552374235,-23.273979852324373,1114.8317187453904,1091.3835647304952,-330.08617648065797,330.08617648065797,-1091.3835647304952,1959.9298376895499,0.0
352154.6038362722,4760833.5216966402,-7500.0,648.41711206547438,1272.4939295485751,-335.13369830235871,-160.33616240163585,140.43260649230385,-32.356208579447056,1382.7488472356686,1122.1538444422049,-397.32249996733219,397.32249996733219,-1122.1538444422049,2399.0120398850977,0.0
357154.6038362722,4760833.5216966402,-7500.0,788.18916972407067,1403.2653975966452,-950.82374276525877,-183.1133519198012,229.61534251363534,-42.947393560407498,1675.7102817166135,1079.9826265400482,-465.97262843607604,465.97262843607604,-1079.9826265400482,2904.4481618411314,0.0
362154.6038362722,4760833.5216966402,-7500.0,958.99835003576379,1436.6171630565534,-1679.7747647976662,-192.77815361271689,332.73883501364418,-54.565298591238687,1982.6099265586022,940.11299890909663,-526.81645993661004,526.81645993661004,-940.11299890909663,3457.0381226263735,0.0
367154.6038362722,4760833.5216966402,-7500.0,1136.6266219454624,1342.8752542836883,-2471.6083981910278,-185.22577220981003,443.04996572221279,-66.475113375148283,2288.6011581049661,686.60994840550495,-569.37655581577371,569.37655581577371,-686.60994840550495,4028.3355562879788,0.0
372154.6038362722,4760833.5216966402,-7500.0,1288.4405864144849,1109.2552302605964,-3258.7698796452,-158.50580849944794,551.67999484120401,-77.773137999712944,2576.6001233091283,318.43656034640549,-584.14879188227565,584.14879188227565,-318.43656034640549,4583.7722280431308,0.0
377154.6038362722,4760833.5216966402,-7500.0,1380.6393938294125,745.00715059690594,-3968.2775959525811,-113.51168887409135,649.10573340605777,-87.528358187673845,2829.516990994086,-147.53826927553479,-564.94262817658841,564.94262817658841,147.53826927553479,5087.3469030825581,0.0
382154.6038362722,4760833.5216966402,-7500.0,1386.6575603230242,280.77340399333463,-4535.7086978931484,-53.95945142964343,726.89558561992851,-94.945941443464278,3032.6846498898913,-678.14872387360901,-510.50588584472985,510.50588584472985,678.14872387360901,5506.8448319826775,0.0
387154.6038362722,4760833.5216966402,-7500.0,1293.6994292055529,-237.80145453332503,-4916.9905275907959,14.36358403626469,779.20499386879953,-99.503900833731748,3175.8638434184804,-1229.9169891622828,-424.84834444551973,424.84834444551973,1229.9169891622828,5818.3056063614604,0.0
392154.6038362722,4760833.5216966402,-7500.0,1105.1994385432192,-759.88406167951121,-5094.5295227762854,84.815057172789238,803.58675630470157,-101.02340129526299,3254.3464864677344,-1757.4339788636653,-316.20559424795272,316.20559424795272,1757.4339788636653,6008.6991293705514,0.0
397154.6038362722,4760833.5216966402,-7500.0,838.81321749393624,-1239.3132587323253,-5076.6200714576053,151.16673759123103,800.96572251804935,-99.659476299673543,3268.9898815438473,-2221.4119683624199,-195.10272913706376,195.10272913706376,2221.4119683624199,6076.3882243328726,0.0
402154.6038362722,4760833.5216966402,-7500.0,521.26725991458716,-1641.6920228723955,-4891.5356963367913,208.56444855386127,774.9308322442829,-95.82712693684249,3225.3402176101104,-2594.2044450439475,-72.222022831240793,72.222022831240793,2594.2044450439475,6029.6384526628508,0.0
407154.6038362722,4760833.5216966402,-7500.0,182.19186809120583,-1947.4560389748581,-4579.0587384938581,253.99838887999221,730.67587584813793,-90.094704045421693,3132.2097849299216,-2861.8797296094144,43.313028632937176,-43.313028632937176,2861.8797296094144,5883.8919969558629,0.0
412154.6038362722,4760833.5216966402,-7500.0,-151.18339365048581,-2151.2567449639891,-4182.1729919333457,286.30226542807742,673.93034257793317,-83.077169382109773,3000.1138577447887,-3023.2225849485003,144.92118431742551,-144.92118431742551,3023.2225849485003,5658.6412777822725,0.0
417154.6038362722,4760833.5216966402,-7500.0,-457.43773339934512,-2258.9438880315247,-3740.7011125973836,305.82637605622745,610.11376065452157,-75.352024067002574,2839.8842765431405,-3086.7882933713749,228.80902718865582,-228.80902718865582,3086.7882933713749,5374.577575135062,0.0
422154.6038362722,4760833.5216966402,-7500.0,-722.32221172463915,-2283.613483149491,-3287.5212323582959,313.96366386516394,543.80737153794951,-67.406651471472941,2661.635412491657,-3067.2576952540385,293.67237685679993,-293.67237685679993,3067.2576952540385,5051.4076949150676,0.0
427154.6038362722,4760833.5216966402,-7500.0,-938.51148204418882,-2241.8527988504679,-2847.1298640319569,312.67474176028821,478.52586208442318,-59.615709660509864,2474.1254263401479,-2982.045286840651,340.10842154805664,-340.10842154805664,2982.045286840651,4706.4559844319047,0.0
432154.6038362722,4760833.5216966402,-7500.0,-1104.3889356977836,-2150.8058727467524,-2435.891316084726,304.09888586011624,416.7136595274593,-52.240900752422533,2284.4667527806596,-2848.6778529165749,369.95711729933623,-369.95711729933623,2848.6778529165749,4353.978481279486,0.0
437154.6038362722,4760833.5216966402,-7500.0,-1222.4567123296797,-2026.2413010128093,-2063.2472195583664,290.28284929635942,359.87658398149978,-45.444560933371292,2098.0977610602608,-2683.085371984992,385.71353089744503,-385.71353089744503,2683.085371984992,4005.0211260415276,0.0
302154.6038362722,4765833.5216966402,-7500.0,418.22135577419692,87.628670877617282,419.36736713656211,21.69541301983735,-24.980725940414317,0.14981407715948206,254.77784172260007,368.19730178453233,-100.43738784390936,100.43738784390936,-368.19730178453233,448.98193368911222,0.0
307154.6038362722,4765833.5216966402,-7500.0,430.30419978306986,103.59518578172961,481.74480808375358,19.368163889862267,-30.413823819262849,-0.010874545079526593,283.28271253623404,405.6175307905923,-104.91893028296863,104.91893028296863,-405.6175307905923,496.03340156440407,0.0
312154.6038362722,4765833.5216966402,-7500.0,434.942794294713,133.3614712124614,543.09246912681328,14.684721393071712,-35.220582547048195,-0.3754808719806354,318.80027913374568,450.2403980581467,-110.67871280877995,110.67871280877995,-450.2403980581467,553.17458384495205,0.0
317154.6038362722,4765833.5216966402,-7500.0,432.20905151771586,181.54763810560056,596.63407256501853,7.0052654710850737,-38.452287125512179,-1.0467517416810548,359.63507303481805,503.40070786782633,-118.74291024342153,118.74291024342153,-503.40070786782633,624.05597847294086,0.0
322154.6038362722,4765833.5216966402,-7500.0,423.65901302262893,252.64377864466789,632.43152029864689,-4.2553920117829973,-38.782727746940779,-2.1556037019249326,403.89257850654832,565.90416100130506,-130.44676856376256,130.44676856376256,-565.90416100130506,714.04180160584815,0.0
327154.6038362722,4765833.5216966402,-7500.0,412.82131980933849,350.01250538487545,637.04509138491846,-19.491975054368762,-34.488435996484782,-3.8588739939400978,449.94920784398562,637.35953820920281,-147.34485662065251,147.34485662065251,-637.35953820920281,830.39913171157309,0.0
332154.6038362722,4765833.5216966402,-7500.0,405.44507168604969,474.47308886305473,593.76418322629354,-38.727217169808995,-23.502079880610452,-6.3302383293713547,500.27417718044131,715.28379881117689,-170.99269875532298,170.99269875532298,-715.28379881117689,981.88529153713114,0.0
337154.6038362722,4765833.5216966402,-7500.0,409.24195856337275,622.609158760578,483.7714326657993,-61.405600549588954,-3.5772435347157594,-9.7418282913198304,629.71785196001281,794.09843201263254,-202.57409354105152,202.57409354105152,-794.09843201263254,1177.5421540297214,0.0
342154.6038362722,4765833.5216966402,-7500.0,432.86380718670097,785.16821045308927,288.53652061293155,-86.208728920841338,27.407501329013371,-14.235273636134623,796.55183645027546,864.28669019810627,-242.3915199262949,242.3915199262949,-864.28669019810627,1424.8565053680484,0.0
347154.6038362722,4765833.5216966402,-7500.0,484.0030509551496,946.15669281878866,-6.5263001614308456,-110.96339615909227,71.008598533490058,-19.883655477475983,988.64618453074422,912.13234457548879,-289.30817337632431,289.30817337632431,-912.13234457548879,1727.7304156724267,0.0
352154.6038362722,4765833.5216966402,-7500.0,566.82274066971945,1083.3494914559938,-407.58209760826963,-132.72365176316029,127.6982240563778,-26.649961478534802,1203.0359848374183,920.52002774599373,-340.31146223313095,340.31146223313095,-920.52002774599373,2084.7296081513591,0.0
357154.6038362722,4765833.5216966402,-7500.0,679.34584798579363,1170.7578947333227,-908.11704263130264,-148.08603856305564,196.38571605706639,-34.352430719570222,1434.2753082939439,871.12428520561514,-390.41674059765558,390.41674059765558,-871.12428520561514,2487.9603587433162,0.0
362154.6038362722,4765833.5216966402,-7500.0,811.7746537900216,1183.0499459060607,-1486.3633149154348,-153.7340610612097,274.14416295904954,-42.649775020817579,1674.1757813306231,747.89872583519775,-433.09692619264968,433.09692619264968,-747.89872583519775,2922.8552959194499,0.0
367154.6038362722,4765833.5216966402,-7500.0,946.703850854856,1101.0982299765114,-2105.8063310466491,-147.11535069363831,356.29734448205181,-51.058115735033162,1912.2299615961276,541.17926914842565,-461.27980435511012,461.27980435511012,-541.17926914842565,3369.0789392521224,0.0
372154.6038362722,4765833.5216966402,-7500.0,1061.6812566375793,917.09871054099392,-2719.4094554768776,-127.07114150641911,436.93645348979356,-59.003799328534953,2136.5949372024338,251.20726070966452,-468.73246798325113,468.73246798325113,-251.20726070966452,3802.573058389391,0.0
377154.6038362722,4765833.5216966402,-7500.0,1133.6792336846659,637.51543302946459,-3276.9218550959317,-94.213233700679098,509.79439388107266,-65.904688952272295,2335.4733938564455,-110.21177510053633,-451.45303075448896,451.45303075448896,110.21177510053633,4198.4633559075401,0.0
382154.6038362722,4765833.5216966402,-7500.0,1144.1840475254699,282.69383702035532,-3733.4040410457205,-50.906901405727027,569.26472057179114,-71.260927879596991,2498.5989458416011,-520.70246012886605,-408.62746918940383,408.62746918940383,520.70246012886605,4534.2519819946729,0.0
387154.6038362722,4765833.5216966402,-7500.0,1083.273939670572,-116.84436929855663,-4056.5743055150469,-0.8512104214582713,611.28816005447766,-74.731255859656969,2618.4895528882307,-950.83917175359556,-342.84179120544508,342.84179120544508,950.83917175359556,4792.6010351068308,0.0
392154.6038362722,4765833.5216966402,-7500.0,951.44443553662018,-526.23330131397574,-4231.031467384083,51.612194403286139,633.876043132218,-76.175255772610825,2691.1994442821569,-1369.1664349099983,-259.50764444694448,259.50764444694448,1369.1664349099983,4963.1236997462574,0.0
397154.6038362722,4765833.5216966402,-7500.0,758.83753312226077,-912.41704681065062,-4258.6035746629132,102.25193601718502,637.17481680605101,-75.653977626814694,2716.4567233227981,-1747.2577709872471,-165.73007432406087,165.73007432406087,1747.2577709872471,5042.9094340648098,0.0
402154.6038362722,4765833.5216966402,-7500.0,522.45071523815614,-1248.9892169827763,-4155.3704892638107,147.56291749614334,623.12725010587155,-73.394511764928367,2697.2422767198577,-2063.5259754018334,-68.992275921598548,68.992275921598548,2063.5259754018334,5035.8608662378101,0.0
407154.6038362722,4765833.5216966402,-7500.0,262.42687098688356,-1518.8133472501584,-3946.7529556937543,185.12727975547281,594.88907148131977,-69.733276524572091,2638.9895251616667,-2305.1094846731312,23.986870079633263,-23.986870079633263,2305.1094846731312,4951.1898254243843,0.0
412154.6038362722,4765833.5216966402,-7500.0,-1.4681081705858527,-1714.3744349183009,-3662.2237215350201,213.70243214553454,556.18501705720826,-65.054688582703136,2548.6287494208868,-2467.8530655197419,108.00285002704663,-108.00285002704663,2467.8530655197419,4801.527944334518,0.0
417154.6038362722,4765833.5216966402,-7500.0,-252.44031376017668,-1836.4265046905243,-3330.8252970315752,233.09419533071519,510.74905953053849,-59.73843893516954,2433.6711597201793,-2554.8917106856452,179.67105055038905,-179.67105055038905,2554.8917106856452,4601.0627157229274,0.0
422154.6038362722,4765833.5216966402,-7500.0,-478.06839690266554,-1891.7375955357397,-2978.0925566730953,243.90639736319133,461.9268447184802,-54.122318879183609,2301.4627825803891,-2574.5261094195835,237.36230062239974,-237.36230062239974,2574.5261094195835,4363.9821409733977,0.0
427154.6038362722,4765833.5216966402,-7500.0,-670.62243838584732,-1890.6562107670509,-2624.4474528644396,247.25385764577427,412.4547622825765,-48.481725086358487,2158.663225684822,-2538.0017660765798,280.90256884174164,-280.90256884174164,2538.0017660765798,4103.3581695489502,0.0
432154.6038362722,4765833.5216966402,-7500.0,-826.61475725362902,-1844.9880268775555,-2284.8005457276977,244.50075427831771,364.38873959695655,-43.023364454386439,2010.9471927096072,-2457.6005904614876,311.17173194053839,-311.17173194053839,2457.6005904614876,3830.4784130255885,0.0
307154.6038362722,4770833.5216966402,-7500.0,366.37426801198683,109.47247569998797,437.99531828412495,12.553638162541306,-26.730402650619393,-0.30777009521650234,260.38250405776682,370.75109256905,-93.400556901071212,93.400556901071212,-370.75109256905,452.12436140546208,0.0
312154.6038362722,4770833.5216966402,-7500.0,366.79650709706436,142.8874667526326,481.53518776192283,7.4687304805624741,-29.563681808663759,-0.73019323497836863,291.09236068217513,410.60669975417301,-99.407254559271848,99.407254559271848,-410.60669975417301,504.43060287720317,0.0
317154.6038362722,4770833.5216966402,-7500.0,362.41500306532578,192.10522838305513,514.39121006136827,-0.034687707767379006,-30.679022180996121,-1.4188531346657416,324.82995664075031,457.07795999049898,-107.7119867475937,107.7119867475937,-457.07795999049898,569.4758985104221,0.0
322154.6038362722,4770833.5216966402,-7500.0,355.11359800054362,259.82356805142012,528.04701848386878,-10.281897496719219,-29.016287733374771,-2.4686064544054616,360.37196560337344,510.20084302195494,-119.31526541412484,119.31526541412484,-510.20084302195494,651.9024169598357,0.0
327154.6038362722,4770833.5216966402,-7500.0,348.1888923158557,347.46513013623866,511.72005253948828,-23.411233465650955,-23.276382697353739,-3.9872791532240295,396.90210388068022,568.87979947654139,-135.27631879659612,135.27631879659612,-568.87979947654139,757.51432432100751,0.0
332154.6038362722,4770833.5216966402,-7500.0,346.34886529472624,454.18392473833791,452.81329728145079,-39.254204323636166,-11.988624258832397,-6.0875099335981728,461.92730710493475,630.28429674508641,-156.52482867655496,156.52482867655496,-630.28429674508641,892.73231365328354,0.0
337154.6038362722,4770833.5216966402,-7500.0,355.33105416399371,575.80785988982859,338.019962534314,-57.213703583717205,6.3486801695999935,-8.8729944713265194,580.95836903949532,689.25624078399039,-183.58547688209094,183.58547688209094,-689.25624078399039,1063.5998818463834,0.0
342154.6038362722,4770833.5216966402,-7500.0,381.02607181328909,703.98991892906179,155.18740098852027,-76.172481127212379,33.046394897767954,-12.41907569214359,719.92197741264579,737.9221783471985,-216.24364143517033,216.24364143517033,-737.9221783471985,1274.5334092647672,0.0
347154.6038362722,4770833.5216966402,-7500.0,428.11040246295346,825.94436563311615,-104.14680549208488,-94.473981897205931,68.934894879052251,-16.749440366571271,877.15740371575839,765.76694413619407,-253.22185175300564,253.22185175300564,-765.76694413619407,1527.0895525909455,0.0
352154.6038362722,4770833.5216966402,-7500.0,498.3906168584424,925.15351655642223,-441.92184421549507,-110.01725898424999,114.05072195725762,-21.812844572504428,1050.1501801384236,760.41847081272681,-291.97521153268144,291.97521153268144,-760.41847081272681,1818.9850328160005,0.0
357154.6038362722,4770833.5216966402,-7500.0,589.28199621634201,983.26843584033452,-851.0995620146906,-120.48850150430836,167.37425981878368,-27.465961624507891,1234.6162268455269,709.26284529804389,-328.72601817141435,328.72601817141435,-709.26284529804389,2143.5414641513044,0.0
362154.6038362722,4770833.5216966402,-7500.0,692.98368753537181,983.08423449926227,-1314.4300864453253,-123.71390357989438,226.70907891716257,-33.469058076779255,1424.4719200044717,601.75343415650866,-358.82253690844152,358.82253690844152,-601.75343415650866,2489.7033255906745,0.0
367154.6038362722,4770833.5216966402,-7500.0,796.84896303701737,912.02870965617478,-1805.1584693205089,-118.07015646508749,288.779465356353,-39.499980394289317,1612.1646349413945,431.95884973292658,-377.41760793658824,377.41760793658824,-431.95884973292658,2842.732416612359,0.0
372154.6038362722,4770833.5216966402,-7500.0,885.13279889402077,765.2535696556954,-2289.9233355672413,-102.85051874896368,349.571323808111,-45.187374710369433,1789.3248622860604,200.65668957405524,-380.34287189694214,380.34287189694214,-200.65668957405524,3185.5662612320175,0.0
377154.6038362722,4770833.5216966402,-7500.0,941.8185397351931,547.36896259891398,-2733.4116459301108,-78.477859237767277,404.86781959305699,-50.158367872555104,1947.6424645208631,-83.727499471010901,-364.95765535464204,364.95765535464204,83.727499471010901,3500.6656723224946,0.0
382154.6038362722,4770833.5216966402,-7500.0,953.78557181299118,272.20240007412775,-3103.6989658193011,-46.492512172118822,450.86157613512063,-54.090544547139679,2079.8000521563686,-405.75235432811235,-330.72825187973967,330.72825187973967,405.75235432811235,3772.0218536564594,0.0
387154.6038362722,4770833.5216966402,-7500.0,913.4101225296223,-39.414299408783236,-3376.9334482876684,-9.3108252415886597,484.6946799936066,-56.756014908900127,2180.2747069952698,-745.09284725885095,-279.36809439879175,279.36809439879175,745.09284725885095,3986.932602056077,0.0
392154.6038362722,4770833.5216966402,-7500.0,819.88326965980559,-363.19805035569294,-3540.2451680240365,30.17852489453308,504.80006773071045,-58.047438305115243,2245.8529829862791,-1079.6238949209685,-214.51045256321657,214.51045256321657,1079.6238949209685,4137.2130355538993,0.0
397154.6038362722,4770833.5216966402,-7500.0,678.98951524005759,-675.31484800351063,-3592.3709357387593,69.069935337247074,510.98417631274327,-57.9814797769303,2275.7836197694505,-1388.6473887130337,-141.03084388505329,141.03084388505329,1388.6473887130337,4219.6628387915953,0.0
402154.6038362722,4770833.5216966402,-7500.0,501.5904283220068,-955.66644111933647,-3542.1885560609112,104.83731090477428,504.26849248730838,-56.681833030913566,2271.5839401693097,-1655.5039974300689,-64.223599866621612,64.223599866621612,1655.5039974300689,4235.8015200401915,0.0
407154.6038362722,4770833.5216966402,-7500.0,301.38849824749974,-1189.9480604117512,-3405.8680527786523,135.596708784247,486.56697571483244,-54.34876379912771,2236.5889848520283,-1869.1037571023103,10.958789226177373,-10.958789226177373,1869.1037571023103,4191.0406424740786,0.0
412154.6038362722,4770833.5216966402,-7500.0,92.616631403035171,-1370.320433891517,-3203.5238888939189,160.21117337191703,460.29851788593004,-51.223601071242228,2175.3662536293414,-2024.2830024372038,80.457549698162552,-80.457549698162552,2024.2830024372038,4093.5407699032148,0.0
417154.6038362722,4770833.5216966402,-7500.0,-111.84931157273104,-1494.9206028481528,-2956.1291652934674,178.25803152210881,428.02224964042153,-47.556036452539573,2093.1159342561405,-2121.2016425997354,141.39391085306602,-141.39391085306602,2121.2016425997354,3953.0025703367846,0.0
422154.6038362722,4770833.5216966402,-7500.0,-301.70275440125334,-1566.6334616847298,-2683.1594463636702,189.90355371208582,392.15189598637221,-43.578656145921258,1995.1447778141098,-2164.1475342632184,192.11081846637535,-192.11081846637535,2164.1475342632184,3779.5814589005777,0.0
427154.6038362722,4770833.5216966402,-7500.0,-469.72352919844184,-1591.5680803266866,-2401.1281627332523,195.73496226652094,354.77103814592886,-39.490843980333182,1886.464177581789,-2160.1260646217406,232.03704138362173,-232.03704138362173,2160.1260646217406,3583.0389729145118,0.0
312154.6038362722,4775833.5216966402,-7500.0,311.7026270522565,150.14545282823062,422.14696594682681,2.1685934987594786,-24.361653096474544,-0.95053113939440048,265.18004497318708,374.99929409416836,-90.264341586901168,90.264341586901168,-374.99929409416836,462.50002217718787,1.0
317154.6038362722,4775833.5216966402,-7500.0,307.29329798538623,198.09413393700459,438.86715975455252,-4.8310783300618771,-24.014760667572361,-1.6117947139364601,292.8698838029394,415.16996597313675,-98.524711877702799,98.524711877702799,-415.16996597313675,522.40011026707577,0.0
322154.6038362722,4775833.5216966402,-7500.0,301.95097102847598,260.62493444130587,436.43590033694426,-13.897510414253484,-21.136637883522866,-2.5649846929456057,321.46840525062578,459.81072039021541,-109.64610880955303,109.64610880955303,-459.81072039021541,597.88354585682987,0.0
327154.6038362722,4775833.5216966402,-7500.0,298.5401612919913,337.93769038082252,406.39432973577999,-25.022288268013028,-14.764186390297628,-3.8833005805124055,352.6217056016477,507.47965876091399,-124.31417527955097,124.31417527955097,-507.47965876091399,693.43207238299885,0.0
332154.6038362722,4775833.5216966402,-7500.0,300.77460967829671,428.33590690461267,339.39389806829882,-37.956063368196695,-3.8632260680490407,-5.6389323508450548,432.17482778400972,555.356654623287,-143.03348416305775,143.03348416305775,-555.356654623287,813.63129877015001,0.0
337154.6038362722,4775833.5216966402,-7500.0,312.83047605683151,527.59287789361747,226.13651990153303,-52.139538172139289,12.560586053153248,-7.8932485694056522,533.75936524573467,598.91540111213294,-165.93295803831552,165.93295803831552,-598.91540111213294,962.42733479047013,0.0
342154.6038362722,4775833.5216966402,-7500.0,338.65123840089024,628.54149841544495,58.767665888475413,-66.662853393488334,35.304995711590124,-10.684108718182413,649.85015265187963,631.78699053613138,-192.55316891885028,192.55316891885028,-631.78699053613138,1142.3051938417484,0.0
347154.6038362722,4775833.5216966402,-7500.0,380.98946941065668,721.11431966954888,-167.39251450437146,-80.277595638129284,64.782796207196313,-14.01171980525776,779.32454185917709,645.96630652798319,-221.66539711554512,221.66539711554512,-645.96630652798319,1353.5430171252658,0.0
352154.6038362722,4775833.5216966402,-7500.0,440.34798176591204,793.03353235347174,-452.06264714135813,-91.481977181575743,100.83312235776212,-17.825681465578814,920.05568478735222,632.48506481483594,-251.18901107587712,251.18901107587712,-632.48506481483594,1593.6612412190816,0.0
357154.6038362722,4775833.5216966402,-7500.0,514.09549407322368,831.22687223910077,-788.58868603204473,-98.685977853132343,142.57801952843366,-22.01663155498683,1068.6819280222464,582.5796305333929,-278.27197404232732,278.27197404232732,-582.5796305333929,1857.1575271239892,0.0
362154.6038362722,4775833.5216966402,-7500.0,596.0822451462094,823.83711292492023,-1163.3917775491973,-100.44094186966416,188.37440736212579,-26.416069853493283,1220.6441526823833,489.2279919615338,-299.57126098727781,299.57126098727781,-489.2279919615338,2135.6090561381488,0.0
367154.6038362722,4775833.5216966402,-7500.0,677.01517305318396,762.45249663668312,-1556.6491714201891,-95.692817120788561,235.89932314411053,-30.806774393044446,1370.4339874380407,348.75901892167286,-311.71532941115328,311.71532941115328,-348.75901892167286,2418.1914550795009,0.0
372154.6038362722,4775833.5216966402,-7500.0,745.6588667083264,644.01699854007722,-1944.2963550872489,-84.000371507444243,282.37614526171461,-34.94377606933287,1512.0322965368123,162.12525301955759,-311.86581456585986,311.86581456585986,-162.12525301955759,2692.5943175298471,0.0
377154.6038362722,4775833.5216966402,-7500.0,790.66261470668132,471.87891618427113,-2301.0574903155957,-65.659301246331012,324.91016429836799,-38.582969095037399,1639.477945729569,-64.553327490759386,-298.24758001202065,298.24758001202065,64.553327490759386,2946.2227704883912,0.0
382154.6038362722,4775833.5216966402,-7500.0,802.58104257469893,255.63587499844709,-2603.8729074326693,-41.693934943262626,360.86612871263969,-41.51169919811818,1747.4685959590354,-320.40133525306442,-270.50830813324785,270.50830813324785,320.40133525306442,3167.4903881145001,1.0
387154.6038362722,4775833.5216966402,-7500.0,775.5668747603662,9.7768289894961367,-2834.9502739913519,-13.714547665281771,388.20526969073876,-43.574998127209106,1831.8847200299695,-591.11490123152737,-229.81199624660789,229.81199624660789,591.11490123152737,3346.9781489997886,0.0
392154.6038362722,4775833.5216966402,-7500.0,708.31299156453781,-248.5329459312492,-2983.7790917260427,16.324337141093814,405.71062672263508,-44.69186435698866,1890.1450024158407,-860.90005759165126,-178.64760111222938,178.64760111222938,860.90005759165126,3478.261873811005,0.0
397154.6038362722,4775833.5216966402,-7500.0,604.06292589114071,-501.96335520827779,-3047.7686653552732,46.404706792494594,413.06266562589531,-44.859079652807935,1921.3429528619263,-1114.5640761697687,-120.41447103831149,120.41447103831149,1114.5640761697687,3558.2922838855416,0.0
402154.6038362722,4775833.5216966402,-7500.0,469.78835823362016,-735.25546893440037,-3031.5610448461121,74.701986020763783,410.76904092061631,-44.143195134394659,1926.1666167511671,-1339.3067650786047,-58.898885063522243,58.898885063522243,1339.3067650786047,3587.318766887302,0.0
407154.6038362722,4775833.5216966402,-7500.0,314.83612972610842,-936.77396365913683,-2945.3777806133312,99.771372412594346,399.98568136482908,-42.663918404394892,1906.6444718946993,-1525.8992125252239,2.2347711966567658,-2.2347711966567658,1525.8992125252239,3568.4365468424517,0.0
412154.6038362722,4775833.5216966402,-7500.0,149.42029153393651,-1099.2153844959771,-2802.9053665787701,120.64278129279589,382.28320258906376,-40.573500895298658,1865.7863241768064,-1669.1411336851347,59.842782256288842,-59.842782256288842,1669.1411336851347,3506.8945880876799,0.0
417154.6038362722,4775833.5216966402,-7500.0,-16.716303220025047,-1219.5413014964736,-2619.1971893089544,136.82892186487354,359.41104371030292,-38.036423320904326,1807.191315245226,-1767.6724359189479,111.54288742553001,-111.54288742553001,1767.6724359189479,3409.3128955397638,0.0
422154.6038362722,4775833.5216966402,-7500.0,-175.27125334300894,-1298.3516461592735,-2408.9320095981116,148.26786019235578,333.0977017410068,-35.212432279892148,1734.6824439758539,-1823.3302779104874,155.79600414110359,-155.79600414110359,1823.3302779104874,3282.9352784717994,0.0
317154.6038362722,4780833.5216966402,-7500.0,263.53805072562176,199.98008577556962,371.05151086623363,-7.9643248711992491,-18.432935083210754,-1.6836661306067204,263.85485682442788,377.10022108304258,-90.618945868404438,90.618945868404438,-377.10022108304258,481.25078961695141,0.0
322154.6038362722,4780833.5216966402,-7500.0,260.24985239927281,256.49541248573968,357.33130646680519,-15.840229237409808,-14.883789392299706,-2.5271840007021011,287.06560670054881,414.25043144755654,-101.01408818845533,101.01408818845533,-414.25043144755654,550.24936746704202,0.0
327154.6038362722,4780833.5216966402,-7500.0,259.69721396456742,323.75573119344671,318.8809564620542,-25.166597254085538,-8.3936903462783583,-3.6528913717508673,327.86142319467314,452.61298860138641,-114.23082192797278,114.23082192797278,-452.61298860138641,636.40144058944054,0.0
332154.6038362722,4780833.5216966402,-7500.0,264.73599208689001,399.71541072912515,248.84416544737394,-35.674290358216631,1.7583441039144967,-5.1065591395748662,402.66074822460394,489.56815023801903,-130.49609220680554,130.49609220680554,-489.56815023801903,742.91569547627807,0.0
337154.6038362722,4780833.5216966402,-7500.0,278.35593022471403,480.44306478702481,140.7921758090543,-46.873451460487047,16.22489925800955,-6.9236957488084432,489.13715342865925,521.26769631805109,-149.71464386302722,149.71464386302722,-521.26769631805109,872.30833656821903,0.0
342154.6038362722,4780833.5216966402,-7500.0,303.15294193283978,559.95737448008663,-10.260157913285745,-58.039556778100113,35.481461919365231,-9.1213596047177088,586.50653806749438,542.6290209527757,-171.33730909086069,171.33730909086069,-542.6290209527757,1025.8710982796308,0.0
347154.6038362722,4780833.5216966402,-7500.0,340.66782583849522,630.39351081699226,-206.68320037496889,-68.236284234172658,59.704635764976878,-11.689648716982859,693.77381884546207,547.57455220640156,-194.26455995772633,194.26455995772633,-547.57455220640156,1203.2190772982228,0.0
352154.6038362722,4780833.5216966402,-7500.0,390.71186677433712,682.59919910254621,-447.10748581491686,-76.384837685060262,88.658549389868313,-14.584491469333754,809.16244540616935,529.57405155367871,-216.82544797726709,216.82544797726709,-529.57405155367871,1401.981176185594,0.0
357154.6038362722,4780833.5216966402,-7500.0,450.85500158195384,707.17241189874755,-725.61623835677153,-81.380130339468366,121.61691154465967,-17.723725397558347,930.03308809458463,482.48135326756551,-236.86608607904574,236.86608607904574,-482.48135326756551,1617.6834865502806,0.0
362154.6038362722,4780833.5216966402,-7500.0,516.26576778427034,695.82743752304589,-1031.535372864018,-82.241344629549332,157.34864751990727,-20.98832103130016,1052.9379442118429,401.56573007351483,-251.96186023408472,251.96186023408472,-401.56573007351483,1843.87147350693,0.0
367154.6038362722,4780833.5216966402,-7500.0,580.03900386783209,642.84423286988545,-1350.0161618381132,-78.270895108764421,194.18595881544533,-24.229829713256187,1173.8045080722025,284.54510095200828,-259.73441661901109,259.73441661901109,-284.54510095200828,2072.4939720651023,0.0
372154.6038362722,4780833.5216966402,-7500.0,634.02856677913826,546.27433992671172,-1663.4302815323365,-69.18754291481001,230.17585236087689,-27.283761156517695,1288.2345610916632,132.37613622860943,-258.21872576526209,258.21872576526209,-132.37613622860943,2294.529096819685,0.0
377154.6038362722,4780833.5216966402,-7500.0,670.05273672896442,408.5896328829557,-1953.3830040241739,-55.200638394415975,263.29480111006205,-29.987097517028701,1391.8811224402023,-50.424747407425315,-246.20124153059831,246.20124153059831,50.424747407425315,2500.7821950123503,0.0
382154.6038362722,4780833.5216966402,-7500.0,681.21200505394495,236.57996370078965,-2202.9617778448774,-37.004574461426124,291.68705030523586,-32.196772628372237,1480.8435678360311,-256.05596160281453,-223.44819523133754,223.44819523133754,256.05596160281453,2682.7370091323464,0.0
387154.6038362722,4780833.5216966402,-7500.0,663.01202710421364,40.49919497145919,-2398.7634159617014,-15.692354070470648,313.87976340553786,-33.805670505765093,1552.0170951291877,-474.27693586205214,-190.76870971420882,190.76870971420882,474.27693586205214,2833.3275974661601,0.0
392154.6038362722,4780833.5216966402,-7500.0,614.03575252937708,-167.34545730017786,-2532.2997053389154,7.3924566010527748,328.93347541213734,-34.753019086369392,1603.340061236428,-693.65297935325566,-149.90015288296439,149.90015288296439,693.65297935325566,2947.5100868416766,0.0
397154.6038362722,4780833.5216966402,-7500.0,536.04112809499588,-374.23632251699087,-2600.5574507783053,30.831986263051384,336.5041520939368,-35.027710502833045,1633.9070124796822,-902.93227200856995,-103.24924849625774,103.24924849625774,902.93227200856995,3022.5605036716775,0.0
402154.6038362722,4780833.5216966402,-7500.0,433.51843762184285,-568.57490403237466,-2605.7079294610999,53.302158133379443,336.81550279372311,-34.664589018251043,1643.9431020790935,-1092.2801133881258,-53.554027803527674,53.554027803527674,1092.2801133881258,3058.0823617192946,0.0
407154.6038362722,4780833.5216966402,-7500.0,312.8677749375928,-741.03007647161564,-2554.1497105971389,73.703391986595818,330.55979978075266,-33.735407224081271,1634.6617981067116,-1254.163839889881,-3.5410294374253226,3.5410294374253226,1254.163839889881,3055.7631257703606,0.0
412154.6038362722,4780833.5216966402,-7500.0,181.41606201757165,-885.17132406665144,-2455.1725557067793,91.238176372190722,318.75663471477185,-32.336677961784339,1608.0439137926728,-1383.7928738245425,44.360489420368822,-44.360489420368822,1383.7928738245425,3018.9546438431762,0.0
327154.6038362722,4785833.5216966402,-7500.0,228.72175734312916,306.73708061067771,246.77732675329324,-24.414185466878035,-3.6914671590738677,-3.3619496664122552,308.85474515209074,403.74183926657315,-104.91315080992351,104.91315080992351,-403.74183926657315,585.21039134397859,0.0
332154.6038362722,4785833.5216966402,-7500.0,235.5538861589315,370.23304729486443,176.99130076248278,-32.932433050701889,5.5506125182630077,-4.5594434982089833,373.87330152784727,431.97013040740217,-118.90992055522096,118.90992055522096,-431.97013040740217,679.40114908653754,0.0
337154.6038362722,4785833.5216966402,-7500.0,249.70844472710053,435.78260703978833,76.081951211398888,-41.788277543012917,18.16230449599432,-6.0227629890166412,447.62598770979571,454.61027198161219,-134.95246005871294,134.95246005871294,-454.61027198161219,791.89060298835,0.0
342154.6038362722,4785833.5216966402,-7500.0,272.86092240267993,498.47789421397437,-59.034979444183421,-50.412041904872353,34.418140682200807,-7.7577452538876299,529.65273153249848,467.63799379394811,-152.48575459974802,152.48575459974802,-467.63799379394811,923.24651134691999,0.0
347154.6038362722,4785833.5216966402,-7500.0,305.79918278020909,552.19551075483753,-229.34197573641472,-58.101995836220638,54.364561895628064,-9.7510591945117167,619.0624836123452,466.43918379948082,-170.56369979036594,170.56369979036594,-466.43918379948082,1072.7710760047648,0.0
352154.6038362722,4785833.5216966402,-7500.0,347.99476541064121,590.08232394165373,-433.01159958112089,-64.078163769812974,77.751444838565888,-11.966223414155946,714.38480003681184,446.23263879196662,-187.85705896464532,187.85705896464532,-446.23263879196662,1238.3280559033669,0.0
357154.6038362722,4785833.5216966402,-7500.0,397.30915901709233,605.31059491985206,-664.94950347340102,-67.563669972593672,103.99034039453603,-14.341891637915374,813.54196570274712,402.66797164570715,-202.73456956952583,202.73456956952583,-402.66797164570715,1416.3013200633388,0.0
362154.6038362722,4785833.5216966402,-7500.0,449.94554289837191,592.0143881096551,-916.75128347415921,-67.884421343099774,132.15495054927561,-16.793364822115414,913.90269788565683,332.52418562211119,-213.42102884149782,213.42102884149782,-332.52418562211119,1601.710842600668,0.0
367154.6038362722,4785833.5216966402,-7500.0,500.71727549751159,546.24623757695895,-1177.1751291652695,-64.570583069959866,161.03331820079399,-19.217824659108548,1012.417608706281,234.38356713063783,-218.216307070677,218.216307070677,-234.38356713063783,1788.4961280463419,0.0
372154.6038362722,4785833.5216966402,-7500.0,543.63120829429351,466.75331768311912,-1433.1236444464898,-57.439533021827749,189.23037952928186,-21.502955792091363,1105.825824955029,109.13150665557382,-215.73906743778619,215.73906743778619,-109.13150665557382,1969.9499887359498,0.0
377154.6038362722,4785833.5216966402,-7500.0,572.69798208219936,355.38758601959177,-1671.0060777132874,-46.641379593500666,215.30796224900268,-23.537892652629214,1190.9096885751928,-39.850647874025469,-205.14687102307701,205.14687102307701,39.850647874025469,2139.2587718904902,0.0
382154.6038362722,4785833.5216966402,-7500.0,582.80905112692676,217.0365091574015,-1878.2435252354255,-32.655238962925949,237.93852658808629,-25.224657599503821,1264.7599002140969,-206.87236539365921,-186.28419328835537,186.28419328835537,206.87236539365921,2290.0741711378359,0.0
387154.6038362722,4785833.5216966402,-7500.0,570.49472975658978,59.073821646360749,-2044.6399740285001,-16.235686023693475,256.04519604420852,-26.488106342104217,1325.0125079652792,-384.48564776183383,-159.72541565162538,159.72541565162538,384.48564776183383,2417.0363800028904,0.0
392154.6038362722,4785833.5216966402,-7500.0,534.40541230221049,-109.55677678272271,-2163.3726915710913,1.6798297750411113,268.90356221249004,-27.282703840255149,1370.023152331175,-564.30055795335238,-126.70465183972615,126.70465183972615,564.30055795335238,2516.1745252330766,0.0
397154.6038362722,4785833.5216966402,-7500.0,475.4316464564904,-279.43304544164221,-2231.4524389467256,20.083604017209741,276.19010506104922,-27.595136033815759,1398.9567393346704,-737.90595011446067,-88.950853051510478,88.950853051510478,737.90595011446067,2585.1351338302202,0.0
402154.6038362722,4785833.5216966402,-7500.0,396.47039381300777,-441.70854554004859,-2249.6315434188309,38.008810963555732,277.97460640278678,-27.442739391147146,1411.787635038695,-897.7259946897027,-48.466189661640044,48.466189661640044,897.7259946897027,2623.2238592792223,0.0
342154.6038362722,4790833.5216966402,-7500.0,246.65443032421859,443.85036794380693,-92.867481672802967,-43.762979757486093,32.657233818596296,-6.5892592448968843,478.8420676861852,404.43345710627108,-135.81992183386438,135.81992183386438,-404.43345710627108,832.69456625726423,1.0
347154.6038362722,4790833.5216966402,-7500.0,275.41474665086025,484.90013602513,-240.51539303587978,-49.602602226484649,49.13271710242249,-8.1459833285162411,553.81088079488109,399.23820512991341,-150.09776752312001,150.09776752312001,-399.23820512991341,959.32310587193069,0.0
352154.6038362722,4790833.5216966402,-7500.0,311.04094717899937,512.3319182691431,-413.66427336267736,-54.020062309911211,68.135608858375932,-9.8551479723613493,633.11990678902885,378.28899107388526,-163.39103474288976,163.39103474288976,-378.28899107388526,1098.0668256383792,0.0
357154.6038362722,4790833.5216966402,-7500.0,351.70018314010781,521.13995532190938,-608.00560452475531,-56.463025579322576,89.194213354117792,-11.670987824195377,715.12704815201346,338.47912211331311,-174.45888108083625,174.45888108083625,-338.47912211331311,1246.0080227989956,0.0
362154.6038362722,4790833.5216966402,-7500.0,394.40123785971525,507.12036810852936,-816.89935088729669,-56.461620142616624,111.6075598638257,-13.532720097921301,797.80609545293009,277.59494714099202,-181.98927063361899,181.98927063361899,-277.59494714099202,1399.2763401362531,0.0
367154.6038362722,4790833.5216966402,-7500.0,435.20759596831249,467.51198386927484,-1031.7470752048296,-53.694252290608716,134.48460326674362,-15.368185605124554,878.84645568736983,194.76194518661916,-184.75161286720251,184.75161286720251,-194.76194518661916,1553.2579321024923,0.0
372154.6038362722,4790833.5216966402,-7500.0,469.65054844276489,401.50521976995731,-1242.6905924540306,-48.040359814595504,156.81449317904983,-17.099492847672938,955.79820314551387,90.766593239153025,-181.76117330405057,181.76117330405057,-90.766593239153025,1702.9007526286052,0.0
377154.6038362722,4790833.5216966402,-7500.0,493.28324663667547,310.50624536797437,-1439.5491762697675,-39.60890338974113,177.55949831771241,-18.64998532551018,1026.2469097877783,-31.826184605854124,-172.42493621566064,172.42493621566064,31.826184605854124,1843.0862072011494,0.0
382154.6038362722,4790833.5216966402,-7500.0,502.27527934671065,198.08917074868361,-1612.8456202521488,-28.735889964002983,195.75610401030673,-19.951441241507872,1087.9948152027414,-168.80230997074997,-156.63937680492828,156.63937680492828,168.80230997074997,1969.0203366554542,0.0
387154.6038362722,4790833.5216966402,-7500.0,493.93291103088427,69.63545884955829,-1754.7495811636065,-15.950492828069086,210.60793232829781,-20.950441102614221,1139.224478206721,-314.66573937666328,-134.82016243217154,134.82016243217154,314.66573937666328,2076.5948779364712,0.0
392154.6038362722,4790833.5216966402,-7500.0,467.04547715860065,-68.272288969461883,-1859.7819572020176,-1.9159970184920083,221.55544324201369,-21.612803260940225,1178.622575859777,-463.18256711622456,-107.85825950019608,107.85825950019608,463.18256711622456,2162.6705953879659,0.0
352154.6038362722,4580833.5216966402,-12500.0,441.14503969147415,57.485142603108876,-1308.6788527621973,30.847859836854727,-192.83523098359632,-20.226725746172168,891.7107480121299,-207.45927771817014,64.111383022402606,-64.111383022402606,207.45927771817014,1609.8922005009456,0.0
357154.6038362722,4580833.5216966402,-12500.0,451.65817863974939,165.87907009563807,-1185.9347670895484,45.488914184350207,-170.50090976141988,-17.37381582594649,848.82049505374971,-85.400937297342267,16.370882621834838,-16.370882621834838,85.400937297342267,1519.7319449801887,0.0
362154.6038362722,4580833.5216966402,-12500.0,446.81108562774932,261.2576850766842,-1035.7324497521374,57.45312151765561,-144.50510092814744,-14.19658350522189,797.66555926889373,30.097513615955922,-28.217544868918548,28.217544868918548,-30.097513615955922,1415.7379544945768,0.0
367154.6038362722,4580833.5216966402,-12500.0,428.65185600200033,338.53275843947694,-864.34064253137763,66.071127931140694,-115.91475375337851,-10.824721917570621,739.70246748977718,134.16157627678254,-67.788828889295473,67.788828889295473,-134.16157627678254,1301.5173848757001,0.0
372154.6038362722,4580833.5216966402,-12500.0,400.38315320120154,394.02792411995836,-679.74424366689789,70.917602287065364,-86.008808914698349,-7.4034355731821062,676.71165931929181,222.83660769427007,-100.87269415102941,100.87269415102941,-222.83660769427007,1181.3374235893709,0.0
377154.6038362722,4580833.5216966402,-12500.0,365.95432964594397,425.91495241858564,-490.90423701226905,71.86341112614376,-56.16380394534584,-4.0806657223456133,610.67100494671638,293.47879901641619,-126.53602345199461,126.53602345199461,-293.47879901641619,1059.8262374494195,0.0
382154.6038362722,4580833.5216966402,-12500.0,329.5343797501701,434.39508270512272,-306.86117260305002,69.089162609944424,-27.722909001194161,-0.99367550539375338,543.6065699054775,344.96563749783832,-144.45207165867646,144.45207165867646,-344.96563749783832,941.60734381665259,0.0
387154.6038362722,4580833.5216966402,-12500.0,294.96754882301451,421.59042532417033,-135.83428365638903,63.057335270003755,-1.8695734887073761,1.7429190693642309,477.44735509247784,377.69203692782941,-154.88613377209668,154.88613377209668,-377.69203692782941,830.90542375170742,0.0
392154.6038362722,4580833.5216966402,-12500.0,265.31460977932841,391.17113053371213,15.535193617616024,54.448152816666031,20.474425261474913,4.0459538279162848,413.91481955800367,393.36372172593099,-158.60449064310714,158.60449064310714,-393.36372172593099,731.15491201913983,0.0
397154.6038362722,4580833.5216966402,-12500.0,242.55926164011092,347.79913108889116,142.68083641752585,44.071620088807833,38.711993958872327,5.8682418685896236,354.52654554778019,394.64042459576092,-156.72868784434741,156.72868784434741,-394.64042459576092,644.6499031454623,0.0
402154.6038362722,4580833.5216966402,-12500.0,227.51629758899861,296.50156255064184,243.29293232289604,32.771938078477731,52.588454346995348,7.198534906791636,301.39820737031101,384.70726753050883,-150.56589902966493,150.56589902966493,-384.70726753050883,572.2961276970517,0.0
342154.6038362722,4585833.5216966402,-12500.0,416.15195702361149,-232.8300737071512,-1668.1889870274115,-8.4235189114637326,-263.55001988068312,-29.079372014294069,1088.6061895350626,-542.86469112932195,198.38265391709186,-198.38265391709186,542.86469112932195,1996.475007189852,0.0
347154.6038362722,4585833.5216966402,-12500.0,470.48546723952512,-93.51023692095508,-1608.246285917942,13.227944024442266,-248.47148562668625,-26.6062663675288,1063.0778268926542,-401.65966560721949,141.02738571442748,-141.02738571442748,401.65966560721949,1935.6851987266646,0.0
352154.6038362722,4585833.5216966402,-12500.0,505.84755100803886,46.143466374278709,-1506.4617091958019,33.886801896733232,-227.0380090305685,-23.464563582355627,1025.111959736636,-254.18579330299161,81.839488146913581,-81.839488146913581,254.18579330299161,1851.72664849732,0.0
357154.6038362722,4585833.5216966402,-12500.0,520.93739876736356,178.19273904547637,-1364.4284336018391,52.321230518296957,-199.76541191119787,-19.751861487539422,975.34723706732791,-107.17874009541254,23.544450839910162,-23.544450839910162,107.17874009541254,1746.6371375959075,0.0
362154.6038362722,4585833.5216966402,-12500.0,516.34929874065483,294.74340205501949,-1186.9999031822388,67.378677871770279,-167.64747178607902,-15.613677476889574,915.06100385139894,32.355825204555465,-31.07916676083185,31.07916676083185,-32.355825204555465,1623.8294562588276,0.0
367154.6038362722,4585833.5216966402,-12500.0,494.6113591428126,388.8908491343696,-982.1283518833925,78.12455806717297,-132.10519738935915,-11.233556396293004,846.11563205298808,157.88974584991385,-79.496214044509117,79.496214044509117,-157.88974584991385,1487.9556260769341,0.0
372154.6038362722,4585833.5216966402,-12500.0,459.90196181413552,455.61262735818559,-760.22742489148914,83.963951776895911,-94.870632091362779,-6.8171862589616428,770.83402744077364,264.10754437458297,-119.69785748674674,119.69785748674674,-264.10754437458297,1344.613134064007,0.0
377154.6038362722,4585833.5216966402,-12500.0,417.4732018211094,492.42674123283223,-533.12459162252992,84.721994688802326,-57.818808711377393,-2.5727455026101955,691.81871844767466,347.48903126238434,-150.4171486770752,150.4171486770752,-347.48903126238434,1199.914493457864,0.0
382154.6038362722,4585833.5216966402,-12500.0,372.8870182958126,499.67136397280507,-312.76805871421732,80.665248697464719,-22.773369344269867,1.3095933337901235,611.74057781997476,406.62423700542411,-171.23532488259764,171.23532488259764,-406.62423700542411,1059.9573866259843,0.0
387154.6038362722,4585833.5216966402,-12500.0,331.2202207865738,480.3419226329234,-109.91926482376904,72.45835464012292,8.6809206964464174,4.6756082821472642,533.13366516945598,442.20210380193294,-182.55989087372953,182.55989087372953,-442.20210380193294,930.23949059967777,0.0
392154.6038362722,4585833.5216966402,-12500.0,296.40518269106246,439.52827901023994,66.928759049757488,61.064954754472126,35.346369854311902,7.4196184869049659,458.2611538361337,456.69252599236313,-185.48584811544018,185.48584811544018,-456.69252599236313,815.07479374613479,0.0
397154.6038362722,4585833.5216966402,-12500.0,270.8303728817512,383.58470116810054,212.22726180917525,47.613613493867732,56.498299900989657,9.4900197732317864,389.28399619263695,453.80872112272471,-181.57633161347272,181.57633161347272,-453.80872112272471,717.08211399037543,0.0
402154.6038362722,4585833.5216966402,-12500.0,255.25135087095043,319.21426452333526,323.56534758681971,33.255262763945069,71.900150898276834,10.887614360695776,331.70608602899205,437.87622421279821,-172.61220842918348,172.61220842918348,-437.87622421279821,636.86244510851145,0.0
407154.6038362722,4585833.5216966402,-12500.0,248.98372899340373,252.6461463509379,401.41475587525605,19.037695320969473,81.754412802022443,11.65787266798193,306.21286426324633,413.23645218841466,-160.35956120104015,160.35956120104015,-413.23645218841466,573.03008942576571,0.0
412154.6038362722,4585833.5216966402,-12500.0,250.28961668935125,189.03393091101887,448.54711769635156,5.8150587290790874,86.607592763025963,11.879258548521356,291.47757711104174,383.78086356232649,-146.39060658943384,146.39060658943384,-383.78086356232649,522.70233268779896,0.0
417154.6038362722,4585833.5216966402,-12500.0,256.8443859925024,132.13062351058448,469.28490577843752,-5.7999560795972656,87.232604171559387,11.650048622234095,275.90967982695213,352.66256659104749,-131.97455023244063,131.97455023244063,-352.66256659104749,482.33334445794856,0.0
332154.6038362722,4590833.5216966402,-12500.0,269.92392425867064,-601.6169049525904,-1891.6222565603807,-67.237403932388702,-322.25422915625199,-37.919826992924001,1263.4507378710096,-938.06798186468222,363.50906764584255,-363.50906764584255,938.06798186468222,2347.8854003667575,0.0
337154.6038362722,4590833.5216966402,-12500.0,373.88697198572936,-465.1670398565563,-1926.3394507630105,-42.693384164381726,-320.8294754528726,-36.609962156553323,1266.7195952609466,-810.08727357407133,309.23001574360319,-309.23001574360319,810.08727357407133,2340.666014513668,0.0
342154.6038362722,4590833.5216966402,-12500.0,464.23976359887831,-309.85974911235434,-1916.7904324135552,-16.227618861671637,-311.71053334162639,-34.34553080741005,1255.3046419736222,-659.62965745065708,246.39192496750115,-246.39192496750115,659.62965745065708,2304.5748019628545,0.0
347154.6038362722,4590833.5216966402,-12500.0,535.35724506748602,-142.69803517446758,-1857.0889066244383,10.83424991080353,-294.29676847316989,-31.116958977767688,1228.2987598131399,-492.04584089437174,177.32252906987341,-177.32252906987341,492.04584089437174,2238.4603363776614,0.0
352154.6038362722,4590833.5216966402,-12500.0,582.91500356189852,27.198957762650242,-1744.3997199222749,36.911977795312751,-268.52859181705065,-26.984826239780329,1185.5235268465913,-314.6766299986005,105.11035710314256,-105.11035710314256,314.6766299986005,2142.7954678140754,0.0
357154.6038362722,4590833.5216966402,-12500.0,604.65826421483189,189.36097883849519,-1579.893759157778,60.31463057825404,-234.99893591696664,-22.085387891467235,1127.6518622509491,-136.30717298425563,33.364255062490031,-33.364255062490031,136.30717298425563,2019.9209983273761,0.0
362154.6038362722,4590833.5216966402,-12500.0,600.94068254686817,333.11910055949471,-1369.2750821301438,79.431418205876611,-194.99010706538587,-16.626302002645165,1056.249761290502,33.70417149039428,-34.149544363928719,34.149544363928719,-33.70417149039428,1874.1118997304575,0.0
367154.6038362722,4590833.5216966402,-12500.0,574.8641743981284,448.98383520656733,-1122.6722583303156,92.941026275409669,-150.41237938796377,-10.871610722766748,973.71572125741091,186.50634056204072,-93.94224778184892,93.94224778184892,-186.50634056204072,1711.4186287291907,0.0
372154.6038362722,4590833.5216966402,-12500.0,531.92491575106965,529.9891304622488,-853.79815695737693,99.99986356785611,-103.63904403649093,-5.1170029015698146,883.11248605133301,314.85180481377176,-143.23025642462585,143.23025642462585,-314.85180481377176,1539.2659246048506,0.0
377154.6038362722,4590833.5216966402,-12500.0,479.19252544755324,572.70604688876119,-578.45396854689409,100.36836915563202,-57.256488387344703,0.34094637589871224,787.90868222514916,413.98174191769783,-180.2679002341182,180.2679002341182,-413.98174191769783,1365.8302386044957,0.0
382154.6038362722,4590833.5216966402,-12500.0,424.18351580530253,577.6819249464013,-312.63118645967228,94.44502501464396,-13.770813626081324,5.2365909675720159,691.67299684541763,482.10644933694812,-204.51335775467763,204.51335775467763,-482.10644933694812,1199.2513877493898,0.0
387154.6038362722,4590833.5216966402,-12500.0,373.68113004650729,549.19389134594724,-70.582820151478529,83.197943251875003,24.674660402511336,9.3623130494551283,597.78625752836729,520.38147234672704,-216.59497045311352,216.59497045311352,-520.38147234672704,1046.7468375161968,0.0
392154.6038362722,4590833.5216966402,-12500.0,332.77344750124468,494.38576149407754,136.7461824050911,68.009374102078667,56.517504183623601,12.586442359137138,509.31463643294785,532.41139750862283,-218.09626396536191,218.09626396536191,-532.41139750862283,913.7239064534532,0.0
397154.6038362722,4590833.5216966402,-12500.0,304.30676096631942,422.00867764763535,302.64507139509089,50.468045502834045,80.893223426979588,14.859431437586919,429.82077860487709,523.42666448575346,-211.21997822611556,211.21997822611556,-523.42666448575346,803.02411535657859,0.0
402154.6038362722,4590833.5216966402,-12500.0,288.82527212628912,341.06642772697438,424.81090036955624,32.154166321178977,97.639742535991587,16.208451201383145,374.26271644862697,499.34305457741038,-198.41364191876644,198.41364191876644,-499.34305457741038,714.53841420409731,0.0
407154.6038362722,4590833.5216966402,-12500.0,284.93262101205676,259.6478530730742,504.85034561150843,14.457918908114124,107.20403497869829,16.722891010595855,352.72298546273299,465.90735656507047,-182.03445359480418,182.03445359480418,-465.90735656507047,645.47701029454515,0.0
412154.6038362722,4590833.5216966402,-12500.0,289.91763175201169,184.13456304318376,547.32566712838525,-1.5416824317984845,110.48378578023627,16.53454172183428,334.73338293664983,428.07130433540556,-164.10636494430321,164.10636494430321,-428.07130433540556,591.36448805879104,0.0
417154.6038362722,4590833.5216966402,-12500.0,300.45765083626611,118.84530130018209,558.61292419560903,-15.129129791290797,108.64385392167566,15.796627036322111,315.15987502655423,389.64971645295481,-146.18897075075432,146.18897075075432,-389.64971645295481,547.38700903554161,0.0
422154.6038362722,4590833.5216966402,-12500.0,313.24253514891393,66.068502409816119,545.81123831021421,-25.943558301717356,102.94283094831979,14.665103961316515,293.94893087836647,353.24213813013546,-129.34891378864904,129.34891378864904,-353.24213813013546,509.4923699961559,0.0
427154.6038362722,4590833.5216966402,-12500.0,325.42470799120065,26.366620356464711,515.86348800420205,-33.926425870596916,94.593554264986054,13.284322906027127,271.63748815612053,320.34807893029188,-114.20631376803668,114.20631376803668,-320.34807893029188,474.89431214949639,0.0
322154.6038362722,4595833.5216966402,-12500.0,-6.7612924436450648,-967.50917412731258,-1910.5153551380859,-136.29735304433578,-354.47989737141614,-45.048977165805482,1388.3084736139638,-1315.7872607414035,529.23217348213325,-529.23217348213325,1315.7872607414035,2606.4873003737366,0.0
327154.6038362722,4595833.5216966402,-12500.0,130.28512860370301,-876.02731239808804,-2043.0404940281728,-115.57400040258568,-369.93763627722564,-45.567632292789995,1427.6818663642491,-1238.8366814258022,494.03088802524076,-494.03088802524076,1238.8366814258022,2669.2673739340553,0.0
332154.6038362722,4595833.5216966402,-12500.0,268.35854477230498,-751.38365144204454,-2145.0867767916679,-89.993433668157536,-378.81745906491363,-45.062017859094205,1453.6650691756124,-1127.8448027074267,444.99840716015268,-444.99840716015268,1127.8448027074267,2704.6375006357143,0.0
337154.6038362722,4595833.5216966402,-12500.0,399.871534938374,-595.18377764828449,-2204.9726096270447,-60.232146559157584,-379.38614248837962,-43.370451152148192,1463.6778049383174,-983.18479123055363,382.52428836187727,-382.52428836187727,983.18479123055363,2707.8620055161296,0.0
342154.6038362722,4595833.5216966402,-12500.0,516.5588291239718,-412.28345626627066,-2211.5788859177787,-27.489166334868731,-370.15502739946123,-40.387530362705334,1455.5484126162851,-808.00941163585617,308.14907092414433,-308.14907092414433,808.00941163585617,2675.2088538402213,0.0
347154.6038362722,4595833.5216966402,-12500.0,610.44736533764546,-211.05101156940097,-2155.9006368501045,6.5239547517790486,-350.12418418129005,-36.09050468644547,1427.7968093377431,-608.5569910521159,224.65825841987123,-224.65825841987123,608.5569910521159,2604.5459967064571,0.0
352154.6038362722,4595833.5216966402,-12500.0,675.04834716111566,-3.0849214990659251,-2032.7529045166332,39.682777060800355,-319.02459241393984,-30.560248983994118,1379.9018848912035,-394.02850481471535,135.99673293726417,-135.99673293726417,394.02850481471535,2495.8978464687875,0.0
357154.6038362722,4595833.5216966402,-12500.0,706.55977338748073,197.73566908873809,-1842.3180357875435,69.647197049556482,-277.50881939955127,-23.991304654786852,1312.5099078348344,-175.93054440315183,46.968179574426188,-46.968179574426188,175.93054440315183,2351.8676297013076,0.0
362154.6038362722,4595833.5216966402,-12500.0,704.78707765544732,376.8483895055391,-1591.128714380777,94.141089736664554,-227.23385172261263,-16.686139867695449,1227.5286172133044,33.117522625963659,-37.271887769189448,37.271887769189448,-33.117522625963659,2177.808211146521,0.0
367154.6038362722,4595833.5216966402,-12500.0,673.48770125550857,521.03423313776989,-1292.1168369707259,111.27183884968879,-170.79226246165473,-9.0316533338434013,1128.0680974563759,220.95804757243235,-111.8594511568237,111.8594511568237,-220.95804757243235,1981.6546123616597,0.0
372154.6038362722,4595833.5216966402,-12500.0,619.94917275476348,620.47221677215737,-963.52057135035739,119.82591957498089,-111.4763869740988,-1.4597878520709104,1018.2133019914022,377.55467831300012,-172.87872656465919,172.87872656465919,-377.55467831300012,1773.3742588367804,0.0
377154.6038362722,4595833.5216966402,-12500.0,553.8105276030991,670.33069825780331,-626.72566988649896,119.4708317916229,-52.901730039524239,5.6016238685323962,902.65145098019366,496.36319575310381,-217.88501363740377,217.88501363740377,-496.36319575310381,1564.053584191782,0.0
382154.6038362722,4595833.5216966402,-12500.0,485.37313947290829,671.47446372737352,-303.43280144442565,110.81038142876231,1.4432027215410232,11.778827839494337,786.2252499322841,575.08221128522746,-246.16947653160227,246.16947653160227,-575.08221128522746,1364.7011814130797,0.0
387154.6038362722,4595833.5216966402,-12500.0,423.81634005346598,630.08838744009972,-12.759003438254339,95.275042403050435,48.629794812801009,16.793486081033386,673.53716887979454,615.60921859501502,-258.70711947682048,258.70711947682048,-615.60921859501502,1184.8756018353538,0.0
392154.6038362722,4595833.5216966402,-12500.0,375.76931238194123,556.32879635579741,231.08007146348982,74.873392302487758,86.614595144035619,20.487713621973597,568.96095880261646,623.25275432638887,-257.81716086510585,257.81716086510585,-623.25275432638887,1031.3021351101413,0.0
397154.6038362722,4595833.5216966402,-12500.0,344.56155738923951,462.38028771317306,420.04433533043186,51.865593330269839,114.39754372918131,22.829408080350358,479.841914954488,605.45123744149805,-246.63968735141907,246.63968735141907,-605.45123744149805,906.75882504275887,0.0
402154.6038362722,4595833.5216966402,-12500.0,330.24740838989646,360.42438301832237,552.35111482504362,28.435229809417361,131.99876620870859,23.898976127354345,432.38428164178146,570.35263925275581,-228.56794004999546,228.56794004999546,-570.35263925275581,809.71257738488737,0.0
407154.6038362722,4595833.5216966402,-12500.0,330.26678507223016,260.97425097243968,631.5397327977081,6.4260712758573746,140.28476216628096,23.862448864104923,409.60677445366355,525.582994364667,-206.761831370474,206.761831370474,-525.582994364667,735.15056248348571,0.0
412154.6038362722,4595833.5216966402,-12500.0,340.45904990528811,171.84954198675177,664.91012025746193,-12.816689608029908,140.70452394536699,22.937973238353177,386.97958864839609,477.41379336495288,-183.82123452152436,183.82123452152436,-477.41379336495288,676.45478147555013,0.0
417154.6038362722,4595833.5216966402,-12500.0,356.12061429630756,97.842097029125867,661.78161548098467,-28.4939904219314,135.00281135208007,21.362650276675851,362.1844024856573,430.38477387551484,-161.63840894066675,161.63840894066675,-430.38477387551484,627.41232383428269,0.0
422154.6038362722,4595833.5216966402,-12500.0,372.87089294666487,40.946655055057107,631.93811129364906,-40.309028995116883,124.96618175521115,19.364972327507584,335.59321086355578,387.31537815726165,-141.40257936810121,141.40257936810121,-387.31537815726165,583.45354051753498,0.0
427154.6038362722,4595833.5216966402,-12500.0,387.20892394661951,0.94120960101524076,584.47235285094484,-48.365582062585986,112.23426662358743,17.145619364382355,308.07674739503176,349.57151520352022,-123.70472764098568,123.70472764098568,-349.57151520352022,541.91291198851877,0.0
432154.6038362722,4595833.5216966402,-12500.0,396.75350417758079,-23.900932043198836,527.08958593327782,-53.043315258684643,98.186053648294589,14.86705195313364,280.74232921493586,317.44759339719241,-108.68853561191794,108.68853561191794,-317.44759339719241,501.67159316638242,0.0
317154.6038362722,4600833.5216966402,-12500.0,-236.2762184221063,-1220.4822240551821,-1921.3888504767444,-190.54118480471575,-383.18309317619639,-51.586037375355573,1518.632379664027,-1590.3808644081153,655.06033038970577,-655.06033038970577,1590.3808644081153,2864.1010908304488,0.0
322154.6038362722,4600833.5216966402,-12500.0,-83.588485784622108,-1168.2751953424577,-2115.1819362394281,-173.8188996776087,-410.38433250489311,-53.366418878387684,1585.4855755804831,-1555.428312417456,636.2548720586185,-636.2548720586185,1555.428312417456,2979.9614093732976,0.0
327154.6038362722,4600833.5216966402,-12500.0,82.066470747821654,-1076.1961608816014,-2290.934356398825,-150.39814263124418,-432.19971552915672,-54.064376424638333,1640.4371781402115,-1480.9907368915367,600.8278383998038,-600.8278383998038,1480.9907368915367,3070.7440525986967,0.0
332154.6038362722,4600833.5216966402,-12500.0,253.20214916008621,-941.34792326952186,-2434.478569743394,-120.32269138012735,-446.21257358212665,-53.400358133297601,1679.7865621846493,-1363.3682904605105,547.49248866862877,-547.49248866862877,1363.3682904605105,3129.3354674126872,0.0
337154.6038362722,4600833.5216966402,-12500.0,420.1475118024199,-764.1132879486297,-2530.0970752807521,-84.267126995396012,-449.95442658703178,-51.131681027887986,1699.9043347407676,-1201.5686403320815,476.14671573845169,-476.14671573845169,1201.5686403320815,3148.9594262401615,0.0
342154.6038362722,4600833.5216966402,-12500.0,571.77910265526941,-549.22243934627272,-2562.0342502509193,-43.654113247299883,-441.19503598975092,-47.093689355083193,1697.5844901096527,-998.2707135580772,388.24503252705568,-388.24503252705568,998.2707135580772,3123.935007645337,0.0
347154.6038362722,4600833.5216966402,-12500.0,696.8016091486744,-306.41396696059746,-2516.6451553094576,-0.68083507895032991,-418.30463215649621,-41.242304608880971,1670.4581857791065,-760.4869964271777,287.02917754090254,-287.02917754090254,760.4869964271777,3050.5557434432048,0.0
352154.6038362722,4600833.5216966402,-12500.0,785.47264687600352,-50.344077908759033,-2384.9473062670309,41.78914107165123,-380.63669721341574,-33.689337265116976,1617.4119398357379,-499.64215883583574,177.50667709299083,-177.50667709299083,499.64215883583574,2927.9680663294175,0.0
357154.6038362722,4600833.5216966402,-12500.0,831.48150300808891,200.52675596207825,-2165.1190334258249,80.492467627518792,-328.8523693030312,-24.720361167416485,1538.939227835473,-230.84097904802206,66.095390592916843,-66.095390592916843,230.84097904802206,2758.8952745043744,0.0
362154.6038362722,4600833.5216966402,-12500.0,833.51869735663956,426.12881111906336,-1864.2906379542464,112.17700264933457,-265.0908767077878,-14.786623152917079,1437.3337763056552,28.745369728503572,-40.079253653385578,40.079253653385578,-28.745369728503572,2550.0115613736593,0.0
367154.6038362722,4600833.5216966402,-12500.0,796.02292740427947,607.78525164167422,-1498.9675495971587,134.09492317587421,-192.90415980122347,-4.4670262042985769,1316.6521112622081,262.18834939808812,-134.14352344039571,134.14352344039571,-262.18834939808812,2311.8040057709109,0.0
372154.6038362722,4600833.5216966402,-12500.0,728.72660194878063,731.40130941116706,-1093.6504377303008,144.47376229885984,-116.91889519905261,5.596371345415025,1182.4087560610965,455.35219612897407,-210.49859138809728,210.49859138809728,-455.35219612897407,2057.8219530804231,0.0
377154.6038362722,4600833.5216966402,-12500.0,644.95312102889716,790.01653341821157,-677.69182715750082,142.84544203167195,-42.261241748177547,14.778460823360561,1041.0362043617256,599.0623249652798,-265.65883859129463,265.65883859129463,-599.0623249652798,1803.320076510151,0.0
382154.6038362722,4600833.5216966402,-12500.0,559.03866667260786,784.97412281440131,-280.99001606981551,130.13809988998329,26.146446749090259,22.550871758332264,899.22703501523301,690.31001066001272,-298.68460639344238,298.68460639344238,-690.31001066001272,1563.3982256223705,0.0
387154.6038362722,4600833.5216966402,-12500.0,483.57870874102861,725.34070267970355,70.455578029979961,108.49729443616516,84.260148811131813,28.544927987479305,763.42189651719559,732.17718479850419,-311.10101776295642,311.10101776295642,-732.17718479850419,1350.8194528861957,0.0
392154.6038362722,4600833.5216966402,-12500.0,427.26723157260534,625.75666559185026,358.03271327895743,80.881253878699965,129.40635815340977,32.585509381324236,640.43219907418791,732.56246117406954,-306.35061187854149,306.35061187854149,-732.56246117406954,1173.8053685839311,0.0
397154.6038362722,4600833.5216966402,-12500.0,393.87129312820684,503.38408048864881,572.27411266621721,50.539436293911223,160.49267003512233,34.691495833243252,547.21619832326598,702.1535463587611,-288.96388233420208,288.96388233420208,-702.1535463587611,1034.4270752926036,0.0
402154.6038362722,4600833.5216966402,-12500.0,382.45680902200047,374.81608916966883,712.69083065778023,20.505542742448167,177.92110548012596,35.04619312447555,506.83529809256413,652.25038383484309,-263.68529150401525,263.68529150401525,-652.25038383484309,928.52891350106836,0.0
407154.6038362722,4600833.5216966402,-12500.0,388.58195945585891,253.69610241565397,786.05140068554613,-6.78412146247683,183.26873722606118,33.94802705508387,479.59886475532909,592.98270214533022,-234.76357836150871,234.76357836150871,-592.98270214533022,847.75517330296486,0.0
412154.6038362722,4600833.5216966402,-12500.0,405.94190802488743,149.43477880890063,803.82158454750765,-29.690558631475366,178.84684588916653,31.754110514539512,450.65509210024817,532.22479436548997,-205.51974076234177,205.51974076234177,-532.22479436548997,782.81664178118433,0.0
417154.6038362722,4600833.5216966402,-12500.0,427.95168746602349,67.019739853039198,779.51232533392442,-47.392345367177185,167.2536134070628,28.828288118696168,419.02855372481133,475.2394184498969,-178.20251945392764,178.20251945392764,-475.2394184498969,726.18510054150295,0.0
422154.6038362722,4600833.5216966402,-12500.0,448.92179125403993,7.6337025321479057,726.48845403049552,-59.771328395498315,151.00621099423125,25.501524222393606,385.5777748509268,424.88620379001617,-154.06687332610232,154.06687332610232,-424.88620379001617,673.16907824404507,0.0
427154.6038362722,4600833.5216966402,-12500.0,464.70035265248322,-30.308304536888276,656.49956240010602,-67.226228007164465,132.29381815667253,22.047646556751584,351.65770645705237,382.14866594429526,-133.58027191860157,133.58027191860157,-382.14866594429526,621.6491248532592,0.0
432154.6038362722,4600833.5216966402,-12500.0,472.83290615827065,-50.048611556670174,578.94119272412297,-70.471364953238677,112.8537719113374,18.673662741434072,318.89920292470373,346.75462451653777,-116.66936020537867,116.66936020537867,-346.75462451653777,571.25370712242818,0.0
437154.6038362722,4600833.5216966402,-12500.0,472.38509490808076,-55.532536465991278,500.69799421130409,-70.360164443634588,93.947455315065881,15.521214744777625,289.06453186104221,317.73646312145775,-102.94658936181045,102.94658936181045,-317.73646312145775,522.53515232981408,0.0
312154.6038362722,4605833.5216966402,-12500.0,-524.17849262714105,-1446.4389338081728,-1841.6533116509252,-248.17927178058642,-399.17399695047925,-57.454252338790646,1628.9736890377737,-1838.5630550438595,774.61775615441877,-774.61775615441877,1838.5630550438595,3083.4759783886211,0.0
317154.6038362722,4605833.5216966402,-12500.0,-372.57512232178192,-1449.2394951267847,-2087.2296331152161,-238.9564810488194,-438.42870292152389,-60.763017049577165,1726.3590800916197,-1860.3609637440527,779.2398991318455,-779.2398991318455,1860.3609637440527,3258.9510640774588,0.0
322154.6038362722,4605833.5216966402,-12500.0,-194.60792961743829,-1411.1956501346756,-2332.5604841624418,-221.78863559205743,-474.65036226216273,-63.049425947075243,1815.3417040632671,-1842.5372368797239,766.53632844179117,-766.53632844179117,1842.5372368797239,3415.7405623180625,0.0
327154.6038362722,4605833.5216966402,-12500.0,4.6034593445785754,-1324.2992382869033,-2563.6490702433834,-195.82223158471967,-505.02509845471087,-63.908987948729418,1891.383091365258,-1776.8635245602459,733.23793990954573,-733.23793990954573,1776.8635245602459,3544.8770432890365,0.0
332154.6038362722,4605833.5216966402,-12500.0,216.45184241654027,-1182.703690281789,-2762.6318417054249,-160.7795662754327,-526.2750839074024,-62.930478713827313,1949.5045876085933,-1656.7761970801578,676.88733872505577,-676.88733872505577,1656.7761970801578,3636.6882488727501,0.0
337154.6038362722,4605833.5216966402,-12500.0,428.85361630878708,-984.46803272172076,-2908.5892461990697,-117.22289054936681,-534.90103288359921,-59.747171785834524,1984.6201828721823,-1478.8794285534818,596.46447428211331,-596.46447428211331,1478.8794285534818,3681.533819386726,0.0
342154.6038362722,4605833.5216966402,-12500.0,626.97924821060712,-733.34368093796922,-2979.3553516073594,-66.776726697212027,-527.57770753949819,-54.102023833022436,1992.0141209786204,-1244.5190198672533,493.01567236612294,-493.01567236612294,1244.5190198672533,3670.8425405609346,0.0
347154.6038362722,4605833.5216966402,-12500.0,794.8709447107567,-440.15257387430376,-2954.4233105429244,-12.232058583171803,-501.68762230324552,-45.917621518216563,1967.9427791110097,-961.06963008937782,370.13297976899315,-370.13297976899315,961.06963008937782,3598.4013436646114,0.0
352154.6038362722,4605833.5216966402,-12500.0,917.89774885227268,-123.17123197420052,-2818.7207555916302,42.548988402041417,-455.92385651798168,-35.356204881138382,1910.2858019001981,-642.463000408894,234.09172205661048,-234.09172205661048,642.463000408894,3461.7349667953094,0.0
357154.6038362722,4605833.5216966402,-12500.0,985.67810461542899,193.02738159376679,-2566.627037979983,92.984439440984119,-390.84006640104843,-22.851411301128934,1819.1371751324741,-308.50734173637358,93.476490758747104,-93.476490758747104,308.50734173637358,3263.3393824911122,0.0
362154.6038362722,4605833.5216966402,-12500.0,994.75279196604481,480.53336402287806,-2205.1912633653401,134.37658697998899,-309.18507422708268,-9.0957340770168873,1697.1840771530381,17.242188853386374,-41.776657761274585,41.776657761274585,-17.242188853386374,3011.4430213274591,0.0
367154.6038362722,4605833.5216966402,-12500.0,950.11183435482621,712.56647820202261,-1755.3719296359766,162.68037296264157,-215.86971868979131,5.0236358996335273,1549.7383385316616,310.879206487185,-161.81761155497895,161.81761155497895,-310.879206487185,2719.9926835880283,0.0
372154.6038362722,4605833.5216966402,-12500.0,864.82666407922704,868.50323885967464,-1250.4041333604468,175.26541203812232,-117.48331805019043,18.533982696617784,1384.3397715888254,552.12332204517634,-258.50021336778548,258.50021336778548,-552.12332204517634,2407.646734355128,0.0
377154.6038362722,4605833.5216966402,-12500.0,757.58183496884999,938.06294500400509,-731.18595762828079,171.46220419269955,-21.402469901410086,30.510734751065986,1209.9692979914425,727.82769635913348,-326.75472005271206,326.75472005271206,-727.82769635913348,2095.7290411778658,0.0
382154.6038362722,4605833.5216966402,-12500.0,648.66723459970387,923.30060578035034,-239.60879616313716,152.71867170020388,65.326662987565783,40.206275014297958,1036.0822512526565,833.97017176510667,-365.31365086335791,365.31365086335791,-833.97017176510667,1805.2704735758268,0.0
387154.6038362722,4605833.5216966402,-12500.0,555.63086754772758,837.70433754272335,188.41761336638484,122.30312516092775,137.05980272699668,47.145281099875533,872.04858010177634,875.5337573805366,-376.58472973881521,376.58472973881521,-875.5337573805366,1553.4337842420589,0.0
392154.6038362722,4605833.5216966402,-12500.0,489.94462909035246,702.69959970604657,528.32517239101162,84.633552489485041,190.30996322420037,51.167215930189343,729.8385235437737,864.41005536398859,-365.75170185838749,365.75170185838749,-864.41005536398859,1349.9413109902218,0.0
397154.6038362722,4605833.5216966402,-12500.0,455.60715820606464,542.75254352214995,769.31249521660538,44.43001843581051,224.01892303660216,52.411510105687015,640.68207006404396,816.12263748353018,-339.43180646321537,339.43180646321537,-816.12263748353018,1194.8551709449303,0.0
402154.6038362722,4605833.5216966402,-12500.0,449.81486554564589,380.60328904529456,913.59792825815236,5.9234290696046621,239.33449092242964,51.255267821356291,600.88969288031137,746.44499063415378,-304.31202160927654,304.31202160927654,-746.44499063415378,1079.4973463008544,0.0
407154.6038362722,4605833.5216966402,-12500.0,465.10649649231834,233.86509972794175,973.28353566007195,-27.69531344794504,239.0269661978466,48.223629648026659,566.49061154422134,668.81544453906145,-266.11058657719684,266.11058657719684,-668.81544453906145,990.79107093310904,0.0
412154.6038362722,4605833.5216966402,-12500.0,492.03397136201681,113.51939560145431,966.14517920194953,-54.508065673235834,226.75099358205122,43.895412701702668,528.97459197759667,592.97478601509238,-229.02388043011618,229.02388043011618,-592.97478601509238,916.4597672339396,0.0
417154.6038362722,4605833.5216966402,-12500.0,521.50947495848106,24.134136613962443,911.60849858717631,-73.812797546197402,206.35037293115849,38.823104224835902,488.31712626000649,524.76830365500473,-195.63444623095037,195.63444623095037,-524.76830365500473,848.11122430476632,0.0
422154.6038362722,4605833.5216966402,-12500.0,546.34310307409476,-34.797661005009786,827.71991404363803,-85.874422772939155,181.33497244699052,33.478136817117502,446.02514014590116,466.74520415121327,-167.13844574837168,167.13844574837168,-466.74520415121327,781.61031839377551,0.0
427154.6038362722,4605833.5216966402,-12500.0,561.88628699936714,-67.08596761664009,729.38237137964882,-91.596672692643182,154.57532541939094,28.223663178696803,404.11064615170096,419.11564692009949,-143.72240003113271,143.72240003113271,-419.11564692009949,715.95332278002741,0.0
432154.6038362722,4605833.5216966402,-12500.0,565.96787459938503,-78.168564451830676,627.71796749578118,-92.206468536791107,128.19425374850948,23.31054069172264,364.73763216087127,380.71606090591615,-124.95216497881896,124.95216497881896,-380.71606090591615,651.87235622019227,0.0
437154.6038362722,4605833.5216966402,-12500.0,558.41283262663205,-73.821226617352508,530.22233471440029,-89.00408738696953,103.60026731091176,18.889130191631146,329.68064912683195,349.78496120197678,-110.09397560744898,110.09397560744898,-349.78496120197678,590.74870903619251,0.0
442154.6038362722,4605833.5216966402,-12500.0,540.40852347398743,-59.330271165865874,441.35170505278609,-83.196475122298239,81.600985874948435,15.029091877255535,299.47402264659917,324.48561286415986,-98.338961608577989,98.338961608577989,-324.48561286415986,533.94264841665006,0.0
447154.6038362722,4605833.5216966402,-12500.0,513.90150495057378,-39.072342883764684,363.26056757045086,-75.807019911322953,62.546174940319013,11.741291814130154,273.31144511357303,303.19825738023815,-88.936549207146385,88.936549207146385,-303.19825738023815,482.46016953517073,0.0
307154.6038362722,4610833.5216966402,-12500.0,-853.0532655255796,-1617.0463576031796,-1672.0007746627264,-304.51011966028221,-399.64768146115983,-62.137450591815892,1710.8450658745883,-2033.3188752132583,875.87838127469615,-875.87838127469615,2033.3188752132583,3247.428551999717,0.0
312154.6038362722,4610833.5216966402,-12500.0,-724.06173645370689,-1684.3288449908903,-1950.6801328391055,-306.05300164810734,-449.64585225582931,-67.125541655058825,1839.4299173817419,-2120.9706243755563,908.99576535661879,-908.99576535661879,2120.9706243755563,3484.3088765478519,0.0
317154.6038362722,4610833.5216966402,-12500.0,-557.07078429897422,-1717.1959505918999,-2249.2458152650279,-299.48362772378135,-499.92175366285085,-71.294562437951626,1965.1286760974467,-2175.6392083963933,926.96266670705302,-926.96266670705302,2175.6392083963933,3713.0278310010326,0.0
322154.6038362722,4610833.5216966402,-12500.0,-352.62381035170364,-1703.4866767558656,-2557.1314158477394,-282.97515886185818,-547.75273408578414,-74.133207518664179,2083.1572383750499,-2185.4605753880892,924.77242490099115,-924.77242490099115,2185.4605753880892,3923.9355268542645,0.0
327154.6038362722,4610833.5216966402,-12500.0,-115.1410080681879,-1631.0267319295012,-2858.2894688609531,-255.00988404733479,-589.53707309721938,-75.055688461209101,2187.7135404321998,-2138.307355706057,897.44474230793753,-897.44474230793753,2138.307355706057,4105.4752342375032,0.0
332154.6038362722,4610833.5216966402,-12500.0,146.08786568479476,-1489.4757662876139,-3130.7398631171127,-214.74193386831243,-620.87155408927106,-73.449935759179937,2272.1583580454317,-2023.3469702314574,840.72166943018692,-840.72166943018692,2023.3469702314574,4244.6213240766865,0.0
337154.6038362722,4610833.5216966402,-12500.0,416.43462502658559,-1272.8294665950009,-3347.0766121869578,-162.41684172269623,-636.827057296048,-68.755854354881578,2329.403855744164,-1833.1713363941458,751.98370331000706,-751.98370331000706,1833.1713363941458,4327.7563655790482,0.0
342154.6038362722,4610833.5216966402,-12500.0,676.44039225513905,-982.28980142988962,-3476.4311434063425,-99.770383199859936,-632.47267127777377,-60.570322678375526,2352.5432428978338,-1566.2779766192084,631.27505658106975,-631.27505658106975,1566.2779766192084,4342.0528734597447,0.0
347154.6038362722,4610833.5216966402,-12500.0,903.70369598392483,-628.87599947384501,-3488.2421912226964,-30.284832207966783,-603.65131768629408,-48.764903640206668,2335.7123873490891,-1229.4103026368891,482.2161862963232,-482.2161862963232,1229.4103026368891,4277.3339689542518,0.0
352154.6038362722,4610833.5216966402,-12500.0,1076.2764568097002,-234.82481608986939,-3357.7411159224007,40.84322769026037,-547.92422341189922,-33.58986840931685,2275.0972000227434,-838.99845954329157,312.48414039380805,-312.48414039380805,838.99845954329157,4128.2252554883089,0.0
357154.6038362722,4610833.5216966402,-12500.0,1177.1665815955416,167.27092137722562,-3072.3622037515975,107.14517783842531,-465.49921173303761,-15.730679492672159,2169.9217489159009,-420.85124066111382,133.52713602732959,-133.52713602732959,420.85124066111382,3896.2411402836765,0.0
362154.6038362722,4610833.5216966402,-12500.0,1198.8825626158032,538.30153394675335,-2637.4738519155335,161.7643767382084,-359.87022024977102,3.7140359732991568,2023.1741935737314,-7.4852376305577977,-40.696022710343804,40.696022710343804,7.4852376305577977,3591.2803279780678,0.0
367154.6038362722,4610833.5216966402,-12500.0,1146.4620221001514,839.28232866477015,-2079.3263669393536,198.66293371126019,-237.88318833072648,23.346593068016926,1841.8120806301063,366.85324523430495,-195.87078165999969,195.87078165999969,-366.85324523430495,3231.952488273841,0.0
372154.6038362722,4610833.5216966402,-12500.0,1037.5086331343462,1039.3951951081951,-1443.3999612076798,213.872364184134,-109.05020158744485,41.662443196954825,1636.2782593366594,672.47737912119521,-319.92146560462936,319.92146560462936,-672.47737912119521,2844.2821299864831,0.0
377154.6038362722,4610833.5216966402,-12500.0,898.6259562138149,1123.0202319240095,-787.60840746567544,206.41738941094187,15.848752380240644,57.279001906745215,1419.3570289662616,890.06989005319792,-405.30775861982323,405.30775861982323,-890.06989005319792,2458.5858067977574,0.0
382154.6038362722,4610833.5216966402,-12500.0,759.06733320848457,1093.2464532349729,-171.75783515806012,178.59026494053387,126.57438613152374,69.145518525969393,1204.7705359797335,1014.0851713828135,-450.27807617410468,450.27807617410468,-1014.0851713828135,2104.6475029155508,0.0
387154.6038362722,4610833.5216966402,-12500.0,643.69936475762677,970.46388067043279,353.68088538156053,135.44909080243278,215.16334239334356,76.683983143321001,1006.885092133285,1052.5815312965981,-458.67270942203726,458.67270942203726,-1052.5815312965981,1805.6848600996775,1.0
392154.6038362722,4610833.5216966402,-12500.0,567.73575364504256,786.54471410366307,756.00850208525856,83.685366365758355,277.1051944247431,79.832554405838636,848.34745151667209,1023.6968468576961,-438.41393905611488,438.41393905611488,-1023.6968468576961,1572.4771495136895,0.0
397154.6038362722,4610833.5216966402,-12500.0,534.86551039632445,576.81309400583314,1023.6217748115469,30.222843181219236,311.6720539722624,78.991609075702655,765.73058432582047,950.24039187120286,-399.28838943551693,399.28838943551693,-950.24039187120286,1400.6475751043699,0.0
402154.6038362722,4610833.5216966402,-12500.0,538.86881826751755,372.58500156246669,1163.9972877240059,-19.029736162549433,321.41348618522755,74.896779157036704,720.19933649537609,854.35961957975451,-350.78843201522091,350.78843201522091,-854.35961957975451,1274.1910442039189,0.0
407154.6038362722,4610833.5216966402,-12500.0,567.47011323032359,196.34453801424149,1197.9826643696174,-59.964142990322927,311.09094349915267,68.457617507212362,675.37299512393975,753.79705594841403,-300.59317820459381,300.59317820459381,-753.79705594841403,1173.868196732539,0.0
412154.6038362722,4610833.5216966402,-12500.0,606.67567578280739,60.22055939749572,1152.8588717430596,-90.498262501108485,286.44073332509288,60.602107463953828,626.07331343174155,660.30714338177165,-253.90522617991485,253.90522617991485,-660.30714338177165,1084.6026310740269,0.0
417154.6038362722,4610833.5216966402,-12500.0,644.1937975840018,-32.847818204122071,1056.2829477613352,-110.33948849853162,253.10167193916601,52.156843661707555,573.25251469350087,579.91237872008014,-213.52069064033068,213.52069064033068,-579.91237872008014,998.11820060689729,0.0
422154.6038362722,4610833.5216966402,-12500.0,671.31537057898925,-86.481335436344139,932.23782798672084,-120.48604891772433,215.8946542956761,43.77659398066384,519.32039548328339,514.23379753816812,-180.33967887630902,180.33967887630902,-514.23379753816812,911.83531296567583,0.0
427154.6038362722,4610833.5216966402,-12500.0,683.34322943369784,-107.94716378399367,799.13031912140434,-122.66853484136647,178.48381451426891,35.921448964773731,467.09716008990534,462.13044061138186,-154.01967136259685,154.01967136259685,-462.13044061138186,826.55586059438861,0.0
432154.6038362722,4610833.5216966402,-12500.0,679.04238129999897,-105.72908281215352,669.56062691842033,-118.87140094632882,143.34260051916425,28.869587810837267,419.13049265464429,421.13524608833768,-133.56656534173069,133.56656534173069,-421.13524608833768,744.45835104639673,0.0
437154.6038362722,4610833.5216966402,-12500.0,659.64454336125152,-87.885892874278369,551.09118067965278,-110.99717368005642,111.90869609713918,22.750304145440786,376.85342203519627,388.4685923857603,-117.76919816368954,117.76919816368954,-388.4685923857603,667.82083685420366,0.0
442154.6038362722,4610833.5216966402,-12500.0,627.81115063468474,-61.172224849443516,447.42568177458929,-100.67592723851959,84.82079327966548,17.583937909253567,340.13959072394488,361.62220875644437,-105.46594438372423,105.46594438372423,-361.62220875644437,598.37847372773535,0.0
447154.6038362722,4610833.5216966402,-12500.0,586.780215388653,-30.736819126534868,359.60527661916956,-89.190505082821957,62.162420693871617,13.319661970058975,307.95620798399227,338.61087299450173,-95.675618310238178,95.675618310238178,-338.61087299450173,537.10444738700483,1.0
452154.6038362722,4610833.5216966402,-12500.0,539.77257563343198,-0.18155854276008554,287.01828793564044,-77.478181338298839,43.671446876158242,9.8664133129809262,279.29580964104832,318.0122014628123,-87.637076517016709,87.637076517016709,-318.0122014628123,484.23084026999572,0.0
302154.6038362722,4615833.5216966402,-12500.0,-1195.1421123333516,-1708.9090644825726,-1426.7645155756406,-354.2505856894943,-383.63412172259149,-65.187448586865059,1757.5681499591924,-2151.6443472937835,947.64715513119415,-947.64715513119415,2151.6443472937835,3342.3473363825779,0.0
307154.6038362722,4615833.5216966402,-12500.0,-1110.9701830152553,-1840.534139671058,-1713.6292516318583,-368.84509847742146,-441.4426305785899,-71.83973618459305,1915.1141816346806,-2305.5398494730071,1010.8507867554479,-1010.8507867554479,2305.5398494730071,3636.5758746308857,0.0
312154.6038362722,4615833.5216966402,-12500.0,-982.46165240626249,-1951.2162419812946,-2038.5998379531679,-376.53655192982717,-503.28277612686537,-78.01732082634085,2076.8664295584367,-2439.5955086646973,1064.0720064262148,-1064.0720064262148,2439.5955086646973,3936.447645168254,0.0
317154.6038362722,4615833.5216966402,-12500.0,-804.44441194090302,-2027.1873855304682,-2397.2390992351261,-374.72922484252689,-567.09043793044123,-83.148688136570186,2238.6102530203079,-2540.5824558290224,1101.4381986863298,-1101.4381986863298,2540.5824558290224,4233.2783031931558,0.0
322154.6038362722,4615833.5216966402,-12500.0,-574.64140818436977,-2052.1281565980507,-2779.5217366636371,-360.69618914642143,-629.65621039186294,-86.505206682747868,2394.6397331515,-2592.7804556192095,1116.1161038147848,-1116.1161038147848,2592.7804556192095,4515.4680918148142,0.0
327154.6038362722,4615833.5216966402,-12500.0,-295.45506133873181,-2008.315598074757,-3168.0811616946821,-331.92286439533302,-686.45934071997988,-87.225642978003918,2537.6769814310587,-2578.920001996823,1100.7898488436745,-1100.7898488436745,2578.920001996823,4768.4062046645622,0.0
332154.6038362722,4615833.5216966402,-12500.0,24.196251985561069,-1878.8305399716214,-3536.8420490045069,-286.61578362028479,-731.6624718640187,-84.384041030768827,2658.9850382481236,-2482.0216846698322,1048.5253821356162,-1048.5253821356162,2482.0216846698322,4974.7937860015218,0.0
337154.6038362722,4615833.5216966402,-12500.0,367.50149258603312,-1650.9680105793793,-3850.7406446668565,-224.34910066140301,-758.38468548896822,-77.110767401889404,2748.7746483366709,-2288.2637216532585,954.05363668595328,-954.05363668595328,2288.2637216532585,5115.5928577958284,0.0
342154.6038362722,4615833.5216966402,-12500.0,709.58690425836687,-1320.6484587908453,-4067.4342511611358,-146.74982673582423,-759.36447297098391,-64.766157228132755,2796.9920994078111,-1990.7355887208028,815.37633594755687,-815.37633594755687,1990.7355887208028,5171.7791547171173,0.0
347154.6038362722,4615833.5216966402,-12500.0,1019.3854350676542,-897.05332280414723,-4141.8496240413078,-58.035682249596697,-728.06376040556938,-47.143882687646382,2794.5184595779174,-1593.477248079369,635.40256006482616,-635.40256006482616,1593.477248079369,5126.9554850215882,0.0
352154.6038362722,4615833.5216966402,-12500.0,1264.0987285680596,-406.03026058707076,-4033.9075425719625,34.847483911430345,-660.13403945754283,-24.656873806092953,2734.7072474291026,-1114.6622551394967,423.11222590248207,-423.11222590248207,1114.6622551394967,4970.6621085564011,0.0
357154.6038362722,4615833.5216966402,-12500.0,1416.0103904686068,109.65877813186918,-3718.6240943497837,122.7370630880754,-554.97509985229806,1.5606740656692057,2615.0292294565365,-587.38613962526495,193.61898744850521,-193.61898744850521,587.38613962526495,4701.8844508593847,0.0
362154.6038362722,4615833.5216966402,-12500.0,1460.1746373281972,594.93331655940915,-3196.2312968056667,195.5323149393289,-416.93405335265089,29.697084810795943,2438.4388853042183,-56.667265305331497,-33.374511804671428,33.374511804671428,56.667265305331497,4331.9205572188012,0.0
367154.6038362722,4615833.5216966402,-12500.0,1400.3272699230313,992.17917829114958,-2498.62701791676,244.09912722289286,-255.61709592186915,57.479211863797396,2213.9860548462275,427.74750632600973,-236.7820800025109,236.7820800025109,-427.74750632600973,3885.5391219532712,0.0
372154.6038362722,4615833.5216966402,-12500.0,1260.1077166599721,1254.2796462038696,-1688.4621294418221,262.34881251370064,-84.936418917197543,82.526854764752883,1956.3115069233745,821.44251396439302,-398.34488029777515,398.34488029777515,-821.44251396439302,3399.4642194930125,0.0
377154.6038362722,4615833.5216966402,-12500.0,1077.9918902049831,1356.7304616881411,-849.17298128960135,248.82931664282668,79.106194095851933,102.75612421396113,1684.010775811229,1095.2020251333247,-506.5621027340357,506.5621027340357,-1095.2020251333247,2917.581742618564,0.0
382154.6038362722,4615833.5216966402,-12500.0,897.03109903336247,1304.0507659474481,-67.964141470426171,207.21956914390375,221.39669119546394,116.72182591655395,1417.6413591258197,1241.0407037747882,-558.92444369976283,558.92444369976283,-1241.0407037747882,2482.8649129298569,0.0
387154.6038362722,4615833.5216966402,-12500.0,753.14470629292589,1127.6039092542194,582.78731968231148,145.47129421238932,330.57572350041215,123.8125690651399,1180.4854661326056,1272.0329484586441,-561.62097549305133,561.62097549305133,-1272.0329484586441,2126.8915222999585,0.0
392154.6038362722,4615833.5216966402,-12500.0,666.57811738769624,875.66083535508767,1059.1888856209773,73.861544298166677,400.90379199520652,124.26524513371581,1011.5532375374746,1216.2507041336414,-526.94594017940676,526.94594017940676,-1216.2507041336414,1860.1204720002854,0.0
397154.6038362722,4615833.5216966402,-12500.0,639.48682201169743,599.90772314780077,1350.3138332970498,2.6378619424660359,432.61340509355068,119.01818164073954,929.78879221613329,1107.6255062279185,-469.55624738589199,469.55624738589199,-1107.6255062279185,1669.5141785288997,0.0
402154.6038362722,4615833.5216966402,-12500.0,659.52461977993732,343.59067057453672,1473.4707515516034,-59.966353940419083,430.82716553015365,109.45930454023772,872.77673872119726,977.39857286879692,-403.00269819978166,403.00269819978166,-977.39857286879692,1527.9369650693925,0.0
407154.6038362722,4615833.5216966402,-12500.0,706.79495747349824,134.80856716680881,1463.7830793078249,-108.82414952174761,403.6122977245264,97.141520016743399,812.87960418747832,848.76087225827325,-337.52820026174857,337.52820026174857,-848.76087225827325,1408.8880500298249,0.0
412154.6038362722,4615833.5216966402,-12500.0,760.87010072507894,-14.427527021196116,1362.7358999452813,-142.01886472285278,359.9053694606589,83.531942492555714,747.00515348199394,735.31098980217598,-279.3757901326623,279.3757901326623,-735.31098980217598,1295.5401391446517,1.0
417154.6038362722,4615833.5216966402,-12500.0,805.62145884186123,-105.01966801117365,1209.1997241315917,-160.22038548950309,307.88136188600038,69.840391689291906,677.39772659124571,642.3730558113914,-231.24939508440394,231.24939508440394,-642.3730558113914,1181.3832352314735,0.0
422154.6038362722,4615833.5216966402,-12500.0,831.22288928296359,-145.91628858569072,1034.3282295817569,-165.73876607491911,254.01561345198971,56.94075160271769,607.75258487620943,569.63145181113157,-193.33839969017174,193.33839969017174,-569.63145181113157,1066.7145570608632,0.0
427154.6038362722,4615833.5216966402,-12500.0,833.89820028018823,-149.50718327757576,859.97768785406265,-161.60483060385749,202.79537354085605,45.371510222383229,541.83295187364035,513.79986214458597,-164.40192907916835,164.40192907916835,-513.79986214458597,954.8833963305043,0.0
432154.6038362722,4615833.5216966402,-12500.0,814.441270884966,-128.28296200391225,699.46515027372902,-150.87668112032273,156.88133540334877,35.387537794290438,482.38316117652613,470.64208986380936,-142.62828514327339,142.62828514327339,-470.64208986380936,849.74571802852608,0.0
437154.6038362722,4615833.5216966402,-12500.0,776.41718794291546,-92.93828990930507,559.42721736435749,-136.22376514292338,117.49325012152343,27.033640942670541,430.3493307240031,436.18648122574041,-126.18622185638711,126.18622185638711,-436.18648122574041,754.35332919396001,0.0
442154.6038362722,4615833.5216966402,-12500.0,724.60002914682093,-51.637484923790545,441.88558096946093,-119.74784767534425,84.846111601566733,20.217954514343745,385.1099316929002,407.27374693995785,-113.5064665707587,113.5064665707587,-407.27374693995785,670.4901903191053,0.0
447154.6038362722,4615833.5216966402,-12500.0,663.86755522404076,-10.024766865518584,346.03537746914947,-102.9656566506592,58.536301696288071,14.773139058094934,345.48670611596384,381.67100402563125,-103.37640616942957,103.37640616942957,-381.67100402563125,598.68566502391673,0.0
452154.6038362722,4615833.5216966402,-12500.0,598.55263164605697,28.389516676730757,269.58331618029564,-86.880214708096346,37.83710513889929,10.501071264173806,310.45907987796033,357.95992804820895,-94.928240957741423,94.928240957741423,-357.95992804820895,538.45322691822003,0.0
297154.6038362722,4620833.5216966402,-12500.0,-1516.8265404438516,-1709.2911119447651,-1131.8158616651467,-392.51199808197111,-352.35530359901759,-66.308061977358321,1765.4296155298289,-2179.7497939197219,981.95370984465285,-981.95370984465285,2179.7497939197219,3360.5743671475298,0.0
302154.6038362722,4620833.5216966402,-12500.0,-1495.1859379340804,-1894.5534692438305,-1400.7834582942937,-420.84958128172917,-413.84684379878411,-74.421920377622968,1946.8052534452975,-2390.5220134104425,1072.5777244446672,-1072.5777244446672,2390.5220134104425,3702.2301197437964,0.0
307154.6038362722,4620833.5216966402,-12500.0,-1430.6337711238625,-2076.7659435206674,-1720.1265984892709,-444.82624342380012,-482.86319582401455,-82.511174247235004,2140.2010197164195,-2598.8460241101006,1160.6199286721808,-1160.6199286721808,2598.8460241101006,4064.9064646276943,0.0
312154.6038362722,4620833.5216966402,-12500.0,-1312.9465574717574,-2243.8976381928042,-2092.5473920871755,-461.54787000143477,-558.45462236950459,-90.012762094231846,2342.8079827163633,-2793.1221048966345,1240.6231888537493,-1240.6231888537493,2793.1221048966345,4442.5970527916652,0.0
317154.6038362722,4620833.5216966402,-12500.0,-1132.627006789312,-2379.499877185322,-2516.7543090356239,-467.50787823188421,-638.52850565306028,-96.127107608503366,2550.1361809586597,-2957.6125893526214,1305.3532072034004,-1305.3532072034004,2957.6125893526214,4825.9397055758263,0.0
322154.6038362722,4620833.5216966402,-12500.0,-882.76850840918075,-2462.5860598667505,-2985.0272300445276,-458.77113617441012,-719.45371204444461,-99.797555557987124,2755.6431181126845,-3072.2881738692122,1345.8164211986632,-1345.8164211986632,3072.2881738692122,5201.5177462307247,0.0
327154.6038362722,4620833.5216966402,-12500.0,-561.62262905280352,-2468.4509418769831,-3480.3322362865388,-431.37842587081184,-795.70516458418194,-99.732837808598461,2950.4549921194725,-3113.463734146454,1351.6565302046783,-1351.6565302046783,3113.463734146454,5551.3766261099609,0.0
332154.6038362722,4620833.5216966402,-12500.0,-175.65454689095216,-2370.9862169033845,-3973.4629216276353,-382.02852109990266,-859.68372555177098,-94.500886926949278,3123.3077047238548,-3055.6894992065718,1312.1204379262817,-1312.1204379262817,3055.6894992065718,5853.0225555837424,0.0
337154.6038362722,4620833.5216966402,-12500.0,257.5275473095096,-2146.989700178875,-4421.1578834545062,-309.03990450717816,-901.90486497602399,-82.719462903739839,3260.8748055802616,-2875.3216227418202,1217.7431262877508,-1217.7431262877508,2875.3216227418202,6080.2520606151611,0.0
342154.6038362722,4620833.5216966402,-12500.0,707.48898944673351,-1782.5805910791337,-4766.6585662945727,-213.4835904823087,-911.77466104518601,-63.350522130380341,3348.6610685310529,-2555.8961899740743,1062.7428030153042,-1062.7428030153042,2555.8961899740743,6205.1834223761798,0.0
347154.6038362722,4620833.5216966402,-12500.0,1132.0614443687145,-1280.9819124439734,-4944.4653125098594,-100.21981404587694,-879.11432237975498,-36.064777878777903,3372.5986545099022,-2094.7645465382243,847.81083990154275,-847.81083990154275,2094.7645465382243,6201.7697508140927,0.0
352154.6038362722,4620833.5216966402,-12500.0,1482.6622916091062,-669.63394508697434,-4890.6258196762046,21.587071071708987,-796.40098559008186,-1.587471484424944,3321.3317202535891,-1509.4186838493576,582.55412507830147,-582.55412507830147,1509.4186838493576,6050.7551425494821,0.0
357154.6038362722,4620833.5216966402,-12500.0,1714.2582084805672,-3.3166618294324239,-4558.2913313166418,138.95715244178533,-661.36363431945745,38.110017194006097,3188.9256466340084,-840.89720520172295,286.47788593488548,-286.47788593488548,840.89720520172295,5745.5020463192732,0.0
362154.6038362722,4620833.5216966402,-12500.0,1798.2336060519085,640.37006283760468,-3935.4005040329489,236.90375185108806,-479.19483897779872,79.906388593300619,2977.4064056335128,-151.32275175653453,-12.615977829839579,12.615977829839579,151.32275175653453,5297.3978219922237,0.0
367154.6038362722,4620833.5216966402,-12500.0,1733.810496571534,1175.0529802148653,-3058.2192603109993,301.4412629571072,-263.41722882060452,119.96711808529889,2698.2848276971563,486.12713809615138,-283.28984676019923,283.28984676019923,-486.12713809615138,4738.9312172441678,0.0
372154.6038362722,4620833.5216966402,-12500.0,1552.3012343404187,1526.8958755008446,-2013.2476830310866,323.07267823425536,-34.616383219148105,154.43475665915011,2372.2801607362244,1003.4154392591554,-497.35698363025062,497.35698363025062,-1003.4154392591554,4122.3736193554951,0.0
377154.6038362722,4620833.5216966402,-12500.0,1310.2249268221944,1656.0311851720742,-922.90161434002459,299.57500782949074,183.09203034985867,180.16449090582901,2027.0674075345491,1354.848346517186,-636.76406200438782,636.76406200438782,-1354.848346517186,3512.4698254323444,0.0
382154.6038362722,4620833.5216966402,-12500.0,1072.4074741910383,1568.7454532100539,82.560023675136378,236.91823723171598,367.03798130937997,195.27376113320906,1694.4966448701721,1528.2165057781972,-697.71484334038223,697.71484334038223,-1528.2165057781972,2972.6017627181768,0.0
387154.6038362722,4620833.5216966402,-12500.0,891.89175223026268,1314.1980996751111,896.85514451245047,147.78681345170668,500.82996617281282,199.36689329291693,1413.226025185689,1544.8474917075464,-690.27753099381925,690.27753099381925,-1544.8474917075464,2546.0591735776379,1.0
392154.6038362722,4620833.5216966402,-12500.0,795.64557315724142,966.96899619046008,1460.5349802991268,48.177123854382749,577.37048236653948,193.42754467753454,1235.9097638866497,1448.9141107574364,-633.83052308487231,633.83052308487231,-1448.9141107574364,2239.9270326899959,1.0
397154.6038362722,4620833.5216966402,-12500.0,781.6902914917797,603.75334297339134,1766.7988032184842,-46.626879519707089,599.11959158297702,179.4644055564363,1144.8814033118624,1291.569329365899,-550.59748868759175,550.59748868759175,-1291.569329365899,2025.6559416583091,1.0
402154.6038362722,4620833.5216966402,-12500.0,826.8122666159943,284.24303027600951,1850.9967943987783,-125.23807360243254,575.85126782461612,160.02947261610498,1069.3140164615133,1117.0126268285151,-459.99412207491036,459.99412207491036,-1117.0126268285151,1860.2988835981348,0.0
407154.6038362722,4620833.5216966402,-12500.0,899.16861805463975,42.190080315263863,1771.4674440205224,-181.61578524852729,521.08937873091202,137.73064093196805,987.21646577180798,954.99287213606158,-375.49496449223398,375.49496449223398,-954.99287213606158,1709.9092955884862,0.0
412154.6038362722,4620833.5216966402,-12500.0,969.54419724884508,-113.42341395225056,1590.6592836087279,-214.76499551077703,448.6322018811066,114.84220269089397,897.42260235066476,820.08508236965076,-304.17450694746782,304.17450694746782,-820.08508236965076,1558.1870661923317,0.0
417154.6038362722,4620833.5216966402,-12500.0,1017.7847098370636,-191.17620054418214,1362.2139740310149,-227.32192087804103,370.13096753256974,93.077012005985182,804.1822392513775,715.26013068473662,-248.01171809352567,248.01171809352567,-715.26013068473662,1402.8092606972782,0.0
422154.6038362722,4620833.5216966402,-12500.0,1034.2214244507766,-208.61435566486898,1125.2516143611792,-223.82715948483374,293.99194045034534,73.526238600178644,713.05663918255868,636.73758323580171,-205.80950997562661,205.80950997562661,-636.73758323580171,1248.5285035162237,0.0
427154.6038362722,4620833.5216966402,-12500.0,1017.8222437338662,-185.31743603895282,904.1726201603044,-209.27013004263893,225.34859902468878,56.725997933768269,628.87134240621276,578.10088830720883,-174.91532503929611,174.91532503929611,-578.10088830720883,1101.8845654640156,0.0
432154.6038362722,4620833.5216966402,-12500.0,973.09347690690549,-138.66884686912158,711.41958305182163,-188.14916268315451,166.64776686582778,42.790348102404543,554.3419135305295,532.92663763211795,-152.39927673191596,152.39927673191596,-532.92663763211795,968.35065970140124,0.0
437154.6038362722,4620833.5216966402,-12500.0,907.14016073825621,-82.040027733379574,551.1031685177652,-164.02912990539485,118.43944813818986,31.557106763336638,489.77269431369848,496.03492946306324,-135.68523970463966,135.68523970463966,-496.03492946306324,851.26972265603285,0.0
442154.6038362722,4620833.5216966402,-12500.0,827.52259666365512,-24.584070627958695,422.28114076542863,-139.45605984128278,80.112679614004222,22.713548353345953,434.00208796660797,463.80703486016444,-122.78342181825784,122.78342181825784,-463.80703486016444,751.80282197755798,0.0
447154.6038362722,4620833.5216966402,-12500.0,740.99517635364293,28.144699427966028,321.42021580498607,-116.07202186855237,50.464215136740677,15.888704765938673,385.56611843398309,434.01433021801108,-112.29190742221587,112.29190742221587,-434.01433021801108,669.34329725151099,0.0
452154.6038362722,4620833.5216966402,-12500.0,652.94751350135937,73.29635966449689,244.01593814328987,-94.809749822512856,28.083073490164939,10.712565946618081,343.24226293200769,405.47030192687316,-103.29488061036179,103.29488061036179,-405.47030192687316,602.08830281470546,0.0
457154.6038362722,4620833.5216966402,-12500.0,567.30361343109507,109.86316218048958,185.53796810483283,-76.093710632192511,11.580750239470182,6.8487538101673291,306.10637120794433,377.67805263368183,-95.23504972930715,95.23504972930715,-377.67805263368183,547.6085183771454,0.0
292154.6038362722,4625833.5216966402,-12500.0,-1785.3583736388582,-1619.3079612786564,-819.19450470647928,-415.77356404156467,-309.04793969159641,-65.413024255035722,1734.327806130314,-2116.2339601018693,975.81442636305053,-975.81442636305053,2116.2339601018693,3301.748816993224,0.0
297154.6038362722,4625833.5216966402,-12500.0,-1835.0453003645521,-1839.0219031653714,-1048.5379845605476,-456.70090384835214,-369.66530322597157,-74.616951959652994,1932.112630120562,-2366.3573202717898,1087.2656747714091,-1087.2656747714091,2366.3573202717898,3676.2482355837619,0.0
302154.6038362722,4625833.5216966402,-12500.0,-1851.2631260979026,-2073.9125872270306,-1332.256683792891,-496.72692976591355,-440.36924089821264,-84.28854263642026,2149.3773474452646,-2632.0607434801386,1204.307847552356,-1204.307847552356,2632.0607434801386,4086.5418222716403,0.0
307154.6038362722,4625833.5216966402,-12500.0,-1821.1397706508994,-2316.5478836269281,-1679.0879285289543,-533.25833264116864,-521.5021624807373,-93.947397654305703,2385.337598501962,-2905.9997015434888,1323.1439581244754,-1323.1439581244754,2905.9997015434888,4530.5839046114006,0.0
312154.6038362722,4625833.5216966402,-12500.0,-1730.013537086146,-2554.6738612572894,-2096.449920098119,-562.73973004385107,-612.54895365999175,-102.82243016659223,2637.7161432039688,-3176.3177646037498,1437.8929451762465,-1437.8929451762465,3176.3177646037498,5003.3029920538329,0.0
317154.6038362722,4625833.5216966402,-12500.0,-1562.5497373479052,-2769.8869555334081,-2588.3014637682718,-580.59133162339958,-711.62766247488707,-109.77345658771256,2902.1680918733628,-3425.4435343542964,1540.1135676171989,-1540.1135676171989,3425.4435343542964,5495.4740665984082,0.0
322154.6038362722,4625833.5216966402,-12500.0,-1304.8575654455742,-2936.6284050202253,-3151.9503635011633,-581.32661144234567,-814.86869212600322,-113.23562938226124,3171.6462882674614,-3629.1542922024123,1618.5025762112632,-1618.5025762112632,3629.1542922024123,5992.4923821806533,0.0
327154.6038362722,4625833.5216966402,-12500.0,-947.85902477425236,-3022.1272318489027,-3773.7584128945136,-558.97503485094251,-915.76403018655867,-111.22588919549099,3435.7983582030506,-3756.4261803301006,1659.0125397845231,-1659.0125397845231,3756.4261803301006,6473.2443939185914,0.0
332154.6038362722,4625833.5216966402,-12500.0,-491.91416142472161,-2988.2169450071278,-4424.0917858168868,-507.94060922917106,-1004.6651187353183,-101.46774299685931,3680.5612039551906,-3770.8375588928575,1645.7256725112904,-1645.7256725112904,3770.8375588928575,6909.4256249492582,0.0
337154.6038362722,4625833.5216966402,-12500.0,47.850518775167103,-2796.1288961979621,-5052.5958750408827,-424.37231987287595,-1068.7286488375003,-81.693750488345771,3888.2083511906062,-3634.4446462109381,1562.8487680329952,-1562.8487680329952,3634.4446462109381,7265.8399595302217,0.0
342154.6038362722,4625833.5216966402,-12500.0,636.96393058102115,-2415.121613986124,-5585.9096858650819,-307.96558729829002,-1092.7040248394767,-50.15853491011196,4038.1745271550708,-3314.8735749995467,1398.0542020515522,-1398.0542020515522,3314.8735749995467,7502.3588933535693,0.0
347154.6038362722,4625833.5216966402,-12500.0,1220.295778407889,-1834.7517683205988,-5930.985694025363,-163.8423545273545,-1060.9390982086152,-6.3187398672767303,4108.9948071853123,-2795.5695738229833,1146.9733766650725,-1146.9733766650725,2795.5695738229833,7578.244823958431,0.0
352154.6038362722,4625833.5216966402,-12500.0,1727.1233666831718,-1078.425218208833,-5987.4198008026815,-3.826080756557805,-960.72661614976914,48.489502876001374,4081.5455372417887,-2087.4568928056042,817.89574714518108,-817.89574714518108,2087.4568928056042,7459.2310723292849,0.0
357154.6038362722,4625833.5216966402,-12500.0,2084.7880946702976,-212.95146338369736,-5670.4009173075101,153.78433177340176,-786.56512365958361,110.66744791887139,3943.3972761793084,-1237.9496230423781,434.83533622214281,-434.83533622214281,1237.9496230423781,7126.9543363254315,0.0
362154.6038362722,4625833.5216966402,-12500.0,2239.7590536665825,653.24406672104988,-4941.0941949872304,286.67554036198788,-544.17125114894236,174.57353471253589,3693.4786361411502,-331.50044653693044,36.650176713301164,-36.650176713301164,331.50044653693044,6589.0021660127659,0.0
367154.6038362722,4625833.5216966402,-12500.0,2179.4759703555619,1389.0919690147405,-3834.3617454277978,373.2367374282025,-252.52200376361876,233.46617289323871,3345.5910975528923,523.23767140792984,-329.38093741800793,329.38093741800793,-523.23767140792984,5886.2687380998141,0.0
372154.6038362722,4625833.5216966402,-12500.0,1943.9278475674594,1875.7853380713141,-2468.8496403352383,398.42997162067297,57.675191206639461,280.93720378199231,2929.1099689228663,1219.39193104776,-618.81252832946302,618.81252832946302,-1219.39193104776,5093.2961701670747,0.0
377154.6038362722,4625833.5216966402,-12500.0,1617.3409862064393,2045.7197288343696,-1027.5728806107609,358.72095502018942,349.59056347437507,312.30387637624398,2486.1225518286365,1682.6430106928312,-802.34744181710516,802.34744181710516,-1682.6430106928312,4307.5017070413614,0.0
382154.6038362722,4625833.5216966402,-12500.0,1299.8807758943105,1906.7055178668325,289.37354303003627,263.84531027519364,588.66959077216461,325.44387029299997,2067.3412417887002,1892.7876363057874,-873.75881223814963,873.75881223814963,-1892.7876363057874,3625.0507734020198,0.0
387154.6038362722,4625833.5216966402,-12500.0,1071.9497441014394,1537.3998935373554,1321.3581394448574,134.27931072751198,750.93855596044841,320.88498337715913,1734.6142837530356,1884.8520720293864,-849.53294352391379,849.53294352391379,-1884.8520720293864,3106.483368946162,0.0
392154.6038362722,4625833.5216966402,-12500.0,969.36963434364691,1055.6649234934657,1987.0493976635021,-4.771935715316399,828.01697936188827,301.31483173454455,1540.7697250668966,1729.69866271265,-760.69593030012879,760.69593030012879,-1729.69866271265,2749.9136593524763,0.0
397154.6038362722,4625833.5216966402,-12500.0,980.65761596384834,577.01139153714882,2291.3103596455439,-130.36751024188834,827.03758492287272,270.79412454576737,1427.9420384034577,1505.5884024230693,-641.35899620892701,641.35899620892701,-1505.5884024230693,2500.7775441512763,0.0
402154.6038362722,4625833.5216966402,-12500.0,1063.4386514990708,183.33523574218478,2302.3313578329617,-226.98898786634174,766.08230782057512,233.8909503616872,1323.243585498459,1275.0719236330499,-519.36971575384769,519.36971575384769,-1275.0719236330499,2294.9463735921067,0.0
407154.6038362722,4625833.5216966402,-12500.0,1167.4395509013955,-87.862570393696515,2116.0456481199476,-288.30017352290463,667.62354945047502,194.89078561911455,1207.6681397936482,1075.0465653023325,-412.02148605515197,412.02148605515197,-1075.0465653023325,2092.3537923717809,0.0
412154.6038362722,4625833.5216966402,-12500.0,1252.1849287826058,-236.60645228483239,1825.2298124316237,-315.79500056666171,552.71970474996306,157.22202252989658,1082.7989054925044,918.81384316602271,-326.49753912064352,326.49753912064352,-918.81384316602271,1881.0666120456951,0.0
417154.6038362722,4625833.5216966402,-12500.0,1294.5696781630895,-285.46391994318759,1501.9222176225214,-315.82100990029346,437.56144861346826,123.1874577735728,956.20161611929393,804.13919604395903,-262.88164738956755,262.88164738956755,-804.13919604395903,1666.1627182030609,0.0
422154.6038362722,4625833.5216966402,-12500.0,1287.9812121074492,-265.0726245905235,1192.7275042160422,-296.54001712486644,332.48612046238236,93.990099089141808,836.02725130573492,721.66939616581135,-217.56620474745932,217.56620474745932,-721.66939616581135,1458.4908162963955,0.0
427154.6038362722,4625833.5216966402,-12500.0,1237.2223353193515,-204.40324148776915,922.14711252216671,-265.74064238997579,242.67009360756637,69.952861140361961,728.05714759632019,660.84181342677687,-185.83882343304015,185.83882343304015,-660.84181342677687,1268.0202589744536,0.0
432154.6038362722,4625833.5216966402,-12500.0,1152.8626367605473,-126.14218962742467,698.95407541280031,-229.70262507705212,169.54331179586643,50.808657092813576,634.47081908275345,612.88786602746711,-163.3605765081775,163.3605765081775,-612.88786602746711,1101.1741312643205,0.0
437154.6038362722,4625833.5216966402,-12500.0,1046.9009527328599,-45.724997829426727,522.42151870632415,-192.8846123887254,112.23564089287999,35.967734402821144,554.53442581604111,571.72660549278817,-146.75959019267594,146.75959019267594,-571.72660549278817,960.4828114443377,0.0
442154.6038362722,4625833.5216966402,-12500.0,930.18319844145117,27.704186375396038,387.06201922983263,-158.09305911906907,68.722386807093201,24.71830353519433,486.28153562072936,533.73202813320074,-133.69539432202137,133.69539432202137,-533.73202813320074,845.29358270250873,0.0
447154.6038362722,4625833.5216966402,-12500.0,811.26781965765417,89.671684200872193,285.69500824646622,-126.84802627590015,36.592799703197919,16.354099863073198,427.72174134408766,497.09186680563431,-122.68416484236144,122.68416484236144,-497.09186680563431,752.8219979473547,0.0
452154.6038362722,4625833.5216966402,-12500.0,696.22474396710788,138.79186351933777,211.16980921020934,-99.77102715019177,13.496128581705321,10.242359437797807,377.23253219785141,461.15009561641034,-112.86234285459645,112.86234285459645,-461.15009561641034,679.19786146431352,0.0
457154.6038362722,4625833.5216966402,-12500.0,588.91949561396063,175.50710871666814,157.17974403859625,-76.913064863716542,-2.6411031463134647,5.8507945831112753,333.5527825368768,425.88971375043042,-103.77360402779408,103.77360402779408,-425.88971375043042,620.33088559708403,0.0
462154.6038362722,4625833.5216966402,-12500.0,491.47903480636847,201.19938934191941,118.53501226655516,-57.999196428262977,-13.54014665965126,2.7502570841383953,295.74321458009831,391.58273907137618,-95.207099700681141,95.207099700681141,-391.58273907137618,572.50318402232301,0.0
287154.6038362722,4630833.5216966402,-12500.0,-1975.6532688939094,-1453.3580879175365,-520.25217285710835,-422.53914303620581,-258.28862768390957,-62.640201892692744,1667.7195434005141,-1972.0669076757354,931.73929481712685,-931.73929481712685,1972.0669076757354,3172.7143352857993,0.0
292154.6038362722,4630833.5216966402,-12500.0,-2094.5501232728066,-1684.3112647957857,-696.63570938486794,-473.27515589055537,-313.9046925455271,-72.450278816669311,1873.2629168326564,-2239.6268547619561,1054.8725299076386,-1054.8725299076386,2239.6268547619561,3562.9510056032673,0.0
297154.6038362722,4630833.5216966402,-12500.0,-2195.2874756429674,-1944.963386375121,-923.28966769089629,-526.82295018289335,-380.82161323850005,-83.186680298070272,2104.3772229674232,-2537.737266249143,1190.8784092419028,-1190.8784092419028,2537.737266249143,4001.0887143557793,0.0
302154.6038362722,4630833.5216966402,-12500.0,-2265.5703216994034,-2233.7781395982665,-1212.3088061405606,-581.41451762387533,-460.5173269962653,-94.5108861744731,2362.5255751301756,-2864.6061261995528,1338.3729361376581,-1338.3729361376581,2864.6061261995528,4489.5230282797147,0.0
307154.6038362722,4630833.5216966402,-12500.0,-2289.4930115758484,-2545.5286071382116,-1577.1296268622939,-634.22582011177406,-554.07587364971312,-105.78049172921604,2648.2063954600148,-3214.9226039176237,1494.2014204530553,-1494.2014204530553,3214.9226039176237,5028.6519249779667,0.0
312154.6038362722,4630833.5216966402,-12500.0,-2247.4762396536225,-2869.4202831077082,-2031.4448318743728,-681.08686179664619,-661.72539069873392,-115.91779590890131,2960.3461723713176,-3578.1636150945801,1652.6736146435828,-1652.6736146435828,3578.1636150945801,5615.6678229959907,0.0
317154.6038362722,4630833.5216966402,-12500.0,-2116.9565362067478,-3186.818064241229,-2587.0410935316199,-716.25112486133548,-782.15918210623181,-123.26276392160902,3295.5009814216842,-3936.5546141279428,1804.6926293370288,-1804.6926293370288,3936.5546141279428,6242.9795055603945,0.0
322154.6038362722,4630833.5216966402,-12500.0,-1874.3630815331078,-3468.8806479243308,-3250.0692434409025,-732.35401961967,-911.62577482290101,-125.44427770632905,3646.8783759443859,-4262.9366343761758,1936.9284494512688,-1936.9284494512688,4262.9366343761758,6896.295638975048,0.0
327154.6038362722,4630833.5216966402,-12500.0,-1499.0035497492418,-3674.8157436390115,-4015.2960107641716,-720.75921787546542,-1042.851352490743,-119.33611496119789,4003.2553990379988,-4519.1241586916594,2031.3429617643276,-2031.3429617643276,4519.1241586916594,7552.533838028412,0.0
332154.6038362722,4630833.5216966402,-12500.0,-979.35006628756287,-3752.0581398508871,-4858.2359163896035,-672.54297812801326,-1164.0033033701059,-101.20519737359677,4347.9716413563729,-4655.8165309915221,2065.5741129105591,-2065.5741129105591,4655.8165309915221,8177.9332140103197,0.0
337154.6038362722,4630833.5216966402,-12500.0,-321.62194253248401,-3640.3265966745535,-5725.981111742778,-580.34124819472652,-1258.1204317601391,-67.188153771071399,4658.3343005143643,-4615.6656323185298,2014.8722222779973,-2014.8722222779973,4615.6656323185298,8727.0732957168802,0.0
342154.6038362722,4630833.5216966402,-12500.0,440.76815141234687,-3281.8207130682713,-6529.2600590194543,-441.0916294453861,-1303.6691679267642,-14.204421678589767,4905.9515574475981,-4341.3874510469432,1856.288890579081,-1856.288890579081,4341.3874510469432,9143.8782023900822,0.0
347154.6038362722,4630833.5216966402,-12500.0,1240.4470140067979,-2638.9975743869763,-7140.6717685129051,-259.26809138296761,-1276.9872972725166,58.725219569176588,5058.6614834239508,-3790.2390245938486,1575.388938161753,-1575.388938161753,3790.2390245938486,9366.0099195844596,0.0
352154.6038362722,4630833.5216966402,-12500.0,1977.7658078290219,-1718.3719164820093,-7406.165141684095,-49.570842298412138,-1157.105747231052,149.07287899869516,5084.7069449189939,-2953.9347989725816,1174.6208465492159,-1174.6208465492159,2953.9347989725816,9334.0456816582882,0.0
357154.6038362722,4630833.5216966402,-12500.0,2537.1432351235585,-593.1497234606602,-7176.2048937011823,162.52172971636585,-932.580067686147,249.965093335181,4959.3962403544656,-1878.7056717740738,680.6612961260621,-680.6612961260621,1878.7056717740738,9005.9977053816456,0.0
362154.6038362722,4630833.5216966402,-12500.0,2820.0218504953118,588.89735048538603,-6356.3296014111538,343.88716162551736,-608.59970264064168,350.68171433378205,4673.4804999683702,-675.00256746990635,146.33986045458317,-146.33986045458317,675.00256746990635,8375.5531122087104,0.0
367154.6038362722,4630833.5216966402,-12500.0,2786.0088155994827,1627.4148617097285,-4962.8094555654825,461.02282147174691,-211.38779031603292,438.82073573090838,4240.9515138609586,495.45726537554651,-357.12333680277686,357.12333680277686,-495.45726537554651,7488.8357251611133,0.0
372154.6038362722,4630833.5216966402,-12500.0,2481.644717061647,2325.8562540010735,-3154.2876268599712,489.84374255755705,213.23118126561772,503.48677352603329,3702.7817091555166,1460.3503409917078,-758.17817337697738,758.17817337697738,-1460.3503409917078,6450.8249959726036,0.0
377154.6038362722,4630833.5216966402,-12500.0,2033.8319967880186,2564.0781992075504,-1209.5140989224171,424.42190267430772,608.52428609030653,538.0427342352998,3124.016278963923,2093.1346647950095,-1007.3892611844929,1007.3892611844929,-2093.1346647950095,5411.1103721390391,0.0
382154.6038362722,4630833.5216966402,-12500.0,1601.9561706327916,2348.8642149259922,553.76251644854119,280.49988477875587,920.99114649904152,541.16470510793738,2586.6207646481903,2357.0071555834311,-1093.3484738486097,1093.3484738486097,-2357.0071555834311,4521.5348632712949,1.0
387154.6038362722,4630833.5216966402,-12500.0,1311.8526692642149,1808.9917038392027,1883.846401976024,91.33602000901098,1114.8874916851892,516.12745806639236,2183.0792346355734,2309.9373943543787,-1043.0689288377707,1043.0689288377707,-2309.9373943543787,3871.2798132454941,0.0
392154.6038362722,4630833.5216966402,-12500.0,1210.6839423325935,1135.7081591591623,2668.1160831778921,-102.93258698358224,1180.9336528608364,469.24132932673285,1952.5447341424958,2068.3139823428733,-907.01929132266287,907.01929132266287,-2068.3139823428733,3440.8640174302332,0.0
397154.6038362722,4630833.5216966402,-12500.0,1266.4707488565552,505.78717462770754,2939.2309244056532,-267.661744359333,1135.4594016493943,408.28388211304821,1800.5733300869808,1753.9468865482938,-738.23031478311236,738.23031478311236,-1753.9468865482938,3133.7432411794634,0.0
402154.6038362722,4630833.5216966402,-12500.0,1403.1913732499279,29.812440858469074,2825.1394991778352,-382.20327927599874,1011.2396030949956,341.14230374826866,1649.8521647347882,1455.0150616817577,-576.57174412881409,576.57174412881409,-1455.0150616817577,2858.1085305568017,0.0
407154.6038362722,4630833.5216966402,-12500.0,1542.9181682327965,-257.47495442944313,2482.2481739827626,-441.66015243481269,845.31941925086107,274.65269010593272,1483.2223355643034,1214.5033754294427,-443.32184040550692,443.32184040550692,-1214.5033754294427,2570.9772248079862,0.0
412154.6038362722,4630833.5216966402,-12500.0,1632.4866698325036,-376.51754410130576,2045.7665417520236,-453.0604986917906,669.34339675653234,213.79108761641376,1307.1566461481734,1039.6639043227317,-344.07688495515339,344.07688495515339,-1039.6639043227317,2270.4548693735005,0.0
417154.6038362722,4630833.5216966402,-12500.0,1649.7940828734168,-373.62276301587389,1608.4342417695377,-429.3705718850062,504.96972072025369,161.40838481862491,1134.445881952955,918.57154229030709,-275.04485982482549,275.04485982482549,-918.57154229030709,1972.8876436137068,0.0
422154.6038362722,4630833.5216966402,-12500.0,1596.9071181432898,-298.00428984582942,1221.0972817186121,-384.34486892550257,363.77491652150093,118.48375536228046,976.26039060440871,833.79343991319479,-228.78914386220714,228.78914386220714,-833.79343991319479,1696.4497650727556,0.0
427154.6038362722,4630833.5216966402,-12500.0,1489.170876205972,-189.61910538684216,903.47202835861322,-329.49186295270653,249.59205367365828,84.667275492044197,838.52443814669687,769.98909414441528,-197.8389000828011,197.8389000828011,-769.98909414441528,1453.7905015726501,0.0
432154.6038362722,4630833.5216966402,-12500.0,1346.0531086284361,-75.679614917150872,656.3680225653643,-273.00861039275526,161.41209387607483,58.858574485641505,721.8439841963326,716.50813072884057,-176.27897245589452,176.27897245589452,-716.50813072884057,1250.4884334294647,0.0
437154.6038362722,4630833.5216966402,-12500.0,1185.5464024185565,28.040093204635507,471.2804937229003,-219.94890671152748,95.804685307294321,39.665933099968292,623.79298650317389,667.20167738121449,-160.05321673193299,160.05321673193299,-667.20167738121449,1086.1774265598713,0.0
442154.6038362722,4630833.5216966402,-12500.0,1021.7091023862204,114.18199982242498,336.52504588434573,-172.92173650215329,48.54686985442072,25.701644809812674,541.22323296138018,619.20888117594859,-146.67263316894145,146.67263316894145,-619.20888117594859,956.52934120023394,0.0
447154.6038362722,4630833.5216966402,-12500.0,864.22451363645075,180.77715655899019,240.55133914317642,-132.87173542920385,15.543216083649215,15.735906851643474,471.35467257329969,571.67950339877802,-134.76285340883999,134.76285340883999,-571.67950339877802,855.24977137589497,0.0
452154.6038362722,4630833.5216966402,-12500.0,718.96386702005645,228.88279389293746,173.39986846487605,-99.733510118861076,-6.7520078543489728,8.7535476243005164,412.00724342291545,524.79596082003025,-123.65500935523013,123.65500935523013,-524.79596082003025,775.70141201613899,0.0
457154.6038362722,4630833.5216966402,-12500.0,588.88866272630753,260.98094740981702,127.10890997943058,-72.904486201786355,-21.210406692318141,3.9548890549999869,362.08737505181716,479.14488903487893,-113.08365521290992,113.08365521290992,-479.14488903487893,711.97295409521428,0.0
462154.6038362722,4630833.5216966402,-12500.0,474.93974399764539,280.00412887415234,95.610356811202507,-51.552722088178555,-30.058444275033818,0.73010534792395165,341.08193479226344,435.36677200638786,-102.98920122844009,102.98920122844009,-435.36677200638786,659.37427155233013,0.0
467154.6038362722,4630833.5216966402,-12500.0,376.76887470975248,288.80304656428206,74.427027291302636,-34.799847284961942,-34.970672893238216,-1.3751843804324426,328.7636227217082,393.99097500057951,-93.40028450121369,93.40028450121369,-393.99097500057951,614.49026015502079,0.0
282154.6038362722,4635833.5216966402,-12500.0,-2074.8662754494758,-1235.1117381724882,-259.65281561849991,-413.47894747353308,-205.04848094642628,-58.317604206001597,1571.9006750194906,-1767.4916625902611,856.851641935315,-856.851641935315,1767.4916625902611,2986.0566528016698,0.0
287154.6038362722,4635833.5216966402,-12500.0,-2251.0072556580926,-1455.2237770206445,-379.46184105129288,-470.2189288523511,-252.649238469848,-68.216472314669403,1776.5501232332754,-2030.7681554980318,981.89818781625706,-981.89818781625706,2030.7681554980318,3374.8936162555392,0.0
292154.6038362722,4635833.5216966402,-12500.0,-2426.4858238626312,-1713.2878822419793,-539.63373464637505,-533.04787114395424,-311.36896325814723,-79.400018643260864,2010.7966210342368,-2333.9881071749887,1124.9132735770327,-1124.9132735770327,2333.9881071749887,3819.6540319039773,0.0
297154.6038362722,4635833.5216966402,-12500.0,-2592.3711223417486,-2013.0969020908444,-752.53623885372122,-601.30477174830969,-383.41122702717479,-91.699673687717308,2278.1377984323763,-2680.5597475457907,1286.9650234967003,-1286.9650234967003,2680.5597475457907,4326.7678159884199,0.0
302154.6038362722,4635833.5216966402,-12500.0,-2735.6365689692625,-2356.7772900033701,-1033.5924575696124,-673.4464681601437,-471.06034148210881,-104.67317473070518,2581.8209542119221,-3072.2070824393577,1468.1123478786967,-1468.1123478786967,3072.2070824393577,4902.0800016842268,0.0
307154.6038362722,4635833.5216966402,-12500.0,-2838.1098178930283,-2743.1843446475955,-1401.4023180279491,-746.64105704716985,-576.38955239169627,-117.44150267513004,2924.3787808618986,-3507.5010612342239,1666.6677594292087,-1666.6677594292087,3507.5010612342239,5549.9220127100625,0.0
312154.6038362722,4635833.5216966402,-12500.0,-2875.5946298409226,-3165.5167437715368,-1877.2602541293413,-816.28599519733632,-700.73993707802993,-128.4682357954695,3306.9260638789301,-3979.7116480584846,1878.1653532049222,-1878.1653532049222,3979.7116480584846,6271.7135504100097,0.0
317154.6038362722,4635833.5216966402,-12500.0,-2817.6088685225045,-3608.0164432267975,-2483.5101919153099,-875.52026559744559,-843.87703377099228,-135.28923288944051,3728.1510709786694,-4473.8661022297938,2094.0196422147919,-2094.0196422147919,4473.8661022297938,7063.9678387921304,0.0
322154.6038362722,4635833.5216966402,-12500.0,-2628.4907616467717,-4041.8323374015868,-3239.9106719505494,-914.88912093172507,-1002.7480426165695,-134.23556349811952,4182.9565351915535,-4963.0697155545913,2299.9664852896212,-2299.9664852896212,4963.0697155545913,7915.6164474058196,0.0
327154.6038362722,4635833.5216966402,-12500.0,-2270.9684002069648,-4420.610290708878,-4156.9493257766053,-922.44661177476428,-1169.8419351034695,-120.25621895419408,4660.7593532417914,-5404.5289905169493,2474.5824885652446,-2474.5824885652446,5404.5289905169493,8804.6799390723081,0.0
332154.6038362722,4635833.5216966402,-12500.0,-1713.5010654059115,-4677.2734947998442,-5225.0787026312228,-884.71951543273451,-1331.3488774872822,-87.041115851352316,5143.577418939587,-5736.4337622174553,2588.5176093295308,-2588.5176093295308,5736.4337622174553,9694.5503895569236,0.0
337154.6038362722,4635833.5216966402,-12500.0,-942.401272065223,-4724.8183197543667,-6399.6095057947414,-789.01774191272148,-1465.6635366515034,-27.74384185930105,5604.2425241386982,-5877.9524809189988,2605.5196816688531,-2605.5196816688531,5877.9524809189988,10530.578153325947,0.0
342154.6038362722,4635833.5216966402,-12500.0,21.706372327755396,-4465.4630891591614,-7583.1900555580532,-627.39275019844331,-1543.2444693508139,63.381774399219637,6005.4004780534951,-5735.8657404454225,2486.7111760727294,-2486.7111760727294,5735.8657404454225,11238.321978917977,0.0
347154.6038362722,4635833.5216966402,-12500.0,1106.8475887885686,-3813.0512322334407,-8612.0930006093004,-401.91227541535198,-1529.2195992028724,188.34706800056563,6300.3814552067324,-5222.0054587600953,2199.4764447759385,-2199.4764447759385,5222.0054587600953,11725.733012145634,0.0
352154.6038362722,4635833.5216966402,-12500.0,2181.0211681597475,-2730.947820284347,-9258.5910194741864,-129.78293030082651,-1389.9652478553492,342.34945089580998,6437.4524681877183,-4283.9446737450198,1731.0462857508101,-1731.0462857508101,4283.9446737450198,11892.54044729449,0.0
357154.6038362722,4635833.5216966402,-12500.0,3065.5306070424317,-1278.7915917039679,-9266.0485096502125,154.37679350643089,-1103.6463679543203,511.7473319852183,6368.9652122394709,-2944.8026867247008,1103.786665141527,-1103.786665141527,2944.8026867247008,11650.278894885403,0.0
362154.6038362722,4635833.5216966402,-12500.0,3581.8697656519935,353.83360534074598,-8427.828817474172,402.11795581617992,-672.33354685379504,675.13722445955432,6065.7519568715525,-1335.9673174212812,384.83446454344931,-384.83446454344931,1335.9673174212812,10953.983788957044,0.0
367154.6038362722,4635833.5216966402,-12500.0,3626.861806715398,1861.534485895319,-6696.3469574216479,561.94837791311613,-130.7963888792469,808.5898351982446,5533.9852792524689,304.78679729907299,-319.90041635463604,319.90041635463604,-304.78679729907299,9839.3241194804268,0.0
372154.6038362722,4635833.5216966402,-12500.0,3240.9588900016711,2909.9345319398712,-4269.1375378099056,595.17767440131888,453.69517338762682,893.28130151856408,4827.5499786766886,1692.3226539005004,-893.10163255286568,893.10163255286568,-1692.3226539005004,8447.794836966923,0.0
377154.6038362722,4635833.5216966402,-12500.0,2615.8766781610416,3273.9481307231517,-1577.8980852125485,491.07638103769722,993.92077390021382,921.19695957530405,4047.7694536899398,2599.3431858100507,-1247.3687454223586,1247.3687454223586,-2599.3431858100507,7013.9784514280063,0.0
382154.6038362722,4635833.5216966402,-12500.0,2013.9831692168652,2949.0545109396503,852.01791264131248,274.1127673566366,1405.8316200819879,895.51650476288,3329.0638313175323,2951.351733911848,-1358.851606483471,1358.851606483471,-2951.351733911848,5791.9582282231049,0.0
387154.6038362722,4635833.5216966402,-12500.0,1640.3965906587725,2151.78070687739,2607.4787702998356,-2.000912212639236,1634.262945954453,826.65376186294554,2807.5426313739827,2845.1897947898419,-1271.3387227694807,1271.3387227694807,-2845.1897947898419,4928.216745853676,0.0
392154.6038362722,4635833.5216966402,-12500.0,1556.0068294913287,1202.6062253562227,3530.2242673594851,-272.76399174704642,1669.2944679983959,727.9182776359055,2504.9290891465766,2478.0354579403329,-1068.3761149812494,1068.3761149812494,-2478.0354579403329,4374.8954100545998,0.0
397154.6038362722,4635833.5216966402,-12500.0,1685.7031654666994,376.77765236381521,3715.5548561047881,-485.31428435733602,1544.3943692321179,613.08319296131117,2286.88824655915,2043.5654437652915,-833.71912074784188,833.71912074784188,-2043.5654437652915,3966.863612593686,0.0
402154.6038362722,4635833.5216966402,-12500.0,1894.6854380466693,-181.60925494734209,3400.7780984903875,-613.05422850682282,1318.16014161816,495.02366601672503,2063.4739928713689,1664.7236812577557,-624.26268258985613,624.26268258985613,-1664.7236812577557,3574.1403445377841,0.0
407154.6038362722,4635833.5216966402,-12500.0,2065.6299769700204,-457.18886776744154,2838.3413785629891,-656.49454401857599,1051.2707787775287,384.25989988565874,1819.9550386191911,1385.4108969499305,-464.34471219749139,464.34471219749139,-1385.4108969499305,3155.7618838358526,0.0
412154.6038362722,4635833.5216966402,-12500.0,2135.303670406211,-511.2524209754651,2219.4154073787663,-633.84681392082177,790.33901615658942,287.71871594208613,1571.3645290563209,1197.8069373216038,-354.5919299442532,354.5919299442532,-1197.8069373216038,2727.5223690693592,0.0
417154.6038362722,4635833.5216966402,-12500.0,2092.2523060769131,-427.55196926429443,1655.3699573514971,-569.31868414983887,562.66823126480188,208.47491311384857,1337.606139484207,1074.0429532122612,-284.26230072324472,284.26230072324472,-1074.0429532122612,2321.0028711763007,0.0
422154.6038362722,4635833.5216966402,-12500.0,1956.8115181729161,-279.10226052814608,1193.038394821268,-484.78711116512926,378.95335240535627,146.504873792426,1132.0491882189549,986.44903358901126,-240.36065669771358,240.36065669771358,-986.44903358901126,1961.4950281580591,0.0
427154.6038362722,4635833.5216966402,-12500.0,1761.0565112703216,-116.32214999107526,839.16781639957094,-396.16732360785329,239.00695768453917,99.885604520639291,958.72647554439698,915.46372094228968,-212.12850759065191,212.12850759065191,-915.46372094228968,1661.5546990892763,0.0
432154.6038362722,4635833.5216966402,-12500.0,1535.8924884385883,32.042806848617275,580.91199600003597,-313.15771330633817,137.11279395899894,65.88858558038109,815.14444316523145,850.11826099883285,-192.22381490045325,192.22381490045325,-850.11826099883285,1422.2367607898909,0.0
437154.6038362722,4635833.5216966402,-12500.0,1305.3174772151303,153.16525477828696,398.89918399743641,-240.55656458433421,65.716487068728213,41.721087403541645,696.46766428300225,785.69891248389217,-176.29230746179815,176.29230746179815,-785.69891248389217,1236.8751811646978,0.0
442154.6038362722,4635833.5216966402,-12500.0,1085.3386228169379,244.07720507956142,274.02059687311873,-179.89991845665054,17.472571829900225,24.914835775545985,598.02639722275819,721.14381532868924,-162.07353025880053,162.07353025880053,-721.14381532868924,1095.0449644548048,0.0
447154.6038362722,4635833.5216966402,-12500.0,885.11878504225797,307.02789768091145,190.19518737119807,-130.83829742734596,-13.86573819780908,13.465228190472736,516.23116130911171,657.10824378628217,-148.57952582898113,148.57952582898113,-657.10824378628217,985.7470518818152,0.0
452154.6038362722,4635833.5216966402,-12500.0,708.79026670360031,346.47636093135986,134.98505476736364,-92.099207738025271,-33.223877076556931,5.8298603532418607,456.84078506759221,594.79334230696998,-135.50525339879107,135.50525339879107,-594.79334230696998,899.41052110114038,0.0
457154.6038362722,4635833.5216966402,-12500.0,557.1706903308982,367.37598005602291,99.256755864214938,-62.081843304692413,-44.303123892302537,0.86436492891579098,436.99376270202379,535.35122252935003,-122.86173806636393,122.86173806636393,-535.35122252935003,828.7144135092833,0.0
462154.6038362722,4635833.5216966402,-12500.0,429.10597553276375,374.31895013052298,76.532600411566023,-39.185429071577147,-49.794866845688794,-2.2590587083273839,417.814559306197,479.64623263254879,-110.77174467540277,110.77174467540277,-479.64623263254879,768.56038195191888,0.0
467154.6038362722,4635833.5216966402,-12500.0,322.4135540811734,371.19166757630018,62.331566519004468,-21.967007644020434,-51.609788541875126,-4.1284244480053367,397.41524463856803,428.20702874318226,-99.368541955062852,99.368541955062852,-428.20702874318226,715.63450065408301,0.0
282154.6038362722,4640833.5216966402,-12500.0,-2298.5151615140403,-1184.1119521174455,-119.97427600155589,-449.74635461758049,-191.79479429184047,-62.40924933174346,1651.0401320652697,-1768.4463160185273,879.40972571136274,-879.40972571136274,1768.4463160185273,3130.2230450226266,0.0
287154.6038362722,4640833.5216966402,-12500.0,-2528.8078805512332,-1415.9944733771554,-215.88279390112839,-516.86210500156255,-239.62576532058324,-73.427573943005072,1878.5391107886517,-2052.8160975740825,1018.1096492566181,-1018.1096492566181,2052.8160975740825,3562.0536314034393,0.0
292154.6038362722,4640833.5216966402,-12500.0,-2770.2135413572005,-1694.5837890019359,-349.98456824152333,-592.83559298297541,-299.70977498716843,-85.942292397250796,2142.33824081885,-2387.2429476376619,1180.0679462823227,-1180.0679462823227,2387.2429476376619,4062.6287049523444,0.0
297154.6038362722,4640833.5216966402,-12500.0,-3015.298788500741,-2027.4548330180196,-536.03626421060505,-677.56145928517026,-374.90250924193055,-99.734991404910119,2447.8770916248,-2778.9436960083071,1368.0971102606677,-1368.0971102606677,2778.9436960083071,4642.1385618469676,0.0
302154.6038362722,4640833.5216966402,-12500.0,-3251.9053014437081,-2421.7052383639489,-792.21932707986105,-770.01438847663223,-468.39562121558617,-114.20995982931372,2800.8356229630826,-3234.5654488890268,1584.414582433071,-1584.414582433071,3234.5654488890268,5311.1543528255988,0.0
307154.6038362722,4640833.5216966402,-12500.0,-3461.3776003507887,-2882.4347210865653,-1142.0583962913731,-867.70512131807004,-583.46658368972658,-128.14083701680877,3206.7261247733381,-3758.7956559961549,1829.8700277954624,-1829.8700277954624,3758.7956559961549,6079.8186579363819,0.0
312154.6038362722,4640833.5216966402,-12500.0,-3616.5744301147183,-3410.1586853981471,-1615.0244880499836,-965.96724876600592,-722.95142417535612,-139.30445577018529,3670.1943167522518,-4352.0496617369536,2102.7369490386636,-2102.7369490386636,4352.0496617369536,6956.4703959961744,0.0
317154.6038362722,4640833.5216966402,-12500.0,-3680.046037415264,-3996.7233045683065,-2246.2154189185976,-1057.1210627174255,-888.28564337382477,-143.99288354120094,4193.9088817737056,-5006.8673140891751,2396.9437033359959,-2396.9437033359959,5006.8673140891751,7945.4704936295357,0.0
322154.6038362722,4640833.5216966402,-12500.0,-3603.2056966478358,-4619.3445705018694,-3074.0189010190888,-1129.6790519125261,-1077.9392724398385,-136.44531161177682,4776.9051900075792,-5702.6801369873028,2699.6844704381488,-2699.6844704381488,5702.6801369873028,9043.9658724379842,0.0
327154.6038362722,4640833.5216966402,-12500.0,-3327.9965481697195,-5232.7656771450675,-4134.0032136212694,-1167.9598047402801,-1285.1268702494965,-108.3543129439672,5412.2636271817028,-6398.8788523658732,2988.5501480379316,-2988.5501480379316,6398.8788523658732,10237.350702191659,0.0
332154.6038362722,4640833.5216966402,-12500.0,-2793.3706442356893,-5760.5323487151345,-5446.5994619768499,-1152.7530041835546,-1494.8926942957639,-48.801804875854629,6084.0746917638253,-7026.861499643308,3228.7463211488543,-3228.7463211488543,7026.861499643308,11493.305886482816,0.0
337154.6038362722,4640833.5216966402,-12500.0,-1949.4810333028943,-6088.4306710864375,-6995.9781278712517,-1063.9218329484813,-1681.1665658773177,54.74571043891109,6763.8161484676539,-7483.3192763152447,3371.7033760603981,-3371.7033760603981,7483.3192763152447,12754.610867501538,0.0
342154.6038362722,4640833.5216966402,-12500.0,-781.88244185842916,-6066.4674047344479,-8699.1122230710662,-885.75937098037105,-1805.1971113806567,213.55113431504458,7406.6348905790292,-7629.7055484789771,3357.3915470715847,-3357.3915470715847,7629.7055484789771,13931.636332762931,0.0
347154.6038362722,4640833.5216966402,-12500.0,655.51295394506883,-5529.7346705791133,-10369.530763701581,-615.0822730370611,-1817.6535247020774,432.26655221805436,7948.763069395628,-7306.33081297021,3123.5362253955382,-3123.5362253955382,7306.33081297021,14896.999523040522,0.0
352154.6038362722,4640833.5216966402,-12500.0,2208.6899351184193,-4349.9334821955126,-11692.164407982427,-270.13174904217885,-1666.8802042281632,701.91710969925145,8308.6711396227038,-6371.6476243146335,2624.5767939313209,-2624.5767939313209,6371.6476243146335,15488.022225935572,0.0
357154.6038362722,4640833.5216966402,-12500.0,3616.8831057878806,-2520.5642572550692,-12242.880975166974,104.07838091643491,-1314.1550667067459,994.59384026194198,8396.4063677001104,-4771.9814222342638,1859.608357329452,-1859.608357329452,4771.9814222342638,15527.165506408683,0.0
362154.6038362722,4640833.5216966402,-12500.0,4565.0713617197989,-249.9842212027732,-11595.087786967562,439.28711563792791,-752.93044753377319,1265.5291309506122,8136.0496901283623,-2625.315070892706,899.93921422694291,-899.93921422694291,2625.315070892706,14872.246087777243,0.0
367154.6038362722,4640833.5216966402,-12500.0,4812.373838738763,2007.739935785336,-9524.2768790293812,659.01959548923571,-24.734650126837877,1466.3139996823368,7501.256978756257,-265.68811656926101,-103.94084618162691,103.94084618162691,265.68811656926101,13496.747530284241,0.0
372154.6038362722,4640833.5216966402,-12500.0,4348.8206470481919,3668.9286445598505,-6227.9540721252615,702.12666218173979,777.05407298688408,1564.5415849622759,6551.3826521581714,1824.281528405879,-957.29773515884222,957.29773515884222,-1824.281528405879,11569.147669712474,0.0
377154.6038362722,4640833.5216966402,-12500.0,3459.0583334580483,4286.4756892714877,-2382.0010159656995,547.12296252563772,1521.8083657225645,1556.2823796022421,5444.5564336685629,3210.2763378007835,-1496.5700610978697,1496.5700610978697,-3210.2763378007835,9465.286979135848,0.0
382154.6038362722,4640833.5216966402,-12500.0,2592.4774776735831,3809.6465500101913,1100.1447691824719,227.536351246164,2075.7868166718854,1461.1658908481691,4410.5231508517109,3724.8553421480492,-1664.7467508970219,1664.7467508970219,-3724.8553421480492,7644.6609565786839,0.0
387154.6038362722,4640833.5216966402,-12500.0,2101.7990651844334,2614.8769630678189,3498.122016522851,-172.54425254946437,2347.7535879137395,1306.4753496772398,3668.8233992979585,3532.2113671911734,-1530.567607449038,1530.567607449038,-3532.2113671911734,6389.8893759193088,0.0
392154.6038362722,4640833.5216966402,-12500.0,2062.280415522137,1261.7989841205663,4586.504595237001,-548.32647414828079,2324.0515102828426,1116.3711739208709,3233.1845486589036,2981.4966742865249,-1235.7764675759931,1235.7764675759931,-2981.4966742865249,5615.7084188330264,0.0
397154.6038362722,4640833.5216966402,-12500.0,2308.1831601789513,186.77025768969114,4601.3420040409219,-816.85932983729606,2068.2845793579663,911.57067152412037,2906.7098203736559,2389.364599885731,-916.06706099529583,916.06706099529583,-2389.364599885731,5035.0360864431677,0.0
402154.6038362722,4640833.5216966402,-12500.0,2603.1901503226873,-437.33101274346012,3981.9906824816985,-944.83672711376789,1684.6793735022713,711.26403993751137,2571.4229080836594,1922.8291863898535,-652.63277111613161,652.63277111613161,-1922.8291863898535,4455.9423676464457,0.0
407154.6038362722,4640833.5216966402,-12500.0,2779.6308925618446,-652.08513866536339,3129.4102771300654,-946.40635047711351,1272.5216142792394,531.33586413491037,2216.947227589264,1612.2943981181711,-469.651451797974,469.651451797974,-1612.2943981181711,3845.0249941174111,0.0
412154.6038362722,4640833.5216966402,-12500.0,2777.503237903486,-593.40527794905472,2300.4642693219257,-861.12303213548614,898.83676662880873,381.34608595918871,1871.3626411902037,1419.5032722046658,-356.66112167537915,356.66112167537915,-1419.5032722046658,3245.1171994680767,0.0
417154.6038362722,4640833.5216966402,-12500.0,2615.3657787550983,-398.6666733767907,1613.0454567781578,-731.4059467099496,594.76748039933318,263.87710528046222,1561.8420782124419,1293.5826523884061,-291.61085883709495,291.61085883709495,-1293.5826523884061,2705.5710151941917,0.0
422154.6038362722,4640833.5216966402,-12500.0,2345.8259683130645,-166.41491770919299,1094.1270815716521,-589.97131255704153,365.42259402784941,176.37004064239423,1300.6179878556536,1196.5899771676027,-254.23896574484695,254.23896574484695,-1196.5899771676027,2255.1418571306322,0.0
427154.6038362722,4640833.5216966402,-12500.0,2023.8444426462743,47.533324201725677,725.97921493317301,-456.90781064552885,202.04052392196516,113.70295896224317,1086.6467669751794,1107.6657244970397,-230.53748790646108,230.53748790646108,-1107.6657244970397,1899.8742164278274,0.0
432154.6038362722,4640833.5216966402,-12500.0,1692.1822422896569,219.15192326172786,476.05643344954592,-341.88702148752674,90.976381602742478,70.20893478247055,912.90623060754785,1018.5545358019754,-212.45657241037333,212.45657241037333,-1018.5545358019754,1629.9720247614471,0.0
437154.6038362722,4640833.5216966402,-12500.0,1378.4192640634426,343.48026240518675,311.98824690533968,-247.73283033086642,18.69221449070805,40.796701152098599,771.82158348894507,928.01372776581923,-196.10239659620709,196.10239659620709,-928.01372776581923,1427.9796844254959,0.0
442154.6038362722,4640833.5216966402,-12500.0,1097.3207283834827,425.01043761027415,207.22095822705512,-173.4954786979491,-26.159810278746484,21.368930722809687,658.66478041255277,837.76157370639953,-179.99855200614383,179.99855200614383,-837.76157370639953,1275.3439107021211,0.0
447154.6038362722,4640833.5216966402,-12500.0,854.63665414855529,471.76686400974245,141.97924570509318,-116.53946876291872,-52.277260001077451,8.8410653728825448,598.79778636434958,750.19780121775739,-163.87175404912017,163.87175404912017,-750.19780121775739,1156.3404638959089,0.0
452154.6038362722,4640833.5216966402,-12500.0,650.53916668169256,492.17614336289779,102.35957284026161,-73.75997079216603,-65.971374417394159,0.98893224176071282,569.35865100274464,667.37355323668748,-147.93761157638772,147.93761157638772,-667.37355323668748,1059.4510490618763,0.0
457154.6038362722,4640833.5216966402,-12500.0,482.16389076156406,493.67499037172161,78.950430602711208,-42.198857096252581,-71.657853110833457,-3.7455110383664572,539.2661738611846,590.6692822475751,-132.53407113442697,132.53407113442697,-590.6692822475751,977.06478429067477,0.0
462154.6038362722,4640833.5216966402,-12500.0,345.27932120119618,482.26747220318111,65.551985173945653,-19.301060342353992,-72.346159997014411,-6.4320667794216355,508.19449919111241,520.80657186407439,-117.96040176706035,117.96040176706035,-520.80657186407439,904.50551738040122,0.0
467154.6038362722,4640833.5216966402,-12500.0,235.28856165009756,462.54024158590676,58.167106629329723,-2.9781910788471566,-70.045289071581053,-7.7946998359415716,476.90691770235526,457.98398732486464,-104.42426400703664,104.42426400703664,-457.98398732486464,839.03652040091868,0.0
472154.6038362722,4640833.5216966402,-12500.0,147.77647048671881,437.86204284301994,54.267711568792571,8.4192877493150586,-66.071775565431409,-8.3178973507135723,446.09355698207372,402.0339592017009,-92.039049068881297,92.039049068881297,-402.0339592017009,779.09675043610218,0.0
277154.6038362722,4645833.5216966402,-12500.0,-2246.6663136820594,-903.21627669429358,72.230588061955004,-415.85875863664302,-136.04413143644928,-55.617781181962933,1506.9473502821529,-1482.8562704339838,760.26834708743763,-760.26834708743763,1482.8562704339838,2849.3682326191883,0.0
282154.6038362722,4645833.5216966402,-12500.0,-2507.2251622582639,-1093.8208568956793,30.051103950271649,-482.50374915194681,-172.13797184044245,-65.955423995066866,1719.8013431040563,-1731.5102900927336,885.90266842290839,-885.90266842290839,1731.5102900927336,3252.6987669536115,0.0
287154.6038362722,4645833.5216966402,-12500.0,-2795.2600798624899,-1328.414081749366,-35.118883278773296,-560.0429805555035,-218.3364383099015,-77.987050160243925,1969.3417723090345,-2029.5021614000398,1035.575244293078,-1035.575244293078,2029.5021614000398,3725.5742712015362,0.0
292154.6038362722,4645833.5216966402,-12500.0,-3109.5330159923492,-1617.0756005365445,-133.24194721506086,-649.59322526426581,-277.45225343877246,-91.694560800064963,2262.3386098867809,-2386.9408422655479,1213.7910763060183,-1213.7910763060183,2386.9408422655479,4280.811331256461,0.0
297154.6038362722,4645833.5216966402,-12500.0,-3445.8161433343948,-1971.5546322735083,-278.36532338503474,-751.85236056742315,-352.94177747809471,-106.77860342105913,2606.6002309751152,-2815.4505072505294,1425.5009968456029,-1425.5009968456029,2815.4505072505294,4933.184753419052,0.0
302154.6038362722,4645833.5216966402,-12500.0,-3795.1585090881176,-2404.9211949946452,-490.13878229146911,-866.66494864355104,-448.90571726500531,-122.41866370219992,3010.9293210099922,-3327.8429046840129,1675.7945219737749,-1675.7945219737749,3327.8429046840129,5699.3426828900929,0.0
307154.6038362722,4645833.5216966402,-12500.0,-4141.4665886663279,-2930.5595927973222,-795.71048449535795,-992.35693684613295,-569.93606224067287,-136.8853967025421,3484.9094842095251,-3937.226406680842,1969.2696607447724,-1969.2696607447724,3937.226406680842,6597.4039788558202,0.0
312154.6038362722,4645833.5216966402,-12500.0,-4458.316605379704,-3559.9957686728135,-1231.8764462861295,-1124.7829967303674,-720.66604912174034,-146.94346212474471,4038.4072702701287,-4655.1284092780761,2308.8847958791566,-2308.8847958791566,4655.1284092780761,7646.0228669245471,0.0
317154.6038362722,4645833.5216966402,-12500.0,-4705.1198962752878,-4298.8014101973304,-1847.0499435925201,-1256.0804306694486,-904.80392875453788,-146.99186753203148,4680.6271283478127,-5487.9951538113028,2694.0336004230876,-2694.0336004230876,5487.9951538113028,8862.6153875566379,0.0
322154.6038362722,4645833.5216966402,-12500.0,-4823.2267629781854,-5139.5624089002531,-2701.996638964139,-1373.2610092675889,-1123.3571382351615,-127.94909229774791,5418.4950472625569,-6431.1912673343159,3117.5496611477179,-3117.5496611477179,6431.1912673343159,10260.317814370783,0.0
327154.6038362722,4645833.5216966402,-12500.0,-4733.4558190358375,-6050.8298366538893,-3867.1770731933348,-1457.0548797546021,-1371.7448712861983,-76.070180727444139,6254.0799501080355,-7459.4781654285443,3561.4224704654689,-3561.4224704654689,7459.4781654285443,11843.090371171455,0.0
332154.6038362722,4645833.5216966402,-12500.0,-4338.0254807003976,-6961.5075698199025,-5412.8096503986317,-1481.8838374241282,-1635.6891164094711,27.726755240723101,7180.6774178615879,-8513.1971783006775,3991.3338685943886,-3991.3338685943886,8513.1971783006775,13598.137140892866,0.0
337154.6038362722,4645833.5216966402,-12500.0,-3531.8944997225922,-7742.1047703264321,-7385.5921694086574,-1418.3889008336362,-1886.3850690130259,206.7799514948731,8177.073460505866,-9480.6649838239719,4350.9289848088592,-4350.9289848088592,9480.6649838239719,15484.436681192039,0.0
342154.6038362722,4645833.5216966402,-12500.0,-2230.4161666960335,-8189.0238962290496,-9764.5343801895069,-1240.1544847421694,-2076.6781333145532,483.822745278931,9199.4583975138612,-10180.793845277103,4558.2964330942577,-4558.2964330942577,10180.793845277103,17415.84019546361,0.0
347154.6038362722,4645833.5216966402,-12500.0,-419.75147778136972,-8027.0592134241115,-12391.060367597998,-935.2691290399988,-2141.613170179694,870.2334916674447,10170.942973579358,-10357.40617497164,4509.6092773550899,-4509.6092773550899,10357.40617497164,19238.083352559224,0.0
352154.6038362722,4645833.5216966402,-12500.0,1771.7825108850225,-6958.0772181515176,-14883.527360519955,-520.23055296753034,-2007.5661280583956,1349.7539503048069,10971.157477421933,-9708.9410192933501,4097.764735359171,-4097.764735359171,9708.9410192933501,20704.971360738477,0.0
357154.6038362722,4645833.5216966402,-12500.0,4008.8882474386182,-4790.1943220454741,-16585.532594977733,-49.224404708138174,-1611.9921376101697,1863.9098885164797,11435.235404080804,-7987.2594323943113,3254.1799029383737,-3254.1799029383737,7987.2594323943113,21475.502904084849,0.0
362154.6038362722,4645833.5216966402,-12500.0,5763.6370292237889,-1648.6265035211886,-16656.721911102424,389.66445720858889,-929.7880026922777,2315.0128756575659,11380.886647038105,-5179.0180223390007,2011.6272425254456,-2011.6272425254456,5179.0180223390007,21176.61570209502,0.0
367154.6038362722,4645833.5216966402,-12500.0,6501.9074326465197,1842.3268331577349,-14421.75916671358,693.47438318858417,3.2205475227788085,2600.6703033237618,10680.09071555949,-1693.249418645396,557.16724501089914,-557.16724501089914,1693.249418645396,19570.808512631873,0.0
372154.6038362722,4645833.5216966402,-12500.0,6027.677049150695,4645.4482211257528,-9909.9002162238685,771.63797999251051,1077.7430486161111,2668.0235091517347,9359.1838980164976,1642.7868290137567,-786.44519356958506,786.44519356958506,-1642.7868290137567,16785.718227067067,0.0
377154.6038362722,4645833.5216966402,-12500.0,4734.3019119114206,5814.8314058432297,-4174.677646948976,575.85087799031919,2114.6340691537039,2542.8187840179257,7663.132197822767,3939.2970062982604,-1690.8871264677991,1690.8871264677991,-3939.2970062982604,13434.852956601679,0.0
382154.6038362722,4645833.5216966402,-12500.0,3428.406913502522,5140.1485701516849,1090.5077826614925,132.99439239484212,2898.7282377169363,2298.7179593784294,6015.3566446785881,4781.3911617601198,-2002.8078553112302,2002.8078553112302,-4781.3911617601198,10422.340972086118,0.0
387154.6038362722,4645833.5216966402,-12500.0,2761.4334590577578,3307.3463854134134,4528.0041712357024,-436.9798528258795,3258.1933653711385,1997.9172689376128,4834.5936161349828,4456.7755522182815,-1822.6377510248747,1822.6377510248747,-4456.7755522182815,8383.8225724626755,0.0
392154.6038362722,4645833.5216966402,-12500.0,2815.5329977291822,1348.7381568879941,5820.850070893448,-959.39439355672221,3154.9237908202722,1669.0498992491621,4157.3673987784778,3626.4790368070853,-1402.4804492196643,1402.4804492196643,-3626.4790368070853,7202.1613747306183,0.0
397154.6038362722,4645833.5216966402,-12500.0,3231.6438363815614,-34.100291203053217,5532.4129771897296,-1293.9329456449218,2702.5733853073316,1329.792176293096,3659.7912587773567,2827.0427999408357,-973.25448928538913,973.25448928538913,-2827.0427999408357,6342.2617880511543,1.0
402154.6038362722,4645833.5216966402,-12500.0,3603.5326131494821,-677.73135548487414,4477.9633248348337,-1397.934762130677,2089.061627242444,1005.3198671905637,3163.2082509702213,2270.8720028760699,-652.34673521035188,652.34673521035188,-2270.8720028760699,5488.21056253798,0.0
407154.6038362722,4645833.5216966402,-12500.0,3715.4543707674702,-758.5274095962435,3274.4897473085612,-1315.737263843896,1478.7781136069566,721.86292458505488,2661.5529820722818,1940.9684705897157,-455.84692305334147,455.84692305334147,-1940.9684705897157,4616.9157328806214,0.0
412154.6038362722,4645833.5216966402,-12500.0,3546.7758682405079,-535.80854567086499,2236.4978778144878,-1126.37655784193,965.46685736270069,494.55311845096958,2197.8407031759675,1745.7687734427905,-351.55516726303392,351.55516726303392,-1745.7687734427905,3807.5524207300878,0.0
417154.6038362722,4645833.5216966402,-12500.0,3178.4135807416587,-212.5084936856081,1457.9850295677352,-900.36689191194432,578.08273808015144,324.69383295973341,1801.954767148263,1607.0321678790597,-300.35955847443222,300.35955847443222,-1607.0321678790597,3124.7351925339062,0.0
422154.6038362722,4645833.5216966402,-12500.0,2710.8184453481886,95.077102168013951,921.65915416594214,-683.08477775417623,307.33341182303843,204.50844257966466,1479.1837275091107,1481.5997414708072,-273.65809712153123,273.65809712153123,-1481.5997414708072,2590.1327873492887,0.0
427154.6038362722,4645833.5216966402,-12500.0,2223.7534571287861,337.94832254431208,572.84294722836967,-496.43703999144464,129.09057672301762,122.9341691437134,1220.9441912734244,1353.5933339912876,-255.31872039665916,255.31872039665916,-1353.5933339912876,2191.4954007909027,0.0
432154.6038362722,4645833.5216966402,-12500.0,1767.0389952967555,506.4054621566774,355.5122078775118,-346.71618033847926,17.892285677843422,69.347751389806675,1016.1889559800729,1221.6326828538342,-238.087617092953,238.087617092953,-1221.6326828538342,1899.7797163857856,1.0
437154.6038362722,4645833.5216966402,-12500.0,1365.4143619120498,608.95570617643364,224.87980864076562,-231.93852809334172,-47.495961005347148,35.1194763456011,866.69981633543568,1089.7451357608493,-219.66551798673891,219.66551798673891,-1089.7451357608493,1683.4166045200075,0.0
442154.6038362722,4645833.5216966402,-12500.0,1026.8111026026766,660.01483031326086,149.01271640140104,-146.73527957520326,-82.894593468371212,13.853482052923036,802.8913871431655,962.65998134421397,-200.01398659224316,200.01398659224316,-962.65998134421397,1516.412733932867,0.0
447154.6038362722,4645833.5216966402,-12500.0,749.51666610691586,673.95479653153939,106.58305850666754,-85.035267343353809,-99.347104113532765,1.0647831509731613,755.65509806682053,843.98416065996048,-179.86812510282221,179.86812510282221,-843.98416065996048,1380.6834214711964,0.0
452154.6038362722,4645833.5216966402,-12500.0,527.13569709595117,662.81140977525695,83.935598798772176,-41.296582572892476,-104.24673187114955,-6.2830038242457649,707.94507103342403,735.83877211923914,-160.04521073328755,160.04521073328755,-735.83877211923914,1265.0003471301779,0.0
457154.6038362722,4645833.5216966402,-12500.0,351.59968581810489,635.79887820844385,72.591523540742216,-10.932268354611688,-102.3985183949993,-10.198402526119539,660.03282136571659,639.07718009421069,-141.18691837787213,141.18691837787213,-639.07718009421069,1162.8991122958573,0.0
462154.6038362722,4645833.5216966402,-12500.0,214.80499913458542,599.58246917235795,67.419212193027647,9.6535763175015408,-96.851959066830076,-11.988747578912289,612.98376203149462,553.65300938555606,-123.70650472085356,123.70650472085356,-553.65300938555606,1070.8173006898992,0.0
467154.6038362722,4645833.5216966402,-12500.0,109.39432524389105,558.78455204329646,65.390339758328281,23.188368749013588,-89.499293361068283,-12.494612156027532,567.67159132883467,478.95947871614629,-107.81735868387108,107.81735868387108,-478.95947871614629,986.80984158331773,0.0
472154.6038362722,4645833.5216966402,-12500.0,29.047996938923962,516.49404391311248,64.769935343802146,31.697419199072225,-81.485079940113636,-12.250714802618365,524.68397132438702,414.08783968557418,-93.584127554950811,93.584127554950811,-414.08783968557418,909.77405800302472,0.0
272154.6038362722,4650833.5216966402,-12500.0,-2115.776165567429,-638.76205098022672,199.11810066914697,-373.3215361562921,-88.396627335629304,-48.421873067590951,1354.1259859205318,-1200.1814139107082,636.54341558255737,-636.54341558255737,1200.1814139107082,2551.9761576373799,0.0
277154.6038362722,4650833.5216966402,-12500.0,-2382.9071283437065,-782.18438244515744,196.24221437823016,-435.70268175677381,-113.42962898616194,-57.716291515514627,1546.9837014138293,-1404.5105860682547,743.82575498916231,-743.82575498916231,1404.5105860682547,2916.3428962509838,0.0
282154.6038362722,4650833.5216966402,-12500.0,-2687.4268507092652,-961.83216720752523,183.17965879002591,-509.59190609024529,-145.97389122194963,-68.727885723035939,1774.604968595409,-1652.1408952451106,873.20540045495591,-873.20540045495591,1652.1408952451106,3346.4984570338593,0.0
287154.6038362722,4650833.5216966402,-12500.0,-3033.1261197107165,-1187.5898034381348,154.18525264078443,-596.89345019823531,-188.37421780738032,-81.584310609616608,2044.1901259544006,-1953.5363840563109,1029.7088003611639,-1029.7088003611639,1953.5363840563109,3856.0962896739375,0.0
292154.6038362722,4650833.5216966402,-12500.0,-3422.8822022006279,-1471.9968861061429,100.65776614945806,-699.54480086767308,-243.67605681064964,-96.23460388031576,2364.4721118815974,-2321.7513604111168,1219.4448647784743,-1219.4448647784743,2321.7513604111168,4461.7137653645241,0.0
297154.6038362722,4650833.5216966402,-12500.0,-3857.5849430765493,-1830.7690572259437,9.7606989021517396,-819.27201889186938,-315.77448713472046,-112.2548644330264,2745.9767347333527,-2772.9290221518067,1449.7164529549755,-1449.7164529549755,2772.9290221518067,5183.3657290211295,0.0
302154.6038362722,4650833.5216966402,-12500.0,-4334.402612810879,-2283.2065183578275,-137.58391475148392,-957.14870520815327,-409.52908387715905,-128.5061867114797,3201.266952465443,-3326.7285189408681,1729.02413750596,-1729.02413750596,3326.7285189408681,6045.0067268767534,0.0
307154.6038362722,4650833.5216966402,-12500.0,-4844.0852589263513,-2852.2249678978114,-369.5515197737368,-1112.8594785651935,-530.76335898289187,-142.55357402815579,3745.1185845267046,-4006.4771586918496,2066.8372427525992,-2066.8372427525992,4006.4771586918496,7074.9381556630779,0.0
312154.6038362722,4650833.5216966402,-12500.0,-5366.9412360308279,-3563.4950414968971,-727.33962874147301,-1283.5543902818904,-685.99510508835203,-149.71816580770812,4394.5382269494858,-4838.6476408511498,2472.9187814383076,-2472.9187814383076,4838.6476408511498,8305.9784071478352,0.0
317154.6038362722,4650833.5216966402,-12500.0,-5867.1423732802814,-4442.7574884461173,-1270.2318485979724,-1462.2103055762052,-881.6347730526453,-141.61283647031581,5168.4796078981672,-5850.9133586145872,2955.8602068109321,-2955.8602068109321,5850.9133586145872,9775.1637693429839,0.0
322154.6038362722,4650833.5216966402,-12500.0,-6285.2548489743622,-5509.7439479573832,-2081.3927421202043,-1635.5539708083038,-1122.2539128645924,-104.05990592647633,6087.0275239840139,-7067.4706097646604,3520.3093865195979,-3520.3093865195979,7067.4706097646604,11522.588396992509,0.0
327154.6038362722,4650833.5216966402,-12500.0,-6529.6308287458596,-6766.2894917996564,-3272.7746201089094,-1781.9552090515933,-1407.4250644963795,-14.533826043702609,7169.6626957301614,-8499.4703739138113,4162.1890146419701,-4162.1890146419701,8499.4703739138113,13588.653969156203,0.0
332154.6038362722,4650833.5216966402,-12500.0,-6468.9522245534099,-8175.4255879801085,-4984.9503110430087,-1870.3817679341926,-1726.7423545881786,160.04561821658675,8431.8778210781784,-10127.332653714599,4861.0909339415848,-4861.0909339415848,10127.332653714599,16008.156689015519,0.0
337154.6038362722,4650833.5216966402,-12500.0,-5931.3857704907232,-9628.3101281984873,-7372.8746663814363,-1862.4789344565979,-2053.281352709871,462.90560296383154,9878.6307918577932,-11870.878644094821,5569.2024494961879,-5569.2024494961879,11870.878644094821,18797.595497187573,0.0
342154.6038362722,4650833.5216966402,-12500.0,-4721.1237923680783,-10898.871921847915,-10560.848423275655,-1720.5192669216465,-2337.3638116545599,939.86850747442077,11491.543822543994,-13544.235174314676,6197.0543350082398,-6197.0543350082398,13544.235174314676,21927.937651923636,0.0
347154.6038362722,4650833.5216966402,-12500.0,-2670.8464239886853,-11596.890696185481,-14540.695290316282,-1422.7033323774806,-2504.9550838841519,1618.3060605641508,13204.693628729965,-14800.130760018801,6599.2958935073339,-6599.2958935073339,14800.130760018801,25269.784498329343,0.0
352154.6038362722,4650833.5216966402,-12500.0,244.58103750809283,-11159.134133572361,-18987.107446731152,-981.82771305461347,-2466.3712661456229,2469.5615919508464,14865.011890757782,-15094.018025201176,6571.6178181677078,-6571.6178181677078,15094.018025201176,28501.197445089103,0.0
357154.6038362722,4650833.5216966402,-12500.0,3724.6422858461674,-8974.1954312056641,-23013.253969952868,-454.93487749427965,-2136.8205612744264,3368.4330430586729,16188.562842716574,-13755.662887555525,5886.1379409247065,-5886.1379409247065,13755.662887555525,31007.17900592486,0.0
362154.6038362722,4650833.5216966402,-12500.0,6982.830980010548,-4771.2711390652958,-25061.715737926279,68.228758635862036,-1459.7856698773003,4093.3108706470853,16762.906868294638,-10306.745950805536,4404.4882034329694,-4404.4882034329694,10306.745950805536,31895.311749964447,0.0
367154.6038362722,4650833.5216966402,-12500.0,8893.1740884116589,782.98181044685225,-23364.081752656133,487.77608528304086,-422.65099303230045,4418.4829915466707,16176.124339266731,-5026.7528178721423,2261.415237246209,-2261.415237246209,5026.7528178721423,30319.977225378501,0.0
372154.6038362722,4650833.5216966402,-12500.0,8683.7063258548442,5850.8310397946498,-17201.787817653407,696.46003325272557,920.28403536727706,4273.7532745978669,14282.380337022974,687.07809595859806,-26.044526199890811,26.044526199890811,-687.07809595859806,26115.996793270515,0.0
377154.6038362722,4650833.5216966402,-12500.0,6766.3172671403754,8299.7006147323282,-8139.6992378083987,573.72299220925845,2388.3318542951524,3818.4209658466502,11439.418082470973,4872.546775370156,-1740.4266479424264,1740.4266479424264,-4872.546775370156,20290.218874218193,0.0
382154.6038362722,4650833.5216966402,-12500.0,4667.876038803829,7387.9426461093581,415.38994798683325,53.216398272074407,3631.4096755631863,3299.7495130851794,8491.0166168959768,6403.1398265922708,-2427.3029287267968,2427.3029287267968,-6403.1398265922708,14746.269473969731,0.0
387154.6038362722,4650833.5216966402,-12500.0,3710.5759995340245,4461.8629221470765,5644.0857436447213,-739.21640706441792,4257.8578687157151,2831.2297588843485,6375.859236902701,5825.7715961896974,-2213.9715133246073,2213.9715133246073,-5825.7715961896974,11043.730350489557,0.0
392154.6038362722,4650833.5216966402,-12500.0,3938.7992924744703,1569.7660413946896,7172.0633101096664,-1489.2832893752143,4115.5146607679444,2371.1137474494826,5249.6693146773887,4523.6486221620326,-1597.7256179952262,1597.7256179952262,-4523.6486221620326,9101.6014322031879,0.0
397154.6038362722,4650833.5216966402,-12500.0,4572.0778842311965,-171.23452064171838,6371.5009591025446,-1919.8598168149404,3402.3261413484597,1878.1406407831694,4495.1370680560713,3439.5822485908402,-1008.9980555085438,1008.9980555085438,-3439.5822485908402,7824.0509047603464,0.0
402154.6038362722,4650833.5216966402,-12500.0,4945.325930255487,-747.1921433396551,4745.3739680931221,-1967.8071931052625,2474.9720214602521,1386.5174191684141,3796.4308716847772,2792.6997570737603,-622.45605490747084,622.45605490747084,-2792.6997570737603,6607.6963706692441,0.0
407154.6038362722,4650833.5216966402,-12500.0,4844.0130004354378,-612.08942299546584,3178.8944119911171,-1743.1435506714397,1614.1283059449672,956.55005961177335,3129.6833237532092,2446.868691947308,-425.8509954715397,425.8509954715397,-2446.868691947308,5428.4197046042464,0.0
412154.6038362722,4650833.5216966402,-12500.0,4360.2544450914002,-200.04392059129734,1989.4689334042691,-1397.4976181912657,946.03440819981927,622.16302913298045,2541.4652790175769,2230.4889354903626,-345.19695792439256,345.19695792439256,-2230.4889354903626,4404.0587189219823,0.0
417154.6038362722,4650833.5216966402,-12500.0,3677.5129959718884,228.85336426153165,1192.228294746601,-1042.3775690085131,483.34843884941284,383.9981335397548,2055.8694852645776,2043.5448929118993,-316.41885178807786,316.41885178807786,-2043.5448929118993,3599.4735462949834,1.0
422154.6038362722,4650833.5216966402,-12500.0,2950.7880215944756,564.96660333331886,698.06697296524396,-734.50855804918774,188.08105844335196,224.67473806864362,1669.6550410509185,1850.5420463004648,-302.72554109632711,302.72554109632711,-1850.5420463004648,3007.9007115645863,0.0
427154.6038362722,4650833.5216966402,-12500.0,2274.7549621023036,785.4667900377591,408.5271493668792,-491.53559081103884,12.285640249772666,122.82978115839963,1372.9352354135947,1649.3050813086204,-288.4522905370934,288.4522905370934,-1649.3050813086204,2583.3610600402044,0.0
432154.6038362722,4650833.5216966402,-12500.0,1692.8775758261911,905.25265838895496,246.73892378434985,-310.69094286664819,-84.773097414320731,60.018788044168744,1189.989162922021,1448.6171632349087,-269.41068532891529,269.41068532891529,-1448.6171632349087,2272.8391412643264,0.0
437154.6038362722,4650833.5216966402,-12500.0,1215.9766215010065,949.86231367907601,160.58077058371967,-181.37226443341405,-132.70335279357994,22.545551457654383,1101.2747320997712,1257.6559546895987,-246.21285424247725,246.21285424247725,-1257.6559546895987,2033.919713431949,0.0
442154.6038362722,4650833.5216966402,-12500.0,837.72317645721739,943.5971536769423,117.30585749073724,-91.677764010944344,-151.32216656682533,1.024862535331867,1023.652307107868,1082.6181888977712,-220.81742959841097,220.81742959841097,-1082.6181888977712,1838.8392052309664,0.0
447154.6038362722,4650833.5216966402,-12500.0,544.60946845251192,905.68206972728092,97.311953704387747,-31.116774684296121,-153.24341470763463,-10.680389811489412,946.89061773793355,926.51507617169693,-195.09432953570092,195.09432953570092,-926.51507617169693,1671.5793572411928,0.0
452154.6038362722,4650833.5216966402,-12500.0,321.46041968166418,849.95412318425747,89.281858715779364,8.6346339659024327,-146.22099664749021,-16.469197762546209,871.85970410559651,789.97722008635105,-170.39420980929816,170.39420980929816,-789.97722008635105,1523.5730186239593,0.0
457154.6038362722,4650833.5216966402,-12500.0,154.0778578339737,785.77722567243075,86.894003228231725,33.819797664632496,-134.88603839347371,-18.77200501326001,800.0216629142426,672.14883635225351,-147.53293258313914,147.53293258313914,-672.14883635225351,1390.3703235868195,0.0
462154.6038362722,4650833.5216966402,-12500.0,30.268443661001616,719.18091748694746,86.747888265097629,48.968585779148583,-121.92382072971547,-19.082760478809615,732.41792706732781,571.386441246034,-126.90876557013735,126.90876557013735,-571.386441246034,1269.5930037649562,0.0
467154.6038362722,4650833.5216966402,-12500.0,-59.952544876544167,653.85575360327323,87.108390900555449,57.299928531706826,-108.83335113078454,-18.30837560739706,669.6210969885658,485.72640684214286,-108.63485889621145,108.63485889621145,-485.72640684214286,1159.8288257790341,0.0
472154.6038362722,4650833.5216966402,-12500.0,-124.52997164484107,591.91725832883594,87.165606365084642,61.069901848030248,-96.403684159830604,-16.991882168253348,611.83965528443662,413.16726471017017,-92.648155870071093,92.648155870071093,-413.16726471017017,1060.0857758898233,0.0
477154.6038362722,4650833.5216966402,-12500.0,-169.67208047277842,534.45349533446233,86.607257810244761,61.844173392758208,-85.007089618273071,-15.452547459689466,559.03111592951086,351.82337455820277,-78.787618281089976,78.787618281089976,-351.82337455820277,969.54309906900392,0.0
272154.6038362722,4655833.5216966402,-12500.0,-2185.5658748125611,-505.92864209352592,292.28433734112167,-382.36004365041288,-65.764317885153034,-49.368176604220423,1371.0450860536566,-1098.1007843226471,604.77667618977375,-604.77667618977375,1098.1007843226471,2574.7559453521899,0.0
277154.6038362722,4655833.5216966402,-12500.0,-2481.1027152259207,-630.2003952598875,313.09173597346461,-448.9574961421385,-86.392214303778673,-59.028657291208091,1572.3853027794619,-1291.3181453523314,710.3004746484055,-710.3004746484055,1291.3181453523314,2953.7698689673416,0.0
282154.6038362722,4655833.5216966402,-12500.0,-2824.2954022846779,-788.85842452035672,330.45410529494455,-528.7502359131181,-113.71647029742533,-70.503810564486074,1811.9002786036947,-1528.1688971072156,838.99722801198436,-838.99722801198436,1528.1688971072156,3404.8065294289454,0.0
287154.6038362722,4655833.5216966402,-12500.0,-3222.6720013779832,-992.49773652388205,340.59923156431131,-624.2914582328915,-150.01732028030398,-83.911126757922574,2098.1904204852258,-1820.4278793512281,996.77900866964819,-996.77900866964819,1820.4278793512281,3944.1546255916896,0.0
292154.6038362722,4655833.5216966402,-12500.0,-3684.1939752470503,-1255.1883666990743,337.37807942566826,-738.39753092544629,-198.34825663829974,-99.138181594679736,2441.9975517184312,-2183.4420033455999,1191.1740103754494,-1191.1740103754494,2183.4420033455999,4592.2019752821125,0.0
297154.6038362722,4655833.5216966402,-12500.0,-4216.6098458788811,-1595.5818581069852,310.86401636722223,-873.96219846712199,-262.75820223213969,-115.58256190200613,2856.7462636781129,-2637.2562875650565,1431.738837126125,-1431.738837126125,2637.2562875650565,5374.5093087658379,0.0
302154.6038362722,4655833.5216966402,-12500.0,-4826.2072011404589,-2038.2672233157427,245.1346752171176,-1033.5657871682706,-348.52664614540976,-131.67655807966312,3359.2059433842123,-3208.045407819619,1730.5239355377271,-1730.5239355377271,3208.045407819619,6323.1593009270946,0.0
307154.6038362722,4655833.5216966402,-12500.0,-5515.572449373868,-2615.3001485288141,114.77897054909958,-1218.7519553179322,-462.35095719530995,-144.04298365568764,3970.2920925365338,-3929.8525896929978,2102.5433268706156,-2102.5433268706156,3929.8525896929978,7478.4588096585339,0.0
312154.6038362722,4655833.5216966402,-12500.0,-6279.7685593507849,-3367.6302994246121,-120.54292824702451,-1428.8069074405871,-612.35260079775333,-146.04535589424688,4716.0263811319346,-4846.5123544323906,2566.1298568947414,-2566.1298568947414,4846.5123544323906,8891.1097003023497,0.0
317154.6038362722,4655833.5216966402,-12500.0,-7100.0866852507925,-4345.7252704935845,-524.39631512255414,-1658.879578706857,-807.64905080977667,-125.40428960880945,5628.6745277001046,-6013.3230520068528,3142.9251049012828,-3142.9251049012828,6013.3230520068528,10625.020763167609,0.0
322154.6038362722,4655833.5216966402,-12500.0,-7934.2887706173569,-5607.837572961721,-1195.7491417203923,-1897.4151907130304,-1057.0721871731166,-60.530568493730946,6748.0679391770327,-7497.3368521124821,3857.0091445710468,-3857.0091445710468,7497.3368521124821,12760.981061856304,0.0
327154.6038362722,4655833.5216966402,-12500.0,-8702.1858473455013,-7212.7680572343106,-2285.612159995756,-2123.3014549749514,-1366.4593865061418,84.510494253661804,8122.9881714358899,-9373.6450444655147,4732.2213042554613,-4732.2213042554613,9373.6450444655147,15401.197877237048,0.0
332154.6038362722,4655833.5216966402,-12500.0,-9265.9287306359893,-9201.2674882338179,-4016.6634262533839,-2304.0693401409267,-1734.0029059489857,365.43043903380942,9811.9645360495924,-11712.110046601247,5785.8903455536347,-5785.8903455536347,11712.110046601247,18673.424462152587,1.0
337154.6038362722,4655833.5216966402,-12500.0,-9406.366348975107,-11556.137564840688,-6698.4073475235482,-2397.9896293163529,-2143.8500195996044,859.80548420599973,11881.084465485597,-14543.731492087149,7015.6569902677238,-7015.6569902677238,14543.731492087149,22728.819621681541,0.0
342154.6038362722,4655833.5216966402,-12500.0,-8802.1547249046289,-14126.163709784283,-10716.174005544097,-2364.0895549313841,-2560.08498008679,1656.580120839441,14391.783498032324,-17787.719719025379,8373.3961563729899,-8373.3961563729899,17787.719719025379,27715.360210179057,0.0
347154.6038362722,4655833.5216966402,-12500.0,-7032.8651078132225,-16497.069494726515,-16441.861577408214,-2181.7615378919345,-2926.1438274013044,2816.536162422723,17362.212516609354,-21112.725934713882,9717.0158795558691,-9717.0158795558691,21112.725934713882,33684.417922658977,0.0
352154.6038362722,4655833.5216966402,-12500.0,-3668.3976590304283,-17814.513760303533,-23958.598116101843,-1870.0921638757602,-3174.6243886989328,4287.8282603052385,20675.100410646955,-23721.627069582315,10735.176312819396,-10735.176312819396,23721.627069582315,40363.651221525834,0.0
357154.6038362722,4655833.5216966402,-12500.0,1414.0423462867116,-16689.921218662996,-32448.321569637836,-1478.0066418656409,-3239.228880874899,5795.5759287877972,23918.19345481538,-24173.543583198822,10883.831842624992,-10883.831842624992,24173.543583198822,46775.189408204482,0.0
362154.6038362722,4655833.5216966402,-12500.0,7389.8135159943922,-11652.60182451837,-39341.892172208551,-1024.8768325344133,-3033.7184841110193,6818.5782535850612,26228.224052788766,-20696.226896653745,9495.6240764330869,-9495.6240764330869,20696.226896653745,50946.979076512645,0.0
367154.6038362722,4655833.5216966402,-12500.0,12078.062746566658,-2690.9045324344302,-40356.553178450202,-461.4410412092372,-2379.8673520954462,6837.8749577097924,26426.625466283182,-12587.879368750531,6274.9961745205001,-6274.9961745205001,12587.879368750531,50412.640003625311,0.0
372154.6038362722,4655833.5216966402,-12500.0,13077.497060260544,7116.0294145524131,-32189.270116882333,198.24796710513857,-1008.0580754780096,5830.5749024516717,23739.252098455003,-1995.9394700605835,1952.2460372543565,-1952.2460372543565,1995.9394700605835,43916.209163233907,0.0
377154.6038362722,4655833.5216966402,-12500.0,10227.348182074031,12702.833730008866,-16708.843407088363,634.40111837091047,1151.6353090729187,4485.2930479425577,18574.263295507408,6470.8389002470794,-1754.8573573490535,1754.8573573490535,-6470.8389002470794,33062.556731021337,0.0
382154.6038362722,4655833.5216966402,-12500.0,6551.9858880712918,11508.86067949847,-1476.3618470742442,329.20171987839592,3521.0539644408432,3618.6659620895571,12688.948798657832,9446.4792659960731,-3382.7691294891961,3382.7691294891961,-9446.4792659960731,22008.844303127553,0.0
387154.6038362722,4655833.5216966402,-12500.0,5082.4145197801363,6517.1724132985091,6904.3777273339838,-765.57973148937663,5020.1379260622161,3314.7066538861518,8449.2307195958183,8159.2697031437929,-3063.7124028573016,3063.7124028573016,-8159.2697031437929,14644.088905836019,0.0
392154.6038362722,4655833.5216966402,-12500.0,5594.3529796453067,2178.2242886317435,8527.4418800160456,-1969.0209803361356,5069.585130156488,3050.8776384125676,6419.5483649899597,5924.4066835378362,-1991.9504425391819,1991.9504425391819,-5924.4066835378362,11202.665343307917,0.0
397154.6038362722,4655833.5216966402,-12500.0,6398.0527066465929,79.644006619860733,6885.7907765835007,-2611.6048565645601,4059.7879653001178,2525.6489425546069,5261.6503690654345,4402.5538317970577,-1080.1258836509587,1080.1258836509587,-4402.5538317970577,9329.9636831226344,0.0
402154.6038362722,4655833.5216966402,-12500.0,6545.690942805646,-318.20291128905018,4613.313738386586,-2585.3227800590998,2735.8878574805826,1850.2496310535305,4401.4888015186398,3633.1891083058053,-582.68962431709042,582.68962431709042,-3633.1891083058053,7714.8282568320737,0.0
407154.6038362722,4655833.5216966402,-12500.0,5977.6516772822852,57.875379675452834,2784.1590430000238,-2153.4489993717607,1592.5288310445446,1225.5492097791589,3610.3562844769585,3228.6891101909614,-392.91829984373908,392.91829984373908,-3228.6891101909614,6255.8444298165159,0.0
412154.6038362722,4655833.5216966402,-12500.0,4998.0491489563701,594.22475122878802,1580.9245423610109,-1601.7690350839264,785.05948697031033,750.34980668632056,2911.4300373433603,2920.759267834665,-348.68671071996914,348.68671071996914,-2920.759267834665,5080.3571547536976,0.0
417154.6038362722,4655833.5216966402,-12500.0,3911.0774396891297,1024.1729465466647,872.59167981607391,-1096.9777449762621,281.56696947937411,429.0561656425362,2342.8982488643778,2610.2164010286056,-347.24065750398631,347.24065750398631,-2610.2164010286056,4215.6265105246257,0.0
422154.6038362722,4655833.5216966402,-12500.0,2904.0424803352075,1284.7954294454751,485.63210643786192,-699.26874160241391,-3.8339879424827723,227.36486362341444,1924.5430391208993,2287.0445722872046,-344.87083170894584,344.87083170894584,-2287.0445722872046,3599.872107235874,0.0
427154.6038362722,4655833.5216966402,-12500.0,2057.4439620652411,1397.7047884777171,286.95028580016822,-411.19149644457491,-150.25264072698278,107.08302056555119,1692.1677139337144,1968.3554532440369,-330.28376216081438,330.28376216081438,-1968.3554532440369,3149.7861644950563,0.0
432154.6038362722,4655833.5216966402,-12500.0,1386.2408274837028,1406.0605561689486,191.38034906887665,-213.51104313522828,-214.46216636358875,38.328960410020819,1549.1686100838294,1671.2994696552682,-304.94400000794428,304.94400000794428,-1671.2994696552682,2799.9559224730033,0.0
437154.6038362722,4655833.5216966402,-12500.0,874.02695482556953,1349.5272916739675,149.1814922304394,-83.236213308174555,-232.8344636424913,0.7877614657597285,1418.6474734562316,1405.9594524943172,-273.44847905593531,273.44847905593531,-1405.9594524943172,2510.3936669997961,0.0
442154.6038362722,4655833.5216966402,-12500.0,493.53028052739666,1257.6016823304519,132.91574350670592,-0.49442509225379361,-227.22823278756982,-18.40859426563901,1292.6842669794878,1175.8573970981251,-239.94366661707983,239.94366661707983,-1175.8573970981251,2259.8885752212595,0.0
447154.6038362722,4655833.5216966402,-12500.0,216.78994740108243,1149.9829605670311,128.11490344317605,49.870718884742658,-210.22401092566921,-27.095856604573516,1172.9611977672198,980.22000832597928,-207.25833130255245,207.25833130255245,-980.22000832597928,2037.9261672897574,0.0
452154.6038362722,4655833.5216966402,-12500.0,19.317863249766571,1038.8819710892587,127.50122341296132,78.712634322428272,-188.79769337688907,-29.931971159194305,1061.3527470770373,816.00365040310703,-177.010326150374,177.010326150374,-816.00365040310703,1839.2403842949657,0.0
457154.6038362722,4655833.5216966402,-12500.0,-118.77315000030278,931.35075207228067,127.64461292614972,93.531082562856994,-166.65489563390159,-29.639106846528833,958.88445396910754,679.25416370394089,-149.94798460462175,149.94798460462175,-679.25416370394089,1660.8765165144753,0.0
462154.6038362722,4655833.5216966402,-12500.0,-212.97288857657065,831.10068360536422,127.10491758767171,99.39637002397771,-145.64127119518193,-27.783971360661926,865.8327984706882,565.8961832407407,-126.27008558252012,126.27008558252012,-565.8961832407407,1500.8088826456742,0.0
467154.6038362722,4655833.5216966402,-12500.0,-275.05124543371397,739.77643435527921,125.42794601148363,99.686382096933386,-126.57005897451178,-25.252110681295605,781.96736116088368,472.13476159300285,-105.86127678349962,105.86127678349962,-472.13476159300285,1357.3589861527755,0.0
472154.6038362722,4655833.5216966402,-12500.0,-313.81662888650254,657.79854489046932,122.6162553847233,96.626220680984247,-109.69850905698779,-22.53116846619314,706.75768183996752,394.62433275393431,-88.447052379349714,88.447052379349714,-394.62433275393431,1228.9842446123423,0.0
477154.6038362722,4655833.5216966402,-12500.0,-335.79821155824692,584.89959582219478,118.85801670466179,91.666245627645353,-94.997826196771172,-19.87841304036743,639.5198820431915,330.50917094509964,-73.688503515389669,73.688503515389669,-330.50917094509964,1114.220433870136,0.0
272154.6038362722,4660833.5216966402,-12500.0,-2214.836781920676,-353.79161918734155,372.50404001823216,-384.91945165650424,-40.661991548165773,-49.595784593032626,1374.1708552791122,-970.65602650358051,559.43303012206843,-559.43303012206843,970.65602650358051,2570.0854768938334,0.0
277154.6038362722,4660833.5216966402,-12500.0,-2530.7307138078163,-451.75961984363403,415.43655675643669,-454.13599917014011,-55.816010400297486,-59.417876119782086,1580.8962991635253,-1144.9924515269088,659.32231737262532,-659.32231737262532,1144.9924515269088,2957.4841995834154,0.0
282154.6038362722,4660833.5216966402,-12500.0,-2903.1637891874543,-579.5402846266478,461.97092862161287,-537.84147260596501,-76.390361720549521,-71.089535904887668,1828.4683444456969,-1360.6806172220204,782.25357240991877,-782.25357240991877,1360.6806172220204,3421.6067114072612,0.0
287154.6038362722,4660833.5216966402,-12500.0,-3343.4605982435978,-747.37495979228788,510.79615032704106,-639.16549445096712,-104.40097356603329,-84.696247717765416,2126.7378827971443,-1629.8981640187224,934.65196680827353,-934.65196680827353,1629.8981640187224,3981.0463392747861,0.0
292154.6038362722,4660833.5216966402,-12500.0,-3865.0537187829627,-969.41410071378152,559.0929141832936,-761.74326132114959,-142.62751407231733,-100.03032990364362,2488.3145671237066,-1969.0980041586649,1125.0086383172707,-1125.0086383172707,1969.0980041586649,4659.671266049716,0.0
297154.6038362722,4660833.5216966402,-12500.0,-4483.5872782977549,-1265.322182992124,601.37862165357171,-909.61814590878873,-194.88241986799781,-116.25296816038617,2929.4397496278839,-2400.7399869793408,1364.6179388609585,-1364.6179388609585,2400.7399869793408,5488.3526496182039,0.0
302154.6038362722,4660833.5216966402,-12500.0,-5216.7347203492427,-1662.5509973376481,627.50570895677117,-1086.957623031921,-266.34155238685844,-131.25610494324471,3471.1776040360219,-2955.800819530843,1668.596680207781,-1668.596680207781,2955.800819530843,6507.3766421953915,0.0
307154.6038362722,4660833.5216966402,-12500.0,-6083.4329534023791,-2199.5227491906303,619.18696107696087,-1297.4458406022195,-363.91122928831555,-140.48587529050377,4141.0759781253091,-3677.4209266933926,2057.2959724283496,-2057.2959724283496,3677.4209266933926,7769.9105853079045,0.0
312154.6038362722,4660833.5216966402,-12500.0,-7101.991558522076,-2929.9789149363687,543.9585141815478,-1543.1682417706083,-496.5553109457544,-134.8289300828275,4975.5474741382313,-4626.169802133737,2558.2522072649099,-2558.2522072649099,4626.169802133737,9347.1635014892308,0.0
317154.6038362722,4660833.5216966402,-12500.0,-8286.1180080353861,-3928.634718852104,344.71777579695197,-1822.8058725404503,-675.41878917638905,-96.947932177299734,6023.401561656834,-5887.4813243152093,3208.85146347824,-3208.85146347824,5887.4813243152093,11336.375009672947,0.0
322154.6038362722,4660833.5216966402,-12500.0,-9637.1580528983977,-5297.7675685906879,-78.224332799779177,-2129.1342778808967,-913.47504124865463,4.7360261871096192,7351.2336678422989,-7581.5672120800182,4059.8339685903038,-4059.8339685903038,7581.5672120800182,13873.538869534395,0.0
327154.6038362722,4660833.5216966402,-12500.0,-11129.568620591197,-7172.8577732061513,-897.21583037484334,-2446.4316107576406,-1224.3911997382666,225.04143032788315,9051.6618296300967,-9874.8720076826503,5179.4291404486648,-5179.4291404486648,9874.8720076826503,17153.59983816239,0.0
332154.6038362722,4660833.5216966402,-12500.0,-12684.525191993293,-9721.5841632846004,-2405.2487987629929,-2749.8175155332647,-1620.648768554872,653.1638667428565,11255.202677712119,-12988.186734795014,6656.6720602772884,-6656.6720602772884,12988.186734795014,21460.365156375447,0.0
337154.6038362722,4660833.5216966402,-12500.0,-14123.27896533176,-13121.935862087141,-5085.4884852519508,-3010.8658740021929,-2112.2848594073766,1420.245342431941,14144.318261170036,-17186.318840763073,8598.6971322868139,-8598.6971322868139,17186.318840763073,27201.846865130148,0.0
342154.6038362722,4660833.5216966402,-12500.0,-15087.2547973213,-17487.848617728701,-9692.955091028738,-3215.401201561735,-2710.546416406477,2685.9961905372811,17960.437398372476,-22711.230273298315,11106.872003809396,-11106.872003809396,22711.230273298315,34923.413715333409,0.0
347154.6038362722,4660833.5216966402,-12500.0,-14908.956649455818,-22676.116793161691,-17296.964921555085,-3393.1314891925817,-3443.7611572948908,4566.8054914505683,22976.314012138613,-29574.072919313909,14193.580291925773,-14193.580291925773,29574.072919313909,45213.421576566834,0.0
352154.6038362722,4660833.5216966402,-12500.0,-12455.846141279557,-27843.507231368345,-29105.356124899365,-3629.1136288954672,-4385.3671648176614,6953.5767164159151,29391.829617024428,-37045.932419894161,17562.746375890958,-17562.746375890958,37045.932419894161,58310.185006942425,0.0
357154.6038362722,4660833.5216966402,-12500.0,-6247.966435648721,-30630.019884152454,-45523.596208136056,-3970.6755723986489,-5647.8096962278905,9225.6188548994742,36971.246501935813,-42709.507071711865,20192.216210754203,-20192.216210754203,42709.507071711865,73125.427546119681,0.0
362154.6038362722,4660833.5216966402,-12500.0,4145.6252822985462,-26687.794968569931,-63485.637004059005,-4164.0978250509188,-7201.3878061693367,10121.702910008065,43854.83310011607,-41785.706867108871,20040.794861328322,-20040.794861328322,41785.706867108871,85779.864232169013,0.0
367154.6038362722,4660833.5216966402,-12500.0,15260.4364549647,-12617.891030907387,-73437.276852648531,-3497.4379632244004,-8428.7458385870232,8384.7856720666405,46884.522178649349,-29689.712077094035,15070.709001198735,-15070.709001198735,29689.712077094035,89622.348920908291,0.0
372154.6038362722,4660833.5216966402,-12500.0,20513.098703997046,7343.8841732511119,-63971.800558392504,-1423.9852610027433,-7918.6455943411838,4323.859033473349,43442.999515863899,-8618.6893509884703,5874.3808830887938,-5874.3808830887938,8618.6893509884703,79925.210992866836,0.0
377154.6038362722,4660833.5216966402,-12500.0,16741.421258126156,21155.379959131631,-34878.372237498639,1218.4240632755011,-4473.2144237981774,558.32261949297447,33620.547221402252,10567.934135400537,-3197.6488231256435,3197.6488231256435,-10567.934135400537,59146.094286237785,0.0
382154.6038362722,4660833.5216966402,-12500.0,9577.5726389375832,19449.175647897613,-4443.8391309366671,2172.4803102649021,979.22546876456863,-89.62739506297487,20796.014933105987,16548.381181084387,-6998.4535492160931,6998.4535492160931,-16548.381181084387,36143.518256792646,0.0
387154.6038362722,4660833.5216966402,-12500.0,7206.2976000672606,10105.461492114764,8953.9815952808749,475.22956196312794,5051.0768098653025,1772.8936465611937,11566.999842722615,12702.73174963981,-5728.8345936838587,5728.8345936838587,-12702.73174963981,20631.307935542656,0.0
392154.6038362722,4660833.5216966402,-12500.0,7931.4479060809881,3753.9720490425721,9702.0975381989974,-1890.1186893911245,5841.0955339806014,3216.3630447445539,7849.6783736346579,8357.9743554675806,-3128.8040958896563,3128.8040958896563,-8357.9743554675806,13750.11796933591,0.0
397154.6038362722,4660833.5216966402,-12500.0,8464.8979247181032,1406.61988270437,6789.6936158416174,-3103.5443197626564,4499.3281873450896,3187.1969047108323,5671.1024064616304,6027.1019417593689,-1341.5735336909015,1341.5735336909015,-6027.1019417593689,10834.333065452211,0.0
402154.6038362722,4660833.5216966402,-12500.0,7924.2133731741196,1168.2046356611406,4010.8813504025484,-3051.957037862755,2709.9722326638148,2373.1201244744534,5032.2458013424166,4971.0864047965733,-576.11105700592543,576.11105700592543,-4971.0864047965733,8858.6010636741285,0.0
407154.6038362722,4660833.5216966402,-12500.0,6603.7723659026797,1590.9228100068749,2182.9629660742635,-2378.8623570319883,1308.5749709706556,1501.3387571561129,4187.2043868382198,4349.2738938082721,-377.43537525329066,377.43537525329066,-4349.2738938082721,7261.4508115799399,0.0
412154.6038362722,4660833.5216966402,-12500.0,5028.9694946204336,2002.835400401583,1159.1219670946248,-1609.1696318156028,432.85874278025267,852.31536784072637,3399.9931203567758,3799.4831202815103,-374.2474903582679,374.2474903582679,-3799.4831202815103,6051.5762115317175,0.0
417154.6038362722,4660833.5216966402,-12500.0,3561.0891767443541,2214.6435280611913,638.39300391462962,-973.6871432039394,-41.255661756877991,440.01010558676637,2827.5149599270117,3250.6589761152927,-398.00431842762032,398.00431842762032,-3250.6589761152927,5169.5807902839733,0.0
422154.6038362722,4660833.5216966402,-12500.0,2354.573208576383,2237.8319458033102,392.19499087452971,-519.35964958996965,-264.95449443668866,200.00603320639638,2490.4269936920437,2724.3268074542971,-399.95508962318218,399.95508962318218,-2724.3268074542971,4506.4946167922762,0.0
427154.6038362722,4660833.5216966402,-12500.0,1433.091081123451,2135.2049695298711,283.58733631891073,-220.33853249453594,-348.7355089533728,68.451787160078197,2243.0650477778677,2248.7322013191806,-377.70329486370019,377.70329486370019,-2248.7322013191806,3975.2658579352665,0.0
432154.6038362722,4660833.5216966402,-12500.0,761.73279199164199,1965.0109203957845,239.1254528870848,-34.90951913161787,-360.49595607914546,0.37040576823191484,2016.7068562123377,1838.1537036390546,-340.46933765091046,340.46933765091046,-1838.1537036390546,3525.9366587806921,0.0
437154.6038362722,4660833.5216966402,-12500.0,288.95915145678521,1767.8903790597624,222.03148649808168,73.715668937562882,-338.48275892769198,-32.145751033789594,1804.6590252438577,1494.3443339702912,-297.15087154422474,297.15087154422474,-1494.3443339702912,3134.0739908848168,0.0
442154.6038362722,4660833.5216966402,-12500.0,-34.5116446682622,1568.448313408325,214.93545674539857,132.76830457830707,-303.05205928036605,-45.395182942254834,1609.3560247531771,1211.915758089332,-253.68234935251593,253.68234935251593,-1211.915758089332,2788.1089344551938,0.0
447154.6038362722,4660833.5216966402,-12500.0,-249.32469068574596,1379.9657456483621,210.20364397215485,160.8662450056062,-264.48788997784942,-48.584731991223805,1432.5948030248587,982.5429100097333,-213.32120543550695,213.32120543550695,-982.5429100097333,2481.8599634390921,0.0
452154.6038362722,4660833.5216966402,-12500.0,-386.7079641603687,1208.6006312665788,204.87244070768745,170.20704499121166,-227.63505446196228,-46.80162938842814,1274.6533197766717,797.40837899600865,-177.50828411403648,177.50828411403648,-797.40837899600865,2211.0930986613589,0.0
457154.6038362722,4660833.5216966402,-12500.0,-469.74579718223919,1056.3601287080396,198.10297987652226,168.57779414523716,-194.49719884340283,-42.801346085527697,1134.7289987056715,648.38300815223488,-146.61029819792012,146.61029819792012,-648.38300815223488,1972.2074656300244,0.0
462154.6038362722,4660833.5216966402,-12500.0,-515.12357826580694,922.99557116286871,189.94370213584381,160.85883315581518,-165.64798186363296,-38.039476393835507,1011.4229139760569,528.46853589575471,-120.42437181539705,120.42437181539705,-528.46853589575471,1761.8341713624109,0.0
467154.6038362722,4660833.5216966402,-12500.0,-534.73825310983102,807.14306851740355,180.75203035764324,150.05894090899267,-140.98113638269368,-33.255123193659799,903.08386015426913,431.86548453444323,-98.485376831420496,98.485376831420496,-431.86548453444323,1576.7768603716679,0.0
472154.6038362722,4660833.5216966402,-12500.0,-536.9985213454662,706.97808234773856,170.93898045051662,137.99866016462343,-120.10023067830089,-28.797325057499947,808.01914159407193,353.87254200630912,-80.239501623091002,80.239501623091002,-353.87254200630912,1414.046106269778,0.0
477154.6038362722,4660833.5216966402,-12500.0,-527.81068598198215,620.57411369966076,160.86802656507777,125.75154863263261,-102.51539596936533,-24.806543049359853,724.61206730927893,290.72696971824996,-65.135380485536245,65.135380485536245,-290.72696971824996,1270.9006878302198,0.0
267154.6038362722,4665833.5216966402,-12500.0,-1923.4043351308123,-139.27426523711054,382.10624128879783,-322.68907887698037,-7.8880516618814198,-40.919067580916909,1188.0688732611643,-701.5301365918416,427.89143202391745,-427.89143202391745,701.5301365918416,2211.2899986350039,0.0
272154.6038362722,4665833.5216966402,-12500.0,-2197.6905804426087,-188.56933062644433,434.86265917570313,-380.23668367385022,-14.122775662363887,-49.038825409262991,1362.3724852207326,-821.79329336453702,501.46780382835527,-501.46780382835527,821.79329336453702,2536.062721597782,0.0
277154.6038362722,4665833.5216966402,-12500.0,-2523.1599443925911,-254.38263137096232,496.39445009787858,-450.0864262615658,-23.01340965931746,-58.787689647928346,1570.8213835976649,-970.04302200894426,591.80637400461046,-591.80637400461046,970.04302200894426,2924.5490376439552,0.0
282154.6038362722,4665833.5216966402,-12500.0,-2911.39139722049,-342.83430905526836,568.05160032985896,-535.12894484309027,-35.652805931048789,-70.346422293267395,1821.7685309198073,-1154.6324546531428,703.67975632318542,-703.67975632318542,1154.6324546531428,3392.3906761987728,0.0
287154.6038362722,4665833.5216966402,-12500.0,-3376.9576529799247,-462.60551469704524,651.12240576015029,-638.89824656797919,-53.594834009493539,-83.744028050005255,2126.0203272341355,-1387.0114508067757,843.50553740256987,-843.50553740256987,1387.0114508067757,3959.8684979525483,0.0
292154.6038362722,4665833.5216966402,-12500.0,-3938.2614708029714,-626.14635771192354,746.51630480956374,-765.63990165289999,-79.049639668689451,-98.643704462099947,2497.6902810523729,-1683.1244629574837,1020.0238902768244,-1020.0238902768244,1683.1244629574837,4653.5566094445448,0.0
297154.6038362722,4665833.5216966402,-12500.0,-4618.6073229679059,-851.51975840930845,854.10838024715008,-920.31112049797014,-115.15486720096617,-113.91949457492578,2955.4133737199445,-2065.5620198434549,1245.3093492173118,-1245.3093492173118,2065.5620198434549,5508.7122892470779,0.0
302154.6038362722,4665833.5216966402,-12500.0,-5447.5665468795232,-1165.2518468874537,971.42356939089564,-1108.436334275347,-166.34334720460893,-126.83690868248384,3524.1199780257725,-2566.9397510970853,1536.3161343650959,-1536.3161343650959,2566.9397510970853,6572.840047160641,0.0
307154.6038362722,4665833.5216966402,-12500.0,-6462.6916192090266,-1606.7873761226658,1091.0283455870172,-1335.7000503288455,-238.82337421872793,-131.4947581952718,4237.7146268961578,-3235.3045864078213,1917.2958023676458,-1917.2958023676458,3235.3045864078213,7911.2161878652887,0.0
312154.6038362722,4665833.5216966402,-12500.0,-7711.5970155302557,-2235.5186416061651,1195.3782855444942,-1607.1324036932742,-341.17799388907997,-115.92182764315767,5143.2873838379901,-4142.919292560925,2423.6738817521791,-2423.6738817521791,4142.919292560925,9615.8442703069013,0.0
317154.6038362722,4665833.5216966402,-12500.0,-9254.2525464261216,-3141.9096810808328,1246.6314973172973,-1925.8126090837279,-485.08710856184831,-56.819050454209489,6308.0159826430136,-5400.6475635215565,3108.3952804726368,-3108.3952804726368,5400.6475635215565,11820.62377493392,0.0
322154.6038362722,4665833.5216966402,-12500.0,-11164.754841995738,-4464.9349603306837,1166.5050212168769,-2291.401774289478,-686.25668388140548,89.528574591314765,7830.862213703118,-7181.3506464030088,4052.406798998567,-4052.406798998567,7181.3506464030088,14727.889028400556,0.0
327154.6038362722,4665833.5216966402,-12500.0,-13530.07627543663,-6418.4299022811374,796.68272655736212,-2699.9946648335458,-966.05958120926164,401.70757178016459,9862.5808795724606,-9756.6563236850034,5381.71024095332,-5381.71024095332,9756.6563236850034,18655.073550245139,0.0
332154.6038362722,4665833.5216966402,-12500.0,-16438.545326179326,-9327.2082246009813,-177.34259438867645,-3149.4900381471648,-1355.8322639191194,1012.5708220336265,12638.877737632478,-13549.800812638216,7293.353497762997,-7293.353497762997,13549.800812638216,24113.381703956595,0.0
337154.6038362722,4665833.5216966402,-12500.0,-19939.624475718039,-13665.013239604445,-2365.6878737722186,-3659.1905574251605,-1909.5376415566689,2124.9083376325907,16530.539808351998,-19196.148661958799,10088.424412408414,-10088.424412408414,19196.148661958799,31925.41220224365,0.0
342154.6038362722,4665833.5216966402,-12500.0,-23933.029042693215,-20060.962883820019,-6906.6352635855601,-4315.1238915146823,-2737.6555987542342,3991.8286796143589,22107.381078593866,-27567.921697116857,14192.239264547767,-14192.239264547767,27567.921697116857,43357.905769701814,0.0
347154.6038362722,4665833.5216966402,-12500.0,-27892.680681312177,-29183.377183585297,-15801.578083362818,-5336.895551018024,-4081.063370797629,6783.7577024201291,30225.666320377342,-39635.521371819777,20088.806843896837,-20088.806843896837,39635.521371819777,60164.73115855168,0.0
352154.6038362722,4665833.5216966402,-12500.0,-30198.955531734016,-41241.668554702046,-32293.010034932129,-7082.9830859043441,-6420.0370919679563,10211.57991829176,42556.001363498995,-55829.645153915451,27959.125696869334,-27959.125696869334,55829.645153915451,84254.380039591852,0.0
357154.6038362722,4665833.5216966402,-12500.0,-26843.391196070479,-54181.747265811202,-60736.98171713794,-9727.5468600913719,-10476.089208030782,12848.484455297043,58957.458263125613,-73957.775903478352,36537.33109818145,-36537.33109818145,73957.775903478352,116144.85223561304,0.0
362154.6038362722,4665833.5216966402,-12500.0,-11721.414942684674,-59022.102550839169,-102224.48516837117,-12305.33366612459,-16638.610155797978,11638.397501112333,77026.717061333373,-84386.95883042019,40934.088062028713,-40934.088062028713,84386.95883042019,150287.19448430714,0.0
367154.6038362722,4665833.5216966402,-12500.0,13241.805620386749,-39925.053698879863,-138953.22880648979,-11916.812074840256,-23335.101883067513,3294.0004713591065,89014.192031139217,-69597.740146937911,33131.259646054168,-33131.259646054168,69597.740146937911,169085.54844423864,0.0
372154.6038362722,4665833.5216966402,-12500.0,30950.1385769589,342.97017265334716,-134423.89396872424,-5879.4049492282566,-25817.737585694314,-10925.533812675225,85733.200330795793,-27251.350199848832,11717.826452746693,-11717.826452746693,27251.350199848832,155822.70561535395,0.0
377154.6038362722,4665833.5216966402,-12500.0,31703.902251264401,37770.517330684801,-76434.70595406137,3689.3315236093781,-19718.885230625649,-22227.574803275198,68771.539382479896,22380.648754250804,-13422.89363226032,13422.89363226032,-22380.648754250804,119405.44660318327,0.0
382154.6038362722,4665833.5216966402,-12500.0,15668.780468102499,34767.778730515398,-3337.0962646920161,9179.5137469090641,-5554.73348294477,-18945.101997489906,39155.972244021701,36050.77169850457,-21917.677994391186,21917.677994391186,-36050.77169850457,69808.509151753853,0.0
387154.6038362722,4665833.5216966402,-12500.0,11433.320224465615,15936.839640063745,13635.164040675878,5175.6904064970358,4792.7416081237325,-5908.764695929407,18624.010962524528,22237.439765942658,-14295.593547041575,14295.593547041575,-22237.439765942658,35426.029852032516,0.0
392154.6038362722,4665833.5216966402,-12500.0,10399.09897524782,7826.2309683271978,10404.06882270817,-253.64804518850246,6490.6725542202621,2095.9234727117932,11193.498904112619,12773.513485279993,-6139.9964305135254,6139.9964305135254,-12773.513485279993,19475.964411566423,0.0
397154.6038362722,4665833.5216966402,-12500.0,9346.7150968701117,5045.5862838940275,6105.540790377042,-2825.755484974246,4500.4547509320228,3787.8820857817459,7643.7321379998921,8613.7233312875942,-1983.0429697089867,1983.0429697089867,-8613.7233312875942,13582.32205933198,0.0
402154.6038362722,4665833.5216966402,-12500.0,7729.2901953333576,4335.6517305043835,3292.9314480922749,-2956.3026803708299,2212.1091309269359,2909.7133336207635,6277.7414737664267,6803.0768403493566,-626.4791778139338,626.4791778139338,-6803.0768403493566,10900.518928550593,0.0
407154.6038362722,4665833.5216966402,-12500.0,5726.803039773099,4175.4018580563916,1779.1608990628681,-2127.2695072414167,685.7468429546484,1727.4816187056169,5220.9744120455043,5662.1642580647313,-388.51563668816243,388.51563668816243,-5662.1642580647313,9114.7723734625397,0.0
412154.6038362722,4665833.5216966402,-12500.0,3804.3739330852518,3994.2399866417045,1043.6520665675787,-1232.8246540814932,-115.32200869528117,884.54234288605187,4394.6010121777454,4678.8336088478482,-425.34606894762192,425.34606894762192,-4678.8336088478482,7781.2264723915287,0.0
417154.6038362722,4665833.5216966402,-12500.0,2236.3786074098675,3688.0727282311536,704.97428776023366,-563.62076966532334,-460.55905864751639,390.63633301940018,3820.1936932463859,3790.8710996596701,-465.68024803003959,465.68024803003959,-3790.8710996596701,6732.0410310262205,0.0
422154.6038362722,4665833.5216966402,-12500.0,1079.6197983033405,3300.2791423000081,550.40523053950562,-135.75355048464868,-565.05160989118235,128.79868363293858,3359.6047434682228,3022.4468930670992,-461.06422101385556,461.06422101385556,-3022.4468930670992,5862.5595742684236,0.0
427154.6038362722,4665833.5216966402,-12500.0,281.29210458314299,2889.6307199012499,475.41933657474647,111.06499436978295,-556.61628516292092,0.33146186702747382,2949.4613277935928,2385.9531790287701,-422.76572040115377,422.76572040115377,-2385.9531790287701,5117.3757761830529,0.0
432154.6038362722,4665833.5216966402,-12500.0,-241.76299905829828,2496.0173435683355,432.46067608340815,239.3166548442716,-502.2902694742188,-56.722887752944047,2580.8676451795309,1874.3175314884545,-368.6913913605556,368.6913913605556,-1874.3175314884545,4470.2427953619408,0.0
437154.6038362722,4665833.5216966402,-12500.0,-567.24114473417126,2139.7320030789756,401.27126452647406,295.42662970385976,-434.58776726487844,-77.311766049597793,2254.1764601061536,1470.3714915975236,-311.32535265181446,311.32535265181446,-1470.3714915975236,3907.3435730758547,0.0
442154.6038362722,4665833.5216966402,-12500.0,-756.57990926973264,1827.9255624789412,373.91965207982855,309.93922720290442,-368.08461310193707,-80.172555407803401,1968.4557169789657,1154.4906846153854,-257.40950237231448,257.40950237231448,-1154.4906846153854,3418.985135462276,0.0
447154.6038362722,4665833.5216966402,-12500.0,-854.72456221641073,1560.416227885926,347.74495944534641,301.77162483898707,-308.51952276181549,-75.047262976676251,1720.8342969378446,908.48161081932449,-209.85189705418412,209.85189705418412,-908.48161081932449,2996.6212796425471,0.0
452154.6038362722,4665833.5216966402,-12500.0,-893.2077524853571,1333.5100503663164,322.17642215331921,282.2119146361253,-257.48220646340275,-66.864526505541861,1507.3739562856058,716.99357880636376,-169.40564156796756,169.40564156796756,-716.99357880636376,2632.1562371782952,0.0
457154.6038362722,4665833.5216966402,-12500.0,-893.6167995509237,1142.1997955735965,297.3613845774039,257.79839683480674,-214.74185795804124,-58.028856669378584,1323.8289334059161,567.69347355618549,-135.75490002718087,135.75490002718087,-567.69347355618549,2317.9845966702919,0.0
462154.6038362722,4665833.5216966402,-12500.0,-870.49623967875573,981.31034472225815,273.60713861904702,232.196681507634,-179.36770035206106,-49.641452539995676,1166.0955838095379,450.93129569062296,-108.13328673052229,108.13328673052229,-450.93129569062296,2047.1459589434917,0.0
467154.6038362722,4665833.5216966402,-12500.0,-833.52922696280473,846.03886125405427,251.17941042714597,207.368915378797,-150.24843895229807,-42.143057972786636,1030.4360984675575,359.26358418889754,-85.648179660423068,85.648179660423068,-359.26358418889754,1813.4321407645116,0.0
472154.6038362722,4665833.5216966402,-12500.0,-789.09092277618743,732.16337144099589,230.24846197779561,184.28396319241145,-126.31708090652168,-35.649537770854764,913.56045295529759,286.98852967769028,-67.436455050461646,67.436455050461646,-286.98852967769028,1611.4135358762917,0.0
477154.6038362722,4665833.5216966402,-12500.0,-741.32508075441388,636.08353448712535,210.89158802138846,163.34282788105332,-106.63527715513483,-30.125502627155363,812.63207678027698,229.74913508293719,-52.729651129493774,52.729651129493774,-229.74913508293719,1436.408021734451,0.0
267154.6038362722,4670833.5216966402,-12500.0,-1860.9692206880934,2.3451108489719408,413.14322077568283,-311.89486417659248,13.643872814675262,-39.798125464755003,1163.2451586236848,-563.05882382205323,370.01763936406587,-370.01763936406587,563.05882382205323,2153.8602304109108,0.0
272154.6038362722,4670833.5216966402,-12500.0,-2130.8126034771985,-18.274601076027601,475.64153980476448,-367.94391740560849,12.589665404037085,-47.672146484488373,1335.1219276248994,-657.37513446288256,432.84323920363988,-432.84323920363988,657.37513446288256,2472.0624690024219,0.0
277154.6038362722,4670833.5216966402,-12500.0,-2453.0395577169661,-48.277907148423594,550.52195640348873,-436.18135662610132,10.346026831093743,-57.098286184309067,1541.2523512715638,-773.73736473492511,510.08102875475777,-510.08102875475777,773.73736473492511,2853.7055331349093,0.0
282154.6038362722,4670833.5216966402,-12500.0,-2840.4479883197359,-91.739231398724684,640.67984242439263,-519.56824917953304,6.2842551023675854,-68.214679153102921,1790.285275602793,-918.97461821098602,605.97413713429535,-605.97413713429535,918.97461821098602,3314.8529681668183,0.0
287154.6038362722,4670833.5216966402,-12500.0,-3309.6552105687151,-154.67268736310521,749.70047362072762,-621.77716037700043,-0.53201445461007202,-80.970556306397398,2093.550429371377,-1102.6433375216889,726.33551030770911,-726.33551030770911,1102.6433375216889,3876.594645428012,0.0
292154.6038362722,4670833.5216966402,-12500.0,-3882.4904682946344,-246.07841615985058,881.94782820317278,-747.3060387446526,-11.496368409118444,-94.872947052984316,2466.0768325382242,-1338.4042005215078,879.27633247860376,-879.27633247860376,1338.4042005215078,4567.0020806272423,0.0
297154.6038362722,4670833.5216966402,-12500.0,-4588.0248389232856,-379.63592797013513,1042.550535527809,-901.55312559580864,-28.680530851340837,-108.47984170900288,2928.1010406455525,-1646.2568945744217,1076.3598993653293,-1076.3598993653293,1646.2568945744217,5424.068475430955,0.0
302154.6038362722,4670833.5216966402,-12500.0,-5465.616422022048,-576.50556006258716,1237.1004293239348,-1090.7976063197775,-55.159102337123706,-118.40225551431314,3507.3794230606245,-2056.27183969514,1334.4904818820758,-1334.4904818820758,2056.27183969514,6500.3055194453027,0.0
307154.6038362722,4670833.5216966402,-12500.0,-6569.6205522763566,-870.07480353851258,1470.6352297222206,-1322.0124168567249,-95.486772076515848,-117.36352444304333,4242.8836219216864,-2614.9983054643762,1679.1150492081106,-1679.1150492081106,2614.9983054643762,7870.2688055339568,0.0
312154.6038362722,4670833.5216966402,-12500.0,-7976.8997643546663,-1314.2034398612523,1744.9118592152581,-1602.4719699697202,-156.41410632309695,-90.482334382186053,5190.9935483823929,-3396.7615917455778,2149.8432163718198,-2149.8432163718198,3396.7615917455778,9643.5197874291716,0.0
317154.6038362722,4670833.5216966402,-12500.0,-9799.0633058383646,-1997.8908441811382,2051.6650844301107,-1939.3662917253575,-248.03918371789806,-8.3204766025025663,6436.3779428233629,-4524.0031352169872,2810.6194666696147,-2810.6194666696147,4524.0031352169872,11988.063778029955,0.0
322154.6038362722,4670833.5216966402,-12500.0,-12202.442706548574,-3071.8532342115868,2356.4700185025026,-2340.5267345537882,-385.96377712540874,185.58070032526786,8111.8298354637063,-6204.3226989250506,3768.5199906454091,-3768.5199906454091,6204.3226989250506,15174.282824014868,0.0
327154.6038362722,4670833.5216966402,-12500.0,-15439.377427095451,-4796.8787252782904,2560.7186531719913,-2819.9114229604616,-596.22655456050461,595.29118363226382,10434.91651506063,-8797.4984762754502,5208.5296378217072,-5208.5296378217072,8797.4984762754502,19658.096979986865,0.0
332154.6038362722,4670833.5216966402,-12500.0,-19891.123013872624,-7629.5939573323849,2413.5489528689081,-3417.4923229089827,-928.36948521617819,1400.9471142862296,13774.13350116115,-12932.208537000615,7455.8040048937528,-7455.8040048937528,12932.208537000615,26233.442112709847,0.0
337154.6038362722,4670833.5216966402,-12500.0,-26106.519406405816,-12362.285111622052,1315.3147821788266,-4254.0634995251339,-1491.2607798583354,2880.5061052811916,18760.293351438631,-19690.365867676192,11076.899227074835,-11076.899227074835,19690.365867676192,36287.301574205987,0.0
342154.6038362722,4670833.5216966402,-12500.0,-34777.581351211666,-20308.929055572724,-2086.1967494757723,-5651.2470657763979,-2545.2446814906634,5366.0664877210638,26455.763015267403,-30839.157976626411,17008.974594848863,-17008.974594848863,30839.157976626411,52158.317150669587,0.0
347154.6038362722,4670833.5216966402,-12500.0,-46524.588031510088,-33463.394483277429,-10608.99864622496,-8318.9817340691952,-4706.1841434293028,8977.4746660307337,38983.321123139816,-48986.272355337576,26622.168464605849,-26622.168464605849,48986.272355337576,77527.262434411983,0.0
352154.6038362722,4670833.5216966402,-12500.0,-61188.982834753035,-54591.956453970328,-29674.068565578968,-13429.121823775728,-9280.865651704451,12850.761407683451,59873.130239903599,-77474.248608121561,41430.924199002809,-41430.924199002809,77474.248608121561,117821.85631533652,0.0
357154.6038362722,4670833.5216966402,-12500.0,-74768.498503595663,-87040.008819507246,-70179.129275169311,-21853.226744750984,-18431.041824114145,13705.740838235246,91643.204211367629,-119561.28294791727,61617.197127970809,-61617.197127970809,119561.28294791727,180616.72751167201,0.0
362154.6038362722,4670833.5216966402,-12500.0,-68537.921701339597,-125606.38422535489,-154185.45794867771,-31370.993279573944,-33919.656702330692,4511.5793016574371,138209.64046665339,-169038.4638236305,79956.158477133693,-79956.158477133693,169038.4638236305,269561.08419426146,0.0
367154.6038362722,4670833.5216966402,-12500.0,-17020.461707338582,-117677.7503540105,-277016.66591168498,-33228.075129758399,-52848.028987057616,-24500.304273908368,182997.13757835023,-173016.43216666934,69698.85829921953,-69698.85829921953,173016.43216666934,344883.25530418882,0.0
372154.6038362722,4670833.5216966402,-12500.0,15220.895324087669,-37308.615427080207,-295669.82167908654,-16096.396549172734,-61082.967208519345,-75341.096952034539,168448.79737887168,-92019.64079386348,14950.071547281732,-14950.071547281732,92019.64079386348,304706.57459539908,0.0
377154.6038362722,4670833.5216966402,-12500.0,81019.773848615863,42574.392390409572,-233549.87773151,8768.5326660124647,-47522.461825609607,-135862.27106893624,172476.75563736307,31117.40384597515,-70214.815576352252,70214.815576352252,-31117.40384597515,300351.34274819429,0.0
382154.6038362722,4670833.5216966402,-12500.0,43323.779990012081,62363.171226362698,34414.653773718521,32733.366441925511,-3870.0047594972939,-94034.965741124004,103925.17290003868,102084.07913844293,-90142.717525668093,90142.717525668093,-102084.07913844293,180692.82547667422,0.0
387154.6038362722,4670833.5216966402,-12500.0,17189.211269612228,29045.470364178367,22422.074672004881,15210.254387847366,10036.000225817206,-24349.220967338191,41175.85861609914,42086.809484561592,-36656.505107615529,36656.505107615529,-42086.809484561592,74143.958736995657,0.0
392154.6038362722,4670833.5216966402,-12500.0,7296.8742985081062,17477.625471773972,11534.807579829079,4270.1905590816668,7610.4317388681065,-217.4656913529405,19098.83108054816,19260.237558116751,-11634.221906752406,11634.221906752406,-19260.237558116751,35371.350382670928,0.0
397154.6038362722,4670833.5216966402,-12500.0,4810.2890498711949,11806.933903398549,6237.6522779371799,-776.66934875912932,3868.3224490545745,4395.8490845942188,12484.328011861033,11371.417311130925,-2820.3536654464669,2820.3536654464669,-11371.417311130925,21626.676785291882,0.0
402154.6038362722,4670833.5216966402,-12500.0,3499.6079368239343,9011.5008788785362,3599.1286620505243,-1638.3125568516266,1176.9280768810177,3357.1163804364169,9231.9178443662549,8338.2115083436038,-647.83291898628249,647.83291898628249,-8338.2115083436038,15996.04690377511,0.0
407154.6038362722,4670833.5216966402,-12500.0,2035.7827594289238,7360.2173558025515,2295.0210969999648,-1018.814073775318,-213.02456287798404,1803.099941928044,7433.27772672022,6531.3287546211795,-402.74406029775082,402.74406029775082,-6531.3287546211795,12882.164004309376,0.0
412154.6038362722,4670833.5216966402,-12500.0,667.84543678148509,6124.2246540081487,1636.7317288744523,-279.02915387551207,-762.00108010747886,788.90817278674945,6194.4342029239042,5095.0152614973031,-488.25159542751453,488.25159542751453,-5095.0152614973031,10739.180247594873,0.0
417154.6038362722,4670833.5216966402,-12500.0,-369.78255835042489,5091.686124588673,1277.7973479827117,221.87165445721843,-890.17173713926616,253.96608015567804,5239.7054499507849,3913.113599643355,-535.35649540534018,535.35649540534018,-3913.113599643355,9076.155971573613,0.0
422154.6038362722,4670833.5216966402,-12500.0,-1049.5086482978381,4215.8121174356093,1057.0504910706918,487.13311904255329,-840.25008449142638,3.0432735982123891,4450.7485477497466,2971.7745157280951,-513.65362154260833,513.65362154260833,-2971.7745157280951,7712.1570364090039,0.0
427154.6038362722,4670833.5216966402,-12500.0,-1440.1499975228348,3482.2926104680687,902.96796231382666,593.93574246839921,-729.98194800058127,-100.65489689255044,3785.1184119549207,2244.4916904012207,-453.24062490231995,453.24062490231995,-2244.4916904012207,6571.2890118642435,0.0
432154.6038362722,4670833.5216966402,-12500.0,-1626.8686893812405,2876.7965380834207,784.25746992015286,609.56849701613999,-610.65019796319018,-133.37740734740564,3223.8505753721038,1692.9664507204102,-380.26317717811742,380.26317717811742,-1692.9664507204102,5612.8715361965578,0.0
437154.6038362722,4670833.5216966402,-12500.0,-1680.8727010212081,2381.8883502827939,687.00395938014185,578.40472713395093,-501.98949876745155,-134.11588004816073,2752.6527990313011,1278.5472620900075,-309.2369058006131,309.2369058006131,-1278.5472620900075,4807.9704618239093,0.0
442154.6038362722,4670833.5216966402,-12500.0,-1653.7504717640991,1979.4337678257525,604.67303984329669,526.55284180365027,-409.77675365823063,-121.9119339453714,2358.2553992884054,968.06162106846614,-246.45132659625273,246.45132659625273,-968.06162106846614,4132.4889191271486,0.0
447154.6038362722,4670833.5216966402,-12500.0,-1580.2762714331984,1652.6333256009934,533.85830643154213,468.3284944959064,-334.06645470336537,-105.7081531127959,2028.4110953948255,735.22561465391846,-193.69005985209998,193.69005985209998,-735.22561465391846,3565.5108124836502,0.0
452154.6038362722,4670833.5216966402,-12500.0,-1482.8778446284177,1386.9643071764519,472.50253976780391,411.07422824227888,-272.87205714083086,-89.48155770711368,1752.2726318269847,560.05580114296561,-150.60820229974331,150.60820229974331,-560.05580114296561,3088.9770803900888,0.0
457154.6038362722,4670833.5216966402,-12500.0,-1375.5423783770891,1170.3740404525461,419.16244238916278,358.21036460347955,-223.73347441501366,-74.823299151590547,1520.5519826281081,427.67660645050933,-116.01981821287174,116.01981821287174,-427.67660645050933,2687.5395619672977,0.0
462154.6038362722,4670833.5216966402,-12500.0,-1266.7061015396355,993.09439974773261,372.7069382150014,311.03531338477558,-184.33149203582514,-62.211654249357309,1325.4722467660149,327.12263535575772,-88.529503978448403,88.529503978448403,-327.12263535575772,2348.3378677454825,0.0
467154.6038362722,4670833.5216966402,-12500.0,-1161.2453019892473,847.31538430915384,332.19352026663182,269.74976024556412,-152.68690745914961,-51.632479386562359,1160.6129044051463,250.33667333813958,-66.812539597924626,66.812539597924626,-250.33667333813958,2060.7100768920377,0.0
472154.6038362722,4670833.5216966402,-12500.0,-1061.7930898196396,726.83511565288325,296.8147529053428,234.02344829044281,-127.18694687997181,-42.876459071833779,1020.7140473721806,191.39367046900469,-49.718916717712403,49.718916717712403,-191.39367046900469,1815.8735040109541,0.0
477154.6038362722,4670833.5216966402,-12500.0,-969.59551136176481,626.74249151660422,265.872746914071,203.30197520098193,-106.54777031413809,-35.677776684340991,901.48379401634656,145.92257117754923,-36.294962766348434,36.294962766348434,-145.92257117754923,1606.6204432824929,0.0
267154.6038362722,4675833.5216966402,-12500.0,-1759.2202369810564,139.68300537371525,425.55563032422305,-295.33256087187766,34.093088259433102,-38.075114734843254,1126.319879347494,-418.89508281207048,306.34934014940853,-306.34934014940853,418.89508281207048,2073.3921002750699,0.0
272154.6038362722,4675833.5216966402,-12500.0,-2014.2210681275715,147.94598713788773,492.90963581871426,-348.16214538547217,38.08488876007349,-45.518359575942583,1292.6038888123887,-484.78636557200446,356.45158931873993,-356.45158931873993,484.78636557200446,2378.942154362137,0.0
277154.6038362722,4675833.5216966402,-12500.0,-2319.490268171402,154.51314542521735,574.7332634775255,-412.47030729055297,42.376902471666263,-54.377203293539495,1492.2457247488637,-565.6257458364064,417.82406103441144,-417.82406103441144,565.6257458364064,2745.7110406453535,0.0
282154.6038362722,4675833.5216966402,-12500.0,-2687.816432370631,157.7828690034903,674.93682200624744,-491.05687939362559,46.844606144085127,-64.730246377017124,1733.8162465729752,-666.11427694327745,493.81222047744609,-493.81222047744609,666.11427694327745,3189.4480885473704,0.0
287154.6038362722,4675833.5216966402,-12500.0,-3136.1244955920838,155.13874251781797,798.68069057001151,-587.40414039699601,51.242493253759719,-76.429174424843694,2028.6357952438398,-792.95593544314818,589.06128260924368,-589.06128260924368,792.95593544314818,3730.9964665913681,0.0
292154.6038362722,4675833.5216966402,-12500.0,-3687.2021250820367,142.28859302501934,952.81382797933543,-705.79510633597863,55.124901733723142,-88.811920968476187,2391.8826713945773,-955.97987394062477,710.18030837360368,-710.18030837360368,955.97987394062477,4398.3936550938461,0.0
297154.6038362722,4675833.5216966402,-12500.0,-4372.3787545077566,112.12183996980369,1146.4541650529147,-851.406762689993,57.718040546292499,-100.12699784361313,2844.2844135711048,-1170.0551991396389,866.8489338312578,-866.8489338312578,1170.0551991396389,5230.1239655756081,0.0
302154.6038362722,4675833.5216966402,-12500.0,-5235.8454631435297,52.68141854613372,1391.7160378568249,-1030.3431486741308,57.711566784300025,-106.38987001597953,3414.8053627603249,-1458.4692606557228,1073.7372267141968,-1073.7372267141968,1458.4692606557228,6280.3855457899972,0.0
307154.6038362722,4675833.5216966402,-12500.0,-6341.9160263880294,-56.549098536210728,1704.5028712454009,-1249.5881713934086,52.910165784248782,-99.130289743038162,4145.1297584604081,-1859.0933345682527,1353.9776723142438,-1353.9776723142438,1859.0933345682527,7628.0774352033486,0.0
312154.6038362722,4675833.5216966402,-12500.0,-7787.7444193324563,-251.67602538252876,2105.0068047025852,-1516.9896020738302,39.617479392449333,-61.005944121264918,5097.5513343831535,-2436.0011256074445,1745.7009732688407,-1745.7009732688407,2436.0011256074445,9393.0195461411349,0.0
317154.6038362722,4675833.5216966402,-12500.0,-9726.4109968663251,-598.19588706351772,2616.7392580950118,-1841.916492223153,11.427898149882992,42.559949916523216,6369.6041954710327,-3301.9938820648931,2314.7836335909551,-2314.7836335909551,3301.9938820648931,11766.824175816724,0.0
322154.6038362722,4675833.5216966402,-12500.0,-12409.81312062438,-1219.0342113190654,3260.5446374139292,-2238.9608096376646,-43.509523428202833,278.65559377852378,8122.3390777698187,-4663.2181771894548,3180.3637134225528,-3180.3637134225528,4663.2181771894548,15074.055705323261,0.0
327154.6038362722,4675833.5216966402,-12500.0,-16268.364374757773,-2353.0705135934995,4033.2214102566586,-2741.9882424720504,-149.62399196636505,772.37803871612061,10636.018196566074,-6908.3908936318685,4566.4061593715496,-4566.4061593715496,6908.3908936318685,19895.24256071046,0.0
332154.6038362722,4675833.5216966402,-12500.0,-22053.212508128167,-4478.2833717471885,4840.8946173953764,-3448.1590075714007,-364.20184510919489,1740.9194247102689,14418.29637423247,-10785.20748733244,6904.0400708198194,-6904.0400708198194,10785.20748733244,27308.683157656898,0.0
337154.6038362722,4675833.5216966402,-12500.0,-31061.541351380485,-8562.4994995213583,5304.0758112949989,-4636.7343899802472,-835.87081343700788,3509.3162423246563,20402.898723415103,-17731.954407099678,11021.275250436958,-11021.275250436958,17731.954407099678,39331.347353559133,0.0
342154.6038362722,4675833.5216966402,-12500.0,-45398.511361908044,-16513.522223467364,4226.6341384999869,-7040.3799411361269,-1964.259094869273,6397.4801243647462,30274.388205687472,-30421.460850564566,18437.717247219662,-18437.717247219662,30421.460850564566,59610.915320395514,0.0
347154.6038362722,4675833.5216966402,-12500.0,-68081.817260619646,-31726.166047004819,-1625.1561461046028,-12325.313155442702,-4785.6929400750696,10163.632220741136,47372.478144617635,-53369.462255857201,31629.721980622111,-31629.721980622111,53369.462255857201,94249.691199014545,0.0
352154.6038362722,4675833.5216966402,-12500.0,-103353.39422232204,-59249.200621917378,-19175.814370128053,-23525.227582326101,-11727.158026930441,12373.01924680802,77747.566795059043,-93139.714960687023,53803.217431385143,-53803.217431385143,93139.714960687023,152778.2358222859,0.0
357154.6038362722,4675833.5216966402,-12500.0,-161181.28227589669,-109776.05800003473,-59852.519655866228,-43923.552335129971,-27422.306843371178,5292.5937831698293,129213.97621539222,-162482.89546919544,88640.152732594433,-88640.152732594433,162482.89546919544,255555.49395725818,0.0
362154.6038362722,4675833.5216966402,-12500.0,-249358.24839468853,-229658.03297600889,-174910.65084941272,-70459.254107895846,-56258.669917334497,-27002.318395055045,242091.61014885822,-310709.97708661482,141439.62873814563,-141439.62873814563,310709.97708661482,470157.21755600191,0.0
367154.6038362722,4675833.5216966402,-12500.0,-223534.93048402132,-401987.02510411502,-592786.09072491096,-83473.318740176255,-90884.978360605266,-125532.5157583503,453824.09849591745,-530742.61148485495,159503.37786685847,-159503.37786685847,530742.61148485495,844157.99808487261,0.0
372154.6038362722,4675833.5216966402,-12500.0,-36933.33894515803,-54687.103044200274,-817627.69580902869,-44834.477297413105,-134279.95307765502,-424931.02842420718,417298.10624554573,-178434.84329671087,-107578.32443606782,107578.32443606782,178434.84329671087,725406.1106752333,0.0
377154.6038362722,4675833.5216966402,-12500.0,-945444.92880904209,-452200.69698339835,-556049.80885325151,-517958.68528019602,-601760.36294125055,-409812.76040737529,919590.35620447306,-705154.72977081721,573315.5737128855,-573315.5737128855,705154.72977081721,1653663.9441116948,1.0
382154.6038362722,4675833.5216966402,-12500.0,-121296.84250685033,79956.581722121075,153184.28184396855,-16098.198524223284,160488.17051066738,-102350.73747750459,226309.94721348054,97460.117072430643,-151574.26920126472,151574.26920126472,-97460.117072430643,409541.78517089895,0.0
387154.6038362722,4675833.5216966402,-12500.0,-26074.486430760669,50435.883447368928,40542.293802687353,28294.547536214501,29085.954116353114,-32814.02993180816,71004.151319294469,47781.037289359469,-56368.757123246913,56368.757123246913,-47781.037289359469,132299.81482345291,0.0
392154.6038362722,4675833.5216966402,-12500.0,-17097.753451148415,28500.484172524604,17936.954325357041,13200.908494213314,9600.6418239845661,-736.5482256852124,36996.180247178127,18790.737327489256,-15440.228306771347,15440.228306771347,-18790.737327489256,64482.954811247633,0.0
397154.6038362722,4675833.5216966402,-12500.0,-10751.725185185629,18167.476303563664,9950.7794479323438,4269.3588512440183,2860.8378952697108,5052.1266955051815,21648.634880604073,10186.785686800167,-2939.8358903958524,2939.8358903958524,-10186.785686800167,37690.624254351867,0.0
402154.6038362722,4675833.5216966402,-12500.0,-6803.256657968137,12822.84087530175,6220.8803604170198,1523.4264902050925,-11.75220097682211,3473.4488970353596,14457.530805170449,7435.0565323637829,-475.82172027186425,475.82172027186425,-7435.0565323637829,25330.460800935532,0.0
407154.6038362722,4675833.5216966402,-12500.0,-5152.8675494632062,9646.4790725291841,4253.0397192079536,1199.9795160952131,-1054.503518597679,1590.4295679817615,10831.596921636559,5763.7100043472856,-385.15904467088239,385.15904467088239,-5763.7100043472856,18903.327252332521,0.0
412154.6038362722,4675833.5216966402,-12500.0,-4540.0380758613583,7469.8775822242542,3110.5667253013739,1328.0731695783038,-1275.6245651944871,512.18320199636332,8566.3349252917269,4369.0745170607042,-539.59434720067088,539.59434720067088,-4369.0745170607042,14932.325595987786,0.0
417154.6038362722,4675833.5216966402,-12500.0,-4224.7389446781499,5862.3746222758537,2384.7713582999345,1386.9911851792481,-1183.9366581947136,15.018780730787617,6938.9448777738426,3229.440248085119,-585.09609562656351,585.09609562656351,-3229.440248085119,12112.683846199219,0.0
422154.6038362722,4675833.5216966402,-12500.0,-3942.4211069007492,4640.4835223730333,1887.9165292775447,1330.4307119345201,-1001.8465496976288,-178.39663399516297,5688.4393416636785,2350.1073773421031,-539.82458998482457,539.82458998482457,-2350.1073773421031,9956.8405011849864,0.0
427154.6038362722,4675833.5216966402,-12500.0,-3635.0222464137196,3701.5229274508729,1528.267315804175,1205.6281949794939,-815.62147338610612,-231.69196344851377,4700.33474401069,1696.5372981043633,-456.1597286121654,456.1597286121654,-1696.5372981043633,8254.0890191413437,0.0
432154.6038362722,4675833.5216966402,-12500.0,-3309.1962465986371,2975.6127160763954,1257.4069671407817,1055.8991150251688,-653.58352892641562,-226.29360606565589,3910.3815339941984,1220.1893580189721,-366.46395903660488,366.46395903660488,-1220.1893580189721,6889.7646343142924,0.0
437154.6038362722,4675833.5216966402,-12500.0,-2983.3306862193449,2411.2847745707786,1047.617663398652,906.84235071462717,-521.27297859426869,-199.7798780670623,3274.6931202176652,875.92070312310489,-285.30544234984399,285.30544234984399,-875.92070312310489,5788.0479141651012,0.0
442154.6038362722,4675833.5216966402,-12500.0,-2672.1609610847272,1969.8514398960356,881.79091293055717,770.64312785107131,-416.19460406085096,-168.51167781596473,2760.3567067816107,627.60034242939923,-217.37449495483114,217.37449495483114,-627.60034242939923,4893.1845476050366,0.0
447154.6038362722,4675833.5216966402,-12500.0,-2384.3691231174166,1622.172866992297,748.67856326392837,651.66258970027559,-333.68760045610867,-139.04666765316045,2341.9063804483117,448.20773704660405,-162.80485051103415,162.80485051103415,-448.20773704660405,4162.3463908757376,0.0
452154.6038362722,4675833.5216966402,-12500.0,-2123.7761947343056,1346.3253982342126,640.51031787987858,550.2641051483912,-269.09598880175571,-113.57266660331,1999.4844400082377,318.1789086976575,-119.97476799825239,119.97476799825239,-318.1789086976575,3562.1349765993477,0.0
457154.6038362722,4675833.5216966402,-12500.0,-1891.023317934867,1125.8118049690329,551.71323868835998,465.01337849666874,-218.44884021563396,-92.422164810635593,1717.5821135701829,223.55386309413132,-86.815466633807546,86.815466633807546,-223.55386309413132,3066.3737345767695,0.0
462154.6038362722,4675833.5216966402,-12500.0,-1684.9194778127946,948.19347501907566,478.17740807888475,393.83565340491538,-178.57101624093454,-75.211415624144891,1484.0782101658779,154.42142081973708,-61.357980631431261,61.357980631431261,-154.42142081973708,2654.5034703543461,0.0
467154.6038362722,4675833.5216966402,-12500.0,-1503.3463661878206,804.05465103372853,416.80621799518616,334.57855912751131,-146.9978759292988,-61.34112136855007,1289.4793024073526,103.74164612811936,-41.920824082026144,41.920824082026144,-103.74164612811936,2310.3376775266865,0.0
472154.6038362722,4675833.5216966402,-12500.0,-1343.8192353931565,686.23218995333718,365.22778399184398,285.26047489794308,-121.84227672390954,-50.205022066734927,1126.3281284209124,66.496818405179695,-27.141231635934886,27.141231635934886,-66.496818405179695,2021.0969853677359,0.0
477154.6038362722,4675833.5216966402,-12500.0,-1203.8095201196554,589.24425079191656,321.601052062485,244.15881868314204,-101.66661196801851,-41.26676917743557,988.74337230841945,39.091755344010849,-15.94503475097774,15.94503475097774,-39.091755344010849,1776.6550892212504,0.0
482154.6038362722,4675833.5216966402,-12500.0,-1080.9170141820559,508.86853193788619,284.48102970668981,209.82194641066272,-85.376045178078201,-34.079538207556439,872.06477609569174,18.9345755558566,-7.4984051463435542,7.4984051463435542,-18.9345755558566,1568.9535304278911,0.0
267154.6038362722,4680833.5216966402,-12500.0,-1621.3542647121346,265.7122727808117,419.72951433863813,-273.52703913779266,52.448490117006529,-35.804184585617882,1078.0874667495852,-275.31904122829826,239.64572265288311,-239.64572265288311,275.31904122829826,1971.8681983739828,0.0
272154.6038362722,4680833.5216966402,-12500.0,-1851.6604764247675,300.74813256340036,486.90717607243181,-321.54326339055331,60.983353469679457,-42.649821876088339,1235.764378216601,-312.26886325331037,275.89515779991149,-275.89515779991149,312.26886325331037,2259.1148378168959,0.0
277154.6038362722,4680833.5216966402,-12500.0,-2126.806748343281,341.42793750353428,568.94260826872141,-379.75853267953426,71.177089103118803,-50.722850759054857,1424.9140003198868,-356.63291220591282,319.77751263098571,-319.77751263098571,356.63291220591282,2603.4888871069516,0.0
282154.6038362722,4680833.5216966402,-12500.0,-2458.2358497918517,388.64860701354274,670.08221011695741,-450.57879254447903,83.37726670967632,-60.03034787136091,1653.6398746308466,-410.68066073272496,373.48631141496219,-373.48631141496219,410.68066073272496,3019.6814733093852,0.0
287154.6038362722,4680833.5216966402,-12500.0,-2861.2097005202695,443.32272486389718,796.07182203777961,-536.95785077409687,97.993778597164038,-70.318154392958462,1932.6827854763467,-477.73963375096173,440.09294316740329,-440.09294316740329,477.73963375096173,3527.19326546928,0.0
292154.6038362722,4680833.5216966402,-12500.0,-3356.522752336738,506.22400770985496,954.78828951640378,-642.46860018791779,115.4955076227381,-80.761892213109661,2276.5214666752108,-562.88739875303054,524.04174858245119,-524.04174858245119,562.88739875303054,4152.3838607566395,0.0
297154.6038362722,4680833.5216966402,-12500.0,-3973.2667612388159,577.64478048235628,1157.1766729670176,-771.33706376449936,136.38918896150699,-89.349913666555906,2705.0865858768734,-674.21284346301309,632.02150838125704,-632.02150838125704,674.21284346301309,4931.7089663194492,0.0
302154.6038362722,4680833.5216966402,-12500.0,-4753.5022230529203,656.65804487179207,1418.6541786907355,-928.41206999288192,161.15942203008001,-91.658611796688035,3246.5564337710753,-825.19473005380326,774.57020101577666,-774.57020101577666,825.19473005380326,5917.0969208717497,0.0
307154.6038362722,4680833.5216966402,-12500.0,-5760.5448169883521,739.53035880168466,1761.2221131316885,-1119.0869842892614,190.12267144485244,-78.435576976270156,3942.1713603485496,-1039.3347085465309,969.16103819254818,-969.16103819254818,1039.3347085465309,7185.4063331312482,0.0
312154.6038362722,4680833.5216966402,-12500.0,-7094.3885450068265,816.2549991524703,2216.6174578211076,-1349.4150782053264,223.08101068008364,-30.877056936867227,4855.0251144786898,-1359.4588852256202,1246.3774944745874,-1246.3774944745874,1359.4588852256202,8856.0998584645913,0.0
317154.6038362722,4680833.5216966402,-12500.0,-8921.7068351070047,862.77198235012384,2830.848246156806,-1627.4909522879536,258.46986111831131,88.398659785389796,6087.057806687335,-1866.9112424454886,1662.6926554235345,-1662.6926554235345,1866.9112424454886,11126.208596721137,0.0
322154.6038362722,4680833.5216966402,-12500.0,-11536.290091791394,822.89599115396754,3669.9831578317708,-1969.8439087959475,291.10500677352496,351.77669390710366,7813.4348277632589,-2722.0822508963834,2327.5717113405622,-2327.5717113405622,2722.0822508963834,14342.602308405238,0.0
327154.6038362722,4680833.5216966402,-12500.0,-15483.335748081739,564.71215524574131,4824.4702271193546,-2424.4282060467403,305.75661165104424,893.27414774320971,10353.956573250733,-4251.47800994305,3461.5702650642434,-3461.5702650642434,4251.47800994305,19154.582638649445,0.0
332154.6038362722,4680833.5216966402,-12500.0,-21814.43264042068,-228.42865058753105,6397.9631991025344,-3142.5307846987066,257.84224501762753,1939.2680631778387,14321.845079219196,-7136.5476612373695,5519.5455704371943,-5519.5455704371943,7136.5476612373695,26833.025458045358,0.0
337154.6038362722,4680833.5216966402,-12500.0,-32589.214698117939,-2337.1738194149561,8419.4562287782228,-4578.7935663684166,14.885003007155158,3794.8537400289952,20927.63752011086,-12823.318059897489,9440.237181662791,-9440.237181662791,12823.318059897489,39909.060354601861,0.0
342154.6038362722,4680833.5216966402,-12500.0,-51741.800001224183,-7715.4276510973787,10418.875757656022,-7975.5369316035876,-813.18839445433878,6595.4366472841148,32559.40592564864,-24396.489992933508,17097.104497968277,-17097.104497968277,24396.489992933508,63342.68390479208,0.0
347154.6038362722,4680833.5216966402,-12500.0,-85997.499975415863,-21052.247433704917,9600.7114572499158,-16320.63811704502,-3316.2695079705504,9261.4008379238239,53587.232838011805,-48245.325926808167,31867.816398055038,-31867.816398055038,48245.325926808167,106152.57723915279,0.0
352154.6038362722,4680833.5216966402,-12500.0,-143539.85406063776,-50498.780512858626,-5408.0927272567915,-35685.768759165658,-10277.3392380884,6239.7802711236527,91276.458403066383,-94883.293714086874,57994.349935039711,-57994.349935039711,94883.293714086874,180589.78799644829,0.0
357154.6038362722,4680833.5216966402,-12500.0,-238207.77527760717,-90350.168908963853,-53903.320060669357,-75658.451056270904,-28486.289149019492,-21334.669573908053,150555.94636221838,-164673.01272365308,93583.626686681848,-93583.626686681848,164673.01272365308,291766.79954243661,0.0
362154.6038362722,4680833.5216966402,-12500.0,-562776.08770731743,-163044.84148967577,-64844.380099995207,-137029.60119259148,-69140.823771501266,-124068.31433373931,323785.64305310603,-311849.06047527102,146751.49398951977,-146751.49398951977,311849.06047527102,610227.45060856012,0.0
367154.6038362722,4680833.5216966402,-12500.0,-1682357.3361632156,-1045544.745355423,-710568.82040816895,-161550.42287239482,-30858.955172180784,-753398.48869142274,1162817.0841521397,-1415248.9804289227,153164.1728081468,-153164.1728081468,1415248.9804289227,2065243.2802026256,1.0
372154.6038362722,4680833.5216966402,-12500.0,-1982959.7484553172,-1520592.1540202736,-2018638.0851544554,-1624356.0318932896,-3328469.6189227803,-2003206.3232008915,3883532.1597633897,-1754263.8686451768,2053042.2040699157,-2053042.2040699157,1754263.8686451768,6934644.1557813231,1.0
377154.6038362722,4680833.5216966402,-12500.0,-224513.74131271144,134226.10973228418,326046.20971595967,-16535.705220316111,319693.34532435326,-135794.10194964471,428831.50353037909,164991.51687990647,-265089.53950259439,265089.53950259439,-164991.51687990647,789698.48243453761,1.0
382154.6038362722,4680833.5216966402,-12500.0,-170199.05544995365,66243.785071175327,33131.809144197192,94520.097310326295,70651.473950573403,-16853.87230004969,171743.03284799118,-13929.431794542805,-76658.82682672418,76658.82682672418,13929.431794542805,297691.33830724505,1.0
387154.6038362722,4680833.5216966402,-12500.0,-102800.43481226836,31832.028522942252,39162.903986048492,47978.490507150404,35844.924583166416,-11127.927438733121,98882.670669974352,-6828.1657586983274,-38530.178539028137,38530.178539028137,6828.1657586983274,171299.50255901268,0.0
392154.6038362722,4680833.5216966402,-12500.0,-58672.806494283555,22028.261928408188,26279.354136617974,26280.863175915161,12306.174954454915,2130.6172387448523,56308.141144975874,-2501.1903609988285,-12817.896169495874,12817.896169495874,2501.1903609988285,98644.076447812244,0.0
397154.6038362722,4680833.5216966402,-12500.0,-34384.172093330242,15781.140678034664,16132.712496477101,11868.705806691054,2865.374361847134,5291.1028329875007,32153.538036115915,-59.307102359947066,-1844.0576860066988,1844.0576860066988,59.307102359947066,57586.236473612691,0.0
402154.6038362722,4680833.5216966402,-12500.0,-21222.724205137016,11872.926276561539,10381.869316315147,6230.426322789257,-408.3557930246975,2951.2175710459819,20504.895592171917,1894.8268744537008,-144.23340332015812,144.23340332015812,-1894.8268744537008,36865.651004223277,0.0
407154.6038362722,4680833.5216966402,-12500.0,-14573.780932732163,9100.4901403102049,7075.4427507776272,4289.8262038309085,-1298.6569556049637,998.83909061761938,14648.724452642329,2314.5993968481553,-356.11437311473844,356.11437311473844,-2314.5993968481553,26130.142840986726,0.0
412154.6038362722,4680833.5216966402,-12500.0,-10985.911156975822,7026.9434120164251,5052.079487100641,3402.5953999578851,-1364.6221432068392,46.700080435211419,11122.817536014136,1986.765407591314,-570.31952602991191,570.31952602991191,-1986.765407591314,19759.759287645193,0.0
417154.6038362722,4680833.5216966402,-12500.0,-8772.1685694466105,5460.6094055544081,3739.5686038847039,2797.7226628585236,-1186.5765772864759,-313.24545344321035,8712.5269864826914,1484.624270599284,-599.47017260512848,599.47017260512848,-1484.624270599284,15473.252341906829,0.0
422154.6038362722,4680833.5216966402,-12500.0,-7224.2787270884028,4276.1421562197647,2847.324615677921,2301.9439349165286,-966.6079386258599,-401.4546168119947,6950.5136225707392,1031.145537977286,-527.11246426351238,527.11246426351238,-1031.145537977286,12362.335952309511,0.0
427154.6038362722,4680833.5216966402,-12500.0,-6048.4439341803491,3378.3810028351081,2217.9093225014244,1884.0777414374597,-768.21176815373383,-381.97768434016581,5617.5713383429356,680.48076330946139,-423.47521876523876,423.47521876523876,-680.48076330946139,10013.016206771506,0.0
432154.6038362722,4680833.5216966402,-12500.0,-5113.626730948311,2694.5492478742399,1760.5284913899063,1536.7808511228111,-605.92582281344301,-327.98963219384586,4589.4931120027613,426.95904088908492,-322.74167035954883,322.74167035954883,-426.95904088908492,8199.2335993192064,0.0
437154.6038362722,4680833.5216966402,-12500.0,-4352.9005164278724,2170.0014387501892,1419.9707691567512,1252.8720407464743,-478.17907217546201,-269.31262198191115,3785.9733922123646,249.85076281366059,-237.27922858731574,237.27922858731574,-249.85076281366059,6778.6027419204329,0.0
442154.6038362722,4680833.5216966402,-12500.0,-3726.169800259991,1764.2905232623305,1161.166991572735,1023.3600516353109,-379.09651541055075,-216.67970681051548,3151.1779082734702,128.6191244345755,-169.30478319306235,169.30478319306235,-128.6191244345755,5653.461295506665,0.0
447154.6038362722,4680833.5216966402,-12500.0,-3205.9814181454426,1447.6842204424868,961.02712495064236,838.8868850764253,-302.53007714436063,-172.88959916538025,2644.8291627326175,46.8873313823863,-117.09120560395363,117.09120560395363,-46.8873313823863,4753.7166960032318,0.0
452154.6038362722,4680833.5216966402,-12500.0,-2771.874507110982,1198.3496074231625,803.88767575903421,690.86464964830861,-243.24769759405214,-137.69311092357012,2237.2880892993412,-7.3797127933666644,-77.797445869516153,77.797445869516153,7.3797127933666644,4027.815308767983,0.0
457154.6038362722,4680833.5216966402,-12500.0,-2407.9021489239503,1000.2082343131062,678.85125370052049,571.9602484093474,-197.12124631259042,-109.85532528959381,1906.4637988991838,-42.708107035095594,-48.614597421237278,48.614597421237278,42.708107035095594,3437.2659761028331,0.0
462154.6038362722,4680833.5216966402,-12500.0,-2101.3678350076084,841.35580065771899,578.17017943620885,476.16527238072831,-160.99816253179563,-87.981605375177054,1635.7269806048741,-65.036285056712586,-27.150986993045485,27.150986993045485,65.036285056712586,2953.0159524199094,0.0
467154.6038362722,4680833.5216966402,-12500.0,-1842.0640693779944,712.91824125882044,496.23158425111825,398.67155124282863,-132.50393844043154,-70.815655562857586,1412.4499489427508,-78.470653542997809,-11.500559810524862,11.500559810524862,78.470653542997809,2552.9377576193506,0.0
472154.6038362722,4680833.5216966402,-12500.0,-1621.7423490806623,608.22899191350461,428.90079556334797,335.68083344121834,-109.8578192304671,-57.31956049289785,1226.9628267171915,-85.844357626608172,-0.19458715442208785,0.19458715442208785,85.844357626608172,2220.0364205021001,0.0
477154.6038362722,4680833.5216966402,-12500.0,-1433.716006565769,522.23921571204198,373.08662345937944,284.211871365381,-91.723305666446791,-46.669985976385625,1071.8007904681519,-89.112528865533619,7.8784652874145422,-7.8784652874145422,89.112528865533619,1941.1553421343137,0.0
482154.6038362722,4680833.5216966402,-12500.0,-1272.5502481282342,451.09378991758877,326.4472605666794,241.93005640062009,-77.093669759396789,-38.226906866995684,941.15616480397136,-89.626196337096616,13.551834593189113,-13.551834593189113,89.626196337096616,1706.0318801891485,0.0
267154.6038362722,4685833.5216966402,-12500.0,-1453.1632543253236,374.12159698120803,397.64908176573664,-247.35713921796474,67.824175908301129,-33.071849155725751,1019.869949045325,-138.55084082583858,172.90053468050144,-172.90053468050144,138.55084082583858,1852.3231734395454,0.0
272154.6038362722,4685833.5216966402,-12500.0,-1650.5056652635221,431.66448365624507,460.1119161402836,-289.24506091637824,80.068292787002292,-39.184795603587588,1166.2827132233526,-148.07052357680561,195.14208876786068,-195.14208876786068,148.07052357680561,2116.4600050128611,0.0
277154.6038362722,4685833.5216966402,-12500.0,-1884.433187484125,500.95469100644164,536.23908453862839,-339.58351633236924,95.055080496681001,-46.298940529414033,1341.4028158106444,-157.83280217495226,221.26124035847087,-221.26124035847087,157.83280217495226,2432.0352095542553,0.0
282154.6038362722,4685833.5216966402,-12500.0,-2163.8578368912663,584.98094385006902,629.94384570149907,-400.19173421500841,113.5007936788804,-54.344992988153059,1552.5112070773723,-167.74285597144677,252.21438597665662,-252.21438597665662,167.74285597144677,2812.0326143921588,0.0
287154.6038362722,4685833.5216966402,-12500.0,-2500.5924166961981,687.63867042725235,746.5513309658171,-473.21294673228988,136.3245289493716,-62.966589270104294,1809.2409946744176,-177.7981926165748,289.34740495572152,-289.34740495572152,177.7981926165748,3273.6411167834272,0.0
292154.6038362722,4685833.5216966402,-12500.0,-2910.6829003854923,814.04504317757869,893.42430173259152,-561.09249806127843,164.70239236905041,-71.204819477167604,2124.5683033562555,-188.29482329924627,334.66284792654182,-334.66284792654182,188.29482329924627,3840.058770981228,0.0
297154.6038362722,4685833.5216966402,-12500.0,-3416.6227731443496,970.97194485026341,1080.9229072462488,-666.4805101285076,200.1281613850721,-76.876850952040144,2516.3740609631022,-200.30278470535745,391.33860603040023,-391.33860603040023,200.30278470535745,4543.3756539804872,0.0
302154.6038362722,4685833.5216966402,-12500.0,-4051.2359555190324,1167.4359275205259,1323.9113737711568,-792.02143623296138,244.47052877280615,-75.356308387296949,3010.0348022359476,-216.73101826639771,464.7733074974787,-464.7733074974787,216.73101826639771,5429.4382980620148,0.0
307154.6038362722,4685833.5216966402,-12500.0,-4864.8694237454301,1415.4808033691186,1644.1828137873474,-940.04776851995314,300.00068393640686,-57.191601057857703,3642.9813537701311,-244.68048016919641,564.75960521709612,-564.75960521709612,244.68048016919641,6566.5766846276601,0.0
312154.6038362722,4685833.5216966402,-12500.0,-5939.4362210075869,1731.1358048791624,2074.4699044069403,-1112.4704625023528,369.3270683094226,-3.5077156543967019,4473.2371211422178,-300.62246144514353,710.11654042382361,-710.11654042382361,300.62246144514353,8062.2848723752577,0.0
317154.6038362722,4685833.5216966402,-12500.0,-7417.1560385239791,2135.3112152596809,2665.2811440417067,-1312.170455922779,455.08943644883573,122.62806613249151,5596.3829418529331,-421.78599831782896,938.73861182004998,-938.73861182004998,421.78599831782896,10097.021310249895,0.0
322154.6038362722,4685833.5216966402,-12500.0,-9561.7282492954819,2653.5706674693683,3496.9227662451426,-1550.4810735170854,559.05308376193477,391.37502796628644,7180.9008193704703,-691.20366064843813,1329.5705877687647,-1329.5705877687647,691.20366064843813,12995.862286331028,0.0
327154.6038362722,4685833.5216966402,-12500.0,-12892.451609456051,3310.7486923780029,4701.2758350184613,-1875.1717235988349,679.67286990536377,928.50791577934319,9544.1753879730259,-1292.7612357881735,2050.345389494928,-2050.345389494928,1292.7612357881735,17384.297972653469,0.0
332154.6038362722,4685833.5216966402,-12500.0,-18484.116809067487,4105.2566252217766,6501.8690024226453,-2460.1921390898128,805.55732649198683,1931.0854249003548,13319.608360275746,-2632.5921353989843,3458.2799690397351,-3458.2799690397351,2632.5921353989843,24528.551030349601,0.0
337154.6038362722,4685833.5216966402,-12500.0,-28647.555202337036,4902.5360290629178,9284.1231686854499,-3862.3628882358316,897.7183997870967,3599.619635319581,19836.343679921854,-5616.4394511980736,6300.0410625472341,-6300.0410625472341,5616.4394511980736,37078.010457722281,0.0
342154.6038362722,4685833.5216966402,-12500.0,-48517.563296911794,4974.2979394882186,13669.590180825202,-7666.4864028761922,843.50007667040984,5703.7432581728062,32026.283904711232,-12385.981080514035,12081.802347184775,-12081.802347184775,12385.981080514035,60729.01998308942,0.0
347154.6038362722,4685833.5216966402,-12500.0,-89983.802941278467,723.66721339159665,20018.25693364528,-17832.568599680024,361.06344631053662,5963.4780741682498,56612.29147977414,-29052.165512479198,23822.438613848182,-23822.438613848182,29052.165512479198,108203.04548217202,0.0
352154.6038362722,4685833.5216966402,-12500.0,-179993.83266217148,-26971.801201412487,19809.746510342004,-42593.461186666485,-881.01678563428777,-5094.1782186314522,108782.19291670951,-79288.987361355918,48096.726860308452,-48096.726860308452,79288.987361355918,207829.62729172403,0.0
357154.6038362722,4685833.5216966402,-12500.0,-314535.64996666764,-146833.8033686846,-103220.74299353416,-93918.66687870727,3338.5236417728793,-69459.151609038279,208527.85306977021,-234994.81763008737,80466.210277245598,-80466.210277245598,234994.81763008737,379610.64938281022,0.0
362154.6038362722,4685833.5216966402,-12500.0,-123859.89863632468,95203.034229474986,-421590.78293739224,-230438.42730996618,-31846.896603790206,-396679.87400369969,280612.88183187216,40577.028839666833,-111432.77054043868,111432.77054043868,-40577.028839666833,520947.80918789888,1.0
367154.6038362722,4685833.5216966402,-12500.0,48289.977817928666,941526.56917009095,334414.75943262817,-673597.75418615388,563126.2181884296,-1487525.4394794684,1609061.5610244633,1401815.8043147502,-1179573.4014676423,1179573.4014676423,-1401815.8043147502,2802139.0570534226,1.0
372154.6038362722,4685833.5216966402,-12500.0,-116120.63479290603,-517708.83834007394,-338313.37375995057,261716.12548245996,-458231.9803177524,1487757.5457630099,1226624.6231394433,-1067899.1311603426,1204838.0604414078,-1204838.0604414078,1067899.1311603426,2148871.3026789105,1.0
377154.6038362722,4685833.5216966402,-12500.0,-318368.04125864018,-235059.08911519925,-46491.181927630118,188784.52974416999,272258.86715285142,-227640.90625913674,419177.93022794073,-262089.02508997859,-263621.33999269234,263621.33999269234,262089.02508997859,743326.05599050096,1.0
382154.6038362722,4685833.5216966402,-12500.0,-265502.98990805447,-64781.747902805531,43390.440241454096,158356.68761650773,85537.884129424536,-59016.597997209297,234239.71477708104,-139246.25350717426,-93179.547468569552,93179.547468569552,139246.25350717426,428999.09830209782,0.0
387154.6038362722,4685833.5216966402,-12500.0,-145253.77840615163,-15967.165204352679,31890.730001890122,71348.506129875052,39368.284415227645,-5441.9055874315518,120156.77550783762,-66266.725237472943,-28950.022683465628,28950.022683465628,66266.725237472943,216441.4370872716,0.0
392154.6038362722,4685833.5216966402,-12500.0,-85594.919247981423,-3601.9726130430508,24660.863731394955,35821.978031167775,16322.285616159596,5382.4289677865945,67434.610253053717,-34997.820861194181,-7005.4723287047491,7005.4723287047491,34997.820861194181,122842.39000186292,0.0
397154.6038362722,4685833.5216966402,-12500.0,-52220.378313980626,2793.9180007904279,18099.223290226568,18371.192282330539,4766.4996303935231,4564.6196987448784,39227.285075444335,-16715.013637573204,-397.85704917256771,397.85704917256771,16715.013637573204,72666.103094339895,0.0
402154.6038362722,4685833.5216966402,-12500.0,-33509.402650926073,4959.5209938771332,12804.680549049237,10860.23181051678,633.84036124117961,1745.6138765427434,25336.351522691741,-7512.9022226034176,23.114090627151654,-23.114090627151654,7512.9022226034176,46732.605700387154,0.0
407154.6038362722,4685833.5216966402,-12500.0,-23125.605521258411,5049.5267494157315,9068.7010562172254,7429.0430232913041,-601.01919926175799,100.02757456963731,17946.351848506063,-3541.2934053457902,-406.19048081647929,406.19048081647929,3541.2934053457902,32731.011754940275,0.0
412154.6038362722,4685833.5216966402,-12500.0,-16993.63198518362,4442.1026108952137,6533.4417026411202,5494.7124928426747,-862.10391289526649,-538.57500025204376,13393.589476842844,-1909.4706401371814,-599.45389427937425,599.45389427937425,1909.4706401371814,24272.512249289284,0.0
417154.6038362722,4685833.5216966402,-12500.0,-13048.127057233803,3705.4963528453986,4809.2382758881558,4197.3327872268464,-819.02722814353342,-683.75939907120744,10303.199403009867,-1225.5553926437942,-581.01410833414809,581.01410833414809,1225.5553926437942,18628.617444306426,0.0
422154.6038362722,4685833.5216966402,-12500.0,-10314.710722487782,3031.2713486141497,3617.0867340049876,3250.7593092400753,-697.02884032710563,-636.88528278353488,8086.5006094064775,-914.52678603167124,-476.15132389172322,476.15132389172322,914.52678603167124,14616.820981466388,0.0
427154.6038362722,4685833.5216966402,-12500.0,-8318.1766053238189,2467.1277487359253,2775.5865953477664,2538.263735966726,-569.84392702681737,-533.81879248412099,6444.5591147196483,-750.69897729444824,-356.66098784967721,356.66098784967721,750.69897729444824,11656.44280795731,0.0
432154.6038362722,4685833.5216966402,-12500.0,-6807.2019070847009,2011.2748714821766,2168.9767861203472,1995.9750155224851,-459.10030184774439,-427.7719771407418,5202.5489186232089,-646.96412281745461,-251.32995119846578,251.32995119846578,646.96412281745461,9419.4349632375834,0.0
437154.6038362722,4685833.5216966402,-12500.0,-5635.841419833564,1647.6720315114389,1722.8648014701166,1580.9386892812258,-368.631501074428,-336.1848580573332,4248.1292475707723,-569.86835719448675,-167.68008613649124,167.68008613649124,569.86835719448675,7699.9051650746078,0.0
442154.6038362722,4685833.5216966402,-12500.0,-4711.9669949461522,1358.4700106058526,1388.6682033262798,1261.730357694438,-296.59840084479163,-262.36838911414071,3504.9840197329577,-506.53819814718162,-104.70992046907639,104.70992046907639,506.53819814718162,6359.8289546481228,0.0
447154.6038362722,4685833.5216966402,-12500.0,-3973.5614011741222,1127.9322855762755,1134.0491035252348,1014.8499857434357,-239.78154196373876,-204.68391429039406,2919.5326393137575,-451.9242993513609,-58.785975011260092,58.785975011260092,451.9242993513609,5302.9336317502439,0.0
452154.6038362722,4685833.5216966402,-12500.0,-3376.9273167693395,943.27153708570154,937.05816466649026,822.68927640647041,-195.03516716103314,-160.20351890211455,2453.3429626011402,-403.9061932488197,-26.017440166037517,26.017440166037517,403.9061932488197,4460.3515139364754,0.0
457154.6038362722,4685833.5216966402,-12500.0,-2890.2884113333216,794.45044514365759,782.51277119613428,672.07793994052975,-159.70482496233512,-126.05119479412316,2078.410918570883,-361.43314143144903,-3.059309266625263,3.059309266625263,361.43314143144903,3781.9333538248361,0.0
462154.6038362722,4685833.5216966402,-12500.0,-2490.0129666090461,673.70445482276932,659.72092480128993,553.17063637875071,-131.67686891181307,-99.809722337005368,1774.0620926647648,-323.83379359587093,12.722894035527105,-12.722894035527105,323.83379359587093,3230.6398281769689,0.0
467154.6038362722,4685833.5216966402,-12500.0,-2158.2350610967737,575.05715735532647,561.02631597674224,458.59742894046855,-109.31126193068719,-79.574492614501523,1524.8573973719758,-290.57292834156584,23.317146744889783,-23.317146744889783,290.57292834156584,2778.7847451738853,0.0
472154.6038362722,4685833.5216966402,-12500.0,-1881.2703942138562,493.90691457299641,480.86037940222315,382.82315008174487,-91.349275916949978,-63.88947068047537,1319.143461089684,-261.17338176256715,30.190021719803639,-30.190021719803639,261.17338176256715,2405.4460480672533,0.0
477154.6038362722,4685833.5216966402,-12500.0,-1648.5251080486398,426.6996935505378,415.11456100218771,321.67159736090997,-76.82817840910819,-51.657131451619676,1148.0369072752042,-235.19630931992558,34.410314040784982,-34.410314040784982,235.19630931992558,2094.6549495528466,0.0
267154.6038362722,4690833.5216966402,-12500.0,-1262.5682392848453,460.00771705657365,362.67017276487229,-217.98732704177388,79.552501804016899,-29.990381655940045,953.43651165063636,-14.135362238146662,109.05300330082372,-109.05300330082372,14.135362238146662,1718.655787583888,0.0
272154.6038362722,4690833.5216966402,-12500.0,-1421.1326438159326,534.12511935232237,416.94059672830355,-252.83543571065289,94.425582775551831,-35.277779674542593,1086.4629823633768,0.45071898717075243,118.10817038681748,-118.10817038681748,-0.45071898717075243,1956.0672215143002,0.0
277154.6038362722,4690833.5216966402,-12500.0,-1606.1135586756313,624.16203371307256,482.49735322285522,-294.07995969138915,112.74344004664238,-41.320011211426781,1244.7442305526583,20.876942577704618,127.55947329784723,-127.55947329784723,-20.876942577704618,2238.0675951070807,0.0
282154.6038362722,4690833.5216966402,-12500.0,-1823.1049819249231,734.44257603612516,562.4219969718265,-342.83631449052967,135.43424700091671,-47.974724818174096,1434.4642867535686,49.183752362576257,137.227409731557,-137.227409731557,-49.183752362576257,2575.472867498755,0.0
287154.6038362722,4690833.5216966402,-12500.0,-2079.2799415754907,870.73936008140288,660.86461493089541,-400.26993098382076,163.69653869342449,-54.799085698851968,1663.739649163399,88.103460842489426,146.87046788837517,-146.87046788837517,-88.103460842489426,2982.4727244780875,0.0
292154.6038362722,4690833.5216966402,-12500.0,-2384.0839481875132,1040.8709857499953,783.50486228693296,-467.45747440255747,199.07346365771815,-60.745194965436568,1943.4182223311568,141.25624093749747,156.23231198995688,-156.23231198995688,-141.25624093749747,3478.0479333484659,0.0
297154.6038362722,4690833.5216966402,-12500.0,-2750.4334576957435,1255.6093923854839,938.25641435734997,-545.12029415474649,243.53762729338646,-63.573414066611534,2288.3428977521726,213.3425629184834,165.20533328891128,-165.20533328891128,-213.3425629184834,4088.2418479634957,0.0
302154.6038362722,4690833.5216966402,-12500.0,-3196.9334309235178,1530.106371572534,1136.371092909998,-633.16989976019443,299.57760571102051,-58.726201295270215,2719.4651884464884,310.23803534400543,174.27735629265987,-174.27735629265987,-310.23803534400543,4850.0200251019705,0.0
307154.6038362722,4690833.5216966402,-12500.0,-3752.2344865498903,1886.2342847037439,1394.2183495128252,-730.05054584303639,370.2681467409945,-37.180528366384948,3267.6085396618996,438.75924934144444,185.6390369539925,-185.6390369539925,-438.75924934144444,5818.2565221137456,0.0
312154.6038362722,4690833.5216966402,-12500.0,-4464.034076134265,2356.6312509361774,1736.2474099661799,-832.12602072733625,459.3048529741589,18.579190572088919,3980.6134511274818,605.58526545699976,205.7883086748991,-205.7883086748991,-605.58526545699976,7079.2065024621534,0.0
317154.6038362722,4690833.5216966402,-12500.0,-5418.3845483054856,2992.126682081861,2200.1061304826894,-934.33915095677253,571.04462931336752,141.81165194611742,4937.6988241814106,814.3083504712431,251.41325859186509,-251.41325859186509,-814.3083504712431,8777.9604796409203,0.0
322154.6038362722,4690833.5216966402,-12500.0,-6782.196222024073,3876.3004467043324,2845.9013619220736,-1036.5608186126947,710.93505689194967,393.31746487991285,6279.5806184573867,1058.9260749516884,362.06367144466748,-362.06367144466748,-1058.9260749516884,11176.694063149747,0.0
327154.6038362722,4690833.5216966402,-12500.0,-8898.1130982826471,5155.9814682358528,3773.9742202858679,-1169.4875413878924,888.14817886485378,875.49919012480098,8273.3629659823928,1312.359216764924,625.29429472468155,-625.29429472468155,-1312.359216764924,14780.906109931915,0.0
332154.6038362722,4690833.5216966402,-12500.0,-12497.229544075426,7109.0817574984858,5161.9990808609709,-1479.2943644394898,1127.5905410069208,1726.9541798712266,11456.40135462143,1514.8422128444658,1218.039697978526,-1218.039697978526,-1514.8422128444658,20615.142320512223,0.0
337154.6038362722,4690833.5216966402,-12500.0,-19180.11183336773,10302.956940932118,7352.9052615726268,-2468.338362130432,1517.2205178231884,2999.5187357349791,16977.192489016561,1595.3599504000399,2439.9557289026502,-2439.9557289026502,-1595.3599504000399,30839.604627522687,0.0
342154.6038362722,4690833.5216966402,-12500.0,-32587.993276022728,15977.393464247449,11108.734020093694,-5585.5149090460345,2379.3240635001548,4072.8862563994699,27507.134361979442,1630.7291546592323,4589.4786761082005,-4589.4786761082005,-1630.7291546592323,50277.951372813695,0.0
347154.6038362722,4690833.5216966402,-12500.0,-62233.556633218061,26991.077901776651,18593.252275006482,-14423.678861728456,4859.811604987729,1570.4055712469431,50144.22854743895,2159.2092047311162,7204.1937797234605,-7204.1937797234605,-2159.2092047311162,91254.499460101157,0.0
352154.6038362722,4690833.5216966402,-12500.0,-146026.04305600689,49814.929154997415,39112.055940931314,-36659.816255699167,12946.209134994413,-18242.569228437726,110211.29797921659,1215.8922573792697,6971.2426620826955,-6971.2426620826955,-1215.8922573792697,197297.65161485857,0.0
357154.6038362722,4690833.5216966402,-12500.0,-615123.27982438379,53090.370079468303,140808.19163021626,-71770.237194621455,44935.006555944048,-174625.92828752717,390322.37251809734,-95960.7266468257,-22708.764530364162,22708.764530364162,95960.7266468257,680037.2214786337,1.0
362154.6038362722,4690833.5216966402,-12500.0,-3337281.3069402184,-2373136.6431866018,-2088709.7153599896,-1672115.9823846403,-2013359.1707524545,3801066.9948990168,5194069.7352776993,-4861337.1690919632,5262602.3136900524,-5262602.3136900524,4861337.1690919632,9002571.9772681203,1.0
367154.6038362722,4690833.5216966402,-12500.0,-174361.97702927102,139844.59858434222,291442.25523630355,147498.99401830239,243363.12357307656,590972.08378214971,495105.70515418227,-82924.095216255519,146513.54235746362,-146513.54235746362,82924.095216255519,864770.59820872534,1.0
372154.6038362722,4690833.5216966402,-12500.0,173894.47053864325,111635.95175430452,-91171.361881282486,1656.6551006537643,73353.095106357825,177435.11990272827,189124.71112324699,64223.623360177902,18268.885115499412,-18268.885115499412,-64223.623360177902,353198.1841134929,1.0
377154.6038362722,4690833.5216966402,-12500.0,14192.686317623915,-119081.92516274656,-202709.36931747475,88848.88457994131,184532.70150324801,-80973.531917730172,229817.21840387589,-131004.08243065924,-155678.06842368122,155678.06842368122,131004.08243065924,451488.87452144566,1.0
382154.6038362722,4690833.5216966402,-12500.0,-132317.00313085649,-118065.61332595571,-54606.031091988851,117679.71263528717,100864.58021730739,-32974.421595669672,182231.85312498559,-160724.58627527358,-74765.803462079362,74765.803462079362,160724.58627527358,349389.37760107365,0.0
387154.6038362722,4690833.5216966402,-12500.0,-118208.6688357949,-59989.539892146822,-2384.3016542225332,66433.219862171056,44353.917601145535,3166.6558149637308,111728.28032149903,-101348.62085577831,-17719.442401327477,17719.442401327477,101348.62085577831,209826.58580562528,0.0
392154.6038362722,4690833.5216966402,-12500.0,-81769.124618516027,-28697.078247348385,10753.819170661769,35765.179314481014,18763.598407684069,6148.9139688254118,65816.383125584267,-56779.806005453043,-2411.7351991433388,2411.7351991433388,56779.806005453043,124578.76955484031,0.0
397154.6038362722,4690833.5216966402,-12500.0,-55558.730143056171,-12541.624878583021,12894.169311628433,21100.962445934598,7362.4566478641,2688.107966350095,40893.628656155975,-30776.683471952314,3.1630835125943122,-3.1630835125943122,30776.683471952314,77856.116373311321,0.0
402154.6038362722,4690833.5216966402,-12500.0,-38722.957973236546,-4676.857109675394,11218.770672203982,13806.56499728103,2705.4162587284404,165.69787448703372,27770.683352071628,-17062.459880132781,-292.82188806680824,292.82188806680824,17062.459880132781,52189.82310517005,0.0
407154.6038362722,4690833.5216966402,-12500.0,-28001.600610194608,-1135.8260936544455,8817.9385751852951,9711.3433651241867,865.69820157680067,-882.94862560606828,20031.63113641099,-10091.75242802379,-616.38233730480897,616.38233730480897,10091.75242802379,37170.588569774627,0.0
412154.6038362722,4690833.5216966402,-12500.0,-20949.03741900883,360.0545607544143,6717.0282735263118,7103.669718563785,142.35967862690654,-1118.8124730059581,14982.483798651014,-6449.9889242677891,-657.18844896826295,657.18844896826295,6449.9889242677891,27601.825906353657,0.0
417154.6038362722,4690833.5216966402,-12500.0,-16102.095004202598,931.6076732680425,5097.5496075721794,5305.8086941606971,-133.24093494131344,-1029.3934557672549,11480.267225841068,-4422.9020009562546,-547.89383428039037,547.89383428039037,4422.9020009562546,21075.746799949509,0.0
422154.6038362722,4690833.5216966402,-12500.0,-12638.140728481878,1093.8979671111751,3897.7728538427846,4016.4216498415694,-224.88483843591615,-848.25325718108468,8957.9215007710536,-3207.4407494215375,-400.87009193705239,400.87009193705239,3207.4407494215375,16420.042956224432,0.0
427154.6038362722,4690833.5216966402,-12500.0,-10085.690424282004,1080.1752972661791,3016.2371663252702,3073.6266200001878,-240.52979323257995,-666.96876950658759,7095.5568250368706,-2425.7495452568314,-266.9678660553559,266.9678660553559,2425.7495452568314,12999.417550143949,0.0
432154.6038362722,4690833.5216966402,-12500.0,-8160.4842771446838,996.30016562843923,2365.4792203491415,2376.1685041491382,-225.97854918324867,-514.07739495639896,5694.900534607691,-1892.580996153031,-161.26684924471033,161.26684924471033,1892.580996153031,10432.98697804933,0.0
437154.6038362722,4690833.5216966402,-12500.0,-6681.5965717873178,890.23799974020756,1880.1606278999698,1855.3616718051501,-201.06250144807083,-393.60755462250472,4625.3955045215098,-1511.6495987676954,-83.672603940379872,83.672603940379872,1511.6495987676954,8475.3883252472806,0.0
442154.6038362722,4690833.5216966402,-12500.0,-5528.4507427181834,783.26325297182018,1513.7209986662745,1462.9786078969275,-174.32064817965528,-301.48447369554555,3797.7991287164077,-1229.5862376301297,-29.213816621508954,29.213816621508954,1229.5862376301297,6961.0883715679565,0.0
447154.6038362722,4690833.5216966402,-12500.0,-4617.7663638016302,684.20717317481456,1233.4335139641557,1164.6738142873321,-149.25092133981059,-231.89927810874411,3149.589423267058,-1014.8972331666644,7.7188571313225225,-7.7188571313225225,1014.8972331666644,5774.9827972316152,0.0
452154.6038362722,4690833.5216966402,-12500.0,-3890.4470464393662,596.10079483057643,1016.2850267926018,935.80992816328046,-127.08133812712683,-179.50301088468041,2636.1691156714132,-847.92071334360799,31.939891688911473,-31.939891688911473,847.92071334360799,4835.3071556538653,0.0
457154.6038362722,4690833.5216966402,-12500.0,-3303.672052685667,519.32580902564928,845.97868905875748,758.61043487310076,-108.03356199632736,-139.97488209043908,2225.2549620861628,-715.77713697979152,47.175254573232849,-47.175254573232849,715.77713697979152,4083.004257906844,0.0
462154.6038362722,4690833.5216966402,-12500.0,-2825.891011965457,453.12498492732362,710.85698553229463,620.17064455440743,-91.908178765818576,-110.01326603442709,1893.174361449677,-609.68814631317969,56.16776150097877,-56.16776150097877,609.68814631317969,3474.8159850914262,0.0
467154.6038362722,4690833.5216966402,-12500.0,-2433.5304311243685,396.32414065262884,602.48526817775326,511.05853826198182,-78.355561854897658,-87.159208645196841,1622.3621796614975,-523.47445509546844,60.882986041439523,-60.882986041439523,523.47445509546844,2978.6589459779075,0.0
472154.6038362722,4690833.5216966402,-12500.0,-2108.7612472904598,347.67012461215785,514.68799272130286,424.3287085121006,-66.998418494050128,-69.601543922348867,1399.6395365589688,-452.67067311603489,62.708113810431513,-62.708113810431513,452.67067311603489,2570.4631306796023,0.0
477154.6038362722,4690833.5216966402,-12500.0,-1837.9539493747179,305.98116387937625,442.89053515535733,354.82683788977909,-57.484007532685084,-56.010808121285166,1215.0158511528018,-393.98011774164257,62.613056192270165,-62.613056192270165,393.98011774164257,2231.9790863202306,0.0
267154.6038362722,4695833.5216966402,-12500.0,-1058.8576262736963,520.39068040578729,319.0840865036638,-186.76164758402004,87.251346641888716,-26.688240699432999,880.87756947288813,93.587192232271775,50.701091189447432,-50.701091189447432,-93.587192232271775,1575.3492519282695,0.0
272154.6038362722,4695833.5216966402,-12500.0,-1175.8306582444466,604.22182313294968,363.12454552147562,-214.1372042353353,103.54526189346608,-31.105208687085842,999.05557381850087,127.60290949609841,48.237040689066745,-48.237040689066745,-127.60290949609841,1783.8383928282799,0.0
277154.6038362722,4695833.5216966402,-12500.0,-1308.3156545592435,705.85469087856427,415.47169778351713,-245.74954997533277,123.55454215569041,-36.029898433254793,1138.6002984061324,171.9336561287862,43.295697699355969,-43.295697699355969,-171.9336561287862,2029.4511619817511,0.0
282154.6038362722,4695833.5216966402,-12500.0,-1458.3541132168912,830.02152969228791,478.15675958472178,-281.9894973678978,148.24041521279233,-41.25796841051698,1304.4387682570036,229.90336114972982,34.821016689381594,-34.821016689381594,-229.90336114972982,2320.625101804279,0.0
287154.6038362722,4695833.5216966402,-12500.0,-1628.1484181324802,982.99488082364292,553.8378416116027,-323.02620597389119,178.81793496131715,-46.285668914161995,1502.9370047923658,305.99073851142589,21.369599982203454,-21.369599982203454,-305.99073851142589,2668.249083104266,0.0
292154.6038362722,4695833.5216966402,-12500.0,-1820.0592901821146,1173.2067425170621,646.04050758809149,-368.55939233701423,216.80667560043878,-50.03202118878874,1742.4629752269464,406.24544040147015,1.0059472199725974,-1.0059472199725974,-406.24544040147015,3086.6400046469221,0.0
297154.6038362722,4695833.5216966402,-12500.0,-2036.6801493379376,1412.1886417359322,759.50949407865176,-417.39867110885979,264.0716410908675,-50.320131331628225,2034.2726199950507,538.84625406400733,-28.781998559823649,28.781998559823649,-538.84625406400733,3595.1022320648563,0.0
302154.6038362722,4695833.5216966402,-12500.0,-2281.1655481657936,1716.0589764838803,900.7318154377391,-466.78934437834653,322.83195793375052,-42.913296870270457,2393.9934131673599,714.83934634752882,-71.065961297226011,71.065961297226011,-714.83934634752882,4220.5768045419964,0.0
307154.6038362722,4695833.5216966402,-12500.0,-2558.2579213414288,2108.0022174998148,1078.7208265898307,-511.43103705949335,395.60353517895857,-19.744116891762513,2844.2783483333606,949.10856053409134,-129.17098712388906,129.17098712388906,-949.10856053409134,5002.43516952149,0.0
312154.6038362722,4695833.5216966402,-12500.0,-2877.0713675178831,2622.6666641146849,1306.1887821550711,-542.3387333864938,485.0561149634226,34.254210305224532,3419.8624393622013,1261.6987015457958,-205.68686604016148,205.68686604016148,-1261.6987015457958,6001.6683788640921,0.0
317154.6038362722,4695833.5216966402,-12500.0,-3258.0104651786633,3314.5256977823174,1601.2489379015005,-546.46853227811607,593.92057192391712,146.47757797951797,4177.6758865820302,1679.9465642034429,-300.10965029381475,300.10965029381475,-1679.9465642034429,7319.2896210897106,0.0
322154.6038362722,4695833.5216966402,-12500.0,-3748.7560563058992,4274.9219445407316,1989.6468788707482,-510.46811868261386,725.80593366714652,364.28107585593438,5217.5786915202316,2243.2744004369943,-404.40031318351907,404.40031318351907,-2243.2744004369943,9134.0608220910781,0.0
327154.6038362722,4695833.5216966402,-12500.0,-4457.9662591429251,5669.0175685073109,2506.7502771535401,-438.70503384842971,890.57019235343182,760.5742325422533,6724.8932322865348,3017.8619144766949,-498.09406317990806,498.09406317990806,-3017.8619144766949,11779.84714397338,0.0
332154.6038362722,4695833.5216966402,-12500.0,-5615.3203937197841,7819.6170134883478,3195.4892175723644,-412.07076910577183,1127.5943101267183,1413.841548916377,9057.7455133389722,4147.429476796402,-558.46008907642477,558.46008907642477,-4147.429476796402,15901.884179951412,1.0
337154.6038362722,4695833.5216966402,-12500.0,-7634.9735000923401,11401.792017929893,4085.6843254833389,-743.24997748101748,1591.5580167296653,2271.5371403195063,12936.468146531861,6028.9440407006859,-660.71002135261961,660.71002135261961,-6028.9440407006859,22774.129346265781,0.0
342154.6038362722,4695833.5216966402,-12500.0,-10978.26890423332,17894.667020661604,5102.6861453294487,-2294.3999791122228,2837.6452625509196,2603.5940382319104,19899.522216348276,9892.6750550859251,-1459.1297195881116,1459.1297195881116,-9892.6750550859251,35003.737198599374,0.0
347154.6038362722,4695833.5216966402,-12500.0,-14749.847272174129,30595.773465582482,5711.1607135314471,-6839.8208498022059,6704.2094671266632,-794.9425837126123,33469.620472329123,19646.273986057793,-6058.9369837676049,6058.9369837676049,-19646.273986057793,58406.793952125132,0.0
352154.6038362722,4695833.5216966402,-12500.0,-7519.7332083429292,55963.663703549835,3722.5367353138458,-16470.114297431839,19227.725923365444,-19768.606084618772,62536.727634581141,48172.217918956907,-27346.305879188898,27346.305879188898,-48172.217918956907,108318.20691112596,0.0
357154.6038362722,4695833.5216966402,-12500.0,97198.583358004165,79008.463916141045,12510.327355021682,-16663.203749698652,63182.850423199205,-109661.9930595396,146037.38805528142,140472.2120447277,-128849.34741224087,128849.34741224087,-140472.2120447277,252944.5676025268,1.0
362154.6038362722,4695833.5216966402,-12500.0,303320.57816156064,17902.941638240962,-53459.248107530897,148248.59237234609,-72192.023617691797,-153159.77122013638,287937.52708358236,150664.18688055556,-161500.82792940529,161500.82792940529,-150664.18688055556,505304.58167098393,1.0
367154.6038362722,4695833.5216966402,-12500.0,-28813.325079019578,-126189.94064076299,38106.932104533276,165199.29711358569,-50051.388857155289,27474.873997230134,215610.34397994506,-121388.04415243836,8854.0055103468621,-8854.0055103468621,121388.04415243836,375552.14372307289,1.0
372154.6038362722,4695833.5216966402,-12500.0,3580.0911374940952,44030.228763678373,-1220.1672326591449,41543.249185092689,21394.805201889525,17794.930730931381,62922.391146258335,22902.665859189656,-27917.395539222896,27917.395539222896,-22902.665859189656,112516.93166015604,1.0
377154.6038362722,4695833.5216966402,-12500.0,17924.355043326868,-34155.604822467074,-114329.79417877097,62011.80682749593,98626.796511236127,-28447.769979678113,132833.64105391872,-52670.816466789154,-87745.266015001936,87745.266015001936,52670.816466789154,240263.54607737684,0.0
382154.6038362722,4695833.5216966402,-12500.0,-48355.198639250797,-82718.305470558407,-77279.699729718166,69777.42701408203,73448.077274966257,-5531.0790689471451,123915.49837202446,-111823.21041799204,-43408.910946598291,43408.910946598291,111823.21041799204,235003.57567824447,0.0
387154.6038362722,4695833.5216966402,-12500.0,-68374.831165839903,-63988.339137772608,-28806.778833231827,47319.243275278277,38031.986253492702,5283.0440408565701,85837.367673340414,-91355.66631567385,-11043.625560796871,11043.625560796871,91355.66631567385,165580.08820174698,0.0
392154.6038362722,4695833.5216966402,-12500.0,-59994.100706740341,-39471.912402530746,-5231.7553553458347,30213.65229304702,18932.993452621991,3250.2042571712864,56093.445536932348,-59579.341975232965,-2428.919636208022,2428.919636208022,59579.341975232965,109651.33283657202,0.0
397154.6038362722,4695833.5216966402,-12500.0,-47471.759710478014,-22870.388810286917,3833.042607198463,20490.855100108321,9580.813566886749,170.05906797224222,38576.505735815837,-37191.936250167695,-1158.6130550515336,1158.6130550515336,37191.936250167695,74577.724488642896,0.0
402154.6038362722,4695833.5216966402,-12500.0,-36740.428447034101,-12925.291618173795,6338.1293414911224,14605.441152646699,4940.5266698598325,-1337.1651948071737,27849.275220613068,-23535.249023228898,-1086.1569956762814,1086.1569956762814,23535.249023228898,52899.946157760198,0.0
407154.6038362722,4695833.5216966402,-12500.0,-28424.259185947976,-7224.831044999708,6267.7341623550601,10685.645876330234,2586.9395964029345,-1707.0799994411973,20695.524065144466,-15424.947488756552,-971.94990009978847,971.94990009978847,15424.947488756552,38854.73288075193,0.0
412154.6038362722,4695833.5216966402,-12500.0,-22143.38511599895,-4004.2216373080291,5397.6408046587712,7926.2686386370806,1363.2744887620584,-1573.316511501245,15700.96214164232,-10525.223971934833,-753.7782720340665,753.7782720340665,10525.223971934833,29279.159258466007,0.0
417154.6038362722,4695833.5216966402,-12500.0,-17415.268705161394,-2182.1684776218849,4416.3869711611569,5936.0485361319979,712.32399994407365,-1289.5916599170439,12110.103815207114,-7457.6209441003466,-519.63710851208953,519.63710851208953,7457.6209441003466,22497.249428418763,0.0
422154.6038362722,4695833.5216966402,-12500.0,-13838.337674748032,-1143.7781585393786,3547.9658676778345,4485.202592372988,359.97795827821574,-1004.0831721399982,9475.3715265730971,-5458.3082127373855,-320.84064614036879,320.84064614036879,5458.3082127373855,17564.907050339825,0.0
427154.6038362722,4695833.5216966402,-12500.0,-11110.364833252601,-547.9964060906957,2839.8943970570704,3420.4156966910473,167.38415060940153,-764.39222655645824,7511.2913394814796,-4105.0309792034059,-170.92608127988683,170.92608127988683,4105.0309792034059,13906.925076294032,0.0
432154.6038362722,4695833.5216966402,-12500.0,-9010.5863745568786,-205.55376410892214,2280.6641050810085,2633.8183505709635,62.077865496982483,-577.32014811887575,6026.9457296457458,-3158.2571079734262,-65.606398291380174,65.606398291380174,3158.2571079734262,11150.76278382362,0.0
437154.6038362722,4695833.5216966402,-12500.0,-7378.7786964022907,-10.139959630524565,1843.7666283984888,2048.394500697179,5.2268512764333357,-435.99229065591214,4890.9372183988344,-2476.9941303386922,4.7234873831814639,-4.7234873831814639,2476.9941303386922,9045.1983695295894,0.0
442154.6038362722,4695833.5216966402,-12500.0,-6098.4224490809765,98.933458640606432,1502.7572641087359,1609.0508600803455,-24.445473183516157,-330.66510187038,4011.1422554749438,-1974.96409261074,49.576053120766687,-49.576053120766687,1974.96409261074,7416.2988041515482,0.0
447154.6038362722,4695833.5216966402,-12500.0,-5084.3090275034392,156.89492906200749,1235.5043377963359,1276.3717385692023,-38.809841246930915,-252.45420658093991,3322.0604972722053,-1597.4070315585359,76.659333620679377,-76.659333620679377,1597.4070315585359,6141.3502113886079,0.0
452154.6038362722,4695833.5216966402,-12500.0,-4273.6931005146353,184.51024954059059,1024.6682477169911,1022.114657041014,-44.584012005697488,-194.27012847364475,2776.5603077787591,-1308.4219753955615,91.696254539798701,-91.696254539798701,1308.4219753955615,5132.4768073953155,0.0
457154.6038362722,4695833.5216966402,-12500.0,-3620.0111340797102,194.18199392731933,857.03499839949245,825.96935459149518,-45.609226771304641,-150.76817865537384,2340.345751318569,-1083.7973863434368,98.74644672077568,-98.74644672077568,1083.7973863434368,4325.9293416634537,0.0
462154.6038362722,4695833.5216966402,-12500.0,-3088.4262326386411,193.39411977795166,722.64125567310896,673.25096814368192,-44.09524447504338,-118.02331306153832,1988.1907957533981,-906.80125388333522,100.6151985109957,-100.6151985109957,906.80125388333522,3674.9095958787389,0.0
467154.6038362722,4695833.5216966402,-12500.0,-2652.6567967479587,186.69362293016508,613.99000591317645,553.27042837798638,-41.314401767267491,-93.185437739383318,1701.3450640722015,-765.62222617130942,99.209424586866703,-99.209424586866703,765.62222617130942,3144.677202221957,0.0
472154.6038362722,4695833.5216966402,-12500.0,-2292.7096836010728,176.85087858822644,525.42563943347977,458.18828178106247,-37.994901627456208,-74.191641944175458,1465.7293426339804,-651.76593983993109,95.810255880356408,-95.810255880356408,651.76593983993109,2709.1685042121758,0.0
477154.6038362722,4695833.5216966402,-12500.0,-1993.2481262988861,165.54935909390312,452.65953089994235,382.20830243147913,-34.546855759614246,-59.546595819882732,1270.6667402506864,-559.02196013884384,91.269758766265198,-91.269758766265198,559.02196013884384,2348.6294476450526,0.0
267154.6038362722,4700833.5216966402,-12500.0,-851.74953902444724,554.45730761770039,271.55078952568431,-155.07579695274995,90.853784656825383,-23.298803957904727,804.44897965226414,181.83465770953774,-0.13485303099730572,0.13485303099730572,-181.83465770953774,1427.1344444509391,0.0
272154.6038362722,4700833.5216966402,-12500.0,-927.44060652119185,641.0614851141371,304.88170567877376,-175.03853843649406,107.36502211075889,-26.848787308805711,907.03260928089571,229.8709254164641,-11.844314878531691,11.844314878531691,-229.8709254164641,1606.0016219794659,0.0
277154.6038362722,4700833.5216966402,-12500.0,-1008.2203087583858,745.09717804726995,343.56588480049828,-197.17575059902609,127.44545422729274,-30.676878014560238,1026.9345059137459,290.86226733898377,-28.078461114526561,28.078461114526561,-290.86226733898377,1814.4857768215268,0.0
282154.6038362722,4700833.5216966402,-12500.0,-1092.910784019926,870.82488742595183,388.66607485171545,-221.22838133940803,151.92423604207991,-34.533768918218357,1167.7904891511557,368.67201099942196,-50.417624074724301,50.417624074724301,-368.67201099942196,2058.6990711625544,0.0
287154.6038362722,4700833.5216966402,-12500.0,-1179.2955341762652,1023.7280096911533,441.5015707238577,-246.4970396532301,181.79528373696868,-37.886169505523029,1334.176740145738,468.42467280141329,-80.981447394664116,80.981447394664116,-468.42467280141329,2346.3362205714516,0.0
292154.6038362722,4700833.5216966402,-12500.0,-1263.5722324267917,1210.9267681412312,503.72471612421435,-271.52282681583119,218.21016681630547,-39.677597037809619,1531.9372516739631,596.94028722809571,-122.58786092028708,122.58786092028708,-596.94028722809571,2687.2519809232281,0.0
297154.6038362722,4700833.5216966402,-12500.0,-1339.5699824365358,1441.7718572691604,577.42411468217438,-293.5770326687238,262.42425837916602,-37.898732695401478,1768.6935353275785,763.31908868537653,-178.92422716754379,178.92422716754379,-763.31908868537653,3094.3817589911396,0.0
302154.6038362722,4700833.5216966402,-12500.0,-1397.6686029041784,1728.7347048189656,665.26043456549166,-307.87557513423815,315.6514070106511,-28.82210385381418,2054.6970291212247,979.73153336472774,-254.68634631947549,254.68634631947549,-979.73153336472774,3585.3067290457834,1.0
307154.6038362722,4700833.5216966402,-12500.0,-1423.3913626978017,2088.8300212611116,770.62908304738301,-306.45059246885467,378.76145915380675,-5.6642198810935742,2404.3662533543256,1262.5103203291035,-355.58658501920758,355.58658501920758,-1262.5103203291035,4185.0809823537402,0.0
312154.6038362722,4700833.5216966402,-12500.0,-1395.7165103654486,2546.0657964573024,897.79005332837289,-276.75230109834325,451.76165311693927,43.661496253426485,2839.2236173688316,1633.7688392625146,-488.06087489990284,488.06087489990284,-1633.7688392625146,4931.5467046016765,0.0
317154.6038362722,4700833.5216966402,-12500.0,-1285.2460499446931,3136.0049482283534,1051.7285650548108,-200.57486017185064,533.1645913432518,139.98926441064373,3393.6823727404553,2124.1889633570527,-658.52048720112691,658.52048720112691,-2124.1889633570527,5885.496807943412,0.0
322154.6038362722,4700833.5216966402,-12500.0,-1052.0233970482011,3914.7664175322907,1236.9450675440635,-55.400223476636086,620.10052040919959,316.99517383742244,4126.261341581936,2778.954812671122,-872.62517417882634,872.62517417882634,-2778.954812671122,7149.749504364765,0.0
327154.6038362722,4700833.5216966402,-12500.0,-639.87625118719347,4977.0514810443792,1452.7543305860906,176.12462983586659,712.76574104891336,621.57289154574596,5139.6819272885796,3672.8381003383347,-1138.3454015115892,1138.3454015115892,-3672.8381003383347,8902.8590145795988,0.0
332154.6038362722,4700833.5216966402,-12500.0,49.637260425212354,6489.7281861092806,1678.5999908193644,476.32533149465968,835.37494409480246,1092.7572790945301,6612.2458771347583,4951.3788712111318,-1489.3573951582957,1489.3573951582957,-4951.3788712111318,11452.787541087968,0.0
337154.6038362722,4700833.5216966402,-12500.0,1271.6112366837508,8736.8096136994154,1836.2644000128867,727.13119865352667,1108.871004002166,1662.6573059308603,8841.0560205283909,6938.9869699941064,-2086.2989221225193,2086.2989221225193,-6938.9869699941064,15314.092057707221,0.0
342154.6038362722,4700833.5216966402,-12500.0,3854.7300260135621,12083.954468519471,1731.8667422084829,637.85781419900547,1957.5079367792971,1835.4626458369219,12297.442085129325,10378.419564259466,-3555.6917295994622,3555.6917295994622,-10378.419564259466,21332.588385510815,0.0
347154.6038362722,4700833.5216966402,-12500.0,10340.47278820407,16366.687161263982,1252.0441317640732,-64.706873001951124,4557.6441954342536,-105.71498045442635,17706.970815998189,16746.677229784156,-7860.590975482166,7860.590975482166,-16746.677229784156,31027.684585751147,0.0
352154.6038362722,4700833.5216966402,-12500.0,25968.435813768425,18461.134647937954,2961.728654749732,-175.39402506910085,11216.858170589596,-8346.7846974453769,27433.179914733963,27954.173177846162,-19615.058670720588,19615.058670720588,-27954.173177846162,48138.85324717201,0.0
357154.6038362722,4700833.5216966402,-12500.0,49359.900475191622,15923.81710064531,18391.451163327252,6974.1947936377237,22021.726480164278,-27481.980233118684,47623.995186867236,46156.774102075651,-44135.923792351576,44135.923792351576,-46156.774102075651,82737.760058831642,1.0
362154.6038362722,4700833.5216966402,-12500.0,73282.688401683408,20490.688706335848,929.80127649015162,25728.716396966574,29969.364051673696,-40120.886662968107,72370.840573555091,55476.726757726836,-67782.068646326603,67782.068646326603,-55476.726757726836,125818.23756840905,1.0
367154.6038362722,4700833.5216966402,-12500.0,48589.78987551207,-13375.55131250989,-27846.585771746792,40544.618414744145,31239.158410596883,-16872.347187906267,67127.831965496574,1610.6534029196337,-47647.143604886704,47647.143604886704,-1610.6534029196337,116275.92972015461,1.0
372154.6038362722,4700833.5216966402,-12500.0,23899.977909656347,-4956.8914143926459,-47271.388844912137,30509.73067628092,47597.687865252898,-6108.2683531794237,65938.5032109108,-10756.878908881441,-43255.966460312236,43255.966460312236,10756.878908881441,116159.34475841612,1.0
377154.6038362722,4700833.5216966402,-12500.0,14448.906759397896,-30278.231450310461,-80803.01888820868,35801.690519147189,60803.818643949031,-3485.4659983728257,86460.664550655463,-45666.957642406072,-42634.363792731216,42634.363792731216,45666.957642406072,159289.66583477109,0.0
382154.6038362722,4700833.5216966402,-12500.0,-13154.750820015341,-53770.450261514779,-67168.648807420192,36908.358803344745,47437.666366277233,1620.8694459535204,80019.360996836724,-71603.475655905349,-23597.999204821099,23597.999204821099,71603.475655905349,153118.8112521341,0.0
387154.6038362722,4700833.5216966402,-12500.0,-32109.43789129606,-51094.187747555632,-37530.110526580844,30207.402201553468,29920.34384026513,1742.7096578575399,61320.233831846032,-66928.209398960229,-9932.6374196665056,9932.6374196665056,66928.209398960229,120887.73068421644,0.0
392154.6038362722,4700833.5216966402,-12500.0,-37054.822278802218,-38547.425082633876,-16416.807571265108,23182.085062341295,18098.585602557785,-426.02191308547884,45503.300971924902,-51268.432639695835,-4705.9727019415404,4705.9727019415404,51268.432639695835,89801.261094090252,0.0
397154.6038362722,4700833.5216966402,-12500.0,-34926.548379637112,-26625.637925150848,-5035.0522832900833,17771.994239601849,10968.68067628913,-1935.1000550647134,34425.807109452551,-36784.207745876265,-2899.5266072204613,2899.5266072204613,36784.207745876265,66565.865445288684,0.0
402154.6038362722,4700833.5216966402,-12500.0,-30365.740347062721,-17716.27942479659,284.40149902546295,13635.557822521807,6669.1081685159543,-2383.4402791564585,26204.76627540532,-26013.552416423427,-2001.0612662967578,2001.0612662967578,26013.552416423427,49975.942599125287,0.0
407154.6038362722,4700833.5216966402,-12500.0,-25412.391656351898,-11605.885450356358,2405.3033249814548,10421.821629240863,4065.4505630031413,-2218.0505376416818,20114.370788390603,-18500.944719262468,-1359.5812936714829,1359.5812936714829,18500.944719262468,38027.687305284489,0.0
412154.6038362722,4700833.5216966402,-12500.0,-20879.324901220774,-7572.3964029871022,3000.3498117920626,7939.406007549168,2488.3321397097693,-1833.1839304463065,15576.771888123563,-13343.908599561093,-867.08952049275649,867.08952049275649,13343.908599561093,29289.591239554975,0.0
417154.6038362722,4700833.5216966402,-12500.0,-17026.620506399791,-4950.8440315784082,2936.808779534269,6047.4749911312292,1531.0255631593652,-1431.1134946727329,12177.127505831044,-9791.0695592618358,-504.58039779393221,504.58039779393221,9791.0695592618358,22818.832034214134,0.0
422154.6038362722,4700833.5216966402,-12500.0,-13869.515875208041,-3251.6465632058585,2629.3590931562594,4620.8841473000239,946.80839726567308,-1087.1924056073822,9614.688344864051,-7313.0271914375789,-251.90628074907954,251.90628074907954,7313.0271914375789,17977.023591819136,0.0
427154.6038362722,4700833.5216966402,-12500.0,-11328.169418501539,-2145.584349939094,2262.9576327919735,3550.9061392649846,587.50049254895407,-816.65687055908575,7669.4972420188342,-5556.9541988415203,-84.026626815824784,84.026626815824784,5556.9541988415203,14318.526403005226,0.0
432154.6038362722,4700833.5216966402,-12500.0,-9297.7458083400197,-1420.0210261042835,1913.2728178798218,2748.8300027089499,364.56074891102497,-612.05518684195351,6180.6993372979405,-4291.3357474249206,22.693916186180559,-22.693916186180559,4291.3357474249206,11526.882179699878,0.0
437154.6038362722,4700833.5216966402,-12500.0,-7677.8862365159639,-939.72243566633983,1606.44446059297,2145.7592557468283,225.0198107094902,-460.0637755751855,5030.9224538540184,-3363.8987619006302,87.288890209532838,-87.288890209532838,3363.8987619006302,9375.344889407239,0.0
442154.6038362722,4700833.5216966402,-12500.0,-6382.8170720749658,-618.8703169408077,1347.3278876358977,1689.8480216036717,137.00004614361566,-347.8725296495939,4134.5740718506386,-2673.4204020809257,123.79163475429391,-123.79163475429391,2673.4204020809257,7700.4394709252674,0.0
447154.6038362722,4700833.5216966402,-12500.0,-5342.992694004085,-402.73767578391977,1132.4059867629846,1342.7795254198286,81.14575764921976,-265.04476241030216,3429.1084722111382,-2151.6528037502526,142.02952820116536,-142.02952820116536,2151.6528037502526,6383.5823252866649,0.0
452154.6038362722,4700833.5216966402,-12500.0,-4503.5038699863617,-256.12336394959499,955.501791461376,1076.4873274961669,45.580576619572817,-203.65047703128593,2868.625168792008,-1751.8713181828211,148.67117815012398,-148.67117815012398,1751.8713181828211,5338.1703977529314,0.0
457154.6038362722,4700833.5216966402,-12500.0,-3821.5561902669847,-156.14769527314732,810.17752893506542,870.4695128665569,22.935319326565693,-157.85955144546071,2419.2329760271537,-1441.5890085578449,148.14992471566859,-148.14992471566859,1441.5890085578449,4500.4709710511552,0.0
462154.6038362722,4700833.5216966402,-12500.0,-3263.9788970369477,-87.773356196902796,690.64160271549713,709.73178206238856,8.5859530535357074,-123.45047591436841,2055.727310809204,-1197.8789059853339,143.36996241442,-143.36996241442,1197.8789059853339,3823.1969915329382,0.0
467154.6038362722,4700833.5216966402,-12500.0,-2805.0828308083169,-41.005846900519764,592.00323951690075,583.26527248465334,-0.4006736181922117,-97.383578698090275,1759.2140384863162,-1004.3280617852167,136.21013918645878,-136.21013918645878,1004.3280617852167,3270.9603561370427,0.0
472154.6038362722,4700833.5216966402,-12500.0,-2424.9347506420791,-9.1297517445933813,510.2586766059199,482.94237844361089,-5.9040858543914521,-77.470248575558998,1515.4111803946359,-849.02713381005856,127.87017603815337,-127.87017603815337,849.02713381005856,2817.0449625696451,0.0
477154.6038362722,4700833.5216966402,-12500.0,-2108.0114734102021,12.413957038040012,442.18152401954399,402.72312159576381,-9.139808490701899,-62.129470408325957,1313.431854744766,-723.22399682932246,119.10367186266882,-119.10367186266882,723.22399682932246,2441.1051190010298,0.0
267154.6038362722,4705833.5216966402,-12500.0,-650.4354455195338,563.49643223156147,224.51009415914027,-124.2476327098327,90.595826729628797,-19.949090641934511,726.40717281017692,249.50844320744079,-42.160703680989172,42.160703680989172,-249.50844320744079,1278.6404649625288,0.0
272154.6038362722,4705833.5216966402,-12500.0,-687.97052532845328,646.64935548873223,248.05883447630066,-137.30195405046013,106.24876754788033,-22.678973069832431,813.35038302611133,306.07895092841648,-60.534692269923312,60.534692269923312,-306.07895092841648,1428.6075159453583,0.0
277154.6038362722,4705833.5216966402,-12500.0,-721.68289445779692,745.00574309427373,274.56201962272911,-150.7377463208343,124.98024494606126,-25.489488294769991,913.66351022613071,376.48456560887519,-84.581501848438762,84.581501848438762,-376.48456560887519,1601.1672331827851,0.0
282154.6038362722,4705833.5216966402,-12500.0,-747.95136709858616,861.70983518778587,304.4266299818766,-163.79502365803322,147.36636872321415,-28.106631634024271,1029.771769896553,464.46505468811949,-116.04187105113363,116.04187105113363,-464.46505468811949,1800.3876305933416,0.0
287154.6038362722,4705833.5216966402,-12500.0,-761.35731582818607,1000.558172148204,338.13284496609901,-175.1423652833746,174.01556547657455,-30.000050858558183,1164.596685277081,574.83847994266057,-157.17950956964245,157.17950956964245,-574.83847994266057,2031.2214819760536,0.0
292154.6038362722,4705833.5216966402,-12500.0,-753.87476255394699,1166.0982077239362,376.26947321955282,-182.54092888210766,205.49036726567792,-30.188837727716667,1321.6861673628814,713.80752224187552,-210.9058888772571,210.9058888772571,-713.80752224187552,2299.7989847876238,0.0
297154.6038362722,4705833.5216966402,-12500.0,-713.71763865904848,1363.7128596698601,419.60196061671411,-182.3341845821403,242.14460407692957,-26.90809594285944,1505.414773165729,889.33693108224725,-280.89576474956743,280.89576474956743,-889.33693108224725,2613.9096253845446,0.0
302154.6038362722,4705833.5216966402,-12500.0,-623.72262072274032,1599.6719655916522,469.20167076971211,-168.69933759529098,283.81272156609526,-17.044966301837505,1721.329788509863,1111.6081553102094,-371.64455443440886,371.64455443440886,-1111.6081553102094,2983.8510540019879,0.0
307154.6038362722,4705833.5216966402,-12500.0,-459.12278423918787,1881.1341237217232,526.68617982155649,-132.6157677861101,329.26001050361026,4.7890661373695984,1976.8126484186828,1393.5635213818471,-488.37499422315733,488.37499422315733,-1393.5635213818471,3423.9887735424909,0.0
312154.6038362722,4705833.5216966402,-12500.0,-184.5375327457046,2216.102701715246,594.64566632661524,-60.614493312569842,375.29718416615935,47.699351135068945,2282.4121568611854,1751.5949896994657,-636.6542555700554,636.6542555700554,-1751.5949896994657,3955.6295558612442,0.0
317154.6038362722,4705833.5216966402,-12500.0,250.08859048399819,2613.4000637096528,677.35596486170255,66.289695860511969,415.58450825592121,126.47795140451971,2654.5291254455287,2206.6084069879789,-821.62710355145373,821.62710355145373,-2206.6084069879789,4612.1086168191569,0.0
322154.6038362722,4705833.5216966402,-12500.0,915.3135533739453,3082.7524372070943,781.88954034654705,272.26323126772257,439.71771097216237,263.4277303917624,3120.3524201790588,2786.2293364271231,-1047.2603395253436,1047.2603395253436,-2786.2293364271231,5446.8618887913062,0.0
327154.6038362722,4705833.5216966402,-12500.0,1912.2126937492972,3634.5624959728134,919.88512827757859,582.17488433136782,435.04298519521774,487.02531905964429,3724.6082355138942,3530.2433828907715,-1318.0226989536216,1318.0226989536216,-3530.2433828907715,6543.4183672176132,0.0
332154.6038362722,4705833.5216966402,-12500.0,3393.868057092991,4275.5213796040225,1111.8490103930442,1008.9069165925521,398.52271737711106,818.05515665618407,4530.702361644222,4503.6264872571064,-1651.6198743316727,1651.6198743316727,-4503.6264872571064,8020.89513073328,0.0
337154.6038362722,4705833.5216966402,-12500.0,5612.8761778354046,4982.6652870430862,1406.4609210373169,1533.3931410119831,375.34537631976582,1220.9930855765733,5594.6157912982926,5821.6611927914118,-2125.2482663059664,2125.2482663059664,-5821.6611927914118,10023.266856705744,0.0
342154.6038362722,4705833.5216966402,-12500.0,8986.9103822825946,5608.4452712816383,1976.9971455616344,2109.2085887627613,545.89178627540252,1488.7713974673968,6877.6480337640596,7676.2357313762659,-2991.1309982624739,2991.1309982624739,-7676.2357313762659,12704.484221097549,0.0
347154.6038362722,4705833.5216966402,-12500.0,13961.328901499815,5725.207007471734,3489.1898821755062,2800.045209656269,1327.1447420482939,1094.0841791882372,8302.1158801102883,10320.049523234928,-4841.2549369958415,4841.2549369958415,-10320.049523234928,16359.180655485236,0.0
352154.6038362722,4705833.5216966402,-12500.0,19943.656303686959,5229.7156501271693,7579.4002692327731,4126.0790737599546,3216.3967027587946,-605.00120537725445,12450.506885705461,14129.773928315266,-8516.2768766932713,8516.2768766932713,-14129.773928315266,22027.534502636587,0.0
357154.6038362722,4705833.5216966402,-12500.0,24702.690234945163,7426.9591598766128,12654.570532393131,6844.1368636626521,6088.9233632525966,-2804.8269024483379,18060.891540671364,19766.468677690336,-14041.693722076383,14041.693722076383,-19766.468677690336,31426.701811094579,1.0
362154.6038362722,4705833.5216966402,-12500.0,29346.330300766484,12903.910386872416,3456.9659862532726,9865.9804538596218,9766.9266560744254,-1667.0806402712717,24014.20591429,21959.354184420303,-18118.983460685613,18118.983460685613,-21959.354184420303,43668.035655380314,1.0
367154.6038362722,4705833.5216966402,-12500.0,29927.397619563559,10738.207374288857,-20237.298763744478,10041.892640784599,16249.128265664156,2941.4726671842664,33324.249760458726,11321.054078516026,-17530.847902385358,17530.847902385358,-11321.054078516026,57719.535699405322,1.0
372154.6038362722,4705833.5216966402,-12500.0,26820.116922367073,1572.4090077301785,-45343.57896908078,9927.1630032883786,27334.863596432846,4004.7573560413216,45097.671100004547,-5192.9026384104018,-19407.843634996003,19407.843634996003,5192.9026384104018,81402.37328915442,1.0
377154.6038362722,4705833.5216966402,-12500.0,18981.428192997009,-16812.131796139274,-59910.758075547419,14176.521638823886,33639.670714654014,2201.2094079253116,53173.003870314642,-26569.247791976544,-19834.882108296566,19834.882108296566,26569.247791976544,100137.26385306435,0.0
382154.6038362722,4705833.5216966402,-12500.0,3535.1540352275711,-32302.960513806986,-53815.077774014695,17822.323867539551,30393.708579433463,209.24219721469126,51715.992492932804,-42036.598318668432,-15149.633915927428,15149.633915927428,42036.598318668432,99820.093091840128,0.0
387154.6038362722,4705833.5216966402,-12500.0,-11157.676065000838,-36211.651752264806,-37398.071197285535,18200.79049399307,23195.646151473404,-1541.2021217770794,44691.645215638491,-44982.862016237719,-9900.3194174904711,9900.3194174904711,44982.862016237719,87035.317410246294,0.0
392154.6038362722,4705833.5216966402,-12500.0,-19791.486972184699,-32147.208252275905,-22109.355050632323,16527.967208547176,16442.827105710403,-2669.6989031439743,36749.610029663185,-39926.658265624894,-6340.6787470867675,6340.6787470867675,39926.658265624894,71198.061562041737,0.0
397154.6038362722,4705833.5216966402,-12500.0,-22907.897221377814,-25471.583582772804,-11512.813560049233,14112.283358313383,11262.10299880013,-3028.5080474803581,29555.084672000135,-32411.175503405218,-4123.4048504760449,4123.4048504760449,32411.175503405218,56770.502640619248,0.0
402154.6038362722,4705833.5216966402,-12500.0,-22618.978417170121,-19019.67020713559,-5115.4271367319297,11599.671291205594,7558.8512227946758,-2834.0774151390283,23518.739532137977,-25225.732712310954,-2658.5731925617802,2658.5731925617802,25225.732712310954,44853.316129371669,0.0
407154.6038362722,4705833.5216966402,-12500.0,-20635.847307946289,-13758.2846874236,-1582.7561093351867,9292.7472620471235,5011.8511698567481,-2386.3228702103297,18640.52406290748,-19275.594396473007,-1650.0923509723834,1650.0923509723834,19275.594396473007,35364.504479470226,0.0
412154.6038362722,4705833.5216966402,-12500.0,-18026.442883745658,-9796.4781824713536,216.63112516719502,7324.4681287265148,3305.154217815219,-1892.8372794645934,14779.478805495655,-14650.181853286624,-959.27259592941391,959.27259592941391,14650.181853286624,27935.729911269169,0.0
417154.6038362722,4705833.5216966402,-12500.0,-15371.407999942965,-6934.3222851147057,1041.9061204362672,5723.429365667339,2179.5166419584634,-1452.9426898510781,11759.408903834337,-11159.40600038081,-498.60099437826284,498.60099437826284,11159.40600038081,22168.687375325557,0.0
422154.6038362722,4705833.5216966402,-12500.0,-12942.482802507511,-4909.0494141921363,1349.6307602351187,4459.7251990670993,1442.3722923641894,-1097.1081638893913,9410.0354202593408,-8556.8422308625632,-201.31348481915575,201.31348481915575,8556.8422308625632,17705.564927080111,0.0
427154.6038362722,4705833.5216966402,-12500.0,-10836.979308522221,-3488.0412285642064,1397.1102866920544,3479.5601702874037,959.91305160102445,-823.21778058398729,7583.756397374711,-6620.8740328383465,-16.203621713185839,16.203621713185839,6620.8740328383465,14248.674444192491,0.0
432154.6038362722,4705833.5216966402,-12500.0,-9064.0277486932646,-2492.038071495002,1323.1779860259098,2725.8951415094712,642.93602092358356,-617.69426801337011,6160.3309549393971,-5175.6681069864117,94.173792069048886,-94.173792069048886,5175.6681069864117,11561.278608883526,0.0
437154.6038362722,4705833.5216966402,-12500.0,-7593.9397986776994,-1791.5451965662817,1200.1601253100132,2147.9704071644301,433.32589387798942,-465.27202860732535,5045.3956653326495,-4089.3734121740426,155.98967849231576,-155.98967849231576,4089.3734121740426,9460.3080356459977,0.0
442154.6038362722,4705833.5216966402,-12500.0,-6383.9770976666996,-1295.9443791562751,1064.3267506455163,1704.2632603876878,293.6151298716523,-352.63760262446527,4166.4935981294366,-3265.7061776173941,186.93392716187441,-186.93392716187441,3265.7061776173941,7806.5115107216125,0.0
447154.6038362722,4705833.5216966402,-12500.0,-5390.6016729317726,-942.73764784463538,932.86550197378267,1362.3065736490701,199.70413202477783,-269.29195372883197,3468.6288464233585,-2635.1265637424308,198.68734159550286,-198.68734159550286,2635.1265637424308,6494.8565874130427,0.0
452154.6038362722,4705833.5216966402,-12500.0,-4574.5821245489979,-689.02366510159743,813.08376515822522,1097.3334867226042,136.04743243758864,-207.34741973198703,2910.2580637427805,-2147.5276188884218,198.83441206587577,-198.83441206587577,2147.5276188884218,5446.346586718636,0.0
457154.6038362722,4705833.5216966402,-12500.0,-3902.5791687603019,-505.3218713709137,707.3136250243241,890.6930788690413,92.556514844991938,-161.02106612100269,2460.0111575272067,-1766.7083466732661,192.23533988380507,-192.23533988380507,1766.7083466732661,4601.5149743691618,0.0
462154.6038362722,4705833.5216966402,-12500.0,-3347.1277968217692,-371.28304701659556,615.49266828784232,728.41951621369935,62.63217846240304,-126.12134143611752,2094.1397977185106,-1466.3675364029305,181.96674820067665,-181.96674820067665,1466.3675364029305,3915.4468563531559,0.0
467154.6038362722,4705833.5216966402,-12500.0,-2885.9800343184847,-272.76876598178274,536.50187488498113,600.06589482269578,41.918691527300943,-99.622249141468401,1794.5847076193279,-1227.2552883989993,169.94951956227044,-169.94951956227044,1227.2552883989993,3354.0468358502139,0.0
472154.6038362722,4705833.5216966402,-12500.0,-2501.2719720852888,-199.88023873997952,468.84473905648667,497.8028281740464,27.513854663989633,-79.337957047164267,1547.5353006600653,-1035.165543066576,157.36121494231941,-157.36121494231941,1035.165543066576,2891.2767582818492,0.0
477154.6038362722,4705833.5216966402,-12500.0,-2178.7147020902967,-145.62955487873288,410.97904754112528,415.74016987076874,17.465433752676432,-63.6840884421594,1342.3624886957984,-879.52216297677421,144.90430813504565,-144.90430813504565,879.52216297677421,2507.1189332635877,0.0
267154.6038362722,4710833.5216966402,-12500.0,-462.7618509104102,550.5549832547099,181.67989985130598,-95.406242586106814,86.96641386174629,-16.750077377055501,648.85669848554221,297.08821988919419,-74.851178486189639,74.851178486189639,-297.08821988919419,1134.0775800675708,0.0
272154.6038362722,4710833.5216966402,-12500.0,-467.43616423095096,625.35275217998583,197.41741507489212,-102.40404760969072,100.90745119321181,-18.741182888215711,720.73235764429467,357.20357682664292,-97.30481225503425,97.30481225503425,-357.20357682664292,1257.0783212800968,0.0
277154.6038362722,4710833.5216966402,-12500.0,-461.56834515059893,711.89921113245998,214.59074795862921,-108.37632845426039,117.20290192878214,-20.657016213125772,802.34385476554439,430.5905470282687,-125.74522744200726,125.74522744200726,-430.5905470282687,1396.5367956720916,0.0
282154.6038362722,4710833.5216966402,-12500.0,-440.09800540650019,811.91536773996972,233.3678757582062,-112.25054721492671,136.11582372486572,-22.219379229338891,895.07189607652958,520.3990353987756,-161.76995679505404,161.76995679505404,-520.3990353987756,1554.9130662781131,0.0
287154.6038362722,4710833.5216966402,-12500.0,-395.92174090209431,927.15348424963952,254.02016144444613,-112.34991844800099,157.80215659718294,-22.930082760156452,1000.4429367376756,630.51462943102183,-207.36250944511249,207.36250944511249,-630.51462943102183,1735.0899602302688,0.0
292154.6038362722,4710833.5216966402,-12500.0,-319.11338053276023,1059.207247677673,277.03521408779369,-106.09413829751954,182.17128510951417,-21.92251656097012,1120.1202805104158,765.68419982018929,-264.93229135978174,264.93229135978174,-765.68419982018929,1940.5238084349487,0.0
297154.6038362722,4710833.5216966402,-12500.0,-195.88406050980657,1209.1665556770697,303.3379516357756,-89.572351686697303,208.63865060327265,-17.720027355850153,1255.8958675642702,931.62032405423997,-337.30131291983798,337.30131291983798,-931.62032405423997,2175.5304615743366,0.0
302154.6038362722,4710833.5216966402,-12500.0,-7.2389853599972476,1377.0264882575498,334.71506840943056,-56.960004032138507,235.70316220495062,-7.8511477370027993,1409.7118674811718,1135.0459480041818,-427.57264692987559,427.57264692987559,-1135.0459480041818,2445.8432896090299,0.0
307154.6038362722,4710833.5216966402,-12500.0,272.66700690835927,1560.7246286655554,374.61686660227207,0.21538449264167503,260.25792508563302,11.738683990505146,1583.7980127025157,1383.6224631409004,-538.77113687496319,538.77113687496319,-1383.6224631409004,2759.685810188319,0.0
312154.6038362722,4710833.5216966402,-12500.0,678.36418355817887,1754.6470079143437,429.65103058198014,93.852586822739795,276.5408995134697,47.518617574322256,1781.1579589631417,1685.7005271331818,-673.09958983928925,673.09958983928925,-1685.7005271331818,3129.7176660918399,0.0
317154.6038362722,4710833.5216966402,-12500.0,1254.7562940015434,1947.4375218097539,512.33615420657338,239.74711359447974,274.72928848481007,109.35787826075315,2007.0764030854771,2049.8935166543201,-830.6636621690368,830.6636621690368,-2049.8935166543201,3576.1937347075868,0.0
322154.6038362722,4710833.5216966402,-12500.0,2057.9105813182355,2118.998589761281,646.15206715646343,456.92885975878113,239.57173680786295,211.15351617992684,2273.851553814824,2484.6981332407731,-1007.773984631663,1007.773984631663,-2484.6981332407731,4131.0288814958412,0.0
327154.6038362722,4710833.5216966402,-12500.0,3153.385612028937,2236.748559812012,874.88251792319272,764.39568818125451,150.53166755691723,369.5273398478102,2616.0441899775951,2998.9417627649241,-1195.8840616881757,1195.8840616881757,-2998.9417627649241,4840.2920940094273,0.0
332154.6038362722,4710833.5216966402,-12500.0,4608.3571954778308,2251.8857192026426,1280.374721949127,1173.7008503232735,-12.853393397559923,597.05519766557859,3112.8219545879683,3604.8390403568096,-1384.5492867121507,1384.5492867121507,-3604.8390403568096,5758.702360894993,0.0
337154.6038362722,4710833.5216966402,-12500.0,6466.2493086774966,2100.6954819682919,2016.8305961000624,1678.8042645347434,-254.0761563546335,885.11814533493487,3822.4097979409385,4326.9941134968158,-1575.1962602698827,1575.1962602698827,-4326.9941134968158,6928.2856744054843,0.0
342154.6038362722,4710833.5216966402,-12500.0,8670.7900378152226,1740.6934985283362,3366.5643181801806,2253.4108187841252,-528.10109530285445,1179.3729673035489,4726.1164166863164,5225.4462198574529,-1811.1286409119928,1811.1286409119928,-5225.4462198574529,8347.4707504696999,0.0
347154.6038362722,4710833.5216966402,-12500.0,10893.368235679158,1343.4534856401483,5731.64326165273,2867.9965974304805,-714.62940706084589,1389.5369512699829,5755.4678658644325,6460.6431508415099,-2207.1744153644645,2207.1744153644645,-6460.6431508415099,9976.6202354052239,1.0
352154.6038362722,4710833.5216966402,-12500.0,12456.448954555819,1832.4941908587627,9019.6447291320292,3472.8249974765699,-635.07686392657479,1537.1795365564344,6802.0643701926147,8411.1365623540187,-2917.9973223776947,2917.9973223776947,-8411.1365623540187,11873.512107611577,1.0
357154.6038362722,4710833.5216966402,-12500.0,13244.515395192024,4917.241410951242,10476.967085363898,3782.5101281001321,4.5720974014658076,1998.217137987187,8487.6067982332643,11300.742288534995,-3985.4674615849826,3985.4674615849826,-11300.742288534995,14780.861781512474,1.0
362154.6038362722,4710833.5216966402,-12500.0,14810.413438033362,9904.6605733700926,4163.3394177081818,3156.8923067616538,2071.9979647322284,3103.4300171112886,11634.409508276429,13267.744930996534,-5254.5657698814175,5254.5657698814175,-13267.744930996534,21514.015524834122,1.0
367154.6038362722,4710833.5216966402,-12500.0,17750.20575268117,11692.635628633889,-11561.434582641166,1787.2440735945866,6998.0061788033727,3844.2264442095452,20062.557023617188,10569.01767621746,-7135.5434493149005,7135.5434493149005,-10569.01767621746,34807.953618075328,1.0
372154.6038362722,4710833.5216966402,-12500.0,19863.617260474053,5979.5564646438106,-30068.178529354158,1949.6606579166082,14152.486036447099,2753.89649841357,28598.759419582333,1526.9596929138961,-10112.736559833171,10112.736559833171,-1526.9596929138961,51489.368726570785,0.0
377154.6038362722,4710833.5216966402,-12500.0,17273.624500758142,-6116.391805973295,-41525.755554990086,4854.9013785143152,19430.055200617262,412.4948064615175,34283.006249278274,-11737.998789679332,-12096.866564791151,12096.866564791151,11737.998789679332,63763.335076664043,0.0
382154.6038362722,4710833.5216966402,-12500.0,9079.4892437978269,-17809.210553276906,-41373.540273457744,8444.5482904846831,20250.229659529119,-1698.0005893083273,35495.871563964916,-23348.206711152976,-11449.521652011121,11449.521652011121,23348.206711152976,67183.003764158973,0.0
387154.6038362722,4710833.5216966402,-12500.0,-898.16041346512384,-23927.884862005223,-33423.000376612661,10658.511146236278,17770.987864033621,-2932.2291626677634,33172.885274270302,-29155.132342491008,-9152.2427153163517,9152.2427153163517,29155.132342491008,63259.082511725901,0.0
392154.6038362722,4710833.5216966402,-12500.0,-8867.976525926304,-24458.902604258557,-23535.97023789064,11158.886973750341,14106.118051418469,-3348.2436241410678,29109.549265395533,-29467.390935018662,-6624.6283410314973,6624.6283410314973,29467.390935018662,55603.998265148788,0.0
397154.6038362722,4710833.5216966402,-12500.0,-13588.635409355367,-21735.693322185878,-15060.732880581749,10477.556856038449,10553.261642459069,-3213.5990640303276,24616.677088952085,-26570.609462667409,-4507.3111790434432,4507.3111790434432,26570.609462667409,46966.522059706906,0.0
402154.6038362722,4710833.5216966402,-12500.0,-15506.378008711876,-17841.664001288314,-8911.1873906297242,9201.7737000105517,7612.0442412376096,-2793.0172412436536,20371.327724437026,-22461.31398258606,-2912.5289219642982,2912.5289219642982,22461.31398258606,38782.747928810219,0.0
407154.6038362722,4710833.5216966402,-12500.0,-15542.378237013394,-13975.910228539118,-4854.3796434799915,7743.7305017407652,5368.3099437746105,-2281.7550021691013,16653.338268667612,-18303.659943985949,-1777.1726497509826,1777.1726497509826,18303.659943985949,31633.502199173017,0.0
412154.6038362722,4710833.5216966402,-12500.0,-14520.902301783754,-10652.981708034606,-2343.8403544566868,6342.3767160775278,3738.3439571905374,-1793.5936375956114,13534.632282693412,-14622.066363758802,-1002.1391722942481,1002.1391722942481,14622.066363758802,25658.233164890065,0.0
417154.6038362722,4710833.5216966402,-12500.0,-13020.95480008324,-8000.3991798653142,-866.4094245565451,5110.5109673451907,2589.1344809426973,-1378.1468418707075,10985.5471781704,-11573.821247346852,-492.27077449410444,492.27077449410444,11573.821247346852,20790.788658580805,0.0
422154.6038362722,4710833.5216966402,-12500.0,-11395.233558976612,-5968.119092753429,-38.33258537692948,4082.3197292784694,1792.579306859297,-1046.3457618837406,8933.3112162238449,-9139.7234033593122,-168.52761538586037,168.52761538586037,9139.7234033593122,16883.090528948258,0.0
427154.6038362722,4710833.5216966402,-12500.0,-9833.4756969947193,-4445.8317054391737,398.04971843509236,3250.2065937258462,1244.8849231787747,-790.7652666152386,7293.8710420984644,-7232.6527016197397,29.290885633817652,-29.290885633817652,7232.6527016197397,13768.478690193588,0.0
432154.6038362722,4710833.5216966402,-12500.0,-8422.8130143316339,-3318.3783081652391,605.48395370861863,2588.6968670727592,868.9962629756692,-597.78190336782552,5987.708285448708,-5751.3947549243294,144.34209966606022,-144.34209966606022,5751.3947549243294,11291.544406723999,0.0
437154.6038362722,4710833.5216966402,-12500.0,-7191.8275989290323,-2486.8641296538049,682.99152405551456,2067.7404695471082,610.42756111978861,-453.4802719062057,4946.2437997280022,-4603.4207863968786,206.28209710422379,-206.28209710422379,4603.4207863968786,9319.4866542946766,0.0
442154.6038362722,4710833.5216966402,-12500.0,-6138.7014559732397,-1873.4332350724808,689.35439573913823,1659.044343014014,431.68073202724105,-345.92911477720503,4113.2389945001223,-3712.1011121637921,234.89791240282239,-234.89791240282239,3712.1011121637921,7744.0797030623189,0.0
447154.6038362722,4710833.5216966402,-12500.0,-5247.6863467480725,-1419.4713329449783,658.82532126915396,1338.4581621009461,307.3039024932134,-265.68999520043263,3443.8761899529709,-3017.018319505848,243.11940568112141,-243.11940568112141,3017.018319505848,6479.4569654043235,0.0
452154.6038362722,4710833.5216966402,-12500.0,-4498.0894525956182,-1081.881797877186,611.01584522482335,1086.3995614584785,220.11661837664431,-205.60444545958813,2903.0071439065327,-2471.7469279077495,239.2636445842279,-239.2636445842279,2471.7469279077495,5458.495879098301,0.0
457154.6038362722,4710833.5216966402,-12500.0,-3868.8330337524335,-829.35018217203378,556.91574499350497,887.43888007544467,158.52370578445223,-160.36474202640235,2463.2945837980265,-2041.0723973080319,228.6092543830257,-228.6092543830257,2041.0723973080319,4629.1184989894091,0.0
462154.6038362722,4710833.5216966402,-12500.0,-3340.5324692107865,-639.22865890598825,502.48810622244326,729.60997096025562,114.67355030946207,-126.08008283069863,2103.5426073760409,-1698.4250509113833,214.46080709781631,-214.46080709781631,1698.4250509113833,3951.0234954495672,0.0
467154.6038362722,4710833.5216966402,-12500.0,-2896.2651021507609,-495.14159072666621,450.79473182169409,603.70888031206118,83.220261427410549,-99.911623306560685,1807.315577820752,-1423.7718221025229,198.85283946149275,-198.85283946149275,1423.7718221025229,3393.0083343617484,0.0
472154.6038362722,4710833.5216966402,-12500.0,-2521.6824658598457,-385.21791390573077,403.24466574368864,502.68006709560188,60.499056451101069,-79.788795582166301,1561.8401822651374,-1201.9740502009502,183.00901740078575,-183.00901740078575,1201.9740502009502,2930.8536391448033,0.0
267154.6038362722,4715833.5216966402,-12500.0,-294.66731572580278,519.90009682551135,145.72278163220545,-69.414658220572207,80.630963301861442,-13.789749941090612,573.62822624793921,326.34030215972007,-98.391084178076795,98.391084178076795,-326.34030215972007,996.98922730622098,0.0
272154.6038362722,4715833.5216966402,-12500.0,-273.10616274433886,583.08771697245072,156.18777875505427,-71.429580229026712,92.281410513180845,-15.146463198416361,631.50078566451657,385.9147266076755,-122.59103307039544,122.59103307039544,-385.9147266076755,1095.8667558869847,0.0
277154.6038362722,4715833.5216966402,-12500.0,-236.73916054899934,654.05097433462845,167.53654400746956,-71.448880088487286,105.45377731384336,-16.317218976760849,695.93760744682834,457.20710321723504,-152.42512077611727,152.42512077611727,-457.20710321723504,1206.2080242742065,0.0
282154.6038362722,4715833.5216966402,-12500.0,-180.06729583760455,733.1170297127037,180.08529738059963,-68.277669689491617,120.09965156475086,-17.037756536292299,767.48800766922,542.55122703556458,-189.1485018677073,189.1485018677073,-542.55122703556458,1329.3652797305162,0.0
287154.6038362722,4715833.5216966402,-12500.0,-95.744770983101006,820.14686805826568,194.44219861592936,-60.169848184891435,135.9490407340819,-16.864635544491762,846.60375894303115,644.65086397446771,-234.2114699956042,234.2114699956042,-644.65086397446771,1466.8915699894339,0.0
292154.6038362722,4715833.5216966402,-12500.0,25.963961462153261,914.17969367664296,211.75708992103054,-44.603293970062488,152.3361555707217,-15.069200363550943,933.55146559060529,766.55494140616474,-289.20861538163308,289.20861538163308,-766.55494140616474,1620.6749513185573,0.0
297154.6038362722,4715833.5216966402,-12500.0,197.80862993324976,1012.8863805748116,234.16652898635732,-17.987361304118313,167.91624301036933,-10.475317066408532,1028.295216144491,911.56115847671515,-355.74056477017905,355.74056477017905,-911.56115847671515,1793.2237884555143,0.0
302154.6038362722,4715833.5216966402,-12500.0,436.18151717515718,1111.7613015658467,265.5793589335762,24.687775541326115,180.21927797797761,-1.2192130020415908,1130.3676595393545,1083.0057405679336,-435.12005098546581,435.12005098546581,-1083.0057405679336,1988.2424361224059,0.0
307154.6038362722,4715833.5216966402,-12500.0,761.55569319594667,1202.9888633325788,313.04659107338256,90.205208540076413,184.97665124404892,15.58548213501529,1238.8271594056844,1283.8944124390773,-527.82103601716085,527.82103601716085,-1283.8944124390773,2211.7106909065324,0.0
312154.6038362722,4715833.5216966402,-12500.0,1198.3145539472803,1273.9880153367394,389.11283946433974,187.32368055097962,175.17593735483476,44.264468060178281,1352.8468655798742,1516.3608851052541,-632.54426727034161,632.54426727034161,-1516.3608851052541,2473.7110599247435,0.0
317154.6038362722,4715833.5216966402,-12500.0,1773.154798978233,1305.8632348157189,515.76192210083536,326.48153926806521,139.9047298284342,90.977092528584961,1477.6802293308162,1781.0688452602808,-744.80632979795621,744.80632979795621,-1781.0688452602808,2791.0441358083585,0.0
322154.6038362722,4715833.5216966402,-12500.0,2510.5787399272822,1272.5781337748886,730.79176485556968,518.35150835790034,63.354997525233813,163.7711422204645,1677.7932839700268,2077.0207229494226,-855.17339015413961,855.17339015413961,-2077.0207229494226,3189.7965025001777,1.0
327154.6038362722,4715833.5216966402,-12500.0,3422.9889624406574,1143.099479991492,1097.4103945604143,770.26269543705382,-74.939222297195656,271.61031055777244,2029.4482791666362,2403.0428147531379,-947.8957371476007,947.8957371476007,-2403.0428147531379,3705.0661553290515,0.0
332154.6038362722,4715833.5216966402,-12500.0,4491.6853079980501,892.09921196324433,1716.4001808256037,1079.5133824315269,-296.36362427528093,421.36751750071392,2482.163131338712,2763.8336526443618,-1002.02855144201,1002.02855144201,-2763.8336526443618,4372.6955827949369,0.0
337154.6038362722,4715833.5216966402,-12500.0,5635.1836170901488,532.16138587714261,2733.1034580087066,1423.6142303101003,-612.52596811352271,612.58591421155757,3005.7904700980557,3186.2387037167859,-998.98110899878111,998.98110899878111,-3186.2387037167859,5208.431590320065,0.0
342154.6038362722,4715833.5216966402,-12500.0,6671.1853073110333,192.56909846183436,4304.9871720810615,1749.2617872804087,-1004.6193220956168,834.16938119668987,3527.5607762082923,3754.0169829422084,-941.15290691126393,941.15290691126393,-3754.0169829422084,6178.7451200505084,1.0
347154.6038362722,4715833.5216966402,-12500.0,7326.6744265615989,263.25336726597902,6422.8788699142806,1960.1255956184236,-1392.0280748905195,1074.8436415257759,3856.509235733688,4657.7881588102737,-882.5389125268473,882.5389125268473,-4657.7881588102737,7197.1708490411002,1.0
352154.6038362722,4715833.5216966402,-12500.0,7455.86306900419,1478.9440290853563,8402.9853758374175,1897.7904231255068,-1581.432403368686,1349.9293901572717,4573.0287387887975,6172.1829975146393,-962.14673726269621,962.14673726269621,-6172.1829975146393,8296.5034730875777,1.0
357154.6038362722,4715833.5216966402,-12500.0,7534.4801754351984,4425.2822534251036,8228.1776088101651,1350.6945452909072,-1167.2975301771705,1677.6035533753052,5875.6029487380565,8281.9018649924074,-1418.7038490943542,1418.7038490943542,-8281.9018649924074,10351.684262899729,1.0
362154.6038362722,4715833.5216966402,-12500.0,8684.3774915535487,8170.060699013904,3159.1583644294028,274.91909540023721,532.55226873214451,1898.5000807374142,8643.8098397973736,9915.4403928422307,-2562.4468644742792,2562.4468644742792,-9915.4403928422307,15505.159519765008,1.0
367154.6038362722,4715833.5216966402,-12500.0,11308.953059033383,9777.7241374677815,-7413.243342757768,-718.04889866128678,4043.6805587696203,1570.4272105713901,14130.101005310014,8945.7872469504509,-4604.0256829754517,4604.0256829754517,-8945.7872469504509,24503.988209709027,0.0
372154.6038362722,4715833.5216966402,-12500.0,13781.630375192046,6563.5465659989277,-19966.982240522895,-467.12601064725396,8682.9539434066974,434.91402012965864,19666.662758222534,3832.5816227894907,-7108.9218974108771,7108.9218974108771,-3832.5816227894907,34967.794457769327,0.0
377154.6038362722,4715833.5216966402,-12500.0,13458.630157284822,-977.75876008554178,-28978.742788284599,1439.215417068559,12512.980923360237,-1098.8337882504038,23707.817165745008,-4512.1966384119769,-8850.0697522341998,8850.0697522341998,4512.1966384119769,43288.289257518962,1.0
382154.6038362722,4715833.5216966402,-12500.0,9410.8004823623596,-9329.7061273303316,-31371.122852442379,4059.7481834172454,14076.443291031532,-2360.0395728037406,25376.50458217421,-12978.538756640315,-8980.4019228919569,8980.4019228919569,12978.538756640315,47187.860008230418,0.0
387154.6038362722,4715833.5216966402,-12500.0,3238.7184315805534,-15203.279646023357,-28165.92860861052,6185.1549265919411,13441.105579256508,-3018.4599996601346,24826.729953795111,-18792.708700263207,-7770.9868699535655,7770.9868699535655,18792.708700263207,46680.586709041199,0.0
392154.6038362722,4715833.5216966402,-12500.0,-2772.975277464278,-17603.2073354368,-22282.308292114514,7278.9400150530055,11530.839094251622,-3125.5773837147135,22804.520425103667,-21168.232226991837,-5999.5171797497442,5999.5171797497442,21168.232226991837,43142.876009525149,0.0
397154.6038362722,4715833.5216966402,-12500.0,-7253.0089215471889,-17261.810242956497,-16139.135821582304,7425.0363915183716,9227.3250959352972,-2879.2456612013534,20080.365416534129,-20824.110672857292,-4261.8357581504333,4261.8357581504333,20824.110672857292,38101.09226543361,0.0
402154.6038362722,4715833.5216966402,-12500.0,-9903.0381129961643,-15374.223285508273,-10954.181836472613,6941.4972458808279,7056.5985957731191,-2466.2495543925693,17199.958043049144,-18893.959041236354,-2826.3538206745716,2826.3538206745716,18893.959041236354,32669.06777023623,0.0
407154.6038362722,4715833.5216966402,-12500.0,-11018.849099094983,-12904.690654228902,-7052.976391698071,6137.3603315630735,5240.725258976212,-2014.7768472306925,14477.115729973977,-16308.446395042953,-1748.6193590795383,1748.6193590795383,16308.446395042953,27496.959121538206,0.0
412154.6038362722,4715833.5216966402,-12500.0,-11068.943656720712,-10437.079933550956,-4319.9140737369898,5233.2880191419035,3822.3170388915237,-1596.1146479764168,12059.957095329455,-13652.009302196133,-988.80555700050627,988.80555700050627,13652.009302196133,22894.13969241071,0.0
417154.6038362722,4715833.5216966402,-12500.0,-10480.222145994298,-8250.937300350186,-2495.6129492678815,4360.0391069057287,2759.9508574415445,-1240.5450961535528,9994.5951633053119,-11223.961381794183,-478.10833654221005,478.10833654221005,11223.961381794183,18959.591607244882,0.0
422154.6038362722,4715833.5216966402,-12500.0,-9568.7713766859615,-6437.0570389687964,-1320.5298996560603,3581.3608959227959,1984.428722470403,-953.90643708385483,8271.0749973030324,-9139.8418795486177,-148.89085604519914,148.89085604519914,9139.8418795486177,15677.733213388648,0.0
427154.6038362722,4715833.5216966402,-12500.0,-8540.8057120371504,-4988.4345574145236,-585.72764549018962,2918.7899762868883,1426.6120113718437,-730.033861737851,6853.0708013838721,-7414.2258085699086,54.375838365972868,-54.375838365972868,7414.2258085699086,12979.723894751312,0.0
432154.6038362722,4715833.5216966402,-12500.0,-7517.6773667901653,-3857.0706184911674,-139.58013723477353,2370.7832665209276,1028.3049855205136,-558.4165214657595,5695.4148628575631,-6014.6091870071068,173.25898980697275,-173.25898980697275,6014.6091870071068,10778.987970476006,0.0
437154.6038362722,4715833.5216966402,-12500.0,-6563.1572108431519,-2984.4057301178605,121.69247628606468,1925.1586593219724,744.5039385344719,-428.17492223502518,4753.4013761287133,-4891.9225448573961,237.1813950321698,-237.1813950321698,4891.9225448573961,8989.7378831949154,0.0
442154.6038362722,4715833.5216966402,-12500.0,-5705.229908467094,-2315.3247169976512,266.65644621596795,1566.2350859832798,542.01302849284082,-329.75361237992774,3987.0170211066279,-3995.8155980562906,266.21842723936243,-266.21842723936243,3995.8155980562906,7535.2661226265482,0.0
447154.6038362722,4715833.5216966402,-12500.0,-4951.2291316044475,-1803.2464418756258,339.62225505210859,1278.4698329133698,396.99930706758096,-255.40136185304465,3362.3306737807061,-3281.2162163480452,273.72174639697801,-273.72174639697801,3281.2162163480452,6350.6183834821022,0.0
452154.6038362722,4715833.5216966402,-12500.0,-4297.4994730688568,-1410.926281307391,368.81629640616251,1048.0399103434693,292.60458337333915,-199.09900776368721,2851.4526798776692,-2710.3686426535742,268.40214737429892,-268.40214737429892,2710.3686426535742,5382.4820218084151,0.0
457154.6038362722,4715833.5216966402,-12500.0,-3735.1990087005806,-1109.4913996460189,372.03636183291223,863.32705763305239,216.98941536509648,-156.28713341156671,2431.8756872384365,-2252.7686060364613,255.85134290040264,-255.85134290040264,2252.7686060364613,4587.8891333561742,0.0
462154.6038362722,4715833.5216966402,-12500.0,-3253.5968042224222,-876.94313556243139,360.40874947929763,714.8747335186996,161.85617899417298,-123.55930406105806,2085.6217401628351,-1884.2625109446703,239.60150211021767,-239.60150211021767,1884.2625109446703,3932.5584161791853,0.0
467154.6038362722,4715833.5216966402,-12500.0,-2841.841257439356,-696.67462945814736,340.82573066068642,595.12940882159251,121.38225433072594,-98.387985796456277,1798.406162569182,-1585.9345391291365,221.84225110951616,-221.84225110951616,1585.9345391291365,3389.2789000761186,0.0
472154.6038362722,4715833.5216966402,-12500.0,-2489.8273504004333,-556.20002441938266,317.50627902305592,498.12199967077504,91.467409435320107,-78.902186854243993,1558.8992295978192,-1343.0475673901165,203.89681661293628,-203.89681661293628,1343.0475673901165,2936.4880050142483,0.0
272154.6038362722,4720833.5216966402,-12500.0,-109.22346054537539,526.41384011062371,125.93704487965138,-45.029825174515878,81.409092054464026,-11.967394460765748,547.47311018319726,395.96889371492006,-137.57796010623093,137.57796010623093,-395.96889371492006,948.25544527784348,0.0
277154.6038362722,4720833.5216966402,-12500.0,-51.785994822132075,580.34818073840552,134.93345188819956,-40.686324350767869,91.171320050894352,-12.552236164741606,596.67998475603667,461.67427221850483,-166.45141373242015,166.45141373242015,-461.67427221850483,1034.1143681022186,0.0
282154.6038362722,4720833.5216966402,-12500.0,27.505593576347643,637.41971360593379,145.83115774584647,-32.647167066353283,101.32067281588843,-12.647574702322974,649.75950285887359,538.53792251308471,-200.9874007864336,200.9874007864336,-538.53792251308471,1128.3931872361654,0.0
287154.6038362722,4720833.5216966402,-12500.0,135.14255677835288,696.10043249407852,159.89661884640338,-19.316429571293387,111.25598490341982,-11.878970035157369,706.41102326337614,628.14725328679526,-242.02598652334643,242.02598652334643,-628.14725328679526,1231.9853753902664,0.0
292154.6038362722,4720833.5216966402,-12500.0,279.21336856067455,753.7463931055446,179.30942978262598,1.4772688265888112,119.90733769145179,-9.6641426306810825,765.9741018048793,732.06867124214659,-290.30471607429155,290.30471607429155,-732.06867124214659,1346.1469992122825,0.0
297154.6038362722,4720833.5216966402,-12500.0,469.53926617219042,806.09408425695653,207.77572696239281,32.627421940442872,125.4695264180706,-5.1139200589033678,827.27777754034116,851.67931191364812,-346.24901299883197,346.24901299883197,-851.67931191364812,1472.8724893629651,0.0
302154.6038362722,4720833.5216966402,-12500.0,717.56301516443602,846.62975813905791,251.52383401767656,77.871189640189712,125.01587335715431,3.100639582326985,888.49716073882269,987.92167591948873,-409.6159326656396,409.6159326656396,-987.92167591948873,1615.5822660611905,0.0
307154.6038362722,4720833.5216966402,-12500.0,1035.7080643589552,865.90887159113299,320.88642369736681,141.80185986507851,113.97106088197775,16.909867714247067,947.40587945569484,1141.0025716720879,-478.92999987721743,478.92999987721743,-1141.0025716720879,1780.2659288027617,0.0
312154.6038362722,4720833.5216966402,-12500.0,1435.7257645280338,851.08163231939727,432.72864904907533,229.60268888874862,85.465259480379245,39.004066608585617,1012.6874456186877,1310.146811641471,-550.66587707023541,550.66587707023541,-1310.146811641471,1977.1221084043696,0.0
317154.6038362722,4720833.5216966402,-12500.0,1925.2780807472695,786.275892421035,613.95502076290836,346.19670597583757,29.714274064634186,72.901009218157881,1183.1495902362985,1493.7259536800937,-618.22246656654238,618.22246656654238,-1493.7259536800937,2222.3183484896381,0.0
322154.6038362722,4720833.5216966402,-12500.0,2501.7496733979892,655.27436201791431,905.99299485266795,494.33458139898823,-66.153941672304157,122.7376854106643,1416.9240669016212,1690.5051276450909,-670.99148448526319,670.99148448526319,-1690.5051276450909,2538.5420389645492,0.0
327154.6038362722,4720833.5216966402,-12500.0,3142.3806476694699,449.34705242228102,1368.9167269021239,671.02003231878064,-216.8859778244836,192.49321865644208,1694.7337880685118,1903.4912964958253,-694.3978299425944,694.3978299425944,-1903.4912964958253,2951.8048293280744,0.0
332154.6038362722,4720833.5216966402,-12500.0,3791.2640386704456,185.19710311050662,2080.3321334240586,861.82841759227074,-434.77961339978498,284.37780232861905,2007.2268145312146,2148.8170752110345,-672.79158811742161,672.79158811742161,-2148.8170752110345,3481.9152791246502,0.0
337154.6038362722,4720833.5216966402,-12500.0,4349.0140604935768,-60.593162445352853,3115.5161362345184,1033.4553364910016,-719.71579739616584,396.61266230213079,2324.0988610226395,2472.1917840194146,-598.27913469388545,598.27913469388545,-2472.1917840194146,4127.5648874008903,0.0
342154.6038362722,4720833.5216966402,-12500.0,4684.2811340362741,-100.23612795115955,4478.902962224066,1126.4750451259806,-1040.7384381574948,521.88997755548201,2593.0003522832567,2970.4812827396845,-488.79562038036534,488.79562038036534,-2970.4812827396845,4857.901343462142,0.0
347154.6038362722,4720833.5216966402,-12500.0,4707.1221370967514,400.72165351874844,5943.1415604128924,1053.1812260615343,-1307.1295933359777,647.59443794450158,3095.9500095700114,3795.08624261968,-415.08043294457934,415.08043294457934,-3795.08624261968,5653.3382330749528,1.0
352154.6038362722,4720833.5216966402,-12500.0,4535.656217714878,1828.5041332957378,6803.2575166532952,713.1516510768522,-1330.4632423626965,752.31126521365911,3868.580009172751,5068.0193620350983,-524.74121493835355,524.74121493835355,-5068.0193620350983,6700.8408319972823,0.0
357154.6038362722,4720833.5216966402,-12500.0,4647.9641236584721,4233.7801940616391,5785.4323162682176,57.933394446561785,-799.75447211944322,783.4464999336742,4628.295414835432,6627.1350947892306,-1031.928589792954,1031.928589792954,-6627.1350947892306,8736.5708894584295,0.0
362154.6038362722,4720833.5216966402,-12500.0,5673.8102504303242,6781.7611335225529,1613.8574652488869,-766.98807535303376,643.31243124428693,625.65453112691796,7192.5824513862481,7715.0611350897334,-2125.999708983466,2125.999708983466,-7715.0611350897334,12745.78502501418,1.0
367154.6038362722,4720833.5216966402,-12500.0,7676.0268880358872,7776.913396720287,-5729.0344628909406,-1311.4401584725622,3111.5758411563206,144.54440090731998,10808.568494634965,7091.2381402174142,-3775.1690223846558,3775.1690223846558,-7091.2381402174142,18737.806646629593,0.0
372154.6038362722,4720833.5216966402,-12500.0,9626.1301920771784,5799.0124904834756,-14251.482912962096,-1029.8641382672458,6118.165727497335,-653.70372284213249,14396.817302071502,3875.0352661982524,-5543.7494281907038,5543.7494281907038,-3875.0352661982524,25430.706823431978,0.0
377154.6038362722,4720833.5216966402,-12500.0,9997.354269365891,1044.1056383488244,-20954.561678767874,215.15740736071749,8695.1124171930551,-1541.5630300751627,17181.896040785599,-1519.7250916117509,-6744.8893639535245,6744.8893639535245,1519.7250916117509,31052.220575084601,0.0
382154.6038362722,4720833.5216966402,-12500.0,8063.5469026572955,-4707.8153348922488,-23861.369558945549,1971.6007980331246,10058.787908388656,-2228.8062737855348,18652.111307462605,-7471.3557630832565,-6942.898552454506,6942.898552454506,7471.3557630832565,34325.503011584486,0.0
387154.6038362722,4720833.5216966402,-12500.0,4411.3857039523591,-9484.7609814438383,-23004.164330063002,3590.4820145553949,10075.574681530765,-2565.0738063221111,18756.648861052905,-12271.382842275241,-6229.7092196825834,6229.7092196825834,12271.382842275241,34958.951180021038,0.0
392154.6038362722,4720833.5216966402,-12500.0,273.16352849385794,-12276.27346114395,-19738.655186811298,4662.6190714529357,9119.8318019730596,-2572.3646463818841,17794.601015147076,-15062.675594289223,-5016.3012640677152,5016.3012640677152,15062.675594289223,33443.690605059906,0.0
397154.6038362722,4720833.5216966402,-12500.0,-3327.2794936331497,-13109.017274940872,-15580.263349895959,5111.6239913624086,7691.8360338254352,-2358.2350413327986,16180.425063217132,-15900.647187576571,-3704.7279837319702,3704.7279837319702,15900.647187576571,30567.408665235023,0.0
402154.6038362722,4720833.5216966402,-12500.0,-5906.4026111775602,-12537.840506341738,-11569.090130724717,5061.6215318493223,6178.5034794205967,-2035.0163131965101,14278.379256820534,-15315.811605998369,-2538.5785006695705,2538.5785006695705,15315.811605998369,27054.578165316576,0.0
407154.6038362722,4720833.5216966402,-12500.0,-7423.9459072257478,-11188.411897106243,-8201.9464498461766,4693.482146894974,4800.6346155829851,-1685.0943082829394,12344.086418021599,-13909.448177062883,-1612.202167560712,1612.202167560712,13909.448177062883,23425.85786351471,0.0
412154.6038362722,4720833.5216966402,-12500.0,-8068.9341244539155,-9543.3944794945874,-5602.0144184954779,4166.1870569421981,3648.8746034448063,-1356.9666402774706,10529.44778356393,-12156.749062098261,-929.38943202425889,929.38943202425889,12156.749062098261,19995.540789407427,0.0
417154.6038362722,4720833.5216966402,-12500.0,-8094.5755909205263,-7903.372588340595,-3701.1756942699922,3591.8861489892779,2735.5716779356967,-1073.0389401114251,8908.8522379402075,-10365.255516672982,-453.45055363388201,453.45055363388201,10365.255516672982,16920.414047600236,0.0
422154.6038362722,4720833.5216966402,-12500.0,-7731.1203971174273,-6422.4932286695912,-2362.6366962142579,3038.0550837476317,2035.1972289275693,-839.21484980015123,7506.2604826900742,-8703.033131631264,-137.03905783015216,137.03905783015216,8703.033131631264,14254.142341633431,0.0
427154.6038362722,4720833.5216966402,-12500.0,-7154.8852355483004,-5159.1893125307488,-1445.1973885165069,2538.8401182954467,1509.2564974495003,-652.59199109705958,6316.4705834257329,-7243.328421607901,63.679374357310735,-63.679374357310735,7243.328421607901,11990.691559846462,0.0
432154.6038362722,4720833.5216966402,-12500.0,-6486.9861834984686,-4118.108414287447,-829.37004540104147,2106.896173555951,1119.1859844786968,-506.5317804764768,5319.6981235351705,-6003.2167185713697,184.04703960182087,-184.04703960182087,6003.2167185713697,10094.085242678626,0.0
437154.6038362722,4720833.5216966402,-12500.0,-5803.7312875535172,-3278.1979756925216,-423.39377860674358,1742.5971767734202,831.75007915405342,-393.53707338284505,4490.6048275875446,-4970.6054911157826,250.45476481700734,-250.45476481700734,4970.6054911157826,8516.7286872104905,0.0
442154.6038362722,4720833.5216966402,-12500.0,-5149.1755159464283,-2609.1450606660064,-160.60751289802505,1440.2027036272161,620.42423526046207,-306.64899344307281,3803.3643736242029,-4120.8348718150355,281.67795168308521,-281.67795168308521,4120.8348718150355,7209.6355662826545,0.0
447154.6038362722,4720833.5216966402,-12500.0,-4545.9273161309475,-2079.9247040012419,5.7989676815313089,1191.5725705698553,464.95226204651669,-239.97763014553442,3234.1800603326856,-3425.8951568532284,290.63939880643829,-290.63939880643829,3425.8951568532284,6127.4993441213182,0.0
452154.6038362722,4720833.5216966402,-12500.0,-4003.2017238085682,-1662.6311582297053,108.00361151884884,988.19940963689146,350.26398280896854,-188.78683661657882,2762.293474289334,-2859.0133172432111,286.01905541827455,-286.01905541827455,2859.0133172432111,5230.73831337498,0.0
457154.6038362722,4720833.5216966402,-12500.0,-3522.3407873871515,-1333.75675363093,167.82928330787041,822.19911599902787,265.31726469134242,-149.38146845618974,2370.172875057322,-2396.5843865478128,273.53244144920768,-273.53244144920768,2396.5843865478128,4485.9058544370519,0.0
462154.6038362722,4720833.5216966402,-12500.0,-3100.387142580254,-1074.2218085104507,199.94833942073961,686.70521131393878,202.08764742281994,-118.93000428795031,2043.2994574607333,-2018.6967791782008,256.87413459035463,-256.87413459035463,2018.6967791782008,3865.3020651374518,0.0
467154.6038362722,4720833.5216966402,-12500.0,-2732.297056359515,-868.87858683247077,214.16882600163279,575.94855348672218,154.76430694675355,-95.284973924142733,1769.7923565914152,-1708.9835904583915,238.38516317108088,-238.38516317108088,1708.9835904583915,3346.2641801613472,0.0
472154.6038362722,4720833.5216966402,-12500.0,-2412.2497334959403,-705.85638522103443,217.01867891685185,485.18596677077448,119.14082637735507,-76.826151070735207,1539.9949412764656,-1454.1954318133478,219.51211117408707,-219.51211117408707,1454.1954318133478,2910.3779523011053,0.0
272154.6038362722,4725833.5216966402,-12500.0,22.834913143163856,461.71109715340953,106.71764296488095,-23.440952716166979,69.305966638792796,-9.2390031969326056,469.925974559412,391.58704778600406,-143.9269703298429,143.9269703298429,-391.58704778600406,816.29975723515156,0.0
277154.6038362722,4725833.5216966402,-12500.0,92.591301135447992,499.1306315248998,116.27556114302264,-16.241171470147748,75.717130747568149,-9.3918534465052197,506.04993691811273,449.74134780869076,-170.21614558754638,170.21614558754638,-449.74134780869076,882.47472719480265,0.0
282154.6038362722,4725833.5216966402,-12500.0,183.27302978160424,535.7192719686393,129.11920841087613,-5.3231267824724036,81.604476710544844,-9.0626308256350079,543.56101778423829,516.19580234451632,-200.72775034190167,200.72775034190167,-516.19580234451632,954.2317463133312,0.0
287154.6038362722,4725833.5216966402,-12500.0,299.88116891943179,569.20231205719904,147.23482143546661,10.618817502156666,86.1636610363703,-7.9516366196597339,581.6877244563043,591.67909759029681,-235.75145807746372,235.75145807746372,-591.67909759029681,1032.306647088823,0.0
292154.6038362722,4725833.5216966402,-12500.0,448.15294110528339,596.24181508899983,173.79185916172992,33.245419728904245,88.124807213535874,-5.6181865556266271,619.2324752336574,676.72745657880625,-275.31543339773236,275.31543339773236,-676.72745657880625,1117.9497873178805,0.0
297154.6038362722,4725833.5216966402,-12500.0,634.31028471194395,612.13775406431864,213.79658927996016,64.595051633991176,85.541414881571328,-1.4281790298117065,654.4336208688992,771.55529321399263,-318.97099585456522,318.97099585456522,-771.55529321399263,1213.3696405175274,0.0
302154.6038362722,4725833.5216966402,-12500.0,864.45013712777813,610.58387632188442,275.05803366036736,107.02962793041597,75.51656519053175,5.505502155375094,685.03772247504799,875.93047983407132,-365.47648833489279,365.47648833489279,-875.93047983407132,1322.4318663361275,0.0
307154.6038362722,4725833.5216966402,-12500.0,1143.3335704531996,583.6677192331623,369.55261237482881,163.01789984236072,53.884821109672544,16.376062426676896,745.81280598578314,989.13937600023746,-412.37087940702821,412.37087940702821,-989.13937600023746,1451.616748311098,0.0
312154.6038362722,4725833.5216966402,-12500.0,1472.2449824349721,522.51194122092977,515.20220773941014,234.61173556442617,14.925368940366546,32.696082613819868,874.13540011492125,1110.2358670100452,-455.47616479722228,455.47616479722228,-1110.2358670100452,1611.0166106038632,0.0
317154.6038362722,4725833.5216966402,-12500.0,1845.5735851738584,419.31654925758778,737.82678925637708,322.39931000383797,-48.696393789533246,56.205427002029332,1025.4513943774184,1238.9656113693211,-488.49034477587247,488.49034477587247,-1238.9656113693211,1814.7152923900001,0.0
322154.6038362722,4725833.5216966402,-12500.0,2245.9934007243965,272.09974734643191,1072.3562178124009,423.66574230345259,-145.3384986502017,88.566110975022525,1198.8463682257752,1378.0444735955325,-503.08245062714923,503.08245062714923,-1378.0444735955325,2079.3851253873786,0.0
327154.6038362722,4725833.5216966402,-12500.0,2638.9883555501988,94.021666684866361,1560.8408284983511,529.54563474441534,-282.36954473863665,130.70840369040423,1389.3327738336218,1537.7530314943865,-490.33075667647483,490.33075667647483,-1537.7530314943865,2420.030623437508,0.0
332154.6038362722,4725833.5216966402,-12500.0,2969.6940601029773,-70.887563816109008,2241.7790186422271,621.29044398895894,-461.53091622076465,181.73734843201714,1584.6625449606029,1743.6170215060652,-444.89216339494078,444.89216339494078,-1743.6170215060652,2843.4627227623887,0.0
337154.6038362722,4725833.5216966402,-12500.0,3169.3490683211949,-126.56980731344248,3120.6739631582468,666.65106431933816,-670.21158973681634,237.48127925748631,1787.9730418840663,2045.9512017963298,-373.54870982736509,373.54870982736509,-2045.9512017963298,3344.3071664475547,0.0
342154.6038362722,4725833.5216966402,-12500.0,3184.0537521415758,90.738494033998975,4108.70724920879,619.06504368594676,-867.67686079354053,288.9332830640929,2159.4295503370913,2523.6336841061193,-308.63656445273841,308.63656445273841,-2523.6336841061193,3917.4869876469725,0.0
347154.6038362722,4725833.5216966402,-12500.0,3036.9139276179671,790.48516055168704,4927.7076313439447,425.02428875148098,-967.72394424708466,320.44904091257757,2661.369194947853,3261.5838553466529,-322.47919066764757,322.47919066764757,-3261.5838553466529,4616.9863782535858,0.0
352154.6038362722,4725833.5216966402,-12500.0,2905.364712721338,2114.8825991490216,5030.0136052071175,48.204752263866744,-825.99428208574204,306.47112178280071,3162.8923404350121,4270.5852050215708,-530.29008238186907,530.29008238186907,-4270.5852050215708,5679.9712309241359,0.0
357154.6038362722,4725833.5216966402,-12500.0,3126.3123309105413,3917.1531370052912,3671.8770652581543,-482.48170202526973,-254.37940272884478,207.14185296679821,3966.7893106715264,5345.3210312884421,-1060.3581351823395,1060.3581351823395,-5345.3210312884421,7572.0903415895455,0.0
362154.6038362722,4725833.5216966402,-12500.0,4005.6531091825609,5569.825166673957,290.56974053917588,-1016.5018310934863,901.46535491195732,-26.698447518546981,6090.4703869335144,5960.7664920692678,-1976.0922907420231,1976.0922907420231,-5960.7664920692678,10662.44745572467,0.0
367154.6038362722,4725833.5216966402,-12500.0,5467.5757552934438,6101.7971941823207,-4928.5218186167795,-1283.9661687451896,2616.5186601271662,-421.37699286066345,8524.8576971547918,5406.5330469308437,-3174.2814003758349,3174.2814003758349,-5406.5330469308437,14789.066431621641,0.0
372154.6038362722,4725833.5216966402,-12500.0,6880.5863455933713,4776.7615095686815,-10807.80983374505,-1029.7128996025956,4578.6956836220797,-933.16409796272956,10912.384246573223,3223.3770115751081,-4350.9278020606107,4350.9278020606107,-3223.3770115751081,19241.828964879584,0.0
377154.6038362722,4725833.5216966402,-12500.0,7380.5601070817356,1686.8193704897969,-15681.708593195386,-211.43295517953769,6283.6039124499966,-1443.6715432808965,12838.330417614363,-370.85013334231962,-5128.3162063406053,5128.3162063406053,370.85013334231962,23094.365660570722,0.0
382154.6038362722,4725833.5216966402,-12500.0,6475.259837636022,-2247.043702854693,-18327.976701090163,943.38154273951841,7309.8667571659926,-1823.3514726296169,14001.698583704485,-4512.6951792141226,-5278.0875903130436,5278.0875903130436,4512.6951792141226,25619.427230895035,0.0
387154.6038362722,4725833.5216966402,-12500.0,4342.685851961086,-5875.6261746589889,-18516.410063372114,2090.38641064695,7526.5309565104662,-2002.8839251863808,14318.933677053261,-8189.2811512458902,-4834.3256536611389,4834.3256536611389,8189.2811512458902,26540.057145345294,0.0
392154.6038362722,4725833.5216966402,-12500.0,1609.5313725081164,-8428.002214021175,-16833.723794568697,2964.9035318391234,7075.7221714671869,-1989.8010562445409,13902.785875280715,-10736.0336194847,-4014.4465922745267,4014.4465922745267,10736.0336194847,26007.472084716486,0.0
397154.6038362722,4725833.5216966402,-12500.0,-1064.3666409301441,-9695.6552853150697,-14154.712427090131,3463.6684842284631,6220.0999338559504,-1837.9949172196568,12967.212941699416,-11987.726774249997,-3066.5323857410322,3066.5323857410322,11987.726774249997,24411.180097792916,0.0
402154.6038362722,4725833.5216966402,-12500.0,-3246.5819830213773,-9870.2672391687429,-11227.737063591105,3613.4875079227704,5207.2008825061748,-1610.7179727758285,11736.099323825812,-12137.363385624618,-2171.1118255740348,2171.1118255740348,12137.363385624618,22185.90085970136,0.0
407154.6038362722,4725833.5216966402,-12500.0,-4772.1069464702286,-9300.3435573254574,-8521.965732577075,3503.5357627828384,4209.2940138546255,-1359.2213228379169,10392.07031180105,-11521.968414830131,-1420.7036837328196,1420.7036837328196,11521.968414830131,19697.080900449742,0.0
412154.6038362722,4725833.5216966402,-12500.0,-5665.5089527563287,-8322.9280221365643,-6251.87643803431,3232.6221121715125,3320.2553094222717,-1116.7951005771818,9061.7128106273522,-10470.69650645878,-840.96259710983395,840.96259710983395,10470.69650645878,17202.821226301476,0.0
417154.6038362722,4725833.5216966402,-12500.0,-6045.0214115358413,-7191.8676074717087,-4462.8149302116262,2882.6194581395512,2576.0340349231019,-900.97122456677516,7820.9125682974145,-9237.2052012227941,-419.65073759361803,419.65073759361803,9237.2052012227941,14860.380144811406,0.0
422154.6038362722,4725833.5216966402,-12500.0,-6052.9598795576567,-6068.7051023660988,-3111.4979540422441,2510.9675420195117,1977.7641745839862,-718.24902811781783,6707.3226411269434,-7988.6442278490413,-128.76731156320557,128.76731156320557,7988.6442278490413,12749.767116111025,0.0
427154.6038362722,4725833.5216966402,-12500.0,-5818.2406602972196,-5040.7781627242421,-2120.7253972499757,2152.896448614827,1509.4530594831056,-568.5602128945726,5733.0619267120192,-6820.5036818074241,62.420534007576407,-62.420534007576407,6820.5036818074241,10899.016412916984,0.0
432154.6038362722,4725833.5216966402,-12500.0,-5442.1939529767951,-4145.0522171092452,-1409.6695515935648,1826.9781927420477,1149.1145949033735,-448.55043468579333,4894.9445075774511,-5777.9161554503153,181.22050857828071,-181.22050857828071,5777.9161554503153,9304.8403506355098,0.0
437154.6038362722,4725833.5216966402,-12500.0,-4997.3968729685539,-3388.3641290686928,-907.45465941439647,1540.7342383387979,874.76168807868714,-353.64969009233505,4181.7225231744442,-4874.5245295369914,249.47368665516524,-249.47368665516524,4874.5245295369914,7947.3015547544164,0.0
442154.6038362722,4725833.5216966402,-12500.0,-4532.1543698686,-2761.7149516249929,-557.25363937910197,1295.0721636191947,667.08143070719314,-279.21760174798277,3578.757418812474,-4106.3148143840936,283.5758452198188,-283.5758452198188,4106.3148143840936,6799.2751495408675,0.0
447154.6038362722,4725833.5216966402,-12500.0,-4076.4285854363611,-2249.2330048211211,-315.82646998853318,1087.3622252880843,510.24245035746242,-221.08393107607495,3070.7779530317994,-3460.6550479194748,295.32485078106924,-295.32485078106924,3460.6550479194748,5832.0367491098659,0.0
452154.6038362722,4725833.5216966402,-12500.0,-3647.2900841244632,-1833.2744259836136,-151.32874460753115,913.38522910873996,391.78738058724315,-175.73869119367291,2643.3582922226969,-2921.7105728810352,292.95445881484784,-292.95445881484784,2921.7105728810352,5018.2666779721358,0.0
457154.6038362722,4725833.5216966402,-12500.0,-3253.234616296028,-1497.0306299758477,-40.793488869775636,768.47037939948052,302.15713579405065,-140.34033224267526,2283.5959982842278,-2473.4204296614444,282.07472582945411,-282.07472582945411,2473.4204296614444,4333.4441608128727,0.0
462154.6038362722,4725833.5216966402,-12500.0,-2897.3282477840048,-1225.6604081538733,32.122698959401284,648.10379835271533,234.12872617337192,-112.64302333420646,1980.3253627813604,-2100.9630483884134,266.42879934304392,-266.42879934304392,2100.9630483884134,3756.3081038996429,0.0
467154.6038362722,4725833.5216966402,-12500.0,-2579.3759717130592,-1006.6148263907825,78.950518238329451,548.21419750823441,182.29341315901777,-90.898029818125096,1724.0816488547921,-1791.347286598736,248.46267232577441,-248.46267232577441,1791.347286598736,3268.8170142266163,0.0
272154.6038362722,4730833.5216966402,-12500.0,124.07746606577912,394.55984116407808,97.408536339001117,-6.54770231855177,56.870873292270467,-6.9635332924727065,399.61826009123905,376.9233574672723,-143.50637501776015,143.50637501776015,-376.9233574672723,700.89383133586671,0.0
277154.6038362722,4730833.5216966402,-12500.0,198.76546696957195,417.38101896221951,109.58413463284028,2.2007217784703359,60.249542143551736,-6.8222061959627318,424.82627718002027,426.84007306392186,-166.2838241877096,166.2838241877096,-426.84007306392186,751.93770704390522,0.0
282154.6038362722,4730833.5216966402,-12500.0,291.7991024981294,436.66935599510202,126.6587654354018,14.343823966876217,62.431841725872033,-6.2398863420049002,449.61914531089684,482.59712610189854,-191.88083831689255,191.88083831689255,-482.59712610189854,806.98892839772554,0.0
287154.6038362722,4730833.5216966402,-12500.0,406.48972728008823,450.00464571495405,151.18946845948048,30.836444189479082,62.538792763279538,-4.989990879810021,472.97432931334686,544.38673988171422,-220.17493100244903,220.17493100244903,-544.38673988171422,866.91487830807694,0.0
292154.6038362722,4730833.5216966402,-12500.0,546.1630268996455,454.19028350846514,187.00827097591841,52.790096173656316,59.287284227666042,-2.7588818477474524,493.44156991876139,612.20134410617607,-250.72114652696712,250.72114652696712,-612.20134410617607,933.23697758072376,0.0
297154.6038362722,4730833.5216966402,-12500.0,713.69815083357003,445.20865488002187,239.78571825975811,81.410412144654742,50.852242898572321,0.87488791947577771,509.06670029286943,685.79911997627573,-282.58043018253477,282.58043018253477,-685.79911997627573,1008.5470975403535,0.0
302154.6038362722,4730833.5216966402,-12500.0,910.7316430451707,418.37281207849998,317.76687991952792,117.84028458715082,34.718774231524925,6.4546016895574665,575.50345803911216,764.74923005386472,-314.10583220400258,314.10583220400258,-764.74923005386472,1097.042553290755,0.0
307154.6038362722,4730833.5216966402,-12500.0,1136.3927139504567,368.89744701930528,432.63775333186976,162.84030197867358,7.5675295314576045,14.63791380872123,663.3944048170315,848.66712857640846,-342.71739986251094,342.71739986251094,-848.66712857640846,1205.0489801854792,0.0
312154.6038362722,4730833.5216966402,-12500.0,1385.4647404571099,293.26788325965941,600.32741035162655,216.21038581884105,-34.707586187613025,26.140483546077103,763.56542727644262,937.83461939259269,-364.75558700468855,364.75558700468855,-937.83461939259269,1341.2008206128792,0.0
317154.6038362722,4730833.5216966402,-12500.0,1646.0278049555016,191.98564830589677,841.21383376114977,275.84016689525157,-96.6531547263032,41.586576994545581,875.00320979034495,1034.5089413334231,-375.61394393877129,375.61394393877129,-1034.5089413334231,1515.7654249347522,0.0
322154.6038362722,4730833.5216966402,-12500.0,1897.0670158533244,74.419892001193787,1178.536559430132,336.30540624340642,-182.23716546690008,61.205916754118725,994.06808115022227,1145.2948356607803,-370.52671552638628,370.52671552638628,-1145.2948356607803,1738.7064075750093,0.0
327154.6038362722,4730833.5216966402,-12500.0,2107.4535130775707,-33.688588428036944,1632.6936007109357,387.07704117390193,-292.63238969730088,84.314050441923428,1114.0351000874048,1284.8057293251841,-346.60358073434566,346.60358073434566,-1284.8057293251841,2016.8729663913286,0.0
332154.6038362722,4730833.5216966402,-12500.0,2239.2402231298238,-80.727730290120221,2207.6203106697412,410.78421726991701,-422.16077579703318,108.54930548821405,1246.1417979045896,1480.0293992335623,-306.81185875992708,306.81185875992708,-1480.0293992335623,2352.4269225081839,0.0
337154.6038362722,4730833.5216966402,-12500.0,2259.9032122952458,18.209603621389537,2864.6645861861771,382.68693081818265,-551.94958817157885,128.91901883266974,1508.5581474727576,1772.6035009975183,-266.2297379504505,266.2297379504505,-1772.6035009975183,2747.6998661450771,0.0
342154.6038362722,4730833.5216966402,-12500.0,2167.7859531152221,375.97747339138994,3482.5823618586232,273.55472288680699,-641.82098118675185,136.79785574335989,1852.7293035100829,2212.0555479440864,-259.37055947859676,259.37055947859676,-2212.0555479440864,3226.1919287520332,0.0
347154.6038362722,4730833.5216966402,-12500.0,2027.4671666306676,1097.0418558210158,3815.5981262291598,59.097698245303036,-623.35476368994534,119.06543406325476,2209.9095093191272,2828.6941999924275,-344.17758834736924,344.17758834736924,-2828.6941999924275,3877.9602010882359,0.0
352154.6038362722,4730833.5216966402,-12500.0,1992.1374614399751,2195.20596702892,3488.4150177639922,-261.49604311448041,-401.366472011974,57.822319182883568,2546.7331735518892,3578.1211035068354,-594.33338042084324,594.33338042084324,-3578.1211035068354,4901.0108466150868,0.0
357154.6038362722,4730833.5216966402,-12500.0,2267.5216739793605,3485.1521628020787,2090.2378866060462,-640.72296167539832,124.45884324864005,-67.65034807733673,3599.4903390508434,4273.6710092420235,-1071.1130447637206,1071.1130447637206,-4273.6710092420235,6541.2058765275133,0.0
362154.6038362722,4730833.5216966402,-12500.0,2985.385402182199,4533.5311607872482,-603.22457912247842,-967.40661690544482,1009.1543328274612,-273.19506665040302,5124.0714978869164,4567.3536276679597,-1776.2949314427308,1776.2949314427308,-4567.3536276679597,8906.4141112805464,0.0
367154.6038362722,4730833.5216966402,-12500.0,4040.8363625133884,4782.1928342993151,-4376.8234930966792,-1088.8437710584822,2197.8341949516289,-555.12475058888492,6809.1380660813757,4055.502915439246,-2610.718840931514,2610.718840931514,-4055.502915439246,11829.999631034549,0.0
372154.6038362722,4730833.5216966402,-12500.0,5045.4654855482704,3843.7066270195037,-8511.9589357303903,-882.81916571371119,3497.5101497963492,-877.78517133152855,8446.2153341415851,2503.3257138007316,-3381.4714899056867,3381.4714899056867,-2503.3257138007316,14897.741938280244,0.0
377154.6038362722,4730833.5216966402,-12500.0,5501.5498668773462,1769.9435675246459,-12051.142032120297,-338.74914396186824,4634.8092846250693,-1179.5014292935364,9801.2751367769306,38.745681562716527,-3878.7663604936179,3878.7663604936179,-38.745681562716527,17596.867031347592,0.0
382154.6038362722,4730833.5216966402,-12500.0,5091.088957395822,-944.03327116295293,-14242.234396273985,423.691118942824,5377.4767008266053,-1399.0797493744396,10694.305278378199,-2861.978202202034,-3978.8233812374215,3978.8233812374215,2861.978202202034,19503.513977225641,0.0
387154.6038362722,4730833.5216966402,-12500.0,3842.2575692119763,-3628.407672041069,-14835.347464625187,1218.5167096048203,5629.8139328972493,-1502.8547708029259,11053.139497039065,-5600.6613225603696,-3694.0515255846485,3694.0515255846485,5600.6613225603696,20411.370580012044,0.0
392154.6038362722,4730833.5216966402,-12500.0,2064.3550100951725,-5751.1864259841313,-14061.78786505399,1883.2478751582973,5440.3066022976982,-1492.6030757957014,10914.771726513958,-7715.3328469610251,-3141.1597197075125,3141.1597197075125,7715.3328469610251,20347.076741848308,0.0
397154.6038362722,4730833.5216966402,-12500.0,154.64008132859863,-7070.0110256876269,-12402.905111939202,2330.7279329198382,4941.9668081040709,-1394.7398527162484,10387.252893758556,-9004.6015966059967,-2469.098480713244,2469.098480713244,9004.6015966059967,19497.622022102925,0.0
402154.6038362722,4730833.5216966402,-12500.0,-1565.395205447526,-7603.4939323473918,-10352.078674272838,2549.3545185852477,4282.9623646303053,-1243.9250932951004,9602.7966899896619,-9500.4240937472714,-1801.5223593555784,1801.5223593555784,9500.4240937472714,18113.588565136648,0.0
407154.6038362722,4730833.5216966402,-12500.0,-2915.750231622399,-7518.9096290853113,-8281.1938557308094,2575.6266008985008,3583.4062557385441,-1071.1920993321587,8683.4872528779306,-9368.872803118491,-1214.3994995110306,1214.3994995110306,9368.872803118491,16435.121448620303,0.0
412154.6038362722,4730833.5216966402,-12500.0,-3845.5220139629005,-7025.7616096120137,-6410.7119316796261,2464.5973986830436,2921.6519749773884,-898.89010364014462,7724.6909165707948,-8814.992492463105,-739.80568131689279,739.80568131689279,8814.992492463105,14653.885484171687,0.0
417154.6038362722,4730833.5216966402,-12500.0,-4388.2826252380755,-6311.1022222558322,-4836.8258367875969,2270.0075456210157,2338.5607016691051,-740.40819855389338,6791.8233591108701,-8023.6479542005127,-380.01943376831332,380.01943376831332,8023.6479542005127,12903.481823645416,0.0
422154.6038362722,4730833.5216966402,-12500.0,-4617.7490282591425,-5514.211157016749,-3574.6468965621807,2034.9520526568717,1848.2773964684088,-602.07542152378107,5924.2435955124947,-7135.2943561210323,-121.50301362826258,121.50301362826258,7135.2943561210323,11265.699734096701,0.0
427154.6038362722,4730833.5216966402,-12500.0,-4616.7152373336803,-4725.528506650925,-2595.9641465986087,1789.7308427501443,1448.891458391882,-485.50974395770294,5141.633263806174,-6243.9322966018135,55.135150679751405,-55.135150679751405,6243.9322966018135,9782.7032888156409,0.0
432154.6038362722,4730833.5216966402,-12500.0,-4460.0395577164136,-3996.1853790530076,-1855.1309941051768,1553.3446378838087,1130.4681446285826,-389.6117964125209,4450.277764150931,-5405.2329401377683,169.38447009835227,-169.38447009835227,5405.2329401377683,8469.4654360972127,0.0
437154.6038362722,4730833.5216966402,-12500.0,-4207.8614705021855,-3349.7880319687465,-1304.0313286715254,1336.235093011454,880.19693126541119,-311.97892512218812,3848.1777525877951,-4647.2321024579287,238.15405889639851,-238.15405889639851,4647.2321024579287,7324.0153807778606,0.0
442154.6038362722,4730833.5216966402,-12500.0,-3904.7841587523276,-2792.6196005990132,-899.32715581522473,1142.9988199412796,685.26827317229311,-249.78752258654819,3328.7584151456426,-3979.9199634655502,274.95011083827876,-274.95011083827876,3979.9199634655502,6334.9132904698308,0.0
447154.6038362722,4730833.5216966402,-12500.0,-3581.8647443963232,-2321.1532600732735,-605.06405315100244,974.57637403884553,534.23936295100611,-200.28116333361419,2883.3483110309635,-3402.5345533418676,289.99987724307698,-289.99987724307698,3402.5345533418676,5486.259136882758,0.0
452154.6038362722,4730833.5216966402,-12500.0,-3259.4982510647023,-1927.0371884575654,-392.8455950334137,829.82460785298974,417.50771460530461,-161.0015562406376,2502.7141992239476,-2908.569931510342,290.7615857310293,-290.7615857310293,2908.569931510342,4760.8032021918934,0.0
457154.6038362722,4730833.5216966402,-12500.0,-2950.2318404074608,-1600.1391007583209,-240.93696915266378,706.55941923505031,327.31682148668023,-129.86750290552757,2177.9383232098407,-2488.9630362756711,282.52065023327305,-282.52065023327305,2488.9630362756711,4141.7336985780512,0.0
462154.6038362722,4730833.5216966402,-12500.0,-2661.1146505030097,-1330.2559631009669,-133.04048371364823,602.20065039891381,257.55098533575102,-105.17308598643754,1900.8631322101571,-2133.9809983040013,268.93463654021991,-268.93463654021991,2133.9809983040013,3613.5942792731375,0.0
277154.6038362722,4735833.5216966402,-12500.0,271.17585499117644,340.31711890275301,112.05560775922439,15.278082385907631,45.654792987333067,-4.7973309691613348,353.20234380581525,397.61046833153932,-157.08495423710895,157.08495423710895,-397.61046833153932,641.84740779720403,0.0
282154.6038362722,4735833.5216966402,-12500.0,360.01338783352116,346.28091733263904,134.33133371094598,27.391766489909369,44.864306286223709,-4.0977400045751997,367.908549149988,443.48286135649397,-177.62052982504139,177.62052982504139,-443.48286135649397,685.09614024987275,0.0
287154.6038362722,4735833.5216966402,-12500.0,465.50658477730281,345.14955837894848,165.82951658688626,42.976123046369935,41.60898964005051,-2.8583052434417815,379.8731388070392,493.25016714216417,-199.39796879175515,199.39796879175515,-493.25016714216417,732.75727002810538,0.0
292154.6038362722,4735833.5216966402,-12500.0,588.93123639603914,334.41388495860048,210.59666489102051,62.642768254603013,34.731445059199778,-0.87208714055955239,398.95531623511533,546.75165660888956,-221.73929463188455,221.73929463188455,-546.75165660888956,786.60735389332672,0.0
297154.6038362722,4735833.5216966402,-12500.0,730.59052358548593,311.3431469008155,274.25379646028284,86.900786016980135,22.69831471797302,2.1155623125312868,453.19247934329468,603.78072734898592,-243.55671491183099,243.55671491183099,-603.78072734898592,849.40781946926995,0.0
302154.6038362722,4735833.5216966402,-12500.0,889.07918838051751,273.41544465213468,364.40683231267928,115.96337959811493,3.5616884128823871,6.3960998322276268,514.58801685653941,664.2668955031977,-263.25525651000623,263.25525651000623,-664.2668955031977,925.1700868059512,0.0
307154.6038362722,4735833.5216966402,-12500.0,1060.2919186824424,219.19511807123976,490.94834819168852,149.42473435981574,-25.000741379155464,12.262394258365825,582.89810781078518,728.67315933197642,-278.69328328707235,278.69328328707235,-728.67315933197642,1019.2286191974825,0.0
312154.6038362722,4735833.5216966402,-12500.0,1236.2454679559971,149.91667379425667,665.95453012006908,185.76055940302135,-65.472482801830367,19.929634889007797,656.94631624572526,798.74392218736193,-287.3001319881696,287.3001319881696,-798.74392218736193,1137.8962975373645,0.0
317154.6038362722,4735833.5216966402,-12500.0,1403.9931692555276,72.065795792393004,902.59089328378639,221.62380040042828,-119.95560501518833,29.385774328195133,733.85709219190403,878.75147792308076,-286.52312157909358,286.52312157909358,-878.75147792308076,1287.5629154178985,0.0
322154.6038362722,4735833.5216966402,-12500.0,1545.297934110853,1.1211034909235902,1211.9960113074326,250.97327268662923,-189.06937834258119,40.142310465257601,808.59340518702925,977.29934904524407,-274.8584356198528,274.8584356198528,-977.29934904524407,1473.4722836096146,0.0
327154.6038362722,4735833.5216966402,-12500.0,1638.3181230520647,-33.903449763421577,1596.5901361809122,264.23063629584294,-270.01462440265198,50.863386354300921,886.1774145773245,1109.3991257092339,-253.76093225054882,253.76093225054882,-1109.3991257092339,1699.1580229350154,0.0
332154.6038362722,4735833.5216966402,-12500.0,1663.1589428229418,13.239915660954527,2038.027706540609,247.94885137821817,-353.59982057379966,58.885012250379368,1069.7691311921199,1297.7095324695124,-230.58913357342362,230.58913357342362,-1297.7095324695124,1968.6731327147997,0.0
337154.6038362722,4735833.5216966402,-12500.0,1613.0629820070903,204.91771512720535,2479.0691214910007,185.88761253831532,-420.38511500823159,59.69650122860692,1310.4621166247093,1570.3523899945762,-222.20239491743769,222.20239491743769,-1570.3523899945762,2295.2007155407,0.0
342154.6038362722,4735833.5216966402,-12500.0,1510.7895018769589,606.91741026343777,2802.7365806334233,62.768693888941357,-436.97617912998243,46.545653032542788,1564.8037434356356,1951.0163472193115,-257.66583010461068,257.66583010461068,-1951.0163472193115,2719.2964834877894,0.0
347154.6038362722,4735833.5216966402,-12500.0,1423.6857401452769,1256.9827653086079,2820.7002400335659,-128.14232024045472,-355.01220311314864,10.454506840307543,1816.5753596213547,2437.0915466713159,-376.89500434972706,376.89500434972706,-2437.0915466713159,3330.2486286980238,0.0
352154.6038362722,4735833.5216966402,-12500.0,1462.0392956818746,2115.2280356668116,2293.2707766164685,-373.98588369501221,-117.10201055323074,-58.856921179904276,2237.7983968847539,2967.2830256363263,-621.14700697804983,621.14700697804983,-2967.2830256363263,4260.4684938278706,0.0
357154.6038362722,4735833.5216966402,-12500.0,1741.9317703583533,3017.5123877438582,1003.600910184512,-631.88852830285578,325.93162293480282,-170.37159177099147,3173.6441443696799,3394.3115058646663,-1013.4335451855807,1013.4335451855807,-3394.3115058646663,5623.416279920405,0.0
362154.6038362722,4735833.5216966402,-12500.0,2310.8702087833003,3676.0020535594881,-1119.2862153116673,-828.24226433245519,986.96225525729631,-326.95757752425595,4286.9243979541843,3493.8019302960547,-1534.1834393827551,1534.1834393827551,-3493.8019302960547,7429.3444606926869,0.0
367154.6038362722,4735833.5216966402,-12500.0,3074.4164567923358,3765.6739068433171,-3888.9080774400886,-877.45130882110755,1815.3626579104998,-519.58170840918376,5483.739648636345,3035.284218692801,-2107.2156955112459,2107.2156955112459,-3035.284218692801,9545.4608498535108,0.0
372154.6038362722,4735833.5216966402,-12500.0,3790.4051959955355,3077.3381881690284,-6855.1411949707308,-718.91152111713018,2692.5157024023465,-724.73851439242344,6637.7239306731444,1898.3970765239835,-2613.2946201303789,2613.2946201303789,-1898.3970765239835,11719.960050212663,0.0
377154.6038362722,4735833.5216966402,-12500.0,4163.9825384951328,1643.7859499549822,-9447.6783207099033,-351.91394389679152,3464.5518522747966,-909.48886861246501,7611.0362727842657,163.37259817260087,-2933.2533862593855,2933.2533862593855,-163.37259817260087,13654.524412192754,0.0
382154.6038362722,4735833.5216966402,-12500.0,3991.4931062946039,-257.66690560726084,-11197.799359216337,158.01965552878758,3999.1701539095789,-1043.1141462819955,8293.4004794236025,-1896.7649041852264,-2997.4836238875414,2997.4836238875414,1896.7649041852264,15094.499888345275,0.0
387154.6038362722,4735833.5216966402,-12500.0,3252.7623934965554,-2230.662915864129,-11899.781392079836,707.63139772120724,4231.5338447617496,-1108.2018578167467,8630.6292807178852,-3923.9615077756539,-2809.8357572037044,2809.8357572037044,3923.9615077756539,15896.078899072354,0.0
392154.6038362722,4735833.5216966402,-12500.0,2097.5582196443979,-3921.8797334978904,-11628.357797502089,1198.3459943967546,4173.7952754319203,-1104.4534221232341,8629.9634059050441,-5609.7134808482188,-2434.2472380241129,2434.2472380241129,5609.7134808482188,16044.199216088164,0.0
397154.6038362722,4735833.5216966402,-12500.0,757.55140872447305,-5123.2485481149661,-10640.217552921691,1566.2217159618442,3891.9736146039158,-1044.7687172527885,8345.0144871449029,-6778.774506835186,-1959.8745753610592,1959.8745753610592,6778.774506835186,15625.607861680472,0.0
402154.6038362722,4735833.5216966402,-12500.0,-547.60773666297496,-5785.2366413857535,-9245.2591750701831,1789.0932734141504,3471.8569228765696,-947.97467764962812,7852.3357592147677,-7398.1240686891933,-1468.6026418379306,1468.6026418379306,7398.1240686891933,14781.678078739929,0.0
407154.6038362722,4735833.5216966402,-12500.0,-1665.3873044989455,-5971.7646852593216,-7713.1131689631957,1877.1342447694672,2992.3134413562348,-832.54328759121984,7230.6700383659791,-7536.3933695066444,-1017.8250911301598,1017.8250911301598,7536.3933695066444,13664.701536121442,0.0
412154.6038362722,4735833.5216966402,-12500.0,-2521.798536533498,-5800.7617418940818,-6232.7327909412788,1858.0146909897662,2512.18094942478,-713.10046851832908,6547.918757917776,-7310.8114600622748,-637.95145543413764,637.95145543413764,7310.8114600622748,12409.299209088462,0.0
417154.6038362722,4735833.5216966402,-12500.0,-3105.9941110447853,-5397.7281766897049,-4911.6668084053799,1764.2926743838293,2068.1560718436804,-599.4499239179994,5855.7240320776164,-6845.3046473969207,-338.1107968043666,338.1107968043666,6845.3046473969207,11119.605163803708,0.0
422154.6038362722,4735833.5216966402,-12500.0,-3446.3719260250796,-4869.7717527009818,-3794.390874957392,1625.6491838391237,1678.5632152166258,-497.09113116112127,5189.2810127852272,-6246.5767657815077,-114.03508407952813,114.03508407952813,6246.5767657815077,9867.6613225983292,0.0
427154.6038362722,4735833.5216966402,-12500.0,-3589.3156562132654,-4296.379904232529,-2884.5301610223237,1465.4862666052175,1348.9053863253637,-408.31520911784025,4569.8478919437648,-5595.2018158921455,45.180707084822643,-45.180707084822643,5595.2018158921455,8697.8038334065495,0.0
432154.6038362722,4735833.5216966402,-12500.0,-3584.5835440910287,-3730.1934688227338,-2163.468737260825,1300.3781758841892,1076.9497733944741,-333.32566222151263,4008.134619071157,-4945.9324237376932,152.47465716290435,-152.47465716290435,4945.9324237376932,7633.1695239000701,0.0
437154.6038362722,4735833.5216966402,-12500.0,-3477.1744080913904,-3202.167128622054,-1603.236574660099,1140.964641888758,856.52929937569036,-271.14078125301302,3507.5450858058289,-4332.2361338664832,220.20219233233638,-220.20219233233638,4332.2361338664832,6682.0908505099724,0.0
442154.6038362722,4735833.5216966402,-12500.0,-3303.9253112906131,-2727.6561586417351,-1174.2406845207026,993.33322661587795,680.02477966538379,-220.22562688826093,3066.8305021454862,-3771.8903270134706,258.94191892400795,-258.94191892400795,3771.8903270134706,5843.3903430405126,0.0
447154.6038362722,4735833.5216966402,-12500.0,-3092.9746381397431,-2311.7698741406184,-849.25769999753663,860.37538677068642,539.80339712821171,-178.88805169596534,2682.0591093716998,-3272.0477635683001,277.16392320897444,-277.16392320897444,3272.0477635683001,5110.3347534842733,0.0
452154.6038362722,4735833.5216966402,-12500.0,-2864.6670508046582,-1953.4536625255157,-605.06599412552259,742.9011015422376,428.94181298921808,-145.5011508022865,2347.9735157683167,-2833.2046365317997,281.34592508334435,-281.34592508334435,2833.2046365317997,4473.3715470394873,0.0
457154.6038362722,4735833.5216966402,-12500.0,-2633.0004786556915,-1648.3292883378874,-422.75309998137243,640.46719274999577,341.50884047862161,-118.61079202472,2058.8701415596133,-2452.0430889554291,276.27689138833307,-276.27689138833307,2452.0430889554291,3921.9094361102766,0.0
462154.6038362722,4735833.5216966402,-12500.0,-2407.1120435903945,-1390.5293916432247,-287.37275276774523,551.94850374145244,272.60156910591837,-96.973216510845887,1809.1266366824998,-2123.3278159820875,265.40271340001436,-265.40271340001436,2123.3278159820875,3445.3934881632408,0.0
277154.6038362722,4740833.5216966402,-12500.0,315.34877282341779,271.33831359435578,120.6481828167136,23.811763833692051,32.531129281278901,-3.251269599819381,290.94031622717245,365.67944523007634,-144.71746397589322,144.71746397589322,-365.67944523007634,550.57420501266608,0.0
282154.6038362722,4740833.5216966402,-12500.0,395.81384316597774,268.03055812628094,148.00270407458279,35.037444592128708,29.548514475143548,-2.5338409282137722,298.02696972219206,403.07648676341898,-160.55163704249424,160.55163704249424,-403.07648676341898,585.83239641841203,0.0
287154.6038362722,4740833.5216966402,-12500.0,488.03166441147562,257.80600572267701,185.65398117520945,48.811505847616232,24.012515678356703,-1.4032564976899398,323.28186990366606,443.02571731298997,-176.59213922426227,176.59213922426227,-443.02571731298997,625.5029252067834,0.0
292154.6038362722,4740833.5216966402,-12500.0,591.78096215565824,239.08716753432253,237.43741703098146,65.34384013506849,14.97321166289632,0.26320498612904303,362.88704690906138,485.45849065163634,-192.12043211248485,192.12043211248485,-485.45849065163634,671.43292331460657,0.0
297154.6038362722,4740833.5216966402,-12500.0,705.69855311111473,210.57714457811591,308.33982592067758,84.630911422405148,1.2656004958503955,2.5971194313888071,406.88939387164356,530.45130902491178,-206.13931997822175,206.13931997822175,-530.45130902491178,726.21090155585443,0.0
302154.6038362722,4740833.5216966402,-12500.0,826.73625971978254,171.81442631940533,404.59134800597047,106.27234080650449,-18.451406776539276,5.7171600164826115,454.88319036794729,578.4759151811129,-217.37231322010228,217.37231322010228,-578.4759151811129,793.19167858460128,0.0
307154.6038362722,4740833.5216966402,-12500.0,949.55653472877111,124.09714338834628,533.49797568698136,129.20186420678351,-45.5623517921493,9.6857442476606046,505.80929651512099,630.83043184498001,-224.35227717171693,224.35227717171693,-630.83043184498001,876.31500752637044,0.0
312154.6038362722,4740833.5216966402,-12500.0,1066.0212674128761,71.895950912531447,702.72080911980697,151.32332674212051,-81.195856556301223,14.433312406575745,557.46822859021938,690.31067973080621,-225.67974241386671,225.67974241386671,-690.31067973080621,979.67530152011091,0.0
317154.6038362722,4740833.5216966402,-12500.0,1165.0968589682027,24.7999490068512,918.52231899498463,169.07392558350273,-125.65519360494787,19.634106040219276,605.94627171910679,762.13088782719956,-220.56604013297613,220.56604013297613,-762.13088782719956,1106.9836236987651,0.0
322154.6038362722,4740833.5216966402,-12500.0,1233.7404778376654,-0.19407369988945478,1182.3051007898885,177.00269983984703,-177.45861843802362,24.52733766089565,647.87800462839391,854.95273792322337,-209.78485247568671,209.78485247568671,-854.95273792322337,1261.3922255236375,0.0
327154.6038362722,4740833.5216966402,-12500.0,1259.5611018671812,23.239834382032775,1484.6923145168878,167.57251503025824,-231.89591106255295,27.6811289254969,775.62880651486751,981.548232244372,-197.1069327662604,197.1069327662604,-981.548232244372,1446.6291911131843,0.0
332154.6038362722,4740833.5216966402,-12500.0,1236.0420341702691,130.70845890751281,1796.7889482367834,131.5597427907816,-279.14477159128131,26.730975919092892,946.64866892268572,1158.056925160769,-191.08591078188545,191.08591078188545,-1158.056925160769,1670.9072964363584,0.0
337154.6038362722,4740833.5216966402,-12500.0,1170.3861362118012,362.37161072560116,2059.6635014285589,59.589344027217997,-302.3153619646863,18.166536403034186,1128.5738994576316,1400.1111411377551,-206.63176632989678,206.63176632989678,-1400.1111411377551,1954.9534534416114,0.0
342154.6038362722,4740833.5216966402,-12500.0,1092.0263370202092,750.29980119986851,2176.0628368172229,-54.65360572168175,-276.3583139023533,-2.6959103130225111,1313.4612340262349,1713.850311499755,-265.15807084482321,265.15807084482321,-1713.850311499755,2342.4779578116013,0.0
347154.6038362722,4740833.5216966402,-12500.0,1056.4809750209272,1296.4804925994979,2012.5343094381753,-209.43262798589927,-169.46693283185184,-41.348629702467363,1512.9198617378047,2081.2060448310067,-391.53067839130108,391.53067839130108,-2081.2060448310067,2903.3049577186835,0.0
352154.6038362722,4740833.5216966402,-12500.0,1136.377464872267,1946.1507866124523,1422.6701851424857,-389.26885063163877,51.050977312151382,-103.08015848769884,2032.1140492586992,2443.1587819017723,-606.33557151533307,606.33557151533307,-2443.1587819017723,3714.5638223353831,0.0
357154.6038362722,4740833.5216966402,-12500.0,1393.6073858285758,2570.9141288563746,297.29871262376184,-561.48194796907251,407.42594797946606,-191.13037028509569,2755.7597733783609,2691.397807016604,-914.05298119184249,914.05298119184249,-2691.397807016604,4821.6694964109784,0.0
362154.6038362722,4740833.5216966402,-12500.0,1837.9972217400368,2982.3716354779103,-1369.3990930814043,-679.2637455765522,896.79956822700706,-304.21491400319519,3581.6584600996648,2682.8438254077955,-1291.5897946567206,1291.5897946567206,-2682.8438254077955,6203.7173103146069,0.0
367154.6038362722,4740833.5216966402,-12500.0,2394.8704350289358,2987.7489997141392,-3431.3236327392483,-694.12907476509633,1480.1848517058506,-434.41870186896932,4450.7634163398197,2284.2752201254261,-1684.9625862613839,1684.9625862613839,-2284.2752201254261,7762.9663215107266,0.0
372154.6038362722,4740833.5216966402,-12500.0,2910.4183741962802,2470.806769395273,-5599.7404577580892,-574.87367840602576,2084.0786131406762,-567.13963997014298,5284.1425057400902,1433.4433788353749,-2020.4874774257937,2020.4874774257937,-1433.4433788353749,9341.1932080320294,0.0
377154.6038362722,4740833.5216966402,-12500.0,3204.6454140890282,1453.5694394178624,-7523.4239347322819,-323.36599273997331,2618.7559978070149,-684.2196359735068,5997.5110680149501,182.77008826168128,-2228.6367358792027,2228.6367358792027,-182.77008826168128,10757.354105680466,0.0
382154.6038362722,4740833.5216966402,-12500.0,3146.092546516762,97.61034371201184,-8904.4370054939154,23.222351896234642,3006.2613892496101,-769.34759965846717,6521.4835152001015,-1305.2830673447138,-2268.8761556296827,2268.8761556296827,1305.2830673447138,11853.515538586433,0.0
387154.6038362722,4740833.5216966402,-12500.0,2703.6345829197871,-1357.3892039545387,-9587.6090071230701,405.8396274998766,3203.5094873609851,-812.95674299959524,6817.1538751614889,-2811.8476668772641,-2141.7428128179995,2141.7428128179995,2811.8476668772641,12531.035704179219,0.0
392154.6038362722,4740833.5216966402,-12500.0,1948.2270652993523,-2679.3132846618528,-9582.3759827240392,764.35856499771523,3209.450839004121,-814.13051647872351,6880.9179270903023,-4133.1612298473283,-1883.0828664274095,1883.0828664274095,4133.1612298473283,12764.183971261855,0.0
397154.6038362722,4740833.5216966402,-12500.0,1013.1333309684746,-3707.72431189587,-9021.9457462496703,1054.4380116738823,3056.2596493611895,-779.1616393618483,6738.7111003983309,-5133.1039018635856,-1546.7005760530146,1546.7005760530146,5133.1039018635856,12590.816415273761,0.0
402154.6038362722,4740833.5216966402,-12500.0,42.196128157916945,-4375.145869996345,-8095.5985052141232,1254.3479479834505,2792.785573566151,-718.27840584202909,6434.4096809060875,-5759.5887699198511,-1186.1508134714741,1186.1508134714741,5759.5887699198511,12089.593114949201,0.0
407154.6038362722,4740833.5216966402,-12500.0,-848.57372408038043,-4692.6931922367867,-6989.1975392299,1362.7130618836723,2469.1208798597409,-642.38166343558169,6017.8310472655558,-6030.855909923077,-842.97288696376563,842.97288696376563,6030.855909923077,11355.204379389394,0.0
412154.6038362722,4740833.5216966402,-12500.0,-1587.2727245287556,-4719.7473829285791,-5850.4237422087181,1391.6671459764264,2126.8947998666304,-560.85670618183383,5535.7486209062654,-6008.2219175334794,-542.77040392192566,542.77040392192566,6008.2219175334794,10479.172477638525,0.0
417154.6038362722,4740833.5216966402,-12500.0,-2144.481825745369,-4534.4092183764997,-4777.994468294778,1359.5893291887307,1795.5836517154385,-480.62213379735488,5026.8734629943401,-5769.5498368759036,-296.80852576904317,296.80852576904317,5769.5498368759036,9538.6595341944394,0.0
422154.6038362722,4740833.5216966402,-12500.0,-2522.46787023651,-4212.8007489369229,-3826.2467464676124,1285.6465428042179,1492.9512130532141,-406.08378119779525,4520.1680373503432,-5390.4761065507646,-106.02973291833723,106.02973291833723,5390.4761065507646,8592.2441401067081,0.0
427154.6038362722,4740833.5216966402,-12500.0,-2742.4862807768477,-3818.2178493333395,-3016.2423298748022,1186.6372540414941,1227.4740054755209,-339.56478106547314,4035.3186297655011,-4934.3864619849401,34.739572218276408,-34.739572218276408,4934.3864619849401,7680.335426238963,0.0
432154.6038362722,4740833.5216966402,-12500.0,-2834.1871271225737,-3397.7181813067955,-2347.5082194675624,1075.7091268566201,1001.2148357228033,-281.88276531308424,3584.2783261934478,-4449.1098897311858,133.46406143497143,-133.46406143497143,4449.1098897311858,6827.9697973138409,0.0
437154.6038362722,4740833.5216966402,-12500.0,-2828.4034681375374,-2983.0698958245134,-1807.6222273088015,962.2702789284757,812.33772410718393,-232.88748441426662,3173.1220487194055,-3967.6476087410897,198.70269938043884,-198.70269938043884,3967.6476087410897,6048.3825565359675,0.0
442154.6038362722,4740833.5216966402,-12500.0,-2753.06683397078,-2593.62093383405,-1378.9283328333179,852.50303400653581,656.98494907360612,-191.88249672768407,2803.7841654265935,-3510.754766261914,238.37810743149703,-238.37810743149703,3510.754766261914,5346.4268822735366,0.0
447154.6038362722,4740833.5216966402,-12500.0,-2631.4203025414731,-2239.5710082089108,-1042.7001412171746,750.08171735182668,530.52633210125305,-157.92013949777677,2475.4898873313546,-3089.9799434218298,259.22700762387149,-259.22700762387149,3089.9799434218298,4721.4205963050454,0.0
452154.6038362722,4740833.5216966402,-12500.0,-2481.6705398032832,-1924.887739694221,-781.41186376884002,656.87376723415866,428.30841296614989,-129.98871251200694,2185.8388502701778,-2710.4389000897236,266.66708071802873,-266.66708071802873,2710.4389000897236,4169.3154967556993,0.0
457154.6038362722,4740833.5216966402,-12500.0,-2317.4077043141647,-1649.5978308814088,-579.76481054106944,573.52694896487799,346.05165150307005,-107.12005564148492,1931.574041658798,-2373.043738059092,264.88417000920003,-264.88417000920003,2373.043738059092,3684.2444844610204,0.0
282154.6038362722,4745833.5216966402,-12500.0,406.99890089423229,203.28714653324883,164.07200031937069,38.509376672506093,16.773576063585185,-1.4399912979959508,265.38313308208444,364.17363840758969,-142.63247993339189,142.63247993339189,-364.17363840758969,505.85074893443078,0.0
287154.6038362722,4745833.5216966402,-12500.0,484.37270181206213,188.4775082469848,206.23068847061103,50.028459036716846,9.9150175449502438,-0.47360284936652375,294.93106861776931,396.53987208262282,-153.97702408636115,153.97702408636115,-396.53987208262282,540.33097967290223,0.0
292154.6038362722,4745833.5216966402,-12500.0,568.05574210344332,167.15421823607466,262.30732520693482,63.161785245101967,-0.075290002371168729,0.85046569172653808,327.24491917074528,430.87325690542218,-164.25261398567795,164.25261398567795,-430.87325690542218,581.00916781056287,0.0
297154.6038362722,4745833.5216966402,-12500.0,655.83236445395869,139.29171434305709,336.29270681666219,77.57566267929343,-13.991024906472452,2.5787335027754787,361.93088797354875,467.58873380572498,-172.68181083950236,172.68181083950236,-467.58873380572498,630.04222023407453,0.0
302154.6038362722,4745833.5216966402,-12500.0,744.10344222384401,106.02836049285108,432.70615904659644,92.532175316088825,-32.624545695388797,4.7199862280352445,398.14529375414241,507.63666641304275,-178.4049659423244,178.4049659423244,-507.63666641304275,689.94195160553784,0.0
307154.6038362722,4745833.5216966402,-12500.0,827.63702509994175,70.462970956733685,556.12609276646549,106.69509813772005,-56.596622300886203,7.2051021334125469,434.30620767779214,552.87411430874431,-180.63278694013326,180.63278694013326,-552.87411430874431,763.36534239770856,0.0
312154.6038362722,4745833.5216966402,-12500.0,899.55159104034112,38.707625389274469,710.17403977818401,117.90288034185922,-86.051110579935681,9.8244811212125995,467.70303757735968,606.55224584811708,-178.94184183980525,178.94184183980525,-606.55224584811708,852.8753337643941,0.0
317154.6038362722,4745833.5216966402,-12500.0,951.79742648747674,21.09503896140339,895.64045808587605,122.95081391177706,-120.15952507886971,12.138613291606806,494.03466122891138,673.84648545163691,-173.76908682866147,173.76908682866147,-673.84648545163691,960.90818727305873,0.0
322154.6038362722,4745833.5216966402,-12500.0,976.4975521738628,33.215325750956545,1107.4166923256341,117.47476638862686,-156.39246268522385,13.361280005574208,577.23229861337529,762.21445886198751,-167.13832647108529,167.13832647108529,-762.21445886198751,1090.390212533212,1.0
327154.6038362722,4745833.5216966402,-12500.0,968.514769658604,96.088881033178168,1330.0516950580791,96.099724347499475,-189.56825834770873,12.227007967300489,700.01395329515651,881.13479177627778,-163.57102632433026,163.57102632433026,-881.13479177627778,1246.6521698932145,0.0
332154.6038362722,4745833.5216966402,-12500.0,929.35623538726384,234.31863739523286,1532.2781004887056,53.088430974727572,-210.81540673690643,6.8738708946863358,831.31424080344004,1040.4912341710178,-170.96403325502058,170.96403325502058,-1040.4912341710178,1441.2402641806696,0.0
337154.6038362722,4745833.5216966402,-12500.0,871.8003302466285,470.75102147541821,1661.96002888627,-16.252645347151432,-206.80645907592586,-5.1989072330618953,966.96324502202026,1246.6914359320467,-200.95278041196877,200.95278041196877,-1246.6914359320467,1697.1647585717051,0.0
342154.6038362722,4745833.5216966402,-12500.0,823.3394634326703,816.56690397051671,1644.5906636266068,-113.2785762143581,-159.9129199895778,-27.008091961608301,1105.1449013632084,1495.9306147368588,-268.00365329622298,268.00365329622298,-1495.9306147368588,2052.1818897555754,0.0
347154.6038362722,4745833.5216966402,-12500.0,825.07702384945753,1257.5849728526689,1390.0029708448601,-233.08199482334732,-50.154305162501714,-61.688726114643963,1349.0335386399836,1765.3398623223147,-386.4284331381117,386.4284331381117,-1765.3398623223147,2553.7305468090494,0.0
352154.6038362722,4745833.5216966402,-12500.0,922.40124989771823,1741.2049051118215,811.6162191161277,-361.88892131106849,140.3261386398446,-111.73478662164334,1816.4242664630533,2005.3020662047304,-565.05212534050202,565.05212534050202,-2005.3020662047304,3242.6058173714664,0.0
357154.6038362722,4745833.5216966402,-12500.0,1146.4571274574112,2172.4478761300111,-141.92316265087109,-476.46921147640205,420.40799608276797,-177.90273156522201,2376.5035141588564,2138.9504663579937,-800.61979703597876,800.61979703597876,-2138.9504663579937,4132.4883992850873,0.0
362154.6038362722,4745833.5216966402,-12500.0,1491.7948117662086,2428.168501142547,-1451.7433498454584,-547.39167003788566,782.61633981512739,-258.03793153063424,2998.0140052095403,2075.0728354336261,-1072.8005980525754,1072.8005980525754,-2075.0728354336261,5196.1540411333135,0.0
367154.6038362722,4745833.5216966402,-12500.0,1902.3709436007143,2391.6450081618696,-3008.1235974872284,-546.66861554543311,1198.8320586472978,-346.3761382712471,3641.4764848025216,1735.41947227828,-1344.5147584002302,1344.5147584002302,-1735.41947227828,6363.5989802821387,0.0
372154.6038362722,4745833.5216966402,-12500.0,2278.4964217930542,1996.4328749245517,-4621.675342221386,-457.62993679896636,1622.8240975837139,-433.96689871617718,4256.1720625365924,1087.5540638408027,-1569.7201861570813,1569.7201861570813,-1087.5540638408027,7532.5657731881238,0.0
377154.6038362722,4745833.5216966402,-12500.0,2507.065600461206,1257.8108100176551,-6069.3998852909244,-282.42277881619617,2000.5453015894554,-510.47302306877384,4788.8276196319594,166.72234606496727,-1706.7279475220573,1706.7279475220573,-166.72234606496727,8589.1548016480247,0.0
382154.6038362722,4745833.5216966402,-12500.0,2501.9582493903458,273.35830690718137,-7157.6973465484989,-42.817568093467273,2284.5753512390579,-566.80135310498804,5194.6172690232925,-927.02122485850748,-1731.1800027580784,1731.1800027580784,927.02122485850748,9432.4227425391546,0.0
387154.6038362722,4745833.5216966402,-12500.0,2233.714620807023,-808.48539898128661,-7773.23823048127,226.42718447112847,2446.2582540205735,-597.41547768256021,5445.9468626722228,-2056.6826739664434,-1642.459003925941,1642.459003925941,2056.6826739664434,9994.5339890273845,0.0
392154.6038362722,4745833.5216966402,-12500.0,1734.6564583183133,-1834.858430086834,-7900.8020221520246,488.15884525622852,2480.4908958204428,-601.33494919189332,5536.0101934512932,-3087.2988554820931,-1461.1602126452008,1461.1602126452008,3087.2988554820931,10250.077393354719,0.0
397154.6038362722,4745833.5216966402,-12500.0,1081.0680565608475,-2687.7087747791606,-7607.1584208508693,712.31893844996591,2402.5185127866389,-581.61030391703605,5476.7581828152515,-3918.1333357986068,-1220.2084816849065,1220.2084816849065,3918.1333357986068,10213.416093326545,0.0
402154.6038362722,4745833.5216966402,-12500.0,365.18935412051047,-3302.5519766819398,-7005.9287462275452,880.98968862472896,2239.9136558674832,-543.81996565438715,5293.1668119188107,-4497.4543648678828,-954.59761896178588,954.59761896178588,4497.4543648678828,9927.7329572269555,0.0
407154.6038362722,4745833.5216966402,-12500.0,-329.5067156721164,-3666.695728490522,-6221.4686094221433,988.64520580831788,2023.9151318542497,-494.38036665763002,5016.4366587636005,-4820.0012151392875,-693.74629117433369,693.74629117433369,4820.0012151392875,9451.2378616265287,0.0
412154.6038362722,4745833.5216966402,-12500.0,-942.60569016005945,-3805.0770428314963,-5363.215185576104,1039.2796424799985,1782.9595275052795,-439.23877235266582,4678.1696813890367,-4914.0144436801384,-457.91533171281299,457.91533171281299,4914.0144436801384,8844.9606897418471,0.0
417154.6038362722,4745833.5216966402,-12500.0,-1440.3487623374749,-3762.8858254744409,-4513.336660193273,1042.4940391033272,1539.2747913755823,-383.14698952608666,4306.4723001123957,-4825.6045030871792,-258.05322070159855,258.05322070159855,4825.6045030871792,8164.3193092691536,0.0
422154.6038362722,4745833.5216966402,-12500.0,-1812.048995174873,-3591.0000585169655,-3724.9474934385371,1010.0097205377331,1308.0454741122041,-329.44508781803177,3924.0165770777003,-4605.6289570590743,-97.605108204548742,97.605108204548742,4605.6289570590743,7454.6977036803237,0.0
427154.6038362722,4745833.5216966402,-12500.0,-2063.405276117197,-3336.4913191522728,-3026.4034523149026,953.24223713544586,1098.1645098760146,-280.17411150870237,3547.6039695005597,-4301.0623323416403,25.051127326816641,-25.051127326816641,4301.0623323416403,6750.1820984040132,0.0
432154.6038362722,4745833.5216966402,-12500.0,-2209.6655946410333,-3037.9271803756556,-2427.8392942136925,881.96726496661449,913.66778351012681,-236.34268068659088,3188.6584723569663,-3950.6568486566866,114.37366242130929,-114.37366242130929,3950.6568486566866,6074.2983242180617,0.0
437154.6038362722,4745833.5216966402,-12500.0,-2270.14305072044,-2724.1231129447497,-1927.5555269987233,803.82435965370382,755.24937226394911,-198.22552318332629,2854.1625295582639,-3583.7349038433777,175.97983305611501,-175.97983305611501,3583.7349038433777,5441.7406412914797,0.0
442154.6038362722,4745833.5216966402,-12500.0,-2264.4942378195447,-2414.8951045801905,-1517.1593217623524,724.34549812925536,621.551463853266,-165.62750515492976,2547.7016903360318,-3220.8365771040849,215.56153565758132,-215.56153565758132,3220.8365771040849,4860.3865702003768,0.0
447154.6038362722,4745833.5216966402,-12500.0,-2210.5733515068177,-2122.6986446463925,-1185.2116907672125,647.2490825784588,510.1297602600236,-138.08813527534096,2270.4294538813692,-2875.2208706652054,238.28526117457818,-238.28526117457818,2875.2208706652054,4333.192180505619,0.0
452154.6038362722,4745833.5216966402,-12500.0,-2123.452623242234,-1854.4519206813843,-919.55661225543008,574.82416557403201,418.10843396848406,-115.02533811178452,2021.8671298025474,-2554.574164245686,248.53093399781301,-248.53093399781301,2554.574164245686,3859.7793198585628,0.0
287154.6038362722,4750833.5216966402,-12500.0,463.29303484656663,135.89364356134695,224.42945443789873,48.09225351055364,-0.85085952047527824,0.066944149401947428,267.18327996035316,355.14183818150121,-132.9373666872699,132.9373666872699,-355.14183818150121,472.57633467585651,0.0
292154.6038362722,4750833.5216966402,-12500.0,528.42068556971265,115.68538666759787,281.94977280104132,57.954626393722279,-10.881882403477467,1.0619970121404898,292.91097308365664,383.78456862596477,-139.42555594704683,139.42555594704683,-383.78456862596477,509.36952032237065,0.0
297154.6038362722,4750833.5216966402,-12500.0,593.50271679245384,92.176792761182028,355.17106032038936,68.010729812629094,-24.004804453501027,2.2639925448698164,319.47415349330782,415.00803904414704,-144.15500941511479,144.15500941511479,-415.00803904414704,553.66872441648479,0.0
302154.6038362722,4750833.5216966402,-12500.0,655.09955458451179,67.537560211871607,446.90046814752543,77.392470477682494,-40.570717661521186,3.6192798237577533,345.80048207947493,450.06635144601785,-146.66703266986804,146.66703266986804,-450.06635144601785,607.22854752669843,0.0
307154.6038362722,4750833.5216966402,-12500.0,708.79666972998086,45.767248122110125,559.2879440690748,84.752290964153062,-60.646201610976689,4.9935638599379155,370.24853003820471,491.04186817081143,-146.72871369853831,146.72871369853831,-491.04186817081143,671.81368413332928,0.0
312154.6038362722,4750833.5216966402,-12500.0,749.47608112027569,33.358547251540891,692.77086777935813,88.146537648885257,-83.747605981766668,6.128531425831496,391.52092991583601,541.12852175057992,-144.59856125530573,144.59856125530573,-541.12852175057992,749.21170460063706,0.0
317154.6038362722,4750833.5216966402,-12500.0,772.02293414553071,39.876343095923446,844.40857475238408,84.967243415526895,-108.458694733274,6.5811083080520545,442.57905571234505,604.82914637718432,-141.40988782604705,141.40988782604705,-604.82914637718432,841.58564483048951,0.0
322154.6038362722,4750833.5216966402,-12500.0,772.64703541801396,78.134564835860246,1005.5151231207755,71.996424467376684,-131.93295960237418,5.6554045073289121,530.15486822713729,687.86233241897617,-139.65034423285334,139.65034423285334,-687.86233241897617,952.46836487855114,0.0
327154.6038362722,4750833.5216966402,-12500.0,750.90190699719301,163.44801597304846,1158.7100401411942,45.690045248229765,-149.33347070547046,2.3381998209359907,625.80017796821369,796.44858464125264,-143.65000592436166,143.65000592436166,-796.44858464125264,1088.6851813185101,0.0
332154.6038362722,4750833.5216966402,-12500.0,712.20518832687128,311.27107360707487,1274.9492709042668,2.8151718260453253,-153.35310966400226,-4.7363823425428659,725.95045671101832,935.54870596485875,-159.87819158109255,159.87819158109255,-935.54870596485875,1263.0855445215695,0.0
337154.6038362722,4750833.5216966402,-12500.0,670.14792119783249,532.59796857458855,1311.793800967984,-58.470630878046585,-134.08283404944285,-17.253446238439508,828.16119932165918,1105.6921190194353,-196.72101516024799,196.72101516024799,-1105.6921190194353,1496.8203571967065,0.0
342154.6038362722,4750833.5216966402,-12500.0,647.21064882861867,827.08079572944928,1214.9427448034246,-137.14089573862447,-79.614715475042161,-37.064858952233863,948.14698689376439,1298.4558044204587,-263.34067516614357,263.34067516614357,-1298.4558044204587,1818.4235436804063,0.0
347154.6038362722,4750833.5216966402,-12500.0,672.05604146194457,1175.1490713584951,925.36098804717187,-227.72516607719155,22.2169868494199,-65.871709788438906,1229.3706950102394,1491.5857694005049,-367.33699636872075,367.33699636872075,-1491.5857694005049,2257.3445835089256,1.0
352154.6038362722,4750833.5216966402,-12500.0,772.03286823114729,1532.2936517903743,393.31437992835299,-319.28043005770456,180.78081507836993,-104.73036983547735,1608.8821321927896,1646.048178752694,-511.37630445845866,511.37630445845866,-1646.048178752694,2833.3251869831856,1.0
357154.6038362722,4750833.5216966402,-12500.0,961.52678600827323,1830.0656142206242,-402.38123656113834,-395.79073686751877,398.68028898065927,-153.44904180281577,2045.1894998717669,1708.2012160082959,-689.7055715518477,689.7055715518477,-1708.2012160082959,3546.3926759177903,0.0
362154.6038362722,4750833.5216966402,-12500.0,1230.0330873908608,1987.4950772346244,-1435.9729582147922,-438.70391433967637,668.09341765274826,-210.05515833090877,2519.1970018874599,1619.5465210104192,-886.19426448036506,886.19426448036506,-1619.5465210104192,4371.3840239644105,0.0
367154.6038362722,4750833.5216966402,-12500.0,1536.3794681441175,1932.397079875687,-2626.4626092318731,-431.5031011350535,969.2407006178471,-270.6065813739587,3003.8755483771329,1333.3275017715691,-1075.607269060089,1075.607269060089,-1333.3275017715691,5258.4786766864436,0.0
372154.6038362722,4750833.5216966402,-12500.0,1814.622003998111,1625.7693288427433,-3846.9862266211035,-364.96950501472793,1272.521656911387,-329.59087267194724,3465.7858568076335,832.62079921909753,-1228.7120104592018,1228.7120104592018,-832.62079921909753,6139.9253577916497,0.0
377154.6038362722,4750833.5216966402,-12500.0,1991.7510433806624,1078.4276838918449,-4952.0078102869675,-240.90753286523068,1544.4053639914951,-380.94091725359561,3870.2558435439651,141.66430799787418,-1319.8467030810352,1319.8467030810352,-141.66430799787418,6941.8113818058819,0.0
382154.6038362722,4750833.5216966402,-12500.0,2010.3607239321057,351.23799309740963,-5812.9242659704614,-72.44018426743888,1755.1955861497049,-419.37344360544989,4187.598318562309,-675.97222467354777,-1333.9581911643504,1333.9581911643504,675.97222467354777,7597.8204162100337,0.0
387154.6038362722,4750833.5216966402,-12500.0,1846.0548711688816,-461.64098499323711,-6347.7757142425389,119.4117746455333,1885.6615353697962,-441.54555205080123,4398.2190848110549,-1532.4618030623274,-1270.146260161644,1270.146260161644,1532.4618030623274,8060.8335818654105,0.0
392154.6038362722,4750833.5216966402,-12500.0,1512.3626856505755,-1258.6169451474341,-6534.2022496583168,311.31806138623318,1930.1203520547685,-446.60182792156593,4495.0741379204774,-2337.5439705052813,-1140.5447514621007,1140.5447514621007,2337.5439705052813,8309.092274687664,0.0
397154.6038362722,4750833.5216966402,-12500.0,1052.8909538103903,-1954.5758948247626,-6403.7542405774329,483.03686204629668,1895.4125602810573,-435.99462154204741,4483.1090877054448,-3018.19010191384,-965.64515998856632,965.64515998856632,3018.19010191384,8345.9623338608908,0.0
402154.6038362722,4750833.5216966402,-12500.0,526.24054079337293,-2495.014732665767,-6023.7737082021713,620.83104961942774,1797.0056846460964,-412.78098103676712,4376.4299682860074,-3529.8474278310273,-768.44374779786949,768.44374779786949,3529.8474278310273,8194.7007968276266,0.0
407154.6038362722,4750833.5216966402,-12500.0,-9.3030587782037237,-2858.6633886918817,-5475.9806269151713,718.38561580772728,1654.1925644991077,-380.74271633279147,4194.4775443997214,-3857.9616551392755,-569.58073912495638,569.58073912495638,3857.9616551392755,7890.8270871423165,0.0
412154.6038362722,4750833.5216966402,-12500.0,-506.51825922023801,-3051.6413723898072,-4838.8812240095958,775.77971197572208,1485.9962331180948,-343.62311723910153,3958.3690205476973,-4012.3872794216059,-384.5455774714203,384.5455774714203,4012.3872794216059,7474.5720052942797,0.0
417154.6038362722,4750833.5216966402,-12500.0,-934.02739551158254,-3097.8503155093781,-4177.0954794619875,797.49552477830321,1308.5488363468896,-304.62697513588739,3688.1112710150246,-4018.6682413791486,-222.92325044317295,222.92325044317295,4018.6682413791486,6984.9660801606988,0.0
422154.6038362722,4750833.5216966402,-12500.0,-1276.1770221014706,-3029.4819745076356,-3537.3236958614948,790.32561659915575,1133.95985277102,-266.19422360384812,3400.8991170093082,-3909.4917940554287,-89.045466036775679,89.045466036775679,3909.4917940554287,6456.1048988025932,0.0
427154.6038362722,4750833.5216966402,-12500.0,-1530.0467474406914,-2879.7538510986901,-2948.9859231104087,761.68604514526885,970.28610494267025,-229.98105505276141,3110.3803765521757,-3718.1334364921972,16.695304570126154,-16.695304570126154,3718.1334364921972,5915.4105799887257,0.0
432154.6038362722,4750833.5216966402,-12500.0,-1701.4558975981943,-2678.4187658976871,-2427.319190145738,718.5035467758496,822.1259153881665,-196.96300442842076,2826.6190996306291,-3474.3755336719114,96.433376425719871,-96.433376425719871,3474.3755336719114,5383.3659460510853,0.0
437154.6038362722,4750833.5216966402,-12500.0,-1801.2021076145052,-2449.666976202122,-1977.2254888249404,666.63063755871246,691.44908159146132,-167.58805792974405,2556.4756174617,-3202.5769572621957,153.6329950267509,-153.6329950267509,3202.5769572621957,4874.1494605378239,0.0
442154.6038362722,4750833.5216966402,-12500.0,-1842.116161628441,-2211.6956107973665,-1596.8511623153008,610.65037294594902,578.41540146041257,-141.93220220859791,2304.1754336405875,-2921.2606503980846,192.21845167386846,-192.21845167386846,2921.2606503980846,4396.6978502570782,0.0
447154.6038362722,4750833.5216966402,-12500.0,-1837.0614681822572,-1977.2409365546168,-1280.4481144503065,553.92327396585529,482.06027323070839,-119.83301130037701,2071.9143575327121,-2643.5946431769903,216.0201896740632,-216.0201896740632,2643.5946431769903,3955.8746407255862,0.0
292154.6038362722,4755833.5216966402,-12500.0,480.80845568209679,80.952373776391539,294.79422138496028,51.138638063824324,-18.10500790620258,1.0342545781393973,260.64120121825863,343.90510923958726,-118.13806930679606,118.13806930679606,-343.90510923958726,451.69510076514564,0.0
297154.6038362722,4755833.5216966402,-12500.0,527.31736907612901,63.603491232247137,364.17749519847177,57.546157271722855,-29.83812431999182,1.8024436516895663,280.47687628273462,371.51384706625345,-120.63361235857556,120.63361235857556,-371.51384706625345,491.72141560839691,0.0
302154.6038362722,4755833.5216966402,-12500.0,568.36170783823979,48.434545802927914,447.825750720153,62.550874976329979,-43.883062896008205,2.5529053757035092,299.23313893741101,403.3634485039679,-121.55766879406167,121.55766879406167,-403.3634485039679,539.46356090242864,0.0
307154.6038362722,4755833.5216966402,-12500.0,600.59884807542608,39.647349592976987,545.97589570626712,64.939436846822744,-59.947357378636347,3.1301575036373586,317.10596612264857,441.48416050610786,-121.06957589362901,121.06957589362901,-441.48416050610786,596.20901087216146,0.0
312154.6038362722,4755833.5216966402,-12500.0,620.63693213433316,43.298682726700463,656.85283158531342,63.106456419099054,-77.208099805377955,3.2776942065441221,350.0545240847747,488.68016262171454,-119.82884172328536,119.82884172328536,-488.68016262171454,663.51873707028926,0.0
317154.6038362722,4755833.5216966402,-12500.0,625.74430140296772,67.436788028190051,775.3554153972201,55.073286125444746,-94.042512455839613,2.6016696251778644,411.07011319539748,548.4972401833611,-119.2564644252835,119.2564644252835,-548.4972401833611,743.76987866328648,0.0
322154.6038362722,4755833.5216966402,-12500.0,614.93224418056718,121.79191945021221,891.41169081674559,38.616623779907542,-107.71846555146587,0.5351659122364939,481.19196904187595,624.89026598906253,-121.80982025270848,121.80982025270848,-624.89026598906253,841.17546784264084,0.0
327154.6038362722,4755833.5216966402,-12500.0,590.35088778792658,216.6873873741003,988.23514932426644,11.567583733356443,-114.10472125698207,-3.6862528256091243,555.75931893254074,721.38473291431126,-131.18457338444512,131.18457338444512,-721.38473291431126,963.26081607502647,0.0
332154.6038362722,4755833.5216966402,-12500.0,558.7210815016125,360.83111511026368,1041.012893949249,-27.66670857269289,-107.51520578622629,-11.020222522614533,632.60345940070488,839.53080781652204,-152.2970612774343,152.2970612774343,-839.53080781652204,1122.3031193131512,0.0
337154.6038362722,4755833.5216966402,-12500.0,532.22195206605443,557.83119735270748,1016.9258761906832,-79.352397055320267,-80.861001632471769,-22.561163497920116,712.60735244257944,976.58576341657147,-190.85431198193339,190.85431198193339,-976.58576341657147,1335.5375697668674,0.0
342154.6038362722,4755833.5216966402,-12500.0,527.97176835862376,801.76856182318977,877.66663048732028,-141.5411162296829,-26.315355274705627,-39.407692732808364,856.72701864831265,1122.7067143479517,-252.33459310507743,252.33459310507743,-1122.7067143479517,1622.7425145700256,0.0
347154.6038362722,4755833.5216966402,-12500.0,565.22096985437997,1072.9640167702828,585.46509434228528,-209.28473444965709,63.352797338191685,-62.439747885458516,1113.1051850170222,1258.4922800989782,-340.33989255291141,340.33989255291141,-1258.4922800989782,2001.0673696155843,0.0
352154.6038362722,4755833.5216966402,-12500.0,659.92923889764427,1335.9416567523306,112.70554400330765,-274.33993647378651,192.80698392529436,-92.018699933567831,1418.690785203491,1354.2971220310337,-454.57473737984924,454.57473737984924,-1354.2971220310337,2478.896302315577,0.0
357154.6038362722,4755833.5216966402,-12500.0,817.6507723577763,1541.9052961598861,-546.57520585791644,-325.79138785518165,361.89411006409733,-127.66755108660675,1761.3146618075016,1372.9145128621644,-589.08447343673618,589.08447343673618,-1372.9145128621644,3051.0407061573137,0.0
362154.6038362722,4755833.5216966402,-12500.0,1027.2183373394403,1637.0906787573367,-1367.0785166940759,-351.83385290368034,563.84841459211543,-167.83771038014936,2127.4374452782254,1276.4702653607005,-731.64493368051217,731.64493368051217,-1276.4702653607005,3696.5972735018022,0.0
367154.6038362722,4755833.5216966402,-12500.0,1258.5846380747116,1575.9222884381156,-2289.2929610276378,-342.49457486478218,784.853555638187,-209.89141409245437,2498.2273225792987,1036.550461928028,-865.05603956622758,865.05603956622758,-1036.550461928028,4379.996595217377,0.0
372154.6038362722,4755833.5216966402,-12500.0,1467.2576988201197,1334.9440634110133,-3226.5443308670474,-292.51107457802249,1005.5984587883538,-250.39046033657857,2851.1197814850439,644.41417044683931,-970.42461358446644,970.42461358446644,-644.41417044683931,5055.3330455396799,0.0
377154.6038362722,4755833.5216966402,-12500.0,1604.9352125869789,921.93125477055457,-4081.4678313388804,-203.25888423783138,1204.7168951748865,-285.67205507965201,3162.9560084379236,117.05307590185447,-1031.5608130988451,1031.5608130988451,-117.05307590185447,5673.329104413735,0.0
382154.6038362722,4755833.5216966402,-12500.0,1632.659674672014,375.96480432027596,-4766.8194990937354,-82.858862221207914,1363.1177104949109,-312.55678389986224,3413.6209347249037,-503.99546878857632,-1038.9266224743915,1038.9266224743915,503.99546878857632,6189.324971631936,0.0
387154.6038362722,4755833.5216966402,-12500.0,1531.2769513799133,-241.8358161950577,-5223.2939360154205,55.6527921589351,1467.7363723047331,-328.95587489005169,3589.1014459543239,-1161.1071837835302,-991.66564120634632,991.66564120634632,1161.1071837835302,6570.1685754818272,0.0
392154.6038362722,4755833.5216966402,-12500.0,1305.3168704712066,-863.10805407391388,-5428.5351347242076,197.37021225964574,1513.5012376443885,-334.18212792716037,3683.1464662695334,-1793.1319208906139,-897.10914170274339,897.10914170274339,1793.1319208906139,6798.2619621400399,0.0
397154.6038362722,4755833.5216966402,-12500.0,979.66987842808896,-1426.9097198698712,-5395.7174511257481,328.63803790400397,1503.130536754165,-328.89979539353612,3697.2570338224668,-2347.4858612266207,-768.24721927269161,768.24721927269161,2347.4858612266207,6872.0962473017335,0.0
402154.6038362722,4755833.5216966402,-12500.0,591.46084499709184,-1889.7143216211884,-5164.2556643061953,439.28331824123507,1445.2378255595552,-314.79063460965898,3639.2969779501013,-2788.1526037554004,-620.33745312944325,620.33745312944325,2788.1526037554004,6803.7890140246773,0.0
407154.6038362722,4755833.5216966402,-12500.0,180.7431962186474,-2229.0235292477601,-4787.2536127103695,523.54716967354648,1351.6786091465374,-294.09140793614625,3521.3438384216106,-3098.2703431482169,-467.83492010867894,467.83492010867894,3098.2703431482169,6614.8719702148856,0.0
412154.6038362722,4755833.5216966402,-12500.0,-217.02595652645152,-2441.5307703073436,-4319.9021176130855,579.85401873438968,1235.0250351235634,-269.15263745628403,3357.4259178342863,-3278.1422237831362,-322.35900223482668,322.35900223482668,3278.1422237831362,6331.6830887118813,0.0
417154.6038362722,4755833.5216966402,-12500.0,-575.34389526140239,-2538.121202243588,-3811.2578110009899,609.8599705105479,1106.7095363417868,-242.11148580118356,3161.6135415779827,-3340.6138812451309,-191.84589988605444,191.84589988605444,3340.6138812451309,5981.3775466825155,0.0
422154.6038362722,4755833.5216966402,-12500.0,-877.92449075559182,-2538.0135006485589,-3299.9531998704888,617.25433317044872,975.98978642050486,-214.7070840650274,2946.6841127833113,-3305.7756026198631,-80.643603015259714,80.643603015259714,3305.7756026198631,5589.0631155114888,0.0
427154.6038362722,4755833.5216966402,-12500.0,-1117.7502646194391,-2463.6243079395308,-2813.153436518,606.65832611946848,849.62026683882573,-188.21928876155278,2723.3765106192832,-3196.3372211712931,9.839635226115206,-9.839635226115206,3196.3372211712931,5176.1327721226489,0.0
432154.6038362722,4755833.5216966402,-12500.0,-1294.9813712357936,-2336.8725855466987,-2367.6103592133313,582.79295215568482,732.00255996644478,-163.49311648001373,2500.1294590692924,-3034.2933392365585,80.286325063974573,-80.286325063974573,3034.2933392365585,4759.6021136210102,0.0
437154.6038362722,4755833.5216966402,-12500.0,-1414.5826261381665,-2176.9915031942346,-1971.7265525134521,549.95201120012212,625.58706020599163,-141.00897450337527,2283.1546647377781,-2838.9386449435992,132.65832681831762,-132.65832681831762,2838.9386449435992,4352.1555801850109,0.0
442154.6038362722,4755833.5216966402,-12500.0,-1484.2011450001639,-1999.5675860041201,-1627.8465566458465,511.73679194184001,531.35374155286866,-120.96881385915268,2076.7035503861739,-2625.99033784732,169.54268573400782,-169.54268573400782,2625.99033784732,3962.6132897360753,0.0
297154.6038362722,4760833.5216966402,-12500.0,462.72937296250399,48.430589827582594,363.926261851292,47.232884916432319,-32.515280263724655,1.2943306826719889,245.9466359337541,335.54459101822044,-101.68905586759413,101.68905586759413,-335.54459101822044,440.44780389244653,0.0
302154.6038362722,4760833.5216966402,-12500.0,488.64475211412719,42.163274331088488,437.51137642614265,48.97676518364289,-43.956490955332207,1.5988794988507047,260.89419454440906,365.11840934362783,-102.07064314179087,102.07064314179087,-365.11840934362783,482.95954234380878,0.0
307154.6038362722,4760833.5216966402,-12500.0,506.18512120155009,44.304923618646299,520.16846194287564,47.939657777034398,-56.284771366269368,1.6294495375386537,284.03093711867166,400.91477499098619,-101.92049767807273,101.92049767807273,-400.91477499098619,533.02408116670972,0.0
312154.6038362722,4760833.5216966402,-12500.0,513.39239007555977,60.051190146626574,608.78407966700718,42.873525452773833,-68.543330059956816,1.1567249014101491,325.98432916634482,445.19072935996712,-102.07883643758615,102.07883643758615,-445.19072935996712,592.26294400791994,0.0
317154.6038362722,4760833.5216966402,-12500.0,509.24662761554066,95.719614819621924,697.30052911336259,32.35803989351772,-79.137432301077098,-0.14551478999623674,377.53406656288212,500.50163268714925,-103.98666923970075,103.98666923970075,-500.50163268714925,663.36555998881579,0.0
322154.6038362722,4760833.5216966402,-12500.0,494.45630088471455,158.2284343859202,775.67785175376639,14.945825406803845,-85.660500162694689,-2.7160699064181655,433.50708375904179,569.28371937215695,-109.81530601223992,109.81530601223992,-569.28371937215695,750.91512264349512,0.0
327154.6038362722,4760833.5216966402,-12500.0,472.32682893244328,253.99960658492481,829.00122303812054,-10.578089370029023,-84.772459061481413,-7.1098298358744385,491.88080003843606,653.07274479563046,-122.4997403941444,122.4997403941444,-653.07274479563046,862.27670197324892,1.0
332154.6038362722,4760833.5216966402,-12500.0,449.45643002813983,387.16028465366941,837.14537085878908,-44.80936299702158,-72.210039431705155,-13.978126442581345,551.71239166403416,751.29383310529556,-145.58204381647198,145.58204381647198,-751.29383310529556,1008.0121625140112,0.0
337154.6038362722,4760833.5216966402,-12500.0,435.85612720746474,557.10082201116995,775.57083891085165,-87.234963990062354,-43.031097805001515,-24.013647278956935,624.7619399809746,859.68953182415964,-182.76547644102163,182.76547644102163,-859.68953182415964,1201.0743704338965,0.0
342154.6038362722,4760833.5216966402,-12500.0,444.00918939892216,755.78586811577168,617.8564357667093,-135.72926014078837,7.8097726590878294,-37.850037955754736,787.53261736197146,968.68813233006529,-237.12054934718128,237.12054934718128,-968.68813233006529,1454.3961595870692,0.0
347154.6038362722,4760833.5216966402,-12500.0,486.50570522887853,965.65366955019454,340.31282821830183,-186.1991309900975,84.513652103186132,-55.91554059776027,1002.3887956570021,1062.3141138543551,-309.99310982206623,309.99310982206623,-1062.3141138543551,1777.4121898425308,0.0
352154.6038362722,4760833.5216966402,-12500.0,572.32308318832179,1159.2876391601285,-71.645693060812164,-232.59588412180923,189.20218056344723,-78.257302398146223,1249.0143407550358,1118.4697287984586,-399.83679430562881,399.83679430562881,-1118.4697287984586,2172.6793574720905,1.0
357154.6038362722,4760833.5216966402,-12500.0,702.54571349323965,1301.9863760235346,-616.69516168612961,-267.49140344862747,320.6557089738281,-104.37549924516645,1520.3964276503698,1111.3433804062679,-501.36833900428218,501.36833900428218,-1111.3433804062679,2633.5557061356035,0.0
362154.6038362722,4760833.5216966402,-12500.0,867.0443691987316,1357.6265311165416,-1272.6165168766545,-283.27686097381633,473.44365811708514,-133.12582498279465,1806.5965803461236,1016.1390412628036,-605.51422987135311,605.51422987135311,-1016.1390412628036,3143.4213059848325,0.0
367154.6038362722,4760833.5216966402,-12500.0,1043.8697085614151,1296.8593858667962,-1995.6051905726581,-273.79432511633019,637.89624633471283,-162.750565281262,2094.2891305777825,815.31502566183633,-700.4687140641837,700.4687140641837,-815.31502566183633,3676.6840730986178,0.0
372154.6038362722,4760833.5216966402,-12500.0,1202.4352418750184,1105.2669345861912,-2725.3438836253049,-235.95189987224273,801.17800988397482,-191.07071085300763,2367.9247106689277,504.4902019599831,-773.79773187317983,773.79773187317983,-504.4902019599831,4201.6006002965723,0.0
377154.6038362722,4760833.5216966402,-12500.0,1310.0598866835148,788.51392023552967,-3395.2226795375609,-170.7590545299162,949.34021217975362,-215.81693122061151,2611.6731494450441,95.782601671481189,-815.05168962868777,815.05168962868777,-95.782601671481189,4684.5257592020971,0.0
382154.6038362722,4760833.5216966402,-12500.0,1339.837535020521,372.35480467841512,-3944.8795657262376,-83.363691570058862,1069.8157710441442,-235.01738312182485,2811.6187206462309,-382.9739448360524,-818.05031306890737,818.05031306890737,382.9739448360524,5094.708068168633,0.0
387154.6038362722,4760833.5216966402,-12500.0,1277.0705215104226,-102.66595110689494,-4331.1582138660251,17.959708932811608,1153.6093010209361,-247.32990358932327,2957.6408106101489,-893.13732570253001,-782.08093258772192,782.08093258772192,893.13732570253001,5408.4999528772187,0.0
392154.6038362722,4760833.5216966402,-12500.0,1122.1243348724236,-589.90236474300514,-4534.2798384757461,123.52032870502009,1196.5552751983112,-252.22437654450846,3044.5306195744161,-1392.6800811158976,-711.68504186708947,711.68504186708947,1392.6800811158976,5612.0255309792192,0.0
397154.6038362722,4760833.5216966402,-12500.0,889.14244659641554,-1045.7020033755614,-4558.059622616518,224.04759320164231,1199.3988776831761,-249.97912090578976,3072.1605140991501,-1843.7140017403701,-615.2549304219599,615.2549304219599,1843.7140017403701,5701.8703934599898,0.0
402154.6038362722,4760833.5216966402,-12500.0,601.66000531257305,-1436.2814970920206,-4425.1892731177413,312.13032109787548,1166.8791697177237,-241.52067100744804,3044.8126048613422,-2218.0199308310021,-503.03454175276954,503.03454175276954,2218.0199308310021,5683.9630334393651,0.0
407154.6038362722,4760833.5216966402,-12500.0,286.9896049696361,-1741.0728329956116,-4169.9148898150979,382.97692077066375,1106.2608193813171,-228.17800867194231,2969.9689772099987,-2499.5638960648612,-385.17735103597056,385.17735103597056,2499.5638960648612,5571.2475523333669,0.0
412154.6038362722,4760833.5216966402,-12500.0,-28.853532881216463,-1952.6667758149256,-3830.5467151758553,434.4942662889822,1025.796883565321,-211.42787516841685,2856.9218784625432,-2684.150125238395,-270.31711245747624,270.31711245747624,2684.150125238395,5380.8892354198588,0.0
417154.6038362722,4760833.5216966402,-12500.0,-324.62486038284135,-2074.4051600601188,-3443.4924316885272,466.8729831341094,933.47046802469697,-192.68678314379724,2715.4971684565489,-2777.1155020298656,-164.81772422469135,164.81772422469135,2777.1155020298656,5131.6393842032157,0.0
422154.6038362722,4760833.5216966402,-12500.0,-585.46297157081574,-2116.9237159709355,-3039.5113173858008,481.92907538897464,836.1714735075858,-173.17477359014484,2555.0662163667794,-2790.1711020672255,-72.632140723661905,72.632140723661905,2790.1711020672255,4841.7479457531526,0.0
427154.6038362722,4760833.5216966402,-12500.0,-802.95360195208525,-2094.7098002179573,-2642.0882023895115,482.41606305046821,739.30402462040593,-153.85039940597409,2383.9031437283666,-2738.2952988359134,4.4218949802643692,-4.4218949802643692,2738.2952988359134,4527.5659843511548,0.0
432154.6038362722,4760833.5216966402,-12500.0,-974.20017195982109,-2023.3057389734415,-2267.3979228727003,471.44258152838933,646.72909062286215,-135.40145219230124,2208.8601966886522,-2637.2162836308612,66.178164877801919,-66.178164877801919,2637.2162836308612,4202.7996081443598,0.0
437154.6038362722,4760833.5216966402,-12500.0,-1100.4459685205845,-1917.3850713047366,-1925.2269131402127,452.05212070575448,560.91931284879536,-118.27135803599106,2035.2902494754394,-2501.6782197412422,113.59503970679475,-113.59503970679475,2501.6782197412422,3878.2793602544825,0.0
302154.6038362722,4765833.5216966402,-12500.0,418.0784169013462,43.702195462738644,418.53028938166767,37.128498425064244,-41.918255559598371,0.79247639049942298,234.72309454138966,333.25126803054513,-87.110465602523021,87.110465602523021,-333.25126803054513,435.26194718568257,0.0
307154.6038362722,4765833.5216966402,-12500.0,426.04053345747911,54.29598881658665,485.85549649905681,33.883298833068977,-50.983528870298535,0.46758175456518036,263.90095075460226,366.80027030101519,-87.692939647008501,87.692939647008501,-366.80027030101519,479.82512968242156,0.0
312154.6038362722,4765833.5216966402,-12500.0,425.84870597896924,78.34876807197594,554.022281808044,27.031968614437631,-59.168660253957484,-0.36465764002153034,301.83739710351989,407.87872264114287,-89.283710703896219,89.283710703896219,-407.87872264114287,532.75336617881533,0.0
317154.6038362722,4765833.5216966402,-12500.0,417.59288981708255,120.54460250264368,616.83420562874994,15.603995932921629,-65.031437641366352,-1.9625719303276419,344.14347297996414,458.16077685396618,-93.194119325627469,93.194119325627469,-458.16077685396618,596.93164680126176,0.0
322154.6038362722,4765833.5216966402,-12500.0,402.86768710597158,185.49820409309243,665.07802309211002,-1.2839277597905341,-66.562004374692037,-4.6544854811190568,388.87505842739324,518.90360800675114,-101.21367736099762,101.21367736099762,-518.90360800675114,676.91233191590084,0.0
327154.6038362722,4765833.5216966402,-12500.0,385.25581612457597,276.80423635874519,686.17489902373586,-24.224455778841271,-61.156019842812711,-8.8327354619231553,434.9110000778756,590.29997552162945,-115.55799475532018,115.55799475532018,-590.29997552162945,779.28765634373713,0.0
332154.6038362722,4765833.5216966402,-12500.0,370.57738828450977,395.68628966780716,664.35464382102725,-53.250091224277995,-45.696438478425762,-14.931030405186437,483.35643304178734,670.59809571938126,-138.67290395827678,138.67290395827678,-670.59809571938126,912.49632963005774,0.0
337154.6038362722,4765833.5216966402,-12500.0,366.65183084618405,539.37626359563967,581.68919357447817,-87.529180402344821,-16.798990321783116,-23.379180376214705,571.10827058174789,755.09492639220935,-172.85142125015489,172.85142125015489,-755.09492639220935,1085.7474148273227,0.0
342154.6038362722,4765833.5216966402,-12500.0,382.32531789228602,699.56447848401581,420.26359595514072,-125.09532630555567,28.739139008988008,-34.532337492439709,721.77940797078475,835.25262107758454,-219.65977956204301,219.65977956204301,-835.25262107758454,1307.1419947469722,0.0
347154.6038362722,4765833.5216966402,-12500.0,425.65299107107666,861.4795465354747,165.5274973866342,-162.71328744636062,93.293164916965395,-48.578327887800327,899.87880406848558,898.33390835803971,-279.24191344145152,279.24191344145152,-898.33390835803971,1581.5118315313448,0.0
352154.6038362722,4765833.5216966402,-12500.0,501.42138937433532,1004.267735693268,-189.56104330416102,-195.99844761719254,177.64928350641978,-65.43673465269471,1099.9051993914184,928.01746908846394,-349.66595645049023,349.66595645049023,-928.01746908846394,1908.5808556572874,0.0
357154.6038362722,4765833.5216966402,-12500.0,608.5932222513544,1103.1910354409756,-640.52491967662638,-219.87499909416408,280.30020553828592,-84.674076396539064,1316.7469050747693,906.32737113037876,-426.55142639118174,426.55142639118174,-906.32737113037876,2281.8356565072913,0.0
362154.6038362722,4765833.5216966402,-12500.0,738.58106884159417,1133.6698423275459,-1168.8164636996275,-229.36804551963044,397.0335833295772,-105.46638194915973,1543.0065950660169,816.83792171111349,-503.21790819523744,503.21790819523744,-816.83792171111349,2688.3090327089758,0.0
367154.6038362722,4765833.5216966402,-12500.0,875.27028512837296,1076.4509806816227,-1742.0177036294344,-220.59302365696487,521.03706914489942,-126.6371798959145,1769.1174525001379,648.56459122373667,-571.48261850819472,571.48261850819472,-648.56459122373667,3109.4046826476933,0.0
372154.6038362722,4765833.5216966402,-12500.0,997.2608330071929,922.49783156071805,-2317.4275833829556,-191.68534947629854,643.62429638698995,-146.78154583473781,1984.1580890694022,399.45958461145943,-623.01625718867035,623.01625718867035,-399.45958461145943,3522.7604961654329,0.0
377154.6038362722,4765833.5216966402,-12500.0,1081.9845962547959,675.98891144383174,-2848.5466477728028,-143.37549125080511,755.48629500827565,-164.45973627366141,2177.0814870403187,78.30128608912662,-650.93106738097526,650.93106738097526,-78.30128608912662,3904.9125709701239,0.0
382154.6038362722,4765833.5216966402,-12500.0,1110.544590742639,354.29895909117397,-3292.8437900053218,-78.999928403861489,848.17181300749587,-178.41632318765915,2338.0767669618281,-295.83094069609825,-651.14077109727214,651.14077109727214,295.83094069609825,4234.2586664198025,0.0
387154.6038362722,4765833.5216966402,-12500.0,1071.7615570259559,-15.12533903301733,-3618.6557060340147,-3.9246729049040905,915.40219877269988,-187.76850104303864,2459.7543564315574,-696.49158500643466,-623.08727526533221,623.08727526533221,696.49158500643466,4493.6983248154329,0.0
392154.6038362722,4765833.5216966402,-12500.0,964.21411171746547,-399.99513712520223,-3809.404435717046,75.44170810200832,953.88346744511591,-192.11587622688168,2537.9001584228972,-1094.3666481006767,-569.65337865514368,569.65337865514368,1094.3666481006767,4672.4082111428497,0.0
397154.6038362722,4765833.5216966402,-12500.0,795.8533945827993,-768.8995633868202,-3864.3420557136251,152.74958537270655,963.46284206867438,-191.55137539290573,2571.6796307314426,-1462.0236322096962,-496.36468125876513,496.36468125876513,1462.0236322096962,4766.4755811246514,0.0
402154.6038362722,4765833.5216966402,-12500.0,581.63239367689766,-1095.9845667342565,-3796.19946904075,222.63458027820096,946.69164309091843,-186.58415568077842,2563.3239189959709,-1777.6904260082547,-410.18959280228648,410.18959280228648,1777.6904260082547,4778.4271240177331,0.0
407154.6038362722,4765833.5216966402,-12500.0,340.12487784996966,-1363.6777980603426,-3626.9228052067747,281.28732857475143,908.0105068575383,-178.00753858603147,2517.4482483416309,-2027.3500456330312,-318.3029847776719,318.3029847776719,2027.3500456330312,4715.9453829087106,0.0
412154.6038362722,4765833.5216966402,-12500.0,90.169429130393425,-1563.3196675702525,-3382.8914710698787,326.62698800209739,852.81849270919133,-166.75162012270627,2440.1994319567721,-2205.0678308174329,-227.09797213021363,227.09797213021363,2205.0678308174329,4590.1761243856508,0.0
417154.6038362722,4765833.5216966402,-12500.0,-151.72207423564248,-1694.1494121749383,-3090.7310611404564,358.15142914338361,786.64051930570861,-153.75290930404532,2338.4132431578882,-2311.9458960620923,-141.58328897764545,141.58328897764545,2311.9458960620923,4414.0076186649794,0.0
422154.6038362722,4765833.5216966402,-12500.0,-372.87915093293321,-1761.3530339497902,-2774.3265108890605,376.59163474194719,714.5162144487366,-139.858968917824,2218.9069243402582,-2354.3077273035051,-65.16568513985635,65.16568513985635,2354.3077273035051,4200.5941365000945,0.0
427154.6038362722,4765833.5216966402,-12500.0,-564.96236245832927,-1773.8465035206254,-2453.1597146960776,383.49685034114987,640.64175802372154,-125.77316919719358,2087.9670485320007,-2341.6849489571559,0.27089934100126811,-0.27089934100126811,2341.6849489571559,3962.2621825814472,0.0
432154.6038362722,4765833.5216966402,-12500.0,-723.68758499862349,-1742.2719690523325,-2141.7722152278125,380.84484434153961,568.23355018639165,-112.03420472263332,1951.0388170732799,-2285.011596074798,54.107639603778807,-54.107639603778807,2285.011596074798,3709.8236434075652,0.0
307154.6038362722,4770833.5216966402,-12500.0,359.22102447771874,66.076027863371209,446.52661821785387,22.5899071347785,-44.968956469549887,-0.39860462749518799,245.53278105209662,337.31575313960298,-77.069412559334836,77.069412559334836,-337.31575313960298,434.78846212990129,0.0
312154.6038362722,4770833.5216966402,-12500.0,355.22105027231271,95.221006309898343,496.80149143357306,14.951885119406557,-49.964414307734131,-1.4119794379931618,277.69383329027869,374.92596110787633,-79.887215962380679,79.887215962380679,-374.92596110787633,482.78931813375544,0.0
317154.6038362722,4770833.5216966402,-12500.0,345.88661223963868,140.17154873102396,538.44707378463568,3.5886773643800338,-52.373463658265671,-3.097409724946119,312.23569608896429,419.91007772749924,-85.231086874251332,85.231086874251332,-419.91007772749924,541.55486093438344,0.0
322154.6038362722,4770833.5216966402,-12500.0,333.16312868921392,203.78446823776576,563.43690274110327,-11.994223855302344,-50.57611719252219,-5.694846339087567,348.1119130110427,472.67955846268836,-94.505587275299547,94.505587275299547,-472.67955846268836,615.28090058693078,0.0
327154.6038362722,4770833.5216966402,-12500.0,320.43622721631004,287.72332450978939,561.52642163846508,-32.005493666695259,-42.591536890240441,-9.476631033245317,384.93188569315458,532.59734185230116,-109.31856251144075,109.31856251144075,-532.59734185230116,709.48927922986945,1.0
332154.6038362722,4770833.5216966402,-12500.0,312.5364465002595,391.49729595787068,520.64996326919356,-56.188520801777742,-26.180321119652621,-14.72705567643674,430.44556836550447,597.37135484736859,-131.29489784460162,131.29489784460162,-597.37135484736859,830.57731099846058,0.0
337154.6038362722,4770833.5216966402,-12500.0,315.37318786635251,511.43181564874885,427.92805792018549,-83.640178320412872,0.94467823514475469,-21.708183011943039,529.79877518004378,662.44274452245463,-161.77673795690416,161.77673795690416,-662.44274452245463,984.83999765212786,0.0
342154.6038362722,4770833.5216966402,-12500.0,335.08652885112917,639.82664165997403,271.38870541986097,-112.6753099406218,40.787677021526697,-30.611978313549798,659.07508918545216,720.55229217796477,-201.42724752284204,201.42724752284204,-720.55229217796477,1177.1623024241924,1.0
347154.6038362722,4770833.5216966402,-12500.0,376.7176537349556,764.65548833406251,42.330029105288965,-140.79868300841062,94.639544173213693,-41.502823603360333,806.75885151708417,761.73185374056175,-249.80021128299245,249.80021128299245,-761.73185374056175,1409.7207113732754,0.0
352154.6038362722,4770833.5216966402,-12500.0,442.58547954779999,870.17329566145042,-262.01230566561992,-164.84514285030625,162.61221031236869,-54.260172658516858,969.95616242052472,773.96732163851982,-304.98645307360505,304.98645307360505,-773.96732163851982,1680.9794598820822,1.0
357154.6038362722,4770833.5216966402,-12500.0,530.76784529347287,938.65167839032938,-636.1080531502995,-181.32107291832531,243.246596337298,-68.535795024728102,1144.7197280161599,744.66437108413061,-363.47570279528719,363.47570279528719,-744.66437108413061,1985.14253299541,0.0
362154.6038362722,4770833.5216966402,-12500.0,634.22227694244293,953.14962352233954,-1064.861098381964,-186.92520209623788,333.32625381729179,-83.742168253407087,1325.4921172301483,662.81364196125867,-420.35548934947394,420.35548934947394,-662.81364196125867,2312.1636383294731,0.0
367154.6038362722,4770833.5216966402,-12500.0,741.03214235660539,900.81651691839056,-1524.1033859345462,-179.15719120856545,428.00865368633418,-99.084956447713296,1505.3105507410339,521.45123736275275,-469.89098816774464,469.89098816774464,-521.45123736275275,2648.3832661907168,1.0
372154.6038362722,4770833.5216966402,-12500.0,835.97718051412039,775.89057231652464,-1983.1201891154751,-156.86583703992054,521.31383681413183,-113.64252676255784,1676.369848325575,319.77310848078935,-506.40741185362515,506.40741185362515,-319.77310848078935,2977.7778143189166,0.0
377154.6038362722,4770833.5216966402,-12500.0,903.18014393321096,581.49033458633812,-2408.8508763983914,-120.57830949466806,606.90347846851671,-126.48133861954807,1830.815801802948,64.230544857664057,-525.27622907663761,525.27622907663761,-64.230544857664057,3283.6698049562642,0.0
382154.6038362722,4770833.5216966402,-12500.0,929.1575222552724,329.58840669031724,-2770.8199934746867,-72.501705867722237,678.98285652570007,-136.78340665446188,1961.6112307983856,-231.82734997585487,-523.74573612061795,523.74573612061795,231.82734997585487,3550.6076120394432,0.0
387154.6038362722,4770833.5216966402,-12500.0,905.4188724938432,39.118198689375653,-3045.5770564991012,-16.185693221112984,733.11043935307146,-143.95627931081199,2063.2997026200092,-549.95753750386814,-501.39241680254361,501.39241680254361,549.95753750386814,3766.0602048618289,0.0
392154.6038362722,4770833.5216966402,-12500.0,829.90934362619964,-267.24790741589334,-3219.5912967718391,44.061709511024667,766.72818312533559,-147.70071104814207,2132.5193109457414,-869.41317987998832,-460.09001200330698,460.09001200330698,869.41317987998832,3921.6130951824985,0.0
397154.6038362722,4770833.5216966402,-12500.0,707.00263932031396,-566.75050694509457,-3290.0775462070092,103.84704697073565,779.31756986484027,-148.02419148491481,2168.1891676061091,-1170.1886048852803,-403.5448372292098,403.5448372292098,1170.1886048852803,4013.488351844002,0.0
402154.6038362722,4770833.5216966402,-12500.0,546.22259139498442,-839.72154517104264,-3263.8674224195611,159.29028506630704,772.19827505855028,-145.2040450788808,2171.3733438256727,-1435.5966414902725,-336.56233182787605,336.56233182787605,1435.5966414902725,4042.3812928907978,0.0
407154.6038362722,4770833.5216966402,-12500.0,360.20350030576111,-1071.6777545525565,-3154.9288914920885,207.43525780071417,748.07486819700262,-139.71577569351103,2144.8967697321636,-1653.8993736603429,-264.25276442238521,264.25276442238521,1653.8993736603429,4012.7557098161105,0.0
412154.6038362722,4770833.5216966402,-12500.0,162.49277370127544,-1254.1338224781048,-2981.3297603463052,246.42988085831021,710.47341918611937,-132.14734297805359,2092.8217527349611,-1818.8527523385208,-191.35240903100726,191.35240903100726,1818.8527523385208,3931.8179149588623,0.0
417154.6038362722,4770833.5216966402,-12500.0,-34.314057540627978,-1384.3016819507382,-2762.3563064877712,275.49971857327159,663.19806480043212,-123.11784054492422,2019.8954703449324,-1929.319313940151,-121.7623983674448,121.7623983674448,1929.319313940151,3808.3997815665712,0.0
422154.6038362722,4770833.5216966402,-12500.0,-219.83606687846668,-1464.0456260289257,-2516.2480495425375,294.77732881293281,609.8943599993521,-113.21288839348169,1931.0531516807505,-1988.2670995105761,-58.327759808788642,58.327759808788642,1988.2670995105761,3651.9324251856901,0.0
427154.6038362722,4770833.5216966402,-12500.0,-386.51642706812868,-1498.502579471035,-2258.730552562532,305.05998091474498,553.7568438046269,-102.9418546336525,1831.0276693621111,-2001.5028194579093,-2.8208332987535414,2.8208332987535414,2001.5028194579093,3471.6231411355093,0.0
312154.6038362722,4775833.5216966402,-12500.0,298.58724704973014,109.22393421802313,440.15492937759177,5.9598775272436146,-41.428821188897437,-2.0959628820136276,254.31697722641525,345.19534435504863,-72.772592860450942,72.772592860450942,-345.19534435504863,440.52699358086062,0.0
317154.6038362722,4775833.5216966402,-12500.0,289.82094082748733,154.27405635681924,464.91913665802014,-4.7748412928462196,-41.407764320791223,-3.74462211663299,282.51948210443419,384.87496900303688,-79.017673871420044,79.017673871420044,-384.87496900303688,494.82984744244294,0.0
322154.6038362722,4775833.5216966402,-12500.0,279.81347362488401,214.24468105196658,472.51554548364589,-18.712370362984021,-37.512457417237748,-6.1372547286733017,311.47889850850879,430.09603053438769,-88.820655105027242,88.820655105027242,-430.09603053438769,563.00938466713228,1.0
327154.6038362722,4775833.5216966402,-12500.0,271.53722436294333,289.55035153018457,454.80240034233401,-35.838566336586297,-28.262426625094538,-9.4603590270215872,342.02156412759388,479.76361622752836,-103.30911792905397,103.30911792905397,-479.76361622752836,649.46944436875981,0.0
332154.6038362722,4775833.5216966402,-12500.0,268.84968927582696,378.77863456840356,402.70593198041945,-55.771335526508835,-12.068942377549696,-13.89792978272154,397.19947473211039,531.44112987384005,-123.51918447164184,123.51918447164184,-531.44112987384005,758.88029981097645,0.0
337154.6038362722,4775833.5216966402,-12500.0,276.11598204961138,478.0626851278995,307.09356847008365,-77.657067724890098,12.597365228045653,-19.606840940861375,490.72270112203887,580.99944629723416,-150.17344819152311,150.17344819152311,-580.99944629723416,895.41728388144679,0.0
342154.6038362722,4775833.5216966402,-12500.0,297.52685372466306,580.66132185686183,160.07977474592312,-100.11002816360001,46.970649927187175,-26.685208126054405,600.33249048835239,622.44070143693887,-183.41593583216422,183.41593583216422,-622.44070143693887,1061.8995483944791,0.0
347154.6038362722,4775833.5216966402,-12500.0,336.15365133024272,676.96297866799682,-43.337807306404237,-121.23057792600846,91.706905779531169,-35.137177653549827,723.18805416279861,648.04519627916216,-222.5522469283097,222.5522469283097,-648.04519627916216,1259.0181098114128,0.0
352154.6038362722,4775833.5216966402,-12500.0,392.89445434083069,755.10661240839806,-303.57049869065122,-138.73249605613174,146.60028490492249,-44.840512623770323,857.1815634872122,648.96743160465633,-265.86673461891235,265.86673461891235,-648.96743160465633,1484.7832515874411,0.0
357154.6038362722,4775833.5216966402,-12500.0,465.57421802775724,802.29927255235907,-615.057454617433,-150.18951107746517,210.36578058669136,-55.525499487960445,999.21481993652549,616.31994865757758,-310.59580386648599,310.59580386648599,-616.31994865757758,1734.2656050956273,0.0
362154.6038362722,4775833.5216966402,-12500.0,548.51428915321446,806.71600210391068,-965.66488746846551,-153.37848427211506,280.56229941180345,-66.773784070105236,1145.0778512125567,542.63964795682648,-353.11723177746711,353.11723177746711,-542.63964795682648,1999.6885302179555,0.0
367154.6038362722,4775833.5216966402,-12500.0,632.82864670220431,759.64109292631179,-1337.2247508782943,-146.65947151507214,353.71260095155469,-78.043233761417696,1289.6373567811195,423.46610753390672,-389.36516096999554,389.36516096999554,-423.46610753390672,2270.9078009814457,0.0
372154.6038362722,4775833.5216966402,-12500.0,707.52597651331564,657.34526012153401,-1707.3153684675792,-129.30643993375375,425.63293289831728,-88.718931807589811,1427.2258175922602,258.64681865910615,-415.41103308292287,415.41103308292287,-258.64681865910615,2536.2607456751948,0.0
377154.6038362722,4775833.5216966402,-12500.0,761.24471460105747,502.18211600647334,-2052.0360538843679,-101.70105773914787,491.92790776032768,-98.183367069708751,1552.163993500654,52.986414267178418,-428.08883286433917,428.08883286433917,-52.986414267178418,2783.6885536065101,0.0
382154.6038362722,4775833.5216966402,-12500.0,784.22046548330286,302.56206891110531,-2349.2087444237718,-65.331197629472157,548.5533931277073,-105.89243304602782,1659.3240531227359,-184.00023632191045,-425.51433861226934,425.51433861226934,184.00023632191045,3001.9563983140179,0.0
387154.6038362722,4775833.5216966402,-12500.0,769.98871962289513,71.775851338603417,-2581.2935937323614,-22.588538472069896,592.326588530104,-111.44145099404533,1744.6320673533191,-439.22494703386377,-407.37168987580213,407.37168987580213,439.22494703386377,3181.7651320283694,0.0
392154.6038362722,4775833.5216966402,-12500.0,716.40315863580236,-174.03371553125237,-2737.3909159968121,23.585313757340103,621.27673745109814,-114.60774408139453,1805.4216075299103,-697.79540565559444,-374.9068310206402,374.9068310206402,697.79540565559444,3316.5672698795092,0.0
397154.6038362722,4775833.5216966402,-12500.0,625.77060433059069,-418.23938940977092,-2813.9850421307083,70.117462468896861,634.7769710375203,-115.36272438487873,1840.5880924353326,-944.9980022364623,-330.65078613237819,330.65078613237819,944.9980022364623,3402.9733044993286,0.0
402154.6038362722,4775833.5216966402,-12500.0,504.167295486299,-645.89562725614076,-2814.4427716237469,114.19381801226618,633.4584541438893,-113.85459496681788,1850.5400512051724,-1168.0614070502784,-277.96342715299164,277.96342715299164,1168.0614070502784,3440.7300351484805,0.0
407154.6038362722,4775833.5216966402,-12500.0,360.2044668303821,-845.3008557132714,-2747.5728423750375,153.54920181930888,618.95781410445477,-110.36918697412054,1836.9832179549135,-1357.3848898328067,-220.51753288789041,220.51753288789041,1357.3848898328067,3432.3374328193863,0.0
412154.6038362722,4775833.5216966402,-12500.0,203.59559461486384,-1008.7781552356713,-2625.7018219749657,186.62347005426633,593.57575739287449,-105.27969091197778,1802.5986337086415,-1507.0992256550726,-161.83287217885959,161.83287217885959,1507.0992256550726,3382.426549624181,0.0
417154.6038362722,4775833.5216966402,-12500.0,43.84126700401621,-1132.7147521201096,-2462.7132385208342,212.58696505925749,559.92454516100133,-98.99609696773814,1750.680902700409,-1615.0053991132047,-104.93231407109761,104.93231407109761,1615.0053991132047,3297.035431181288,0.0
422154.6038362722,4775833.5216966402,-12500.0,-110.76071824567182,-1217.0460890720974,-2272.3798045598601,231.26469881777732,520.62306428637419,-91.922011756897035,1684.7934059834445,-1682.0532913226577,-52.14669608306599,52.14669608306599,1682.0532913226577,3182.9032086168227,0.0
317154.6038362722,4780833.5216966402,-12500.0,245.84278917489664,163.26535393201578,397.75604057954024,-10.389938254092291,-32.14054410267628,-4.0520261365128398,255.30746228678481,352.57756893817481,-73.872442669629038,73.872442669629038,-352.57756893817481,454.83734690000125,0.0
322154.6038362722,4780833.5216966402,-12500.0,238.6052803253971,218.35706763523598,392.73266192605723,-22.604217533469114,-27.026285230303962,-6.1936893502569381,278.97288445497992,390.89374617318475,-83.681823222496348,83.681823222496348,-390.89374617318475,517.85668743168014,0.0
327154.6038362722,4780833.5216966402,-12500.0,234.03927085512868,284.79054621573994,364.66546985289233,-37.081978440952582,-17.3678098363308,-9.0602053588861811,308.09781955091393,431.64595306457488,-97.360691073255822,97.360691073255822,-431.64595306457488,596.87756468869986,0.0
332154.6038362722,4780833.5216966402,-12500.0,235.14559373341342,360.7341148481035,306.81849553090723,-53.4080019223966,-2.0486918355657235,-12.769266641786928,371.47131907472624,472.47998822922557,-115.53649186914529,115.53649186914529,-472.47998822922557,695.21557847707447,0.0
337154.6038362722,4780833.5216966402,-12500.0,245.09450656747563,442.50532508698916,212.78785114235649,-70.828704332669332,19.943796435468624,-17.412639222755104,453.2407261292044,509.80260943879421,-138.5407882335916,138.5407882335916,-509.80260943879421,815.56683538637844,0.0
342154.6038362722,4780833.5216966402,-12500.0,266.70171710840566,524.39286259274911,77.466357525335951,-88.231258083814609,49.353678256931751,-23.035566658108259,546.10867135028445,538.74460894387676,-166.2361327319357,166.2361327319357,-538.74460894387676,959.45527266206091,0.0
347154.6038362722,4780833.5216966402,-12500.0,301.76817060709914,598.79398764988764,-101.83530623965078,-104.17832598118544,86.471641644132362,-29.615306552314546,648.74670093235591,553.35947813321627,-197.86304295542692,197.86304295542692,-553.35947813321627,1126.7729922577691,0.0
352154.6038362722,4780833.5216966402,-12500.0,350.39931013157371,656.76527729536463,-324.29809239310191,-117.01275078291268,130.96239421883487,-37.042930861888536,759.47014856454439,547.11843882684593,-231.95231511484573,231.95231511484573,-547.11843882684593,1315.4744723754486,0.0
357154.6038362722,4780833.5216966402,-12500.0,410.47436494405497,689.00303052576066,-584.78960431722965,-125.03287805793457,181.74510174907576,-45.113239093646328,875.8318235277859,513.70108599492846,-266.3470812056164,266.3470812056164,-513.70108599492846,1521.4629612180772,0.0
362154.6038362722,4780833.5216966402,-12500.0,477.45138328646493,687.15157707856099,-873.61043619202451,-126.7199993192082,236.96848149054932,-53.52738332589032,994.61647926565388,447.99383658964541,-298.3631752324934,298.3631752324934,-447.99383658964541,1738.7033329780049,0.0
367154.6038362722,4780833.5216966402,-12500.0,544.64543492060409,645.21136605633535,-1176.9831229906699,-120.97949360796478,294.10910399856613,-61.910983581769216,1111.9932361709421,347.11695938608887,-325.08443827622818,325.08443827622818,-347.11695938608887,1959.5796635029394,0.0
372154.6038362722,4780833.5216966402,-12500.0,604.00599860104535,560.73739457986051,-1478.3141223707539,-107.34461629171022,350.19532262808258,-69.847064489421754,1223.7863953100371,211.2459135741754,-343.75015601221838,343.75015601221838,-211.2459135741754,2175.4805018527495,0.0
377154.6038362722,4780833.5216966402,-12500.0,647.27538106901852,435.5249300703299,-1760.0599546705798,-86.09342096447196,402.12756311079931,-76.919575831663948,1325.8258188746959,44.003444306905124,-352.15908248830885,352.15908248830885,-44.003444306905124,2377.5498945696436,1.0
382154.6038362722,4780833.5216966402,-12500.0,667.28405491945523,275.5865058930363,-2005.8487939148567,-58.24663505987958,447.03738275020766,-82.759786710045631,1414.320683414137,-147.71318752350609,-349.0011260427741,349.0011260427741,147.71318752350609,2557.4962763735439,0.0
387154.6038362722,4780833.5216966402,-12500.0,659.08656447254873,90.403908238230599,-2202.4311902396084,-25.443403287038066,482.61568349540579,-87.086866364918663,1486.1963935841918,-354.46529441835503,-334.04298765057331,334.04298765057331,354.46529441835503,2708.3361170723815,0.0
392154.6038362722,4780833.5216966402,-12500.0,620.68273926275333,-108.37467517947418,-2341.0774749531274,10.277687860110174,507.34754138678045,-89.735173068755941,1539.3405791410746,-565.41767454168689,-308.13132710053111,308.13132710053111,565.41767454168689,2824.9577616278534,0.0
397154.6038362722,4780833.5216966402,-12500.0,553.19041911328338,-308.49316267192421,-2418.1953717066153,46.743633724903724,520.61658412928114,-90.663936076724497,1572.7254953261602,-769.64999451118547,-273.02461979197847,273.02461979197847,769.64999451118547,2904.4321554054518,0.0
402154.6038362722,4780833.5216966402,-12500.0,460.4863374158025,-498.57317732544465,-2435.1446743910883,81.903513916651093,522.67441683940967,-89.949520699688804,1586.4004148180065,-957.37118558433326,-231.10423956221922,231.10423956221922,957.37118558433326,2946.0507945287518,0.0
407154.6038362722,4780833.5216966402,-12500.0,348.45658478228569,-669.26310009383587,-2397.4044804476657,114.03192584316245,514.5002993618117,-87.763853469599596,1581.371443232068,-1120.8294677993231,-185.03544960747553,185.03544960747553,1120.8294677993231,2951.1220491445883,0.0
412154.6038362722,4780833.5216966402,-12500.0,224.0626767886281,-813.90955455344579,-2313.3543211449028,141.85407592818163,497.59374195738485,-84.344813346354343,1559.4031218673658,-1254.8112574852985,-137.44663544749653,137.44663544749653,1254.8112574852985,2922.5937821176558,0.0
327154.6038362722,4785833.5216966402,-12500.0,204.74877616112073,275.50456294255611,289.29228669701604,-36.678763449696731,-9.196842024889003,-8.4547708217465214,286.40472332765535,388.05623668759216,-91.452823992899766,91.452823992899766,-388.05623668759216,550.11486738793053,0.0
332154.6038362722,4785833.5216966402,-12500.0,208.48044501189298,339.7018831107597,229.40852014441873,-50.006205511823651,4.9190815322529424,-11.535053825203862,347.12359245347955,420.03285096698545,-107.55033972073585,107.55033972073585,-420.03285096698545,638.13467777005803,0.0
337154.6038362722,4785833.5216966402,-12500.0,219.862039974167,406.85154792947327,139.60469114021646,-63.877694098780758,24.284125402070348,-15.303673897787766,417.72736683533719,447.79098858954001,-127.23260096280239,127.23260096280239,-447.79098858954001,743.95239101594507,0.0
342154.6038362722,4785833.5216966402,-12500.0,240.75336350067545,472.20955525199645,16.646028630380567,-77.411741485984706,49.332975980865371,-19.77685930304321,496.5759717150595,467.42006776963547,-150.22374288158349,150.22374288158349,-467.42006776963547,868.29598270523297,0.0
347154.6038362722,4785833.5216966402,-12500.0,272.1463216645198,529.79366839990416,-140.73108386741328,-89.522856230454167,80.151334141437388,-24.922094805437997,582.72847845577098,474.34873331831056,-175.79140329113298,175.79140329113298,-474.34873331831056,1010.6553748394987,0.0
352154.6038362722,4785833.5216966402,-12500.0,313.72655341052581,572.84050534929088,-331.12382426447169,-99.00349564786147,116.37089481919732,-30.64794907310355,674.80530021287154,463.73928511081073,-202.7106603429599,202.7106603429599,-463.73928511081073,1169.1134013436292,0.0
357154.6038362722,4785833.5216966402,-12500.0,363.56262477982938,594.52805455761131,-549.99816796175423,-104.64798299404299,157.10445102579851,-36.799569960287862,770.86537428580505,431.06110657637612,-229.30394149631343,229.30394149631343,-431.06110657637612,1340.305134885301,0.0
362154.6038362722,4785833.5216966402,-12500.0,418.0328209302258,588.88246101357731,-789.61119867163802,-105.40448467943602,200.94462971910983,-43.162234083073479,868.43331452926316,372.77549328930365,-253.56969781920111,253.56969781920111,-372.77549328930365,1519.5261479391488,0.0
367154.6038362722,4785833.5216966402,-12500.0,472.06282918908016,551.71704385132102,-1039.4223202358576,-100.53038781358785,246.04067319981539,-49.474272703533664,964.61728774145843,287.0133746426805,-273.3926009468733,273.3926009468733,-287.0133746426805,1700.9982145357153,0.0
372154.6038362722,4785833.5216966402,-12500.0,519.67806196203958,481.41125937704425,-1286.994190882215,-89.720365486458022,290.25181401292923,-55.448551391666292,1056.2991491978041,174.10123877216981,-286.80522831231838,286.80522831231838,-174.10123877216981,1878.2779179061988,0.0
377154.6038362722,4785833.5216966402,-12500.0,554.79041771035838,379.34836263747854,-1519.2689090825334,-73.178613415575043,331.35834424723942,-60.799959654314151,1140.3735859079759,36.802247898160289,-292.25394533971541,292.25394533971541,-36.802247898160289,2044.7685849752556,0.0
382154.6038362722,4785833.5216966402,-12500.0,572.06742037227934,249.89612714106434,-1724.0005670574888,-51.616816453520826,367.29528749496245,-65.274346343718264,1214.0008489141601,-119.80634022824376,-288.81501470331932,288.81501470331932,119.80634022824376,2194.2669158155395,0.0
387154.6038362722,4785833.5216966402,-12500.0,567.70292857636025,99.921067799246316,-1891.0829407429651,-26.176296313523746,396.36760158956434,-68.674005434946622,1274.8364578673147,-288.81583655969484,-276.31700027163481,276.31700027163481,288.81583655969484,2321.4691516374628,0.0
392154.6038362722,4785833.5216966402,-12500.0,539.93100555618526,-62.064240231651567,-2013.534962477868,1.7102501547629765,417.40956199449136,-70.875447331561716,1321.2043787758378,-462.24120639687601,-255.34725607631103,255.34725607631103,462.24120639687601,2422.3658671306466,0.0
397154.6038362722,4785833.5216966402,-12500.0,489.19316567017938,-226.94242570886044,-2087.9938578429073,30.489280259676409,429.86462604158271,-71.836804850218542,1352.1920553110385,-631.90156408395114,-227.1476699360847,227.1476699360847,631.90156408395114,2494.4772187207873,0.0
402154.6038362722,4785833.5216966402,-12500.0,417.95624662454833,-386.01824008490416,-2114.6840951193803,58.65689543305313,433.78060480257466,-71.594700840039081,1367.6608102538198,-790.26313515299125,-193.4286665781338,193.4286665781338,790.26313515299125,2536.9114549769838,0.0
342154.6038362722,4790833.5216966402,-12500.0,218.47856373158703,424.59334124691281,-27.683116284245965,-67.770852933188692,47.842554379184946,-16.934016209950183,451.64643561001003,406.62759602250605,-135.53014471968564,135.53014471968564,-406.62759602250605,787.11435711196464,1.0
347154.6038362722,4790833.5216966402,-12500.0,246.33159642016889,469.24323652900989,-165.5311789855331,-77.023933100646289,73.480462867752465,-20.978834728514801,524.31520055397198,408.240729559079,-156.22714347232065,156.22714347232065,-408.240729559079,908.60026164607075,0.0
352154.6038362722,4790833.5216966402,-12500.0,281.86102021882408,501.20159692938836,-328.81128709245553,-84.075983072191448,103.11143068502321,-25.425410622127714,601.3603642176497,395.13524817014172,-177.56291902748526,177.56291902748526,-395.13524817014172,1042.3078433288654,0.0
357154.6038362722,4790833.5216966402,-12500.0,323.37101778957737,515.424152807052,-513.6147907988734,-88.063950948084567,136.01668244521102,-30.157156241567176,681.23617923527672,364.03787035925706,-198.2329404202406,198.2329404202406,-364.03787035925706,1185.4884702022907,0.0
362154.6038362722,4790833.5216966402,-12500.0,367.97358097168001,507.59204528444877,-713.75349765715794,-88.249765630374171,171.12175743445027,-35.018684707026139,762.02167140722872,312.47736810672478,-216.73425473002402,216.73425473002402,-312.47736810672478,1334.4548238457,0.0
367154.6038362722,4790833.5216966402,-12500.0,411.78261471223578,474.74654680761722,-921.09251846655388,-84.121934506102122,207.05500640281352,-39.82489133891972,841.51012971243313,239.23790391143947,-231.51557808258528,231.51557808258528,-239.23790391143947,1484.7783414158062,0.0
372154.6038362722,4790833.5216966402,-12500.0,450.30971380369152,415.8041342348132,-1126.1991473108587,-75.477589822018572,242.25377545713573,-44.375176886877043,917.34424321237145,144.70140531306805,-241.15641613617225,241.15641613617225,-144.70140531306805,1631.5785992783465,0.0
377154.6038362722,4790833.5216966402,-12500.0,479.00696393892355,331.84079567051452,-1319.2289641405644,-62.467980046811135,275.10574718952836,-48.471066428157691,987.18166729675715,30.998039727492568,-244.54492272365385,244.54492272365385,-30.998039727492568,1769.8776181121618,0.0
382154.6038362722,4790833.5216966402,-12500.0,493.86034012783284,226.0764293348106,-1490.9098236844802,-45.59684563003497,304.10383798711189,-51.9346348735234,1048.8689213349919,-98.081723709770415,-241.02130321479024,241.02130321479024,98.081723709770415,1894.9758524812239,0.0
387154.6038362722,4790833.5216966402,-12500.0,491.92094211207785,103.55319045262932,-1633.4603961288758,-25.670648644850559,327.98987623140846,-54.624865972072122,1100.6006682585987,-237.41115582917132,-230.45995308250411,230.45995308250411,237.41115582917132,2002.8027125447409,0.0
392154.6038362722,4790833.5216966402,-12500.0,471.67397740787624,-29.432437843670364,-1741.2920718085479,-3.7096772407305862,345.86407234295353,-56.449324329493884,1141.0428764289397,-381.03400552260587,-213.27635186032308,213.27635186032308,381.03400552260587,2090.1961583063348,0.0
352154.6038362722,4580833.5216966402,-17500.0,441.12892932358693,77.536923154118313,-1239.9526258875487,40.030461826384254,-255.79194544565212,-37.992866893315274,871.33532340921204,-165.79067775413853,77.517227682088858,-77.517227682088858,165.79067775413853,1571.394880863711,0.0
357154.6038362722,4580833.5216966402,-17500.0,447.46519929775366,182.48010604338978,-1120.728517985543,59.336508985994207,-226.42194981183781,-32.768684551302663,829.46506018959224,-50.405343877137014,26.964019273789674,-26.964019273789674,50.405343877137014,1483.5823158542446,0.0
362154.6038362722,4580833.5216966402,-17500.0,438.67515731134415,274.39500334325061,-975.38639776056698,75.145472751320241,-192.26815509501733,-26.944834898853074,779.71589741437538,58.079718190995962,-20.544677425763862,20.544677425763862,-58.079718190995962,1382.6338049592543,0.0
367154.6038362722,4580833.5216966402,-17500.0,416.88741837707573,348.38730916112706,-809.92223797611041,86.587478249399126,-154.70553354932602,-20.753710029816293,723.4991462852804,155.1106460880614,-63.020070417407339,63.020070417407339,-155.1106460880614,1272.0471924824592,0.0
372154.6038362722,4580833.5216966402,-17500.0,385.35187669462755,400.92979268138185,-631.95799363654851,93.10536584259134,-115.38353724226396,-14.456443117700406,662.53358023332089,237.03227868696348,-98.857784408758732,98.857784408758732,-237.03227868696348,1155.9485803023645,0.0
377154.6038362722,4580833.5216966402,-17500.0,348.04032945715375,430.27906022214739,-450.0459763620334,94.522082712947949,-76.081419135668398,-8.3204456286677733,598.72592566649598,301.44878909120473,-126.99251612855535,126.99251612855535,-301.44878909120473,1038.8054328891499,0.0
382154.6038362722,4580833.5216966402,-17500.0,309.13229111382799,436.65081206060501,-272.82473986812903,91.059435770563752,-38.541813935049099,-2.5956044952935473,534.03012563868606,347.4138638996518,-146.9812443377343,146.9812443377343,-347.4138638996518,925.07280687501463,0.0
387154.6038362722,4580833.5216966402,-17500.0,272.48307651515245,422.11986749350018,-108.16751800150813,83.304284595852366,-4.3091400944020215,2.5072496999989471,470.31156756747748,375.41985533686113,-159.00207921495334,159.00207921495334,-375.41985533686113,818.80732064840981,0.0
392154.6038362722,4580833.5216966402,-17500.0,241.17294020944999,390.26770874090386,37.537886044568012,72.12840101798048,25.402300898958032,6.8324950905362893,409.24947544500645,387.19707836252826,-163.77312976053835,163.77312976053835,-387.19707836252826,723.279166780845,0.0
397154.6038362722,4580833.5216966402,-17500.0,217.21427269273684,345.65229261263175,159.86838790988264,58.577148640371817,49.791740389882925,10.288468251992954,352.37232957669119,385.37235690032605,-162.41129590551338,162.41129590551338,-385.37235690032605,640.623537759653,0.0
402154.6038362722,4580833.5216966402,-17500.0,201.45390171938362,293.20635654463882,256.55022394668083,43.747359534808361,68.49831203081601,12.848193202508551,301.9861222115249,373.06026270935052,-156.26098645258304,156.26098645258304,-373.06026270935052,571.60008056773586,0.0
342154.6038362722,4585833.5216966402,-17500.0,426.0691495046691,-201.99722483103045,-1581.7439005290626,-12.122382165471725,-348.54720698880669,-54.386629614144155,1061.9385159995195,-479.55650907640086,220.02599088966815,-220.02599088966815,479.55650907640086,1945.4538225722674,0.0
347154.6038362722,4585833.5216966402,-17500.0,475.17957626410197,-66.456611543987691,-1522.5331435041414,16.290695026915511,-328.75974511769442,-49.908754359966501,1036.6868745182148,-344.91921867287658,160.21269103822019,-160.21269103822019,344.91921867287658,1885.7074912373041,0.0
352154.6038362722,4585833.5216966402,-17500.0,505.34224666796496,68.873793589596943,-1423.5857308533957,43.399161014599287,-300.7335745629415,-44.215227845001529,999.56037324120496,-205.22596102431277,98.176502935702658,-98.176502935702658,205.22596102431277,1803.8633764458068,0.0
357154.6038362722,4585833.5216966402,-17500.0,515.44747383074889,196.3525225384515,-1286.4658904143791,67.616521301152133,-265.12829710031002,-37.47732080096705,951.19638879706577,-66.84124221674324,36.725133290050074,-36.725133290050074,66.84124221674324,1701.9262577575187,0.0
362154.6038362722,4585833.5216966402,-17500.0,506.23389319824372,308.40405586765473,-1115.803181451982,87.457207163214974,-223.21210663218159,-29.951612187347514,892.83650852730807,63.670467894322229,-21.244952306498003,21.244952306498003,-63.670467894322229,1583.2064953829367,0.0
367154.6038362722,4585833.5216966402,-17500.0,480.31574706145921,398.41453510212477,-919.14159572311689,101.71208176994317,-176.7993308140891,-21.963256558506902,826.27571294459165,180.24088951176472,-73.04911731421393,73.04911731421393,-180.24088951176472,1452.1912719106367,0.0
372154.6038362722,4585833.5216966402,-17500.0,441.90285661163591,461.57713544223037,-706.34682846548901,109.60311764196577,-128.10580999414984,-13.878702372187128,753.74550934543606,277.97753631984978,-116.50798297902672,116.50798297902672,-277.97753631984978,1314.2660761675152,0.0
377154.6038362722,4585833.5216966402,-17500.0,396.24116572876574,495.51800754825064,-488.63098568893025,110.8869035823398,-79.538555248531139,-6.071586968645577,677.74448704173506,353.69839594556959,-150.1795910636682,150.1795910636682,-353.69839594556959,1175.3042470783853,0.0
382154.6038362722,4585833.5216966402,-17500.0,348.87364383802412,500.56725692862392,-277.34501434041317,105.88457524760604,-33.450820322425812,1.1133342689839532,600.84107127869652,406.21655690622782,-173.48614162985854,173.48614162985854,-406.21655690622782,1041.1567050306519,0.0
387154.6038362722,4585833.5216966402,-17500.0,304.86884575205755,479.61291172444743,-82.751038240896278,95.430321981962791,8.0962952695652852,7.3923241122079633,525.48446636466861,436.321316520805,-186.71248202374863,186.71248202374863,-436.321316520805,917.08056620747084,0.0
392154.6038362722,4585833.5216966402,-17500.0,268.17579738263458,437.57508623945961,87.002427192931378,80.748927664382947,43.525105791936355,12.56587594394842,453.89447640641635,446.47418546576552,-190.88334318639119,190.88334318639119,-446.47418546576552,807.16222151105831,0.0
397154.6038362722,4585833.5216966402,-17500.0,241.22524760913001,380.62169782821769,226.53311353209583,63.287508932198115,71.85585511291842,16.529922697148432,388.29359469271748,440.30010141513344,-187.55185229345821,187.55185229345821,-440.30010141513344,713.81155964050436,0.0
402154.6038362722,4585833.5216966402,-17500.0,224.82878662010381,315.2947109740997,333.42930371748429,44.534387947816889,92.732582302866206,19.274308731021982,334.10627117045965,421.9906635021332,-178.5473365710063,178.5473365710063,-421.9906635021332,637.45606372562213,0.0
407154.6038362722,4585833.5216966402,-17500.0,218.35273167698026,247.71560912086662,408.03166337659894,25.857306928944283,106.36718364275369,20.870367159583395,307.97554998962869,395.73876975326402,-165.73207829576791,165.73207829576791,-395.73876975326402,576.60422179928401,0.0
412154.6038362722,4585833.5216966402,-17500.0,220.08547861687694,182.9940238347439,452.90068898481422,8.3843306912373325,113.42348346582169,21.451089936527534,293.52866993143266,365.29510104021278,-150.80554806234491,150.80554806234491,-365.29510104021278,528.36506188210649,0.0
417154.6038362722,4585833.5216966402,-17500.0,227.69106753563409,124.8967702053498,472.11787531777117,-7.0618842734944796,114.87013745783875,21.188068819393646,278.86526291300999,333.69163878482971,-135.17646740396279,135.17646740396279,-333.69163878482971,489.28058136965103,0.0
332154.6038362722,4590833.5216966402,-17500.0,293.45481813767697,-557.99909952231667,-1791.9596927578068,-89.702447354138641,-425.22936542292092,-70.67074020471189,1231.1161189007271,-850.93625515032704,392.70818088342958,-392.70818088342958,850.93625515032704,2285.361457926846,0.0
337154.6038362722,4590833.5216966402,-17500.0,391.658936928267,-424.31137570094535,-1822.7276714649022,-57.566178975137341,-423.25617484125331,-68.360937526824102,1233.3944558070677,-727.24970502921894,337.01565866064163,-337.01565866064163,727.24970502921894,2276.8319834571557,0.0
342154.6038362722,4590833.5216966402,-17500.0,475.74673111482457,-273.04737826828688,-1811.4977703593327,-22.980309950682148,-411.35607373679107,-64.336515531767276,1221.6299446379498,-583.27814139425709,272.22205557226175,-272.22205557226175,583.27814139425709,2240.7064156367419,0.0
347154.6038362722,4590833.5216966402,-17500.0,540.39614478350097,-111.00283884873389,-1752.8132974279715,12.353130731118688,-388.76635702841537,-58.576872612823976,1195.0026114801967,-424.19573613727124,200.64847880121232,-200.64847880121232,424.19573613727124,2175.9706279219413,0.0
352154.6038362722,4590833.5216966402,-17500.0,581.59022177462236,53.050331377025941,-1644.0797448487895,46.411765138932857,-355.40701124833845,-51.183578315446852,1153.3815874828322,-256.97564927201381,125.41139015850152,-125.41139015850152,256.97564927201381,2083.149404057292,0.0
357154.6038362722,4590833.5216966402,-17500.0,597.3399880935774,209.09226828662489,-1486.4460420028956,77.033409710355485,-312.02075832122318,-42.390525517709889,1097.438245924782,-89.868919013386105,50.192552160055342,-50.192552160055342,89.868919013386105,1964.5329906768004,0.0
362154.6038362722,4590833.5216966402,-17500.0,588.18457266088626,346.94188958378277,-1285.2920536931238,102.15504937860938,-260.22122021787999,-32.557609291655666,1028.684596933826,68.409085931412676,-21.117070159855178,21.117070159855178,-68.409085931412676,1824.238962967712,0.0
367154.6038362722,4590833.5216966402,-17500.0,557.31212505706696,457.55220082123498,-1050.1316794401878,120.07533507148328,-202.41989914792143,-22.145967719567775,949.41713968224417,209.67708701528628,-84.852561068430788,84.852561068430788,-209.67708701528628,1668.0643570081961,0.0
372154.6038362722,4590833.5216966402,-17500.0,510.21372561668085,534.27442619302019,-793.8430676205154,129.69221894170906,-141.62435027305835,-11.676509835469723,862.56129918169006,327.29411587812797,-138.0138267191237,138.0138267191237,-327.29411587812797,1503.1098107481569,0.0
377154.6038362722,4590833.5216966402,-17500.0,453.89563467798632,573.81697236653395,-531.29128305204085,130.66508914309151,-81.129226367085408,-1.6772207300579867,771.43225114237782,416.96762425190303,-178.62039764374396,178.62039764374396,-416.96762425190303,1337.1907777998165,0.0
382154.6038362722,4590833.5216966402,-17500.0,395.79922903175463,576.6716905867894,-277.57211413014483,123.46319257041847,-24.150040469224816,7.3721366221146338,679.45255619064153,477.18764850102463,-205.90776715934595,205.90776715934595,-477.18764850102463,1178.0826661439478,0.0
387154.6038362722,4590833.5216966402,-17500.0,342.66454476555856,546.89994582933707,-46.214160664574365,109.28634781340207,26.533897381666115,15.088506539878141,589.89185121895741,509.19644592232453,-220.32615454351733,220.32615454351733,-509.19644592232453,1032.6599999573275,0.0
392154.6038362722,4590833.5216966402,-17500.0,299.59340684349223,491.33672437249618,152.30184379157942,89.87520603314627,68.860560558826734,21.218955018346886,505.78256853875439,516.52225256206634,-223.35217749227638,223.35217749227638,-516.52225256206634,906.02331668858972,0.0
397154.6038362722,4590833.5216966402,-17500.0,269.50197521728518,418.41168494665669,311.43974542100432,67.25297343122908,101.64316946053883,25.654303262016452,430.7890216027169,504.20933532096319,-217.16700589271613,217.16700589271613,-504.20933532096319,800.7588866934376,0.0
402154.6038362722,4590833.5216966402,-17500.0,253.03637372913579,336.86471475812687,428.81069933407571,43.453720425316618,124.58808008826989,28.422476792177619,377.27374231177618,477.93643844089013,-204.28029715443463,204.28029715443463,-477.93643844089013,716.58504533554128,0.0
407154.6038362722,4590833.5216966402,-17500.0,248.89809719277227,254.62160488769536,505.74587052657313,20.288739613021161,138.18820641452996,29.665329163794802,354.48243711179498,443.2120459829755,-187.17901582140863,187.17901582140863,-443.2120459829755,650.66316833092185,0.0
412154.6038362722,4590833.5216966402,-17500.0,254.4351917358839,178.01243049539403,546.43047405524703,-0.8139460213811982,143.53098158932434,29.605201655658785,337.26770360317749,404.78007616483444,-168.05904645697353,168.05904645697353,-404.78007616483444,598.60651311906736,0.0
417154.6038362722,4590833.5216966402,-17500.0,266.32335673659856,111.39903832078656,556.84416366237758,-18.884361806571455,142.06969947193559,28.508360261093323,319.00953958356507,366.29103129826183,-148.66587047911355,148.66587047911355,-366.29103129826183,555.78683826051179,0.0
422154.6038362722,4590833.5216966402,-17500.0,281.18454637977499,57.174615791421601,543.73105200202303,-33.407232623619912,135.40288146057642,26.651440198635285,299.26699133321603,330.22225566688536,-130.24109801588361,130.24109801588361,-330.22225566688536,518.36406889423165,0.0
427154.6038362722,4590833.5216966402,-17500.0,296.04689758952958,16.031372551062997,513.75462394673161,-44.261536959908774,125.09294322343254,24.294985414728341,278.44586673029289,297.98405046328048,-113.55120934111071,113.55120934111071,-297.98405046328048,483.73675261629376,0.0
322154.6038362722,4595833.5216966402,-17500.0,32.990625945653271,-912.16798226688513,-1806.4273172533863,-180.5082850877568,-467.16081874075968,-83.740850783612416,1352.173782284661,-1207.530363771039,563.66206635488061,-563.66206635488061,1207.530363771039,2535.9387478533777,0.0
327154.6038362722,4595833.5216966402,-17500.0,165.07017178919102,-820.72179944273432,-1929.8149184003796,-153.32929903617497,-487.09576059876861,-84.783732838739866,1388.9608155109722,-1130.2372442114031,528.44571577598163,-528.44571577598163,1130.2372442114031,2594.3447290743566,0.0
332154.6038362722,4595833.5216966402,-17500.0,296.90358039395551,-697.8538146352281,-2024.1743473662102,-119.93474919882037,-498.55872348086456,-84.006990441900143,1412.8781290065228,-1021.5874500959211,478.91863672496822,-478.91863672496822,1021.5874500959211,2626.4439391633441,0.0
337154.6038362722,4595833.5216966402,-17500.0,421.15339063432788,-545.29680591447902,-2078.632036710017,-81.204883177232489,-499.35913164908834,-81.124972896004479,1421.5295405801635,-882.22581090511858,415.39568660017977,-415.39568660017977,882.22581090511858,2627.8374663345226,0.0
342154.6038362722,4595833.5216966402,-17500.0,529.92195887981222,-367.8453267196424,-2082.8710622637382,-38.675522473606939,-487.6150233834905,-75.948130399429658,1412.9120475054556,-715.35975865111004,339.34807985944531,-339.34807985944531,715.35975865111004,2595.086890607588,0.0
347154.6038362722,4595833.5216966402,-17500.0,615.67919363302542,-173.57975565572474,-2028.5595174106113,5.4762116096674776,-462.0552173790096,-68.427970501593904,1385.6768167425062,-527.00839654184801,253.50963805578431,-253.50963805578431,527.00839654184801,2526.2666447185975,0.0
352154.6038362722,4595833.5216966402,-17500.0,672.38789208396918,26.415447419617173,-1910.9158604852582,48.556273064990023,-422.31933235012639,-58.6932338021955,1339.3752620961786,-325.85921423867876,161.80874250464399,-161.80874250464399,325.85921423867876,2421.4790093473766,0.0
357154.6038362722,4595833.5216966402,-17500.0,696.62833677166873,218.94835195743798,-1730.1284475517159,87.597707148536912,-369.19618611031666,-47.068360914159811,1274.6512713079883,-122.64274010382951,69.088570500640628,-69.088570500640628,122.64274010382951,2283.2465812310511,0.0
362154.6038362722,4595833.5216966402,-17500.0,688.45156979600131,390.21172162482475,-1492.2623803808651,119.70643152348019,-304.73181762994085,-34.066019594650889,1193.3291983461027,70.971767325147212,-19.381228913936312,19.381228913936312,-70.971767325147212,2116.6742090825273,0.0
367154.6038362722,4595833.5216966402,-17500.0,651.69057096308336,527.67062970828158,-1209.3178727577813,142.45778892918506,-232.15294709097341,-20.349962008472229,1098.3619661302091,243.81800012283043,-98.538910587477417,98.538910587477417,-243.81800012283043,1929.2989185072806,0.0
372154.6038362722,4595833.5216966402,-17500.0,593.55360436474655,621.97970034119078,-898.24827268005959,154.2667525806265,-155.58505071716269,-6.6706312866335677,993.62485097544459,386.74366001419986,-164.19545172441605,164.19545172441605,-386.74366001419986,1730.5829629954274,0.0
377154.6038362722,4595833.5216966402,-17500.0,523.50757183927033,668.48009135309394,-578.99890408995134,154.64650155020544,-79.593737921019425,6.2172562721897595,883.57554385894923,493.85468465285101,-213.58614583897813,213.58614583897813,-493.85468465285101,1531.0593997220944,0.0
382154.6038362722,4595833.5216966402,-17500.0,451.67592787189812,667.88702005047162,-271.91298733170009,144.28884414757874,-8.6286610017042076,17.640705667269057,772.84709176125693,563.19423052774403,-245.68152729571207,245.68152729571207,-563.19423052774403,1341.1952894297751,0.0
387154.6038362722,4595833.5216966402,-17500.0,387.13449583604034,625.97579266979415,4.948968176888032,124.94086820408855,53.520282952904381,27.082229767691306,665.8983177332268,596.69734514283846,-261.18852708082778,261.18852708082778,-596.69734514283846,1170.0673695524697,0.0
392154.6038362722,4595833.5216966402,-17500.0,336.52698104141245,552.35599694900645,237.98684076599395,99.106117608964809,104.1425241470466,34.227768539374011,567.08168089034348,599.46456966410176,-262.25680630770376,262.25680630770376,-599.46456966410176,1024.0121444914926,0.0
397154.6038362722,4595833.5216966402,-17500.0,303.30897301038834,458.67038042626967,419.30220642223418,69.642226704470119,141.82510431000301,38.981675360997492,483.34905284263834,578.57855321876752,-251.98115652067543,251.98115652067543,-578.57855321876752,905.54529534042035,0.0
402154.6038362722,4595833.5216966402,-17500.0,287.72365383792857,356.68120802460379,546.84858984090454,39.34831550153249,166.4465505525512,41.449278187578372,434.57741957301113,541.78493020446717,-233.83308064889752,233.83308064889752,-541.78493020446717,813.04078448421762,0.0
407154.6038362722,4595833.5216966402,-17500.0,287.39401781914097,256.66937671193728,623.63052444256095,10.625820562709498,178.97903728090725,41.894236155144483,411.21792101598038,496.33890819519991,-211.14936643239108,211.14936643239108,-496.33890819519991,741.58468061165024,0.0
412154.6038362722,4595833.5216966402,-17500.0,298.27520747432976,166.41419750604871,656.2960899459074,-14.734788907527529,181.17015783534475,40.682367965930524,389.9371117950808,448.2155638399945,-186.76529979911524,186.76529979911524,-448.2155638399945,684.80428930339622,0.0
417154.6038362722,4595833.5216966402,-17500.0,315.67616110359069,90.818128733075881,653.5283608189701,-35.629084035449168,175.18678720538642,38.223780283632564,366.97613955124331,401.74231244487891,-162.82370424607717,162.82370424607717,-401.74231244487891,636.77716140959353,0.0
422154.6038362722,4595833.5216966402,-17500.0,335.1210450794398,32.074072799296935,624.57901215998106,-51.596600172815315,163.29158200240354,34.923108392778346,342.31227860230786,359.59777154284734,-140.74288864041048,140.74288864041048,-359.59777154284734,593.18183427760971,0.0
427154.6038362722,4595833.5216966402,-17500.0,352.92707066373009,-9.8176340994416016,578.15268205742916,-62.701627086817567,147.59570424976394,31.14329241759097,316.62069359968024,323.05653381760135,-121.29738353534303,121.29738353534303,-323.05653381760135,551.52736997992486,0.0
432154.6038362722,4595833.5216966402,-17500.0,366.47995565045557,-36.385572677285175,521.71149729385832,-69.379889916501924,129.90330807166569,27.184472423764579,290.80160027107195,292.34981507161547,-104.75849161938181,104.75849161938181,-292.34981507161547,510.80785311941867,0.0
317154.6038362722,4600833.5216966402,-17500.0,-183.03827816253164,-1154.4322718235287,-1810.1326028170206,-251.65870733289063,-504.13367608732568,-95.750749451624401,1477.3502986005115,-1462.6690871100923,692.78255411214411,-692.78255411214411,1462.6690871100923,2783.4637256982874,0.0
322154.6038362722,4600833.5216966402,-17500.0,-34.586800387228394,-1100.0141215396843,-1990.9943979389006,-229.7073797506583,-539.28430337980865,-99.135399924928493,1540.2865502893553,-1423.6984942648378,674.97058366632928,-674.97058366632928,1423.6984942648378,2892.4533120216061,0.0
327154.6038362722,4600833.5216966402,-17500.0,124.94376752398213,-1007.6885124471315,-2154.5477761706456,-199.20338415587443,-567.53130259612215,-100.62558684085019,1591.7379208323846,-1348.17286970949,640.19371892136826,-640.19371892136826,1348.17286970949,2977.3158235268152,0.0
332154.6038362722,4600833.5216966402,-17500.0,288.2031299194432,-874.97355567265777,-2287.6362118509405,-160.23013610623332,-585.83745619890351,-99.735471868271674,1628.2622861450034,-1233.0347825276992,587.07300932079011,-587.07300932079011,1233.0347825276992,3031.4272207788404,0.0
337154.6038362722,4600833.5216966402,-17500.0,445.85922976739073,-702.49242539476006,-2375.7161132011888,-113.6589583969813,-591.1037523970341,-96.040378015676168,1646.4997796840412,-1077.7500271895181,515.39423939916833,-515.39423939916833,1077.7500271895181,3048.5053497172876,0.0
342154.6038362722,4600833.5216966402,-17500.0,587.31791184810197,-494.93912580886024,-2404.2444583714428,-61.290559681082975,-580.52414693938874,-89.245125897721095,1643.496258951383,-885.14921855695184,426.48364239651966,-426.48364239651966,885.14921855695184,3023.3079734922972,0.0
347154.6038362722,4600833.5216966402,-17500.0,701.9424653467936,-261.6633608652055,-2360.6388407723571,-5.8861132838007082,-552.0281578535247,-79.254991268345194,1617.0819475285743,-661.98717579132983,323.45265004938472,-323.45265004938472,661.98717579132983,2952.4405733614963,0.0
352154.6038362722,4600833.5216966402,-17500.0,780.67138353748885,-16.563540057379676,-2236.5990557719074,48.96443088884341,-504.75023138895028,-66.235519464996685,1566.2542299917338,-418.97255297207721,211.20351572175116,-211.20351572175116,418.97255297207721,2835.1647271936804,0.0
357154.6038362722,4600833.5216966402,-17500.0,817.76391562537378,222.95387361866437,-2030.3827843969245,99.165844563462002,-439.43261144477117,-50.645321227798028,1491.5014362779896,-170.07251550300597,96.112577161257349,-96.112577161257349,170.07251550300597,2674.0694210808642,0.0
362154.6038362722,4600833.5216966402,-17500.0,812.24945742410819,438.00133184066698,-1748.4502356320706,140.61766754911937,-358.64694787253188,-33.227525045385448,1394.9849100110682,68.965369436753974,-14.630522266378957,14.630522266378957,-68.965369436753974,2475.4272321008239,0.0
367154.6038362722,4600833.5216966402,-17500.0,768.61208383773794,610.9767423584276,-1405.8839363769723,169.81836683932738,-266.73424888215709,-14.952746916832005,1280.5134369308239,282.70459219729423,-113.9512446247688,113.9512446247688,-282.70459219729423,2249.0847540068144,0.0
372154.6038362722,4600833.5216966402,-17500.0,696.36286568895798,728.51256560954971,-1025.1843260214814,184.45019636159387,-169.41356295796442,3.0826755944857789,1153.2750058199065,458.32032047880887,-195.91031844456231,195.91031844456231,-458.32032047880887,2007.7867806235718,0.0
377154.6038362722,4600833.5216966402,-17500.0,608.45183745860254,783.861792984815,-633.45902211430098,183.7997681968433,-73.094514931354098,19.787653502426359,1019.3529288675999,587.55526997205561,-256.57746857816778,256.57746857816778,-587.55526997205561,1765.9255596179582,0.0
382154.6038362722,4600833.5216966402,-17500.0,518.85271417193769,778.03677543275194,-258.52562164634577,168.89535286251174,15.981159839733763,34.211804554072714,885.13518577265995,667.81075984126539,-294.53586915102699,294.53586915102699,-667.81075984126539,1537.794306573265,0.0
387154.6038362722,4600833.5216966402,-17500.0,439.95686641748171,719.34839074322622,75.164774830121033,142.31321066397084,92.582298035494873,45.658209027033649,756.87001647688203,702.08490746282337,-310.89128705400367,310.89128705400367,-702.08490746282337,1335.5027467874077,0.0
392154.6038362722,4600833.5216966402,-17500.0,380.48752682443688,621.4830935303097,349.79347613772882,107.69901557824956,153.12566453863141,53.751539216920783,641.23865135707615,697.82186785955867,-308.80653720950284,308.80653720950284,-697.82186785955867,1166.8474738813964,0.0
397154.6038362722,4600833.5216966402,-17500.0,344.45211584925806,500.70358677514156,555.90609162193596,69.131510050410299,195.97799541186782,58.450901666595463,551.84519121714538,665.06366567977216,-292.71992432045158,292.71992432045158,-665.06366567977216,1033.7588881019378,0.0
402154.6038362722,4600833.5216966402,-17500.0,331.26844639163943,372.95489096276452,692.39691941037347,30.48741092868876,221.39211054449842,60.010258240921566,507.5263779602991,614.44665331165834,-267.47277020260049,267.47277020260049,-614.44665331165834,932.24016891192775,0.0
407154.6038362722,4600833.5216966402,-17500.0,336.82851556693112,251.57468668996685,765.04206516690988,-5.0526493209942203,231.14523911477619,58.901091800815678,480.61068779113987,555.53971839808241,-237.55908488478195,237.55908488478195,-555.53971839808241,854.31446613385799,0.0
412154.6038362722,4600833.5216966402,-17500.0,355.03518144893667,145.99315774312606,784.20664344253214,-35.280332481825255,228.01017547621967,55.718151538164534,453.71830504935804,495.81149080048181,-206.62823093874977,206.62823093874977,-495.81149080048181,791.12526680438839,0.0
417154.6038362722,4600833.5216966402,-17500.0,379.33032966670902,61.450845385558488,762.4035099693433,-59.012479760851242,215.20023959360535,51.088453492079275,424.55974847636958,440.2694716306487,-177.27183044533987,177.27183044533987,-440.2694716306487,735.48481766678526,0.0
422154.6038362722,4600833.5216966402,-17500.0,403.87393915424303,-0.50256497998782446,712.2238429732115,-75.970113269124113,195.89830759190272,45.598472518996132,393.52312055876973,391.63110782356068,-151.04757015962002,151.04757015962002,-391.63110782356068,682.90464316235852,0.0
427154.6038362722,4600833.5216966402,-17500.0,424.23216491173991,-41.077883266560612,644.90453619249877,-86.55805855626744,172.92792273591306,39.746583545600089,361.64042097208028,350.80545502174078,-128.65304439933499,128.65304439933499,-350.80545502174078,631.36524457544135,0.0
432154.6038362722,4600833.5216966402,-17500.0,437.60131637203722,-63.20856206461329,569.56476426757297,-91.616498287137233,148.57578707838684,33.920621575261535,330.14900470847329,317.47611472856096,-110.16219923161175,110.16219923161175,-317.47611472856096,580.54677676672941,0.0
437154.6038362722,4600833.5216966402,-17500.0,442.69186075026283,-70.63028842342365,492.99328437296714,-92.1962056039186,124.54139053585419,28.395820067051218,300.27564731312395,290.63804938409413,-95.258380394292274,95.258380394292274,-290.63804938409413,531.04531913320898,0.0
312154.6038362722,4605833.5216966402,-17500.0,-455.65152891005187,-1370.4299638690488,-1727.3763905650592,-327.07617077954694,-524.42705130669174,-106.49974706809789,1583.1436414321795,-1692.6460003145671,814.17681455571392,-814.17681455571392,1692.6460003145671,2993.9035740128502,0.0
317154.6038362722,4605833.5216966402,-17500.0,-306.54685145810441,-1367.9661704203352,-1956.4307471206428,-314.85040099724569,-575.14453072397237,-112.70321745521572,1675.0914655135789,-1705.6273805568021,820.77098826626332,-820.77098826626332,1705.6273805568021,3159.6316339980235,0.0
322154.6038362722,4605833.5216966402,-17500.0,-133.55325866072559,-1326.4995825813214,-2184.8358741852981,-292.50713260119767,-622.00466600214293,-117.15703946368026,1758.8241425138558,-1681.7052247454797,809.92102444303623,-809.92102444303623,1681.7052247454797,3307.2370029036042,0.0
327154.6038362722,4605833.5216966402,-17500.0,58.086626961230237,-1238.7642038467961,-2399.6266931455998,-259.0098498428319,-661.49692381644547,-119.17115974374373,1830.1201895066979,-1613.6984168013325,778.29480501724106,-778.29480501724106,1613.6984168013325,3428.3712414351862,0.0
332154.6038362722,4605833.5216966402,-17500.0,259.90165810545824,-1099.5842296624644,-2584.3365810439964,-214.03954585548132,-689.54238825926313,-118.04288680479937,1884.3719145823561,-1496.0375320346607,723.33404604850921,-723.33404604850921,1496.0375320346607,3514.0674786793466,0.0
337154.6038362722,4605833.5216966402,-17500.0,460.2582453730144,-907.46339933304273,-2719.7460705222206,-158.31286303934627,-701.78587980944837,-113.13975965124348,1916.8900742983892,-1326.0946933878677,643.86512011959121,-643.86512011959121,1326.0946933878677,3555.4146319484903,0.0
342154.6038362722,4605833.5216966402,-17500.0,645.08973954192686,-666.19760311340303,-2785.5249645758022,-93.849380690120427,-694.07037701521301,-104.00434261580737,1923.3374297357241,-1105.5563772387943,540.72100125435372,-540.72100125435372,1105.5563772387943,3544.501085020941,0.0
347154.6038362722,4605833.5216966402,-17500.0,799.43059148317423,-386.10542751256457,-2762.8528590154301,-24.098480813348115,-663.07797932614676,-90.467571191922843,1900.274037035244,-841.52558550496815,417.23156031724056,-417.23156031724056,841.52558550496815,3475.5868940224173,0.0
352154.6038362722,4605833.5216966402,-17500.0,909.70105401404362,-84.354014133225448,-2637.8187958505537,46.16995738850752,-607.05895064644994,-72.747827373304474,1845.7488626903646,-546.94221205763665,279.39958883128816,-279.39958883128816,546.94221205763665,3346.363621037101,0.0
357154.6038362722,4605833.5216966402,-17500.0,966.40087424758929,216.1074912362439,-2405.0484975960735,111.27931810687896,-526.50870053170547,-51.508389274190556,1759.842224667723,-239.93427768540198,135.59541368399715,-135.59541368399715,239.93427768540198,3159.0934501849038,0.0
362154.6038362722,4605833.5216966402,-17500.0,966.56343911115266,489.24066540916954,-2070.6407962999851,165.36527921000757,-424.60146672191729,-27.847792678607721,1645.0239178993795,58.105303350439144,-4.3136655406794269,4.3136655406794269,-58.105303350439144,2921.3351040198313,0.0
367154.6038362722,4605833.5216966402,-17500.0,915.16102613813825,709.98202932227764,-1653.3645329593076,203.30208416083977,-307.19581058695184,-3.2097247869820711,1506.2045804254149,325.55460972701536,-130.32204277324018,130.32204277324018,-325.55460972701536,2645.9773418707905,0.0
372154.6038362722,4605833.5216966402,-17500.0,824.77974009080583,858.84370523825612,-1183.3020511621241,221.63926146510588,-182.30115085099521,20.781311262679669,1350.4027483579548,544.11299430154827,-233.86975813876327,233.86975813876327,-544.11299430154827,2350.3663319468442,0.0
377154.6038362722,4605833.5216966402,-17500.0,713.36309798906132,925.79987422183092,-697.80429391695759,219.29945807304691,-59.038219392609896,42.531276580933707,1186.0558546904188,701.9436891130083,-309.25393170452236,309.25393170452236,-701.9436891130083,2054.4591164285866,0.0
382154.6038362722,4605833.5216966402,-17500.0,600.51012626432987,912.23002952949741,-235.53346861880007,197.82086105233833,53.707027219160388,60.691799686922224,1022.162296360666,795.48083518395424,-354.46922729434027,354.46922729434027,-795.48083518395424,1778.0901433181489,0.0
387154.6038362722,4605833.5216966402,-17500.0,503.40151348226709,830.24656250010389,169.87851198999681,161.05058995302952,148.61608111189813,74.333135897163601,867.77458624045994,829.35981223353986,-371.24015936627791,371.24015936627791,-829.35981223353986,1537.6063384130121,0.0
392154.6038362722,4605833.5216966402,-17500.0,433.5923463998954,699.62211662970526,494.83493748134697,114.3665919821352,220.92489365382136,83.038840987416961,733.85450327686772,814.56506599497129,-364.27255266833845,364.27255266833845,-814.56506599497129,1342.4541393762615,0.0
397154.6038362722,4605833.5216966402,-17500.0,395.55270508288328,543.34675795319288,728.21089049815191,63.652912696282534,268.8416005130552,86.907116718151741,642.8881710692574,765.48407608590469,-340.0015008659343,340.0015008659343,-765.48407608590469,1193.0032042793478,0.0
402154.6038362722,4605833.5216966402,-17500.0,387.13438796249972,383.18814489611884,870.92895862856892,14.309874712052185,293.35683996646134,86.467678592574686,598.94865851965676,696.82090038249987,-305.23295110968741,305.23295110968741,-696.82090038249987,1081.2987864958711,0.0
407154.6038362722,4605833.5216966402,-17500.0,401.47074135191019,236.40801706939951,933.30156838223763,-29.467097408591471,297.58713047097802,82.542887099793887,565.87242075603831,621.19193434208978,-266.03497197452373,266.03497197452373,-621.19193434208978,995.04781344742617,0.0
412154.6038362722,4605833.5216966402,-17500.0,429.46140358166792,114.17816249218011,931.28281368400008,-65.028630731323616,285.89253693598107,76.090140229431753,531.30000817632867,547.81430176182903,-227.07369900283683,227.07369900283683,-547.81430176182903,922.51016141126001,0.0
417154.6038362722,4605833.5216966402,-17500.0,462.04382161295808,21.602598983330587,882.77057878932033,-91.251263521066733,263.01219508031528,68.059983044884731,493.86918099249186,482.2630694699227,-191.41003879890044,191.41003879890044,-482.2630694699227,855.51180731278441,0.0
422154.6038362722,4605833.5216966402,-17500.0,491.76193651410188,-41.163374585751015,804.73019578394178,-108.26403881181224,233.38701238246637,59.29209062041555,454.46566224032387,426.98347126849387,-160.64464164322678,160.64464164322678,-426.98347126849387,789.92639083751521,0.0
427154.6038362722,4605833.5216966402,-17500.0,513.50717810533092,-77.315714818087343,711.4363787917539,-117.05802746469304,200.73971627313949,50.456794701051408,414.60445798116478,382.16254506849111,-135.25214248753275,135.25214248753275,-382.16254506849111,724.68822540696669,0.0
432154.6038362722,4605833.5216966402,-17500.0,524.57053537132458,-91.827562779507758,613.75275084952307,-119.09427391207159,167.89918360818356,42.037602594876752,375.93083110981769,346.63418446298903,-114.96364000119128,114.96364000119128,-346.63418446298903,660.48656641942659,0.0
437154.6038362722,4605833.5216966402,-17500.0,524.25976584648674,-90.191593039105129,519.1701934151173,-115.98193467732135,136.80868674739389,34.343531911569528,339.87834935908364,318.62394915230163,-99.105272942459507,99.105272942459507,-318.62394915230163,598.71462655467872,0.0
442154.6038362722,4605833.5216966402,-17500.0,513.33009100426818,-77.57694544751115,432.28420608248052,-109.25456614768103,108.64470288499118,27.538343813963106,307.33711795870676,296.26340154102883,-86.851267035228503,86.851267035228503,-296.26340154102883,540.80114415964579,0.0
447154.6038362722,4605833.5216966402,-17500.0,493.40995334406023,-58.369341295840513,355.44801634593284,-100.24119334539104,83.983249111578246,21.675929548991242,278.48306251438771,277.88669092360101,-77.386923143633709,77.386923143633709,-277.88669092360101,487.86323342648103,0.0
307154.6038362722,4610833.5216966402,-17500.0,-768.43357095369845,-1533.1748711577866,-1559.5469029600499,-400.6507387437257,-524.47403727079814,-115.04582589968305,1661.5060632289401,-1872.3745079354048,915.5682045576649,-915.5682045576649,1872.3745079354048,3150.9264118473029,0.0
312154.6038362722,4610833.5216966402,-17500.0,-639.01844154047785,-1591.6474494663505,-1818.9493054019795,-402.32744995588507,-589.02808347372843,-124.32700501269554,1783.0725918711757,-1945.6970174269134,951.44245764142693,-951.44245764142693,1945.6970174269134,3375.0457211950124,0.0
317154.6038362722,4610833.5216966402,-17500.0,-474.42653397135552,-1616.9568220931385,-2096.4488001180598,-393.70122282769734,-653.97782879434283,-132.26217193077616,1901.5790472842666,-1987.9478094029275,972.31184993015154,-972.31184993015154,1987.9478094029275,3590.924943550116,0.0
322154.6038362722,4610833.5216966402,-17500.0,-275.71156473076121,-1597.934026048338,-2382.2760682564444,-372.53300608532896,-715.96155466769176,-137.99802309980694,2012.5761702046768,-1988.6201592006864,973.18638201488341,-973.18638201488341,1988.6201592006864,3789.591838903249,0.0
327154.6038362722,4610833.5216966402,-17500.0,-47.574488531754945,-1523.5162003040482,-2661.7028693380339,-336.97375212598837,-770.5503932688473,-140.55936490577582,2110.7035448886359,-1937.1156156787788,949.07172928851151,-949.07172928851151,1937.1156156787788,3960.3587547832881,0.0
332154.6038362722,4610833.5216966402,-17500.0,200.784459682499,-1384.4394703153703,-2914.6533126595859,-285.997585283121,-812.33810519328642,-138.92517407299022,2189.855978768258,-1824.1344872440775,895.63054676506204,-895.63054676506204,1824.1344872440775,4091.2213717523828,0.0
337154.6038362722,4610833.5216966402,-17500.0,455.31149757712029,-1175.5039240986589,-3116.1670512796877,-219.90006923472313,-835.26121500160627,-132.15034028901022,2243.5326762922123,-1643.5465064684797,810.05710055332042,-810.05710055332042,1643.5465064684797,4169.6454913580737,0.0
342154.6038362722,4610833.5216966402,-17500.0,697.64041983392553,-898.15030779589802,-3238.1512126595831,-140.7726626755408,-833.20925605397588,-119.52807917633621,2265.3992613040136,-1394.5449947849177,692.06754550789833,-692.06754550789833,1394.5449947849177,4183.8022104794445,0.0
347154.6038362722,4610833.5216966402,-17500.0,906.87757492214314,-562.79124070729506,-3252.7296710908913,-52.814325963202492,-800.93348767239775,-100.77263710994714,2250.0572559188759,-1083.6570325012435,544.80597229439934,-544.80597229439934,1083.6570325012435,4124.2351561754849,0.0
352154.6038362722,4610833.5216966402,-17500.0,1062.7310055499786,-190.05794962716087,-3137.1189051688912,37.68762337644381,-735.1672240955395,-76.184562446465918,2193.9496175763934,-725.95807417268657,375.37211660407161,-375.37211660407161,725.95807417268657,3985.8039568816612,0.0
357154.6038362722,4610833.5216966402,-17500.0,1149.6192978340621,189.96563474806092,-2879.3552506776614,122.85233139577267,-635.75436308745236,-46.750163526368951,2096.2628621789313,-344.76264829093225,194.65249574314726,-194.65249574314726,344.76264829093225,3769.5999036888888,0.0
362154.6038362722,4610833.5216966402,-17500.0,1160.8118239481903,541.16456860436688,-2483.4840772047232,194.22448636478151,-506.47531756660834,-14.129571017438989,1959.6141077949894,30.738784032030054,16.233622377531361,-16.233622377531361,-30.738784032030054,3484.3714287023718,0.0
367154.6038362722,4610833.5216966402,-17500.0,1101.2124769644015,827.34272796038067,-1972.3621941676349,244.19786424397952,-355.22939104120218,19.490965516168007,1790.290034654312,369.85808545410418,-145.5717371614262,145.5717371614262,-369.85808545410418,3146.9318976675595,0.0
372154.6038362722,4610833.5216966402,-17500.0,987.45730284734134,1019.4954769495305,-1386.4368083259985,267.53462024909464,-193.33591616013672,51.670781014870165,1597.876040541219,645.95573752056828,-278.20850129972712,278.20850129972712,-645.95573752056828,2781.1122384943169,0.0
377154.6038362722,4610833.5216966402,-17500.0,844.73953584902392,1102.2883799632846,-777.93366341888327,262.54763962888478,-33.955035532151769,80.060449557293794,1394.2818897117766,841.60935464674549,-373.20601420555067,373.20601420555067,-841.60935464674549,2415.0258378767608,0.0
382154.6038362722,4610833.5216966402,-17500.0,701.03894448458857,1077.4833340182411,-201.5798495707331,231.544365674712,110.05719256035307,102.74556364908734,1192.4945784094157,951.71041358143816,-427.62116670660225,427.62116670660225,-951.71041358143816,2076.7118117407485,0.0
387154.6038362722,4610833.5216966402,-17500.0,580.59707410597434,962.9779849422124,295.51260173247431,180.34127555035948,228.30269513918367,118.51021488959866,1006.1111856325886,983.42934276739334,-444.13478542010648,444.13478542010648,-983.42934276739334,1788.5689029705934,0.0
392154.6038362722,4610833.5216966402,-17500.0,498.8636842508709,787.78768400389367,681.71485769669914,116.97776724082313,314.40546691105033,126.96297445753115,853.45060429679245,953.17571183972518,-429.82820603352087,429.82820603352087,-953.17571183972518,1561.787201550718,0.0
397154.6038362722,4610833.5216966402,-17500.0,460.46395412234097,584.83774868677256,944.33162791482721,50.036101761049508,366.58968038465935,128.50572069915972,761.98607966192981,881.80130844259702,-394.13845270470938,394.13845270470938,-881.80130844259702,1393.4591652719764,0.0
402154.6038362722,4610833.5216966402,-17500.0,460.3938738071123,384.04149663960055,1088.2631419344834,-12.923442471478355,387.22874175152538,124.16729325146399,713.30368188964326,789.76838926920334,-346.70871602734803,346.70871602734803,-789.76838926920334,1269.3216389963145,0.0
407154.6038362722,4610833.5216966402,-17500.0,487.41227566567898,207.59652782402424,1131.1959706488531,-66.414458446125636,381.65311873243479,115.35608029997894,671.02776743711672,693.66355335559717,-295.73909646258164,295.73909646258164,-693.66355335559717,1171.2838578715791,0.0
412154.6038362722,4610833.5216966402,-17500.0,528.06669210794519,68.228403043534172,1097.4542431044467,-107.40720416359717,356.67271502325718,103.59853586322862,625.85731049265655,604.62758125473886,-247.12685054199292,247.12685054199292,-604.62758125473886,1084.5657321003098,0.0
417154.6038362722,4610833.5216966402,-17500.0,570.02899713768397,-30.048261729333596,1012.4258853650472,-135.12830533636105,319.23329891426869,90.320510845844382,577.22211567902593,528.47244634622371,-204.35125959694568,204.35125959694568,-528.47244634622371,1000.6368713677233,0.0
422154.6038362722,4610833.5216966402,-17500.0,604.08218287486125,-89.69301181535586,898.66622728105017,-150.50320663581147,275.4622192269548,76.703782113320301,526.69395757623147,466.83020380886614,-168.85951734852213,168.85951734852213,-466.83020380886614,916.5104780798423,0.0
427154.6038362722,4610833.5216966402,-17500.0,624.75166199551654,-116.99777150168956,773.90895435636378,-155.48654242442126,230.16933711329173,63.622930127418833,476.45014959668634,418.64368646169862,-140.66806565876547,140.66806565876547,-418.64368646169862,832.66871886696038,0.0
432154.6038362722,4610833.5216966402,-17500.0,629.96070789187172,-119.78143396558744,650.63166146112064,-152.46102931047687,186.73181667852802,51.647273217598837,428.61192754671515,381.51478788764553,-118.95954700537496,118.95954700537496,-381.51478788764553,751.13926367007241,0.0
437154.6038362722,4610833.5216966402,-17500.0,620.18723311186488,-105.75574196381184,536.60408850095905,-143.79555929864082,147.2319969011424,41.083966094055342,384.75627868158381,352.6854663231926,-102.55618313731179,102.55618313731179,-352.6854663231926,674.21032775642038,0.0
442154.6038362722,4610833.5216966402,-17500.0,597.50942687794361,-81.586402263895195,435.88688294501588,-131.57793325531912,112.71889457777817,32.039213812931095,345.60011088396521,329.62395268592695,-90.235557486777594,90.235557486777594,-329.62395268592695,603.74630637719895,0.0
447154.6038362722,4610833.5216966402,-17500.0,564.77530266504459,-52.508300713044861,349.90616420191293,-117.49394741828533,83.497296938872879,24.48069921908921,311.04718308541737,310.2937532204478,-80.906284536288794,80.906284536288794,-310.2937532204478,540.92107832603506,0.0
452154.6038362722,4610833.5216966402,-17500.0,524.992201182386,-22.306482583768414,278.39545574843351,-102.80811056101443,59.387369715288081,18.291402033971355,280.55946050324695,293.21239867473042,-73.681291047069024,73.681291047069024,-293.21239867473042,486.19618064083528,0.0
302154.6038362722,4615833.5216966402,-17500.0,-1095.1042787296496,-1620.4896090027387,-1320.9280732060274,-465.55365761268382,-503.08792513749324,-120.57743289830935,1706.1301390807587,-1980.6322683256246,985.73872841386333,-985.73872841386333,1980.6322683256246,3241.6420274001644,0.0
307154.6038362722,4615833.5216966402,-17500.0,-1006.4839849860626,-1739.8088639802647,-1587.127140783673,-484.03873813634948,-577.67687826781253,-132.88810564644237,1855.188646315145,-2114.6568996739184,1052.1625968281191,-1052.1625968281191,2114.6568996739184,3520.2813211025959,0.0
312154.6038362722,4615833.5216966402,-17500.0,-876.2366341727211,-1838.3990084641596,-1888.3003353947663,-493.77811440686469,-657.45802429708124,-144.50313783444585,2007.8100599797569,-2229.3655330601227,1108.9841092825277,-1108.9841092825277,2229.3655330601227,3803.6303893139311,0.0
317154.6038362722,4615833.5216966402,-17500.0,-700.1190819964595,-1903.5309656600289,-2220.3364140203198,-491.5973288688491,-739.92954237105391,-154.49405453516954,2160.0707387687039,-2312.9617597473471,1150.4577334408095,-1150.4577334408095,2312.9617597473471,4083.6279735871653,0.0
322154.6038362722,4615833.5216966402,-17500.0,-476.70320511647355,-1920.2628704394565,-2574.0871705339709,-474.18037182430209,-821.21890669061077,-161.68394189903358,2306.7112128347735,-2351.5862269920094,1169.8884018320805,-1169.8884018320805,2351.5862269920094,4349.5912467739054,0.0
327154.6038362722,4615833.5216966402,-17500.0,-208.96444773869595,-1872.5138688447926,-2933.8177578465784,-438.47603858609125,-895.88385897909427,-164.68643345519581,2441.0690609743515,-2330.1792893794936,1160.069752831967,-1160.069752831967,2330.1792893794936,4588.1335138124205,0.0
332154.6038362722,4615833.5216966402,-17500.0,94.120417372234357,-1745.0722870578738,-3275.9979608490257,-382.29217341224324,-956.89357571810183,-162.00852700392142,2555.1785778634348,-2234.1072631678098,1114.0803114813998,-1114.0803114813998,2234.1072631678098,4783.4427749494544,0.0
337154.6038362722,4615833.5216966402,-17500.0,416.42205623374753,-1526.6549102978008,-3569.0434546173424,-305.04717413337482,-995.9220143503079,-152.23072192576456,2640.1237437992904,-2051.6546909350923,1026.4732844573277,-1026.4732844573277,2051.6546909350923,4918.1016909006494,0.0
342154.6038362722,4615833.5216966402,-17500.0,734.60732776531825,-1213.8340945537575,-3774.7880853887027,-208.57056863483359,-1004.0823977654587,-134.26175697604816,2686.7217167531107,-1777.2546879692645,894.78454602911506,-894.78454602911506,1777.2546879692645,4974.6090571362993,0.0
347154.6038362722,4615833.5216966402,-17500.0,1019.9062310372761,-815.15607772807198,-3852.4343369911298,-97.749121077242918,-973.17201698674921,-107.63708624113384,2686.5702218684673,-1414.9480265023274,721.10996385632757,-721.10996385632757,1414.9480265023274,4937.6690639747212,0.0
352154.6038362722,4615833.5216966402,-17500.0,1242.1709040438548,-354.18847068408974,-3765.3027248140179,19.262712470007322,-897.36193027119316,-72.797078158029251,2633.4086920286354,-981.10708632793103,513.30834693703946,-513.30834693703946,981.10708632793103,4797.1348032473079,0.0
357154.6038362722,4615833.5216966402,-17500.0,1376.0131047855252,130.18424336950736,-3489.7401624553313,131.5561690807441,-775.05800808836341,-31.257815166378435,2524.6079470067675,-505.12017827149111,285.25319064486689,-285.25319064486689,505.12017827149111,4551.2023531588547,0.0
362154.6038362722,4615833.5216966402,-17500.0,1407.7385654418581,587.71992135848518,-3024.1975382433211,226.86939701175257,-610.44180893284204,14.409154458798131,2362.4622654857681,-26.83387154224031,55.625431087494711,-55.625431087494711,26.83387154224031,4209.1386824221227,0.0
367154.6038362722,4615833.5216966402,-17500.0,1340.7554057457273,965.40956703700169,-2395.2865722681081,293.76647550493533,-414.07455091561565,60.831209317104125,2154.8593437825712,409.63831140936804,-154.89405401601607,154.89405401601607,-409.63831140936804,3792.5824193379667,0.0
372154.6038362722,4615833.5216966402,-17500.0,1196.8623688591783,1219.1013612166648,-1657.5225445507504,324.12591737182765,-202.06020603134337,104.29591458599117,1914.9784193590231,764.66310446738623,-327.54374529571908,327.54374529571908,-764.66310446738623,3334.500215206439,0.0
377154.6038362722,4615833.5216966402,-17500.0,1011.9052385065406,1324.5717519370091,-885.07992404979962,315.18787928323394,6.3464043685462164,141.32273582590182,1659.9425392678727,1011.8032049836345,-449.39852264242455,449.39852264242455,-1011.8032049836345,2875.1706935312736,0.0
382154.6038362722,4615833.5216966402,-17500.0,826.62627678497108,1283.7820667731596,-157.06069939651243,270.39987866791068,192.20974800938347,169.20986908601967,1408.9853098416766,1143.326111386617,-515.93182293934694,515.93182293934694,-1143.326111386617,2455.1202968051957,0.0
387154.6038362722,4615833.5216966402,-17500.0,675.92711703286091,1123.5781446540323,459.11367627443741,198.65782294864223,340.47994351242619,186.42715743214839,1183.1220151029197,1170.3496917329157,-531.2860724253369,531.2860724253369,-1170.3496917329157,2105.6937614814306,0.0
392154.6038362722,4615833.5216966402,-17500.0,580.67669687388968,887.29144617267286,920.44632855642544,112.14582469659391,442.54476607016613,192.76964261833817,1011.0563525922867,1117.7416177749901,-506.2417613374422,506.2417613374422,-1117.7416177749901,1839.7935540649348,0.0
397154.6038362722,4615833.5216966402,-17500.0,544.89682920904659,622.75213322673346,1213.2741780058859,23.527261958923923,497.03370598284346,189.25083133182773,915.27794299981213,1016.1169320707641,-454.80605071884048,454.80605071884048,-1016.1169320707641,1648.3831030717552,0.0
402154.6038362722,4615833.5216966402,-17500.0,558.48251874021832,371.30405799268266,1349.9498015625031,-56.570304626949472,508.83522783982761,177.78229882470026,856.47946963966228,894.1306056778061,-390.74658225141695,390.74658225141695,-894.1306056778061,1507.5163221878834,0.0
407154.6038362722,4615833.5216966402,-17500.0,603.2880951463045,161.13010057158911,1360.1093200050552,-121.08146378298251,486.9270385161056,160.73951297838587,800.86035222937312,773.44589031027385,-325.13021612341635,325.13021612341635,-773.44589031027385,1391.6617717864058,0.0
412154.6038362722,4615833.5216966402,-17500.0,659.64755254242129,5.7198845123038762,1280.5449939638493,-166.84116799412004,441.8864530253216,140.53081785173231,740.87996821929835,667.07339054605734,-265.26911710509171,265.26911710509171,-667.07339054605734,1283.2424006084836,0.0
417154.6038362722,4615833.5216966402,-17500.0,711.16681754121339,-93.764423171654386,1146.8937273909005,-193.9857117791725,383.81325837704799,119.26575113412834,676.89692252065379,580.34694118121342,-214.86824189637943,214.86824189637943,-580.34694118121342,1174.4430838413887,0.0
422154.6038362722,4615833.5216966402,-17500.0,747.01669875123184,-144.30162880277678,988.59065314941631,-204.87974886766025,321.0310090832092,98.567965643400242,611.4989657183055,513.2092394828021,-174.86495424456362,174.86495424456362,-513.2092394828021,1064.4579844628256,0.0
427154.6038362722,4615833.5216966402,-17500.0,762.08469799671445,-156.79849250032115,826.97432883377485,-203.00102946549282,259.57451604835524,79.526572466020653,547.76171387077966,462.64273297844989,-144.45998608399898,144.45998608399898,-462.64273297844989,955.98616490885991,0.0
432154.6038362722,4615833.5216966402,-17500.0,755.84529455885126,-142.86240689981543,675.60995872422575,-192.0513399797764,203.2596395678658,62.74744481979657,488.31694325514621,424.58159945174918,-122.01428028533189,122.01428028533189,-424.58159945174918,852.66347195174899,0.0
437154.6038362722,4615833.5216966402,-17500.0,730.78038845708545,-112.83409340659942,541.75861770799884,-175.38612026626939,154.07417925979155,48.45657713297738,434.76046996606368,395.11075909523652,-105.67853628388102,105.67853628388102,-395.11075909523652,757.63644835157879,0.0
442154.6038362722,4615833.5216966402,-17500.0,690.90450613730877,-74.902736044695828,428.1676573270779,-155.73531685520246,112.67428091386697,36.61578276421394,387.50458726916941,371.04437172938788,-93.756349045942017,93.756349045942017,-371.04437172938788,672.97610280907816,0.0
447154.6038362722,4615833.5216966402,-17500.0,640.65242505085916,-34.959604101610516,334.70092653612738,-135.13518464428384,78.851076251502889,27.026235266663221,346.11838952986267,350.08136994414724,-84.864054400004022,84.864054400004022,-350.08136994414724,599.5891266205042,0.0
452154.6038362722,4615833.5216966402,-17500.0,584.17326175470566,3.1411954516168676,259.60797309222806,-114.98496300243119,51.904589405869203,19.408738916168094,309.84102998863699,330.7276067969089,-77.961998255642399,77.961998255642399,-330.7276067969089,537.37800304903169,0.0
297154.6038362722,4620833.5216966402,-17500.0,-1403.745035444671,-1620.3850161773919,-1036.5698731985815,-515.48936336672682,-461.90414959810249,-122.56489096752233,1713.5285192856973,-2004.8446151414785,1016.9235748666858,-1016.9235748666858,2004.8446151414785,3258.8371573914551,0.0
302154.6038362722,4620833.5216966402,-17500.0,-1372.9325764488485,-1790.522947778956,-1285.0947340444291,-551.64546811656726,-541.21298855896146,-137.51593334106883,1885.2385060739784,-2190.9839026362174,1110.8552776359697,-1110.8552776359697,2190.9839026362174,3582.602877829107,0.0
307154.6038362722,4620833.5216966402,-17500.0,-1301.2160971491296,-1956.5227667491679,-1579.8794713498812,-582.28792435325317,-630.15897737730768,-152.59694842364306,2067.8058307630458,-2373.4322654224547,1202.7291446037407,-1202.7291446037407,2373.4322654224547,3925.4910538516328,0.0
312154.6038362722,4620833.5216966402,-17500.0,-1179.5984996369889,-2107.1709639257797,-1923.3687908074214,-603.89842944819009,-727.66066956016505,-166.92428233275666,2258.6004383230061,-2541.7830906552367,1287.3190507730174,-1287.3190507730174,2541.7830906552367,4281.9340042632093,0.0
317154.6038362722,4620833.5216966402,-17500.0,-999.97138358626091,-2227.3267109412791,-2314.4323689337925,-612.24755765374903,-831.29861412344121,-179.25221512844746,2453.4930837252282,-2682.1087491329913,1357.7005717747747,-1357.7005717747747,2682.1087491329913,4643.3670075976806,0.0
322154.6038362722,4620833.5216966402,-17500.0,-756.81013594826641,-2297.866955208332,-2746.2191138246626,-602.61190405462537,-936.85642852516094,-187.94626197807929,2646.5338311575592,-2776.879262916158,1405.2511405036385,-1405.2511405036385,2776.879262916158,4997.6152254526805,0.0
327154.6038362722,4620833.5216966402,-17500.0,-449.45637529266554,-2296.4643568859792,-3203.6180348131784,-570.23701746915742,-1037.9000694555766,-191.01988345910868,2829.7069118086638,-2805.55401391838,1419.9866237415995,-1419.9866237415995,2805.55401391838,5328.4554800110873,0.0
332154.6038362722,4620833.5216966402,-17500.0,-84.783448837944803,-2199.6725236278371,-3660.73038929413,-511.10722117652404,-1125.5385400872742,-186.27156052634572,2992.8662041538564,-2746.2288780962222,1391.4064967263671,-1391.4064967263671,2746.2288780962222,5615.5730499369974,0.0
337154.6038362722,4620833.5216966402,-17500.0,320.29773393265867,-1986.7405171637852,-4079.1600009504014,-423.0271054449712,-1188.573544972154,-171.55393357520634,3123.9912881841883,-2578.6868052171158,1309.9906052582021,-1309.9906052582021,2578.6868052171158,5835.2083475817071,0.0
342154.6038362722,4620833.5216966402,-17500.0,737.46014893337122,-1645.254492273963,-4408.3722307918943,-306.90669313078894,-1214.2800353964112,-145.17926748384565,3209.9198066804233,-2288.9573964402935,1169.3647996751124,-1169.3647996751124,2288.9573964402935,5961.8217796254303,0.0
347154.6038362722,4620833.5216966402,-17500.0,1128.0184397588437,-1177.9889525668232,-4589.6491006209872,-167.97884731036109,-1190.0183665089153,-106.41612370798963,3237.6897984224752,-1874.9513129479203,968.89814626287057,-968.89814626287057,1874.9513129479203,5971.0568657451804,0.0
352154.6038362722,4620833.5216966402,-17500.0,1447.6728569036093,-609.24682933108022,-4564.855237351554,-16.50293428517849,-1105.700664016219,-55.964380501235787,3196.5135950038734,-1351.8835686829857,716.12113688531315,-716.12113688531315,1351.8835686829857,5844.0432840064541,0.0
357154.6038362722,4620833.5216966402,-17500.0,1655.3284335724175,12.16023575357362,-4289.9276394401231,132.58078572274331,-956.80366282967975,3.7540262695299633,3080.2019701214999,-755.31147108520645,427.99353269563017,-427.99353269563017,755.31147108520645,5572.6413286109646,0.0
362154.6038362722,4620833.5216966402,-17500.0,1724.5506999472736,616.50647814210004,-3750.5615811837479,261.46383169828351,-747.18957468033193,68.646515838247481,2889.5600810020683,-139.25987031081823,129.94731352881487,-129.94731352881487,139.25987031081823,5164.5734890032754,0.0
367154.6038362722,4620833.5216966402,-17500.0,1653.940153987576,1125.142556211089,-2974.7818056058163,352.7514659145711,-490.65451042902782,133.41530645163004,2634.0127996386741,432.13849269762716,-147.91682546427276,147.91682546427276,-432.13849269762716,4646.7558242949053,0.0
372154.6038362722,4620833.5216966402,-17500.0,1471.3985691877958,1469.2004809038044,-2035.7937189478921,393.5576272981744,-210.15082848710415,192.36454874083856,2331.6930335381321,898.49531122372196,-377.00560696869496,377.00560696869496,-898.49531122372196,4064.8875271111069,0.0
377154.6038362722,4620833.5216966402,-17500.0,1228.5840589183556,1609.0090724149629,-1040.7019574222168,379.12699460677584,65.771041426438003,240.35015409651149,2007.6660792180062,1218.2538685215188,-536.96678175718785,536.96678175718785,-1218.2538685215188,3477.7291157654986,0.0
382154.6038362722,4620833.5216966402,-17500.0,986.16682191091184,1545.9740851175854,-106.6417845703461,314.5212167108379,308.64947785921936,273.62917461167075,1691.1385302132335,1378.9099741247198,-620.41541253512946,620.41541253512946,-1378.9099741247198,2945.4957442178211,0.0
387154.6038362722,4620833.5216966402,-17500.0,795.60501302762111,1321.039111113628,667.40633995773965,213.4790333143753,496.18323141401908,290.41407851759396,1414.9261210411114,1397.771138109385,-633.67533739837177,633.67533739837177,-1397.771138109385,2513.4904539934932,1.0
392154.6038362722,4620833.5216966402,-17500.0,685.41438396728188,1000.2307775388661,1222.0022834798397,94.73456210408149,616.55544720429373,291.02640568532439,1219.0356295674887,1313.1791740762201,-593.35971463988483,593.35971463988483,-1313.1791740762201,2196.3203007273278,0.0
397154.6038362722,4620833.5216966402,-17500.0,657.33583248136665,654.13588003662721,1544.225201162642,-22.787534989690016,669.57673982986148,277.63815267309712,1110.9846949983878,1170.7618393294235,-520.53552350973837,520.53552350973837,-1170.7618393294235,1974.2672086971172,0.0
402154.6038362722,4620833.5216966402,-17500.0,692.24833119245397,340.14548112117484,1660.104381351241,-124.0950270949179,664.63325008871595,253.68319143061916,1035.5491668124591,1010.8890642520184,-435.01556917197314,435.01556917197314,-1010.8890642520184,1808.8837118929212,0.0
407154.6038362722,4620833.5216966402,-17500.0,761.16703403687711,93.19788991951836,1618.6162542327081,-200.32125837932125,616.70146585001089,223.10777907769656,960.60080931646473,861.49923174734897,-351.67499799650989,351.67499799650989,-861.49923174734897,1665.3800975520871,0.0
412154.6038362722,4620833.5216966402,-17500.0,835.76470473568588,-74.444194365541534,1474.9740418808701,-248.78296859796794,542.12719579290729,189.66606840100351,879.74622739532992,736.90317040824948,-279.30523228052738,279.30523228052738,-736.90317040824948,1524.1504865010286,0.0
417154.6038362722,4620833.5216966402,-17500.0,894.98486109368173,-167.55462775868673,1278.4914376631093,-271.54829007712891,455.44599565987477,156.42484456498096,794.70705539654159,640.60382130280186,-221.38726297808836,221.38726297808836,-640.60382130280186,1379.6822322861879,0.0
422154.6038362722,4620833.5216966402,-17500.0,927.17279395413618,-200.47109442222293,1066.5694697777262,-273.44915186957155,367.71783051792079,125.53973793947166,709.58704148571042,569.5272411016108,-177.75103253252018,177.75103253252018,-569.5272411016108,1234.6377916937181,0.0
427154.6038362722,4620833.5216966402,-17500.0,929.0030486072036,-190.65268882995298,863.69142820676905,-260.28083839518087,286.18841758144947,98.267345484751033,628.59472726653246,517.79803367836098,-146.27092404354778,146.27092404354778,-517.79803367836098,1094.5893477286145,0.0
432154.6038362722,4620833.5216966402,-17500.0,902.94482191643874,-154.44837804121315,683.34097123684535,-237.55063535774619,214.78651676955505,75.124245257191532,554.77693243871101,479.27427200512756,-124.15258870471285,124.15258870471285,-479.27427200512756,964.86980103061933,0.0
437154.6038362722,4620833.5216966402,-17500.0,854.59957520386695,-105.02358907782468,530.99050924511607,-209.81376849258314,154.9691842502356,56.100881346042918,489.48823359065398,448.84234898010516,-108.71204475830237,108.71204475830237,-448.84234898010516,849.189751770371,1.0
442154.6038362722,4620833.5216966402,-17500.0,790.60471525441392,-51.835969549503091,406.99956014969661,-180.46309654926253,106.58074953071556,40.865783654166876,432.62467254845592,422.82360878483803,-97.737948720621404,97.737948720621404,-422.82360878483803,749.33151596131336,0.0
447154.6038362722,4620833.5216966402,-17500.0,717.28670137087147,-0.98559350933816126,308.90382037323423,-151.79599645370385,68.557407153413081,28.927590375177321,383.30202336345684,398.8831959017142,-89.582880362069716,89.582880362069716,-398.8831959017142,665.37967229389471,0.0
452154.6038362722,4620833.5216966402,-17500.0,639.96695015797468,44.075336035088739,232.99457897987159,-125.21050052625083,39.430374121504904,19.747273201408181,340.45029826628132,375.73413326009472,-83.112008753316758,83.112008753316758,-375.73413326009472,596.16429218807707,0.0
457154.6038362722,4620833.5216966402,-17500.0,562.7281642227108,81.78561302323925,175.29093794789131,-101.43344963903955,17.646295607214753,12.806491495520245,303.09851680709664,352.80996862477684,-77.596709074230461,77.596709074230461,-352.80996862477684,539.74845228543677,0.0
292154.6038362722,4625833.5216966402,-17500.0,-1663.1401113858658,-1534.0306674468595,-737.13001304352758,-545.93476787204099,-405.13966412663893,-120.86330373377652,1683.6320994116354,-1943.9607064252868,1006.5166759443009,-1006.5166759443009,1943.9607064252868,3202.2254099284287,0.0
297154.6038362722,4625833.5216966402,-17500.0,-1698.8911382313272,-1736.9890137418074,-947.74182771203039,-598.27451043541714,-483.31839692618496,-137.76391887617029,1871.0094426942674,-2166.1734434908408,1121.0158350937904,-1121.0158350937904,2166.1734434908408,3557.3422012458909,0.0
302154.6038362722,4625833.5216966402,-17500.0,-1701.9399047820173,-1952.7686851506944,-1208.1998297215298,-649.47540678546954,-574.38274000368767,-155.6768630282466,2076.2124356825457,-2400.9191022405575,1241.6544744084251,-1241.6544744084251,2400.9191022405575,3945.4245331688962,0.0
307154.6038362722,4625833.5216966402,-17500.0,-1660.6802222279573,-2174.3090397195351,-1526.4665175260525,-696.41602130262925,-678.8773362924361,-173.88493672287203,2298.4692247929579,-2641.5265209131521,1364.9275803085266,-1364.9275803085266,2641.5265209131521,4364.5725763381179,0.0
312154.6038362722,4625833.5216966402,-17500.0,-1562.124276728242,-2390.2260757710533,-1909.3567263603632,-734.86374250030406,-796.38465356416532,-191.24023275781181,2535.6877331067035,-2877.4648534996859,1485.3936461198718,-1485.3936461198718,2877.4648534996859,4810.2193972987952,0.0
317154.6038362722,4625833.5216966402,-17500.0,-1392.966330870602,-2583.6814723133548,-2360.6698783835168,-759.41072884628636,-924.95426785028519,-206.05824874522779,2783.9634283805949,-3093.3628118428369,1595.227143626189,-1595.227143626189,3093.3628118428369,5274.1578590480121,0.0
322154.6038362722,4625833.5216966402,-17500.0,-1141.5071639727678,-2731.5477314643463,-2878.4111863709909,-763.60547107380421,-1060.4036385049267,-216.04902869986827,3037.0326895895714,-3268.2583745638585,1683.9120877881787,-1683.9120877881787,3268.2583745638585,5743.4699359108336,0.0
327154.6038362722,4625833.5216966402,-17500.0,-800.63375952910042,-2804.4015727556371,-3451.0472915902992,-740.40885214160949,-1195.5682991432489,-218.33769416794763,3285.7405773772834,-3375.500500210268,1738.283936195463,-1738.283936195463,3375.500500210268,6199.5045763777025,0.0
332154.6038362722,4625833.5216966402,-17500.0,-371.83602183453786,-2768.1273514913719,-4053.0711707237838,-683.10969521349205,-1319.6750925124309,-209.64420218046166,3517.6508963196502,-3383.9252204170334,1743.2086780142727,-1743.2086780142727,3383.9252204170334,6617.1742725920603,0.0
337154.6038362722,4625833.5216966402,-17500.0,130.2223486088813,-2588.0651300306258,-4640.7559926303165,-586.78506507451607,-1418.1347595321902,-186.6889668181677,3717.000976013263,-3261.0603255601654,1683.2270758950945,-1683.2270758950945,3261.0603255601654,6964.9983611360767,0.0
342154.6038362722,4625833.5216966402,-17500.0,673.80390337711674,-2236.4569241369281,-5149.8610591197148,-450.24769282895966,-1473.1607202085713,-146.85188424014603,3865.2759736645557,-2979.0003664748456,1545.4056279485294,-1545.4056279485294,2979.0003664748456,7206.4776665508234,0.0
347154.6038362722,4625833.5216966402,-17500.0,1208.9824003111919,-1703.097585074916,-5497.9895745181539,-278.16944972164441,-1465.6491163524722,-89.017202963492053,3942.7188615517357,-2522.9786929338597,1323.3279148570964,-1323.3279148570964,2522.9786929338597,7303.4765664495862,0.0
352154.6038362722,4625833.5216966402,-17500.0,1671.9709516598582,-1007.3042773890655,-5594.6343902169419,-82.736905476199439,-1378.5810785751746,-14.401018671832109,3931.0161921339577,-1901.3133703308183,1021.5526227788644,-1021.5526227788644,1901.3133703308183,7222.1314947768733,0.0
357154.6038362722,4625833.5216966402,-17500.0,1996.8858120880143,-206.80430019274681,-5360.6162328292539,116.08456442607299,-1201.7363613247487,72.957771999279018,3817.120842964001,-1153.4465725537962,659.05576364988065,-659.05576364988065,1153.4465725537962,6941.2011017974128,0.0
362154.6038362722,4625833.5216966402,-17500.0,2134.1751304751965,602.82915632695813,-4754.6751109661955,292.5993176008941,-936.7405425269942,166.35473697800788,3597.637421417006,-351.15381295370139,269.56442662970903,-269.56442662970903,351.15381295370139,6461.5830371814118,0.0
367154.6038362722,4625833.5216966402,-17500.0,2070.278560082837,1303.6497004036878,-3798.9274705117336,420.12918090132007,-600.64674262507413,257.33548911030272,3282.5158316720008,411.56566924248216,-103.03020688500408,103.03020688500408,-411.56566924248216,5814.1352186872173,0.0
372154.6038362722,4625833.5216966402,-17500.0,1838.9760641496391,1785.3867705505579,-2590.1487929049913,477.71379217132778,-225.90872924136474,337.15941944676689,2896.4146346780399,1040.2770068958741,-414.24855810635654,414.24855810635654,-1040.2770068958741,5061.7605856855016,0.0
377154.6038362722,4625833.5216966402,-17500.0,1515.5422345092679,1980.4136337371247,-1285.69511607969,456.65095538080107,144.64512964156978,398.36055893994211,2476.6218055647046,1466.9420847497763,-630.82998677220166,630.82998677220166,-1466.9420847497763,4291.8534412742374,0.0
382154.6038362722,4625833.5216966402,-17500.0,1192.6798833955838,1887.2939693907938,-64.055871382833828,364.03296382452351,467.20338155484205,435.97613421794904,2068.5260859043901,1669.7916085419872,-739.84038976148236,739.84038976148236,-1669.7916085419872,3597.0878832952581,0.0
387154.6038362722,4625833.5216966402,-17500.0,948.46175929208005,1569.6832271981177,924.88760254523174,221.21606573264992,707.65369442258816,448.22114068487213,1723.172509265449,1675.9446099315521,-750.70561815820724,750.70561815820724,-1675.9446099315521,3046.2847642271495,0.0
392154.6038362722,4625833.5216966402,-17500.0,822.37667725484289,1130.6102354205802,1597.2962686343537,57.465195708108922,849.29295379847883,436.56679463466975,1491.1198932065508,1545.8228999541541,-689.38001312556321,689.38001312556321,-1545.8228999541541,2656.4943250086703,0.0
397154.6038362722,4625833.5216966402,-17500.0,810.33010294042208,676.11385663565295,1945.144591771565,-98.498921279538081,894.55730691060739,405.23621041816216,1359.160175721486,1348.6680684788785,-588.05400349905278,588.05400349905278,-1348.6680684788785,2390.1476281427831,0.0
402154.6038362722,4625833.5216966402,-17500.0,877.31807903586662,285.99296806673226,2019.4081396731701,-225.44096780291579,860.80755887837631,360.19876050184843,1258.0932594049748,1141.6587982721642,-475.50257525728125,475.50257525728125,-1141.6587982721642,2187.0516028612342,0.0
407154.6038362722,4625833.5216966402,-17500.0,977.48573870393818,1.6545204174726171,1900.3620600010868,-312.70878025270059,772.90272820708185,307.90541028294365,1155.1224851168863,960.01034028845913,-371.57511740211419,371.57511740211419,-960.01034028845913,2000.870507751591,0.0
412154.6038362722,4625833.5216966402,-17500.0,1070.9138944534191,-170.13910820413602,1670.0722969830279,-359.43296276279767,655.98122368293673,254.13362722808563,1044.9322381053132,817.71894373401005,-286.31622566135212,286.31622566135212,-817.71894373401005,1811.3127191171257,0.0
417154.6038362722,4625833.5216966402,-17500.0,1132.0491165461356,-245.23109832830622,1395.3754923704662,-371.40624883251604,530.6752552104083,203.24908404098855,931.39604398348126,714.10642320905617,-222.09601351512799,222.09601351512799,-714.10642320905617,1617.3061510631737,0.0
422154.6038362722,4625833.5216966402,-17500.0,1150.4192327991334,-249.30495213728102,1121.9402081594117,-357.51206337587348,411.21998214244041,157.9774912806048,820.7365433978498,641.22521739027832,-176.70059044122229,176.70059044122229,-641.22521739027832,1426.4280624485034,0.0
427154.6038362722,4625833.5216966402,-17500.0,1126.9679274417067,-208.57729369584513,875.81439700513374,-326.92564011843626,305.7256849923395,119.57604042838689,718.34843752262645,589.37478298173801,-146.00268557245505,146.00268557245505,-589.37478298173801,1247.5839246894602,0.0
432154.6038362722,4625833.5216966402,-17500.0,1069.2294916776791,-144.81526391330482,668.29468008661024,-287.48253166549534,217.54367298214149,88.209342924048173,627.30898713920135,550.12534507328451,-125.69697486475866,125.69697486475866,-550.12534507328451,1087.4984486828073,0.0
437154.6038362722,4625833.5216966402,-17500.0,987.24821313486041,-73.727277258296084,501.20520653674987,-245.05440075123522,146.87230587381467,63.357083570410992,548.28092107612463,517.39582723228591,-112.15771249942753,112.15771249942753,-517.39582723228591,949.70434140550105,0.0
442154.6038362722,4625833.5216966402,-17500.0,890.8936279618714,-5.3283836561516988,371.18675207986502,-203.57329488031968,92.134812839463791,44.154153630874752,480.36369112540206,487.40924026009742,-102.69765203443598,102.69765203443598,-487.40924026009742,834.79611446878039,0.0
447154.6038362722,4625833.5216966402,-17500.0,788.47238199321964,54.85810554701991,272.64188892341156,-165.36876877050068,50.969520154215786,29.629210190483697,422.07515346566271,458.18024881553072,-95.506628699733625,95.506628699733625,-458.18024881553072,741.18284501161122,0.0
452154.6038362722,4625833.5216966402,-17500.0,686.25962184993034,104.45879598445372,199.50421241213476,-131.59070032082491,20.850699167063798,18.848574449272988,371.93643763929248,428.92292589264457,-89.465114026114946,89.465114026114946,-428.92292589264457,665.95038069227837,0.0
457154.6038362722,4625833.5216966402,-17500.0,588.56580635009766,143.09766526836299,146.16031006013,-102.59723939246291,-0.57282372762054012,10.98862302949146,328.67314458022628,399.55364252437232,-83.941737786268192,83.941737786268192,-399.55364252437232,605.64436412561827,0.0
462154.6038362722,4625833.5216966402,-17500.0,498.0516620863724,171.53330109671788,107.83521831078768,-78.261318084960905,-15.327022648334548,5.361432389828952,291.23299520207854,370.3364080668216,-78.622308971720685,78.622308971720685,-370.3364080668216,556.87249965007368,0.0
287154.6038362722,4630833.5216966402,-17500.0,-1849.1906809503264,-1375.1838401707466,-452.3813993014594,-554.97000571746037,-338.72197012368287,-115.73437013433211,1619.7325135815743,-1808.3761097614881,957.48821662437672,-957.48821662437672,1808.3761097614881,3078.3443131331892,0.0
292154.6038362722,4630833.5216966402,-17500.0,-1950.0755029266093,-1589.1631074761956,-612.80070538698533,-619.93909660651673,-410.4790987585535,-133.69848146562575,1814.6388348203525,-2046.6312516561206,1083.1537561580521,-1083.1537561580521,2046.6312516561206,3448.6671371913026,0.0
297154.6038362722,4630833.5216966402,-17500.0,-2032.0213313614227,-1829.5476273948364,-819.14705645605034,-688.4502009393965,-496.65534344804257,-153.47929277747389,2033.075254451119,-2310.9071272480169,1222.1568440811357,-1222.1568440811357,2310.9071272480169,3863.3111543458162,0.0
302154.6038362722,4630833.5216966402,-17500.0,-2083.7365999196882,-2094.6419746489473,-1082.4336690005625,-758.41704248131418,-599.20919010190244,-174.61524847795292,2276.3287031773598,-2599.4262813633122,1373.4059368477288,-1373.4059368477288,2599.4262813633122,4324.4724865223543,0.0
307154.6038362722,4630833.5216966402,-17500.0,-2090.8704030624176,-2379.4171061761663,-1414.9279714837446,-826.55368722053493,-719.71837028747677,-196.21027671102436,2544.8484028223597,-2907.4101638894217,1534.2291923356606,-1534.2291923356606,2907.4101638894217,4832.6377765176949,0.0
312154.6038362722,4630833.5216966402,-17500.0,-2036.0513923980577,-2673.8858782531206,-1829.2318618766094,-888.06195586493027,-858.88953684086641,-216.75902127891996,2837.7364865167201,-3225.6845165640652,1699.6897555877101,-1699.6897555877101,3225.6845165640652,5385.5702341863271,0.0
317154.6038362722,4630833.5216966402,-17500.0,-1899.5906999867748,-2961.1527293794697,-2336.4442827204048,-936.38242886105695,-1015.8371702314947,-233.96189475360936,3152.0789213031667,-3539.0049013943753,1861.7940737897168,-1861.7940737897168,3539.0049013943753,5976.9795356254608,0.0
322154.6038362722,4630833.5216966402,-17500.0,-1661.2840112419883,-3215.3917484507383,-2942.980048005636,-963.1363614525925,-1187.1088512622975,-244.57771198279136,3482.1166147811027,-3824.2947219523876,2008.7063025021878,-2008.7063025021878,3824.2947219523876,6594.8766351268941,0.0
327154.6038362722,4630833.5216966402,-17500.0,-1303.8133677975254,-3400.3433888395653,-3645.638235558501,-958.44962035006415,-1365.5007576927471,-244.40041184858168,3818.3000954921999,-4049.2491319131432,2124.2055341739651,-2124.2055341739651,4049.2491319131432,7219.7034977945186,0.0
332154.6038362722,4630833.5216966402,-17500.0,-818.13930494480587,-3469.4052799928591,-4424.7739741003879,-911.89743269472422,-1538.8326510614513,-228.4861560369886,4146.3434208760309,-4172.1398011266556,2187.7880761211914,-2187.7880761211914,4172.1398011266556,7822.478860317281,0.0
337154.6038362722,4630833.5216966402,-17500.0,-210.80281137180219,-3368.9510318673706,-5236.1564356208946,-814.29753880848943,-1689.0475935900192,-191.77175274208767,4446.517853847351,-4144.1150841676863,2175.9946465794014,-2175.9946465794014,4144.1150841676863,8363.4657266070171,0.0
342154.6038362722,4630833.5216966402,-17500.0,488.00323698452706,-3046.8294391947179,-6003.5102609305623,-660.43734981542866,-1792.2373196107651,-130.16919039887415,4693.5945356531265,-3915.5992505944141,2065.6200773537512,-2065.6200773537512,3915.5992505944141,8792.2349371666569,0.0
347154.6038362722,4630833.5216966402,-17500.0,1218.4602016184474,-2467.4485009452819,-6615.8396592648241,-452.48499341603446,-1820.3817432588985,-42.044427953026613,4858.0415750273169,-3448.0827904931398,1839.2485003569432,-1839.2485003569432,3448.0827904931398,9050.4396789954135,0.0
352154.6038362722,4630833.5216966402,-17500.0,1892.062129532673,-1632.5101554153741,-6935.7090179827428,-203.29359666990308,-1745.5540404976741,70.302955498162774,4909.2004707582018,-2730.924300483066,1492.7797828193955,-1492.7797828193955,2730.924300483066,9078.8989780511638,0.0
357154.6038362722,4630833.5216966402,-17500.0,2404.9572391010252,-601.73042834059834,-6824.6496793603392,61.814935641246748,-1546.835695654984,199.81904178744543,4820.9598285847424,-1799.1779077445212,1043.1144049478767,-1043.1144049478767,1799.1779077445212,8830.1485473636039,0.0
362154.6038362722,4630833.5216966402,-17500.0,2666.0610456381905,497.98652498089041,-6186.676441958919,306.5785005155754,-1219.0126547779137,335.18722788468801,4579.6044699170443,-743.71914052278476,532.3283154679466,-532.3283154679466,743.71914052278476,8285.7249639943839,0.0
367154.6038362722,4630833.5216966402,-17500.0,2633.6663870886428,1488.7435845911714,-5018.8654527014151,490.03090804589704,-780.3880333424687,462.78414709519393,4191.9449426962619,297.43856132701728,23.85165397946264,-23.85165397946264,-297.43856132701728,7473.8014088676618,0.0
372154.6038362722,4630833.5216966402,-17500.0,2343.2023075006641,2189.0184074437275,-3443.9767714961758,577.16769993766036,-275.55405853207185,569.44423848330746,3690.2749073322725,1172.4162015121867,-411.66588753698238,411.66588753698238,-1172.4162015121867,6478.8244562590726,0.0
377154.6038362722,4630833.5216966402,-17500.0,1905.1410395639039,2478.3218653785143,-1697.3539313607375,550.95647815909626,230.73959886073123,644.91541173464418,3130.8250639707358,1764.4849101266923,-717.40369033568686,717.40369033568686,-1764.4849101266923,5433.4888770708922,0.0
382154.6038362722,4630833.5216966402,-17500.0,1465.4719869337735,2346.1143844324929,-60.522355757030802,420.17876198778362,669.04266028245797,683.26870242204075,2585.9338712996423,2032.7592973117344,-868.82280355415367,868.82280355415367,-2032.7592973117344,4486.8837582067617,0.0
387154.6038362722,4630833.5216966402,-17500.0,1146.8913237209895,1893.725863281597,1230.7949584889932,218.06506324419914,984.78544498412055,683.34952117643968,2135.5461182062882,2020.2396868332303,-879.32934161593903,879.32934161593903,-2020.2396868332303,3751.1945875813512,0.0
392154.6038362722,4630833.5216966402,-17500.0,1004.9335475080723,1286.6611172752444,2055.5800819594588,-8.7879062534808003,1153.0076748565339,648.66414481295499,1842.7273951437842,1824.9678242747564,-790.20539980764477,790.20539980764477,-1824.9678242747564,3249.6309805532142,0.0
397154.6038362722,4630833.5216966402,-17500.0,1022.1947518599842,687.46007019260151,2420.4124351545347,-215.86379124029168,1181.3395087242063,586.70034671956603,1670.156408231009,1554.4220117744374,-651.70101135597065,651.70101135597065,-1554.4220117744374,2915.1104135317337,0.0
402154.6038362722,4630833.5216966402,-17500.0,1135.6589723068425,206.65494256567507,2421.9851385038596,-372.8702579677597,1101.303623094173,507.4401990776426,1530.5255770627537,1289.8860550289567,-506.1323302775582,506.1323302775582,-1289.8860550289567,2653.5283253423145,0.0
407154.6038362722,4630833.5216966402,-17500.0,1273.6238570643259,-111.0261367390772,2191.160471182021,-467.97844445126356,954.14576071801798,421.26355809940503,1387.3416905888923,1073.8857609785539,-379.69474418374369,379.69474418374369,-1073.8857609785539,2403.2556212017762,0.0
412154.6038362722,4630833.5216966402,-17500.0,1381.7718397028764,-272.74166030073496,1848.2309758030967,-504.79552930279539,778.34949592483872,336.97921396650867,1236.7716761522136,916.50070192878832,-282.85327398673746,282.85327398673746,-916.50070192878832,2145.1415464886577,0.0
417154.6038362722,4630833.5216966402,-17500.0,1432.1198115665688,-313.48804234322461,1480.9616359104534,-495.87915747887581,602.66007646819332,260.67696899819379,1085.9130826109035,809.08762122574603,-215.27536503018814,215.27536503018814,-809.08762122574603,1885.2027584861862,0.0
422154.6038362722,4630833.5216966402,-17500.0,1419.486392564648,-275.39755300149972,1141.7400843297653,-456.4978169942238,444.54799448809109,195.5706490535444,943.52305928553108,736.50992417364535,-171.33169405185004,171.33169405185004,-736.50992417364535,1637.2982761766268,0.0
427154.6038362722,4630833.5216966402,-17500.0,1352.9741874485305,-195.43181126210052,854.78496540939693,-400.50437970500934,312.01941662231542,142.53235651961148,815.72797218459561,684.50363767137958,-144.09060183769657,144.09060183769657,-684.50363767137958,1413.5746372373251,0.0
432154.6038362722,4630833.5216966402,-17500.0,1247.80982119952,-100.6547787307626,625.91861608395516,-338.48401537021135,206.60164669022555,100.88655480683727,704.83201267134746,642.62399246925008,-127.44871338498137,127.44871338498137,-642.62399246925008,1221.0984064987163,0.0
437154.6038362722,4630833.5216966402,-17500.0,1119.7414500451098,-8.1999375893327979,450.92922416094956,-277.49745204269425,126.13157449580896,69.145243807976897,610.22403601094732,604.50109353982305,-116.8735916864126,116.8735916864126,-604.50109353982305,1061.7694390532313,0.0
442154.6038362722,4630833.5216966402,-17500.0,982.10636473269153,72.697024436773489,321.32720551387837,-221.63615901641634,66.80356445773451,45.544626323915246,529.94175132546195,566.94846545094777,-109.37914055702947,109.37914055702947,-566.94846545094777,933.55609941569037,0.0
447154.6038362722,4630833.5216966402,-17500.0,844.82888716004902,138.24471473356974,227.72450076372581,-172.82672777263306,24.442544008270865,28.370921816272396,461.78070911080147,528.85288295758107,-103.19556630904606,103.19556630904606,-528.85288295758107,832.05528180938461,0.0
452154.6038362722,4630833.5216966402,-17500.0,714.51923815980604,187.98841619975227,161.51934903463766,-131.58240000116857,-4.8221579299304507,16.121640696004718,403.76259800215763,490.25136102645479,-97.391733485756703,97.391733485756703,-490.25136102645479,751.92071724369464,0.0
457154.6038362722,4630833.5216966402,-17500.0,595.05825555704132,223.27128760142779,115.54572610402147,-97.588116807596521,-24.273818236632231,7.5600730443489894,354.26980453418838,451.69713023555153,-91.559446170574887,91.559446170574887,-451.69713023555153,687.9402741485269,0.0
462154.6038362722,4630833.5216966402,-17500.0,488.29904463372355,246.22732751836693,84.16767124223351,-70.107130241991356,-36.548449710920423,1.710232291218154,323.80539597016474,413.88021686690809,-85.586459404103863,85.586459404103863,-413.88021686690809,635.67375386978222,0.0
467154.6038362722,4630833.5216966402,-17500.0,394.70504536492467,259.18155256286394,63.119342962032825,-48.239819999276321,-43.685237360934899,-2.1757173520502544,312.91061578310047,377.43043234734387,-79.508812749596501,79.508812749596501,-377.43043234734387,591.68835000728586,0.0
282154.6038362722,4635833.5216966402,-17500.0,-1949.2710157674117,-1166.3892948385876,-205.58098603446771,-543.45340817825354,-269.07841208075286,-107.78184083843999,1527.8034878508679,-1617.0269224394992,877.41484958767398,-877.41484958767398,1617.0269224394992,2899.1683884268273,0.0
287154.6038362722,4635833.5216966402,-17500.0,-2104.5905582271967,-1370.6126614752498,-312.676949013338,-616.19888046825372,-330.54622791117157,-125.87194556188533,1722.0909622991308,-1851.4937456793396,1004.3396965414845,-1004.3396965414845,1851.4937456793396,3268.5182775644589,0.0
292154.6038362722,4635833.5216966402,-17500.0,-2256.9454350382739,-1609.0589944336432,-456.43302454885333,-696.61145264646905,-406.197004576045,-146.39151940795327,1943.7057494026785,-2120.4634724092371,1149.5454885265303,-1149.5454885265303,2120.4634724092371,3689.7435362321894,0.0
297154.6038362722,4635833.5216966402,-17500.0,-2397.9201431387023,-1884.9114129171674,-648.08724418342763,-783.97363649377803,-498.88019619397096,-169.16851563455666,2195.797450766102,-2426.7440388925129,1314.3404705437947,-1314.3404705437947,2426.7440388925129,4168.7489145082072,0.0
302154.6038362722,4635833.5216966402,-17500.0,-2515.5378589806946,-2199.8197563973631,-901.66863799455575,-876.5959758253656,-611.64353390305462,-193.65511342303915,2481.3218290627938,-2771.7316627525352,1499.2175553168518,-1499.2175553168518,2771.7316627525352,4711.0194313837083,0.0
307154.6038362722,4635833.5216966402,-17500.0,-2593.4309731835224,-2552.5090600236599,-1234.1522462914484,-971.39049649517335,-747.45976376832448,-218.71597736698374,2802.6677943971858,-3154.218112670741,1703.2321581633757,-1703.2321581633757,3154.218112670741,5320.8838253059112,0.0
312154.6038362722,4635833.5216966402,-17500.0,-2610.1875948481447,-2936.7310908533341,-1665.1199246181095,-1063.3707918149491,-908.72960540444763,-242.35497391496952,3161.0945961839543,-3568.6490010927573,1923.1241696483987,-1923.1241696483987,3568.6490010927573,6000.4026092699978,0.0
317154.6038362722,4635833.5216966402,-17500.0,-2539.2396972167912,-3338.4447954724965,-2215.4587633079113,-1145.1432112769376,-1096.4674625990033,-261.40183176891213,3555.9206195751958,-4002.7271854758828,2152.1553430864533,-2152.1553430864533,4002.7271854758828,6747.7612237638814,0.0
322154.6038362722,4635833.5216966402,-17500.0,-2349.8967993927095,-3732.2747126659337,-2904.3906410308596,-1206.5296077032335,-1309.0823702548701,-271.22499786456223,3983.4088571945699,-4434.3699871210683,2378.7018438542927,-2378.7018438542927,4434.3699871210683,7555.0516360355796,0.0
327154.6038362722,4635833.5216966402,-17500.0,-2010.4005320066231,-4077.6759178733641,-3743.8987731939683,-1234.5640094929547,-1540.7158612019016,-265.60924776004174,4435.3145946359919,-4828.3083362460784,2584.7807979255776,-2584.7807979255776,4828.3083362460784,8405.3607328513444,0.0
332154.6038362722,4635833.5216966402,-17500.0,-1494.058499822188,-4315.9514936447404,-4729.5678285346939,-1214.2179357887858,-1779.2308094802418,-237.02533646745269,4897.1205678712822,-5133.1617465582776,2744.9373901678673,-2744.9373901678673,5133.1617465582776,9269.2000631101837,0.0
337154.6038362722,4635833.5216966402,-17500.0,-789.33923561878305,-4370.4033663349874,-5827.3696460551528,-1130.2751656043338,-2004.1940682346003,-177.58212602888068,5346.1266942955881,-5280.7321783051693,2826.2893682357062,-2826.2893682357062,5280.7321783051693,10100.607520953012,0.0
342154.6038362722,4635833.5216966402,-17500.0,86.234842163593299,-4153.2726612206043,-6957.6225821914859,-970.70316116454217,-2185.5727736267309,-80.887190672664872,5749.8400893978087,-5190.4435861955062,2790.9600805772311,-2790.9600805772311,5190.4435861955062,10833.866979975415,0.0
347154.6038362722,4635833.5216966402,-17500.0,1071.121216683408,-3583.9506237334858,-7980.9698890553136,-731.53756883740925,-2284.3145732701364,55.283144559199428,6065.5999367273189,-4782.7672851220123,2602.3932301932182,-2602.3932301932182,4782.7672851220123,11382.910377874719,0.0
352154.6038362722,4635833.5216966402,-17500.0,2050.8230670086186,-2621.2997719019077,-8696.8147766093443,-422.61940865748142,-2256.3434945692561,226.24856127581759,6243.052869221111,-4004.6260269738177,2236.5815287352852,-2236.5815287352852,4004.6260269738177,11647.044355153828,0.0
357154.6038362722,4635833.5216966402,-17500.0,2866.7842684987781,-1305.8596438363052,-8869.579441701726,-72.486681732278853,-2061.3991145490631,419.07044670592722,6231.5119656746856,-2864.6317339779753,1697.1535257439944,-1697.1535257439944,2864.6317339779753,11527.616689244087,0.0
362154.6038362722,4635833.5216966402,-17500.0,3354.6411573296346,205.95717991898496,-8295.1124457792412,270.47903611311284,-1676.9599396877286,614.06680836885948,5993.4131925306501,-1465.1747017962803,1029.0798838631513,-1029.0798838631513,1465.1747017962803,10958.275713071816,0.0
367154.6038362722,4635833.5216966402,-17500.0,3410.1726776347477,1647.0017757421124,-6898.8519748712151,544.2292273271936,-1114.4695315947636,789.35800869583159,5521.8275895111656,-6.6029271240596188,321.1855081898542,-321.1855081898542,6.6029271240596188,9943.7992586960518,0.0
372154.6038362722,4635833.5216966402,-17500.0,3054.4637571839612,2709.8604839208219,-4820.8188500069973,688.72057911231968,-430.55926029385802,926.36267773289546,4855.0503661357943,1259.4520684795364,-312.01709809814878,312.01709809814878,-1259.4520684795364,8590.6156004816858,0.0
377154.6038362722,4635833.5216966402,-17500.0,2449.3756213312213,3169.257462515066,-2419.3013281191929,668.14220045681157,276.88109332515484,1013.1569304610427,4078.8454931668939,2121.7852206078387,-768.15909350076231,768.15909350076231,-2121.7852206078387,7104.6509092455763,0.0
382154.6038362722,4635833.5216966402,-17500.0,1833.2816090051926,2989.0496269941455,-157.56718714549461,489.39784001878911,893.4457790286416,1044.5666588754339,3312.6526372348808,2497.8570614405753,-996.62318988313109,996.62318988313109,-2497.8570614405753,5738.6285668493929,0.0
387154.6038362722,4635833.5216966402,-17500.0,1407.6373416257397,2335.7400193321596,1576.1280964190712,203.79338774874884,1326.0836857849536,1020.9963858195143,2687.0246307581101,2457.5616284813259,-1014.7406605255931,1014.7406605255931,-2457.5616284813259,4691.4986052593185,0.0
392154.6038362722,4635833.5216966402,-17500.0,1251.7827301283423,1485.1020618432606,2603.0839109841841,-112.47014332475081,1533.8840231797524,948.28240834546295,2289.1415126791044,2166.6467944692185,-890.10225360855395,890.10225360855395,-2166.6467944692185,4005.1443496221373,0.0
397154.6038362722,4635833.5216966402,-17500.0,1319.0282629988276,691.88161504199309,2967.5345204347623,-388.13866142207581,1534.210700235534,837.99991119317724,2051.0580216390335,1796.7808744632994,-703.73303888806856,703.73303888806856,-1796.7808744632994,3562.4994303612934,0.0
402154.6038362722,4635833.5216966402,-17500.0,1496.8256463873745,106.7329539650742,2851.01209836817,-579.36482692978063,1384.1647382453045,706.01777314412493,1854.6252910559879,1463.3766704142172,-519.0633320489153,519.0633320489153,-1463.3766704142172,3212.3203441467576,0.0
407154.6038362722,4635833.5216966402,-17500.0,1675.0916052835753,-232.32545061946939,2465.5811891129947,-675.07870529363004,1152.5561601769268,568.91669516709158,1655.4724350063673,1213.4152605515592,-370.08418275320855,370.08418275320855,-1213.4152605515592,2870.050990031235,0.0
412154.6038362722,4635833.5216966402,-17500.0,1784.2702212213148,-361.92006899662704,1983.5817695534968,-688.47083439494077,898.0518876202259,440.2172226226906,1451.8155573689339,1045.8748346754469,-265.6416349218797,265.6416349218797,-1045.8748346754469,2519.6259836673071,0.0
417154.6038362722,4635833.5216966402,-17500.0,1799.9772590828677,-347.96320177718553,1514.5479759292202,-643.85880017005877,659.68160783205656,328.35594447871279,1254.8059976801178,938.57003208693141,-200.00802811850252,200.00802811850252,-938.57003208693141,2177.0467281516512,0.0
422154.6038362722,4635833.5216966402,-17500.0,1729.5978057886471,-254.53914929247927,1112.484383412406,-566.13434352153058,457.31965316906843,236.75995396306948,1075.301090414607,866.84000146036692,-162.26792035768699,162.26792035768699,-866.84000146036692,1863.1860261290474,0.0
427154.6038362722,4635833.5216966402,-17500.0,1595.7468260733353,-130.07203749538903,793.86251294080034,-475.17943058304007,296.86643384454425,165.17488234427887,918.86143187904395,811.93549681560262,-141.8816375044218,141.8816375044218,-811.93549681560262,1592.1473093096397,0.0
432154.6038362722,4635833.5216966402,-17500.0,1424.042609024752,-5.2296380816844232,554.58616241676384,-384.37681894449281,176.028522418362,111.25499970018795,785.9359926151343,762.54302701291112,-130.89045542072216,130.89045542072216,-762.54302701291112,1369.0255498249091,0.0
437154.6038362722,4635833.5216966402,-17500.0,1236.5446869172206,103.74842439500479,381.83526079007873,-301.38284832089266,88.7787939572368,71.83703296771094,674.17985309056928,713.27008393420783,-124.15009023164799,124.15009023164799,-713.27008393420783,1191.6444960704387,0.0
442154.6038362722,4635833.5216966402,-17500.0,1049.4506056411399,190.42784103981359,260.87615025336333,-229.68030151158766,28.137481419740713,43.740564297195355,580.44478150159318,662.47688610786793,-118.75120765107454,118.75120765107454,-662.47688610786793,1053.3981559875178,0.0
447154.6038362722,4635833.5216966402,-17500.0,873.19885198331644,254.17514654547884,178.31043162812873,-170.09512591322093,-12.387824611517711,24.168546504523889,501.77262484142534,610.48465567910466,-113.28796761296175,113.28796761296175,-610.48465567910466,945.94581985210255,0.0
452154.6038362722,4635833.5216966402,-17500.0,713.5778038260662,297.30855103630444,123.22575075754828,-121.96541631235283,-38.225326136501515,10.844033971891447,436.52486625653148,558.39403356207868,-107.24889370695502,107.24889370695502,-558.39403356207868,861.20689304200641,0.0
457154.6038362722,4635833.5216966402,-17500.0,573.04175077590276,323.31334195953855,87.288841686096461,-83.928429755328935,-53.635246666245543,2.0033332948465086,411.79063687809668,507.4248231896612,-100.59346330312542,100.59346330312542,-507.4248231896612,792.47328328504932,0.0
462154.6038362722,4635833.5216966402,-17500.0,451.86675232994838,335.84047735494994,64.397790942098581,-54.397947583497348,-61.824945345603282,-3.6743289262412309,395.1423690323993,458.60755686750258,-93.490313733126527,93.490313733126527,-458.60755686750258,734.74669344070981,0.0
467154.6038362722,4635833.5216966402,-17500.0,349.03420125315427,338.21346622610957,50.214945530230565,-31.825579029519158,-65.139162831868902,-7.1546003285261497,377.24192141515277,412.68104745938706,-86.170813312319837,86.170813312319837,-412.68104745938706,684.58769900762877,0.0
282154.6038362722,4640833.5216966402,-17500.0,-2156.2778213245206,-1112.0383245281801,-68.808198324625181,-589.89370971598726,-251.12174163518813,-115.19122475888015,1601.941864077635,-1607.4056095273968,896.13132553914556,-896.13132553914556,1607.4056095273968,3034.115276764493,0.0
287154.6038362722,4640833.5216966402,-17500.0,-2360.9790325063159,-1326.4006394946643,-152.37195613981112,-675.85252339234808,-312.80218020056304,-135.34556533465945,1817.4529149646276,-1859.3079558605398,1036.1640280023737,-1036.1640280023737,1859.3079558605398,3443.504204190107,0.0
292154.6038362722,4640833.5216966402,-17500.0,-2573.2442281697217,-1582.9440849729153,-270.31837208549263,-773.04219335538085,-390.13265994347233,-158.37943994050772,2066.4679496030571,-2154.5296099006564,1199.7521350620775,-1199.7521350620775,2154.5296099006564,3916.6712892364612,0.0
297154.6038362722,4640833.5216966402,-17500.0,-2785.9744261615815,-1888.2952821056954,-435.11174619789739,-881.53309493144695,-486.83288375870342,-184.10972493299386,2353.9364814443129,-2499.2719881792877,1390.0307878770495,-1390.0307878770495,2499.2719881792877,4463.0624484634745,0.0
302154.6038362722,4640833.5216966402,-17500.0,-2987.9773160324812,-2248.6393224226808,-663.25747932376873,-1000.4635818424929,-607.19649379752968,-211.8677197029092,2685.0957279192735,-2899.3612334533404,1609.8255524483961,-1609.8255524483961,2899.3612334533404,5092.6821078495859,0.0
307154.6038362722,4640833.5216966402,-17500.0,-3162.5329695543928,-2668.4288193004732,-976.19562244732845,-1127.5083477194721,-755.92708241876517,-240.19188103307351,3065.1820096580045,-3359.1731030313772,1861.0684765688306,-1861.0684765688306,3359.1731030313772,5815.5450772519262,0.0
312154.6038362722,4640833.5216966402,-17500.0,-3285.8072713750944,-3148.2043926467559,-1400.9819493295927,-1258.1914745929016,-937.74207251933547,-266.40805825695725,3498.9282611060544,-3879.8244016794251,2143.8627459098007,-2143.8627459098007,3879.8244016794251,6640.7144680468982,0.0
317154.6038362722,4640833.5216966402,-17500.0,-3325.4120921546023,-3681.1563163059323,-1970.2666675212481,-1385.0800090026694,-1156.6086085213938,-286.11356099432464,3989.7462074412347,-4456.3066635172017,2455.0679087886765,-2455.0679087886765,4456.3066635172017,7574.719068981507,0.0
322154.6038362722,4640833.5216966402,-17500.0,-3239.7462984228996,-4248.0723911318728,-2720.6600534677714,-1496.9783718995316,-1414.4453966170342,-292.65073254059593,4538.45667281844,-5073.2129474186186,2786.2889034509444,-2786.2889034509444,5073.2129474186186,8619.0593008782507,0.0
327154.6038362722,4640833.5216966402,-17500.0,-2979.2690036118138,-4810.5616321483858,-3687.9705584442736,-1578.3759409805216,-1709.1267099360944,-276.78535591095505,5141.390396105603,-5698.8411421102355,3121.2339731697339,-3121.2339731697339,5698.8411421102355,9766.4012787767006,0.0
332154.6038362722,4640833.5216966402,-17500.0,-2491.5310180606339,-5303.1775500308213,-4897.0944684809338,-1609.5700773131171,-2031.7030499563173,-226.99338869495978,5787.6508575846537,-6277.9577527380579,3432.6369387685709,-3432.6369387685709,6277.9577527380579,10994.954791836029,0.0
337154.6038362722,4640833.5216966402,-17500.0,-1732.4138416851695,-5626.6807367860611,-6343.9190741669254,-1568.0452918892074,-2362.9624653933442,-130.94248816746648,6455.3662958707082,-6724.7363011730686,3679.4386272941319,-3679.4386272941319,6724.7363011730686,12260.569555438295,0.0
342154.6038362722,4640833.5216966402,-17500.0,-685.94264079550794,-5647.5761013654846,-7967.5103008194365,-1431.7462791729527,-2669.8556841544278,21.268029211135925,7107.0245438619231,-6919.791671967967,3805.8405937251009,-3805.8405937251009,6919.791671967967,13486.675078438624,0.0
347154.6038362722,4640833.5216966402,-17500.0,607.2158322659285,-5213.062569356036,-9615.188634259941,-1184.7477498888031,-2902.9617508397987,232.12836154228199,7684.8237310816439,-6718.9139705473817,3745.2266118501111,-3745.2266118501111,6718.9139705473817,14554.19026882147,0.0
352154.6038362722,4640833.5216966402,-17500.0,2019.3447380055434,-4193.2931394622083,-11013.731072754601,-825.43623031560207,-2997.1843430775511,491.46511353682371,8108.8090126515235,-5984.3886684124063,3433.2497409847547,-3433.2497409847547,5984.3886684124063,15297.941338329629,0.0
357154.6038362722,4640833.5216966402,-17500.0,3323.1745430689198,-2557.220310107019,-11777.084458209831,-376.45823646192889,-2879.2627090907727,774.24983989209102,8283.186305221112,-4646.736301295161,2833.4862396836475,-2833.4862396836475,4646.736301295161,15522.215262455007,0.0
362154.6038362722,4640833.5216966402,-17500.0,4229.8343861846406,-463.27234049384009,-11492.853659034427,106.44010747401195,-2486.5492145155777,1045.1927959773989,8117.286450293117,-2785.3698858240045,1972.0554786511771,-1972.0554786511771,2785.3698858240045,15049.929183526257,0.0
367154.6038362722,4640833.5216966402,-17500.0,4499.5741452005568,1697.5878269109385,-9905.2325211237767,533.70481924420039,-1798.5532068002094,1270.2208389313905,7562.3424001043377,-679.72328943485627,963.08233157284258,-963.08233157284258,679.72328943485627,13806.276997887117,0.0
372154.6038362722,4640833.5216966402,-17500.0,4090.4127815834199,3390.3747332878161,-7126.0841259888111,799.80078013729269,-871.61524514718474,1428.1502818774782,6651.2672365431008,1240.563918083617,-4.5292533770365253,4.5292533770365253,-1240.563918083617,11904.549179478141,0.0
377154.6038362722,4640833.5216966402,-17500.0,3234.4002957368407,4171.4775330327057,-3709.8880121865309,823.78983217029145,148.64590594345128,1513.1499523794764,5515.8366655568652,2569.9384393801442,-734.29910344687914,734.29910344687914,-2569.9384393801442,9671.5476795751747,0.0
382154.6038362722,4640833.5216966402,-17500.0,2338.3738548310912,3936.0969663048845,-460.34460628775474,595.81048411537483,1063.4588689557363,1526.7739234030776,4363.2369712736991,3130.5088813503703,-1112.9309872826057,1112.9309872826057,-3130.5088813503703,7560.1893126734467,0.0
387154.6038362722,4640833.5216966402,-17500.0,1751.5564121786122,2970.9578185231503,1946.8574573244032,193.46805416577939,1699.7077723726568,1470.3350958707001,3423.2356133390272,3042.2080536025323,-1158.3559820190246,1158.3559820190246,-3042.2080536025323,5952.4138818335623,0.0
392154.6038362722,4640833.5216966402,-17500.0,1588.1038730099933,1757.5734867452402,3245.1182174209971,-253.10183990027011,1981.6245500845414,1347.218874998596,2840.4637284424794,2602.0790085037838,-987.40166440700216,987.40166440700216,-2602.0790085037838,4943.9614579216259,0.0
397154.6038362722,4640833.5216966402,-17500.0,1736.7078799142805,703.92275814698178,3573.5381498665943,-623.93820675326492,1945.1855945976217,1170.3674327205247,2498.6740454307528,2093.9367178247385,-737.62275786683085,737.62275786683085,-2093.9367178247385,4329.0434991330385,0.0
402154.6038362722,4640833.5216966402,-17500.0,1997.4534564574717,5.9403344808980059,3273.4270113783832,-853.87744304050409,1695.609146785242,963.5113910890592,2221.201432862053,1679.0603160628839,-506.85629308067735,506.85629308067735,-1679.0603160628839,3850.8602288362713,0.0
407154.6038362722,4640833.5216966402,-17500.0,2207.0175220651372,-330.54996811646043,2684.1988601793737,-937.53530056894567,1349.1713117510712,753.83019039216447,1948.9959343098524,1398.4932192281944,-337.80441361708552,337.80441361708552,-1398.4932192281944,3385.0238071390381,0.0
412154.6038362722,4640833.5216966402,-17500.0,2286.2009574838362,-398.25381237388143,2042.8532084940393,-907.28981778685898,994.8813508341816,563.09535463952295,1681.3828284783638,1226.897980219509,-233.17611592262205,233.17611592262205,-1226.897980219509,2919.5387683795298,0.0
417154.6038362722,4640833.5216966402,-17500.0,2227.2993495729756,-308.88075286211017,1474.5997851347363,-807.14806927549182,683.75685426692655,403.40303134392423,1432.3771539010984,1121.351596263067,-177.41739391777287,177.41739391777287,-1121.351596263067,2482.6527611782431,0.0
422154.6038362722,4640833.5216966402,-17500.0,2061.3473409300318,-152.2136044209424,1024.226850775761,-675.74100501758483,435.5001866758073,277.92414720854458,1212.7313690385781,1046.4414609595274,-151.95163254971965,151.95163254971965,-1046.4414609595274,2101.180230646487,0.0
427154.6038362722,4640833.5216966402,-17500.0,1830.4213971405566,14.183477346761794,691.79866921089729,-539.93429915938088,250.39717599315725,184.02254607511117,1025.6378352660254,980.70846923392878,-142.06914359905136,142.06914359905136,-980.70846923392878,1787.6662537616969,0.0
432154.6038362722,4640833.5216966402,-17500.0,1572.0680883304963,160.14191413944025,458.37989842622295,-415.14559715799697,119.50496794211118,116.38287495839209,869.08797124432851,914.32431639570575,-138.35139406057885,138.35139406057885,-914.32431639570575,1541.0903948217726,0.0
437154.6038362722,4640833.5216966402,-17500.0,1313.6280972464217,273.95578835600463,300.58600434229186,-308.30127530233341,31.158976267007652,69.152432009020401,739.0769058354673,844.66994218068862,-135.71718631254765,135.71718631254765,-844.66994218068862,1351.844934624432,0.0
442154.6038362722,4640833.5216966402,-17500.0,1072.1324186812521,354.46456252177461,197.21976601752763,-221.01569776147431,-25.692899775808467,37.059860756671142,631.72006984955226,772.65591571746779,-131.94152222117668,131.94152222117668,-772.65591571746779,1206.9419381748621,0.0
447154.6038362722,4640833.5216966402,-17500.0,856.44564598829595,405.56246412580941,131.43559442267949,-152.051488766799,-60.192065512507533,15.825922610162424,557.30054271244649,700.40763694041539,-126.41282183796449,126.41282183796449,-700.40763694041539,1093.8438197905743,0.0
452154.6038362722,4640833.5216966402,-17500.0,669.80132799069349,432.92016012802878,90.79339876254285,-98.926196168409206,-79.347790154121242,2.1877742480591635,531.35516615662618,630.0686437015512,-119.29887323190465,119.29887323190465,-630.0686437015512,1002.4527347364985,0.0
457154.6038362722,4640833.5216966402,-17500.0,511.952428270013,442.26615204016701,66.525660798205934,-58.839114607183397,-88.282572036235095,-6.242935872847597,505.88487211836991,563.31329298587661,-111.06050185993402,111.06050185993402,-563.31329298587661,925.56953501669648,0.0
462154.6038362722,4640833.5216966402,-17500.0,380.7381807221156,438.62217214386436,52.651386262445683,-29.142728610135102,-90.617762256326671,-11.166295778644583,479.12076512824297,501.23798449256049,-102.20099275788746,102.20099275788746,-501.23798449256049,858.48834707338688,0.0
467154.6038362722,4640833.5216966402,-17500.0,273.12066437038322,426.06309178508013,45.190870870871287,-7.541677329176963,-88.850329298316069,-13.768505142567687,451.73933119489277,444.42277880072038,-93.155889725033717,93.155889725033717,-444.42277880072038,798.31688286587189,0.0
472154.6038362722,4640833.5216966402,-17500.0,185.81833565417523,407.73456669509005,41.551383164261182,7.8565647229261861,-84.66653217822919,-14.864778015666287,424.40270571645698,393.04935109927266,-84.258147475650276,84.258147475650276,-393.04935109927266,743.34890659952612,0.0
277154.6038362722,4645833.5216966402,-17500.0,-2113.6037824813634,-844.06531540239132,110.08012536822606,-546.15008426649683,-178.27890434400288,-102.72902709416131,1463.8609833475568,-1342.345805928039,771.7485418561007,-771.7485418561007,1342.345805928039,2764.8446948171381,0.0
282154.6038362722,4645833.5216966402,-17500.0,-2348.0818774591826,-1020.0981980199318,76.574506865179899,-631.60051428817962,-224.89097328369147,-121.59953123760361,1665.82263242005,-1561.895839134854,897.92357871669014,-897.92357871669014,1561.895839134854,3147.6998052674712,0.0
287154.6038362722,4645833.5216966402,-17500.0,-2605.2964547931065,-1235.9984246949027,22.759923384236796,-730.81424820428106,-284.41246375671892,-143.64380899893922,1901.7146226631096,-1824.13943819781,1048.1910182518993,-1048.1910182518993,1824.13943819781,3595.1450876269323,0.0
292154.6038362722,4645833.5216966402,-17500.0,-2883.6462949730148,-1500.7149965625276,-60.335033057039709,-845.33471378483603,-360.46858207511644,-168.98749097030395,2177.6950300063804,-2137.7868793178177,1227.2475591377051,-1227.2475591377051,2137.7868793178177,4118.9991216207609,0.0
297154.6038362722,4645833.5216966402,-17500.0,-3178.9064567980995,-1824.6685508660883,-185.38934820598399,-976.37157940670761,-457.59916684587444,-197.41474779179987,2500.9133604726544,-2512.9533469411376,1440.4568796510544,-1440.4568796510544,2512.9533469411376,4733.0362757477269,0.0
302154.6038362722,4645833.5216966402,-17500.0,-3482.8136835821142,-2219.4827677228604,-370.19487298897963,-1124.4193125834281,-581.37884343369888,-228.0828961961044,2879.5437191360179,-2960.9918492019606,1693.7215985747714,-1693.7215985747714,2960.9918492019606,5453.0912155535352,0.0
307154.6038362722,4645833.5216966402,-17500.0,-3781.1150164892706,-2697.1868116557921,-639.4486891447541,-1288.6868650223996,-738.45641196963948,-259.08418660458545,3322.7237821218305,-3493.9183975839596,1993.1454092508311,-1993.1454092508311,3493.9183975839596,6297.0046874050659,0.0
312154.6038362722,4645833.5216966402,-17500.0,-4051.0056507358527,-3268.4726800212284,-1026.868665943131,-1466.2981584723032,-936.41957537605265,-286.81583812400356,3840.3234191078723,-4123.0882966214922,2344.335084686918,-2344.335084686918,4123.0882966214922,7284.2693889132142,0.0
317154.6038362722,4645833.5216966402,-17500.0,-4258.0124181151386,-3939.3681486404244,-1577.3229425815784,-1651.2553742018604,-1183.3376001393956,-305.15600507423301,4442.4190795319546,-4856.5732425631822,2751.113333199416,-2751.113333199416,4856.5732425631822,8435.1318954354047,0.0
322154.6038362722,4645833.5216966402,-17500.0,-4352.6895853963006,-4705.4198707522373,-2348.1470791036427,-1833.2291824139727,-1486.768600889653,-304.54888905011279,5138.2604199399848,-5694.4038679649684,3213.3082430433233,-3213.3082430433233,5694.4038679649684,9768.7011656317936,0.0
327154.6038362722,4645833.5216966402,-17500.0,-4268.1274752667196,-5542.2920592280352,-3407.8404444814928,-1996.3646715327304,-1851.9533098122147,-271.32362444021862,5934.3620400943546,-6620.5474024273835,3723.1769821592688,-3723.1769821592688,6620.5474024273835,11299.236654730785,0.0
332154.6038362722,4645833.5216966402,-17500.0,-3920.4328359299302,-6391.8853923526785,-4828.6860256527079,-2118.451200274561,-2278.8670289831502,-187.95145554501016,6831.0946094584324,-7590.4187261600146,4259.9750580635355,-4259.9750580635355,7590.4187261600146,13029.12840941349,0.0
337154.6038362722,4645833.5216966402,-17500.0,-3216.1877968836566,-7144.3981525645295,-6667.5005091137455,-2170.9403472231916,-2757.776831203555,-35.402342666299234,7816.8011223588619,-8513.50675320339,4782.4131964796725,-4782.4131964796725,8513.50675320339,14936.166202518474,0.0
342154.6038362722,4645833.5216966402,-17500.0,-2073.3212320119678,-7620.6146386376249,-8926.5332075295337,-2120.3507141101227,-3262.9516471507359,201.05792032242232,8858.2617157116292,-9233.745801081659,5219.7745325227179,-5219.7745325227179,9233.745801081659,16952.157431219868,0.0
347154.6038362722,4645833.5216966402,-17500.0,-463.34670799483723,-7567.2633124978838,-11487.701497219785,-1931.7247369361949,-3744.3113725305384,522.26715558387582,9887.0540479291722,-9517.8886293707801,5465.3373428242294,-5465.3373428242294,9517.8886293707801,18931.938532209104,0.0
352154.6038362722,4645833.5216966402,-17500.0,1521.8677498615452,-6692.4553351623626,-14026.253404907617,-1575.6876961627845,-4117.8717803857862,904.63806156357668,10784.655821051087,-9075.8802655423606,5381.5931226815183,-5381.5931226815183,9075.8802655423606,20620.721043250607,0.0
357154.6038362722,4645833.5216966402,-17500.0,3598.6346692323609,-4779.0116958396893,-15947.919372027593,-1042.8280769611208,-4260.1417510396413,1296.7160790413552,11376.881352995901,-7649.8672446562705,4833.6513876569115,-4833.6513876569115,7649.8672446562705,21647.119455947948,0.0
362154.6038362722,4645833.5216966402,-17500.0,5283.5844528099469,-1886.654300680746,-16454.65480241042,-369.39822948938797,-4021.1970158027743,1632.9562023663525,11458.507457106147,-5189.8845992320048,3763.4074081572612,-3763.4074081572612,5189.8845992320048,21589.760003911924,0.0
367154.6038362722,4645833.5216966402,-17500.0,6049.9683148909426,1454.6139977780258,-14857.633684859939,332.89342569289818,-3278.3893552050367,1865.01004060078,10866.908070238995,-2043.5812108567743,2282.6593245862177,-2282.6593245862177,2043.5812108567743,20151.12714446224,0.0
372154.6038362722,4645833.5216966402,-17500.0,5655.0103775125144,4292.9651035229053,-11085.351837879289,875.71192613850292,-2032.7111759690279,1988.8903258504477,9587.3534713100362,1035.2734926470619,706.0832362190024,-706.0832362190024,-1035.2734926470619,17386.575056446567,0.0
377154.6038362722,4645833.5216966402,-17500.0,4407.3925963039992,5705.802787047789,-6005.836963995087,1063.013020771484,-489.5455458077613,2036.8275408373613,7821.1487138045559,3215.9781964663498,-560.52921410321346,560.52921410321346,-3215.9781964663498,13825.599493431944,0.0
382154.6038362722,4645833.5216966402,-17500.0,3040.6107541400079,5406.3610512820487,-1108.631445409173,815.9450752726874,978.32664300029705,2034.3815202637743,5949.5981306769618,4091.8502186837613,-1243.4028758707082,1243.4028758707082,-4091.8502186837613,10325.139558924329,0.0
387154.6038362722,4645833.5216966402,-17500.0,2201.1195066023924,3926.0355704443587,2353.9170973885502,248.12924889408541,2012.1517585630472,1970.6549715545416,4411.936810152597,3892.5370824220909,-1350.2643905950308,1350.2643905950308,-3892.5370824220909,7660.5423961688339,0.0
392154.6038362722,4645833.5216966402,-17500.0,2047.4165482485587,2156.3919507083174,3999.735431227447,-400.81074769354495,2454.9187814352326,1818.5588946366274,3495.2836380135063,3194.4073277313637,-1104.6531638133313,1104.6531638133313,-3194.4073277313637,6068.165549577785,0.0
397154.6038362722,4645833.5216966402,-17500.0,2322.2135844134259,758.27164328487595,4212.4181098250119,-913.72614320093078,2384.1631733009135,1575.9451014004987,2988.2323839976034,2483.1663049535773,-758.74040954625639,758.74040954625639,-2483.1663049535773,5179.0642031642328,0.0
402154.6038362722,4645833.5216966402,-17500.0,2675.3391761479475,-46.355156847175103,3635.2743030572474,-1190.6757052249923,2001.9766096921499,1277.2744601081185,2599.7365245531382,1970.8757891785829,-468.54561633342769,468.54561633342769,-1970.8757891785829,4527.848846055982,0.0
407154.6038362722,4645833.5216966402,-17500.0,2881.1396887312462,-341.11783597035708,2794.5848762003693,-1244.1914009119782,1508.3856808430307,971.97808849062665,2244.5916654707362,1664.0838648656277,-283.00068149639185,283.00068149639185,-1664.0838648656277,3912.281377135816,0.0
412154.6038362722,4645833.5216966402,-17500.0,2871.6359158505024,-314.78920341583375,1991.573696047132,-1143.7195832451168,1036.9493990336121,699.34841133325949,1912.5321444569565,1491.0340676780243,-188.56725093735531,188.56725093735531,-1491.0340676780243,3320.9858026278271,0.0
417154.6038362722,4645833.5216966402,-17500.0,2678.7625346636901,-138.37828997838207,1346.7958391608652,-964.95035269378434,650.27075026469413,478.66602834070545,1612.7902497873824,1380.9340010951869,-152.466522161939,152.466522161939,-1380.9340010951869,2793.4734633788817,0.0
422154.6038362722,4645833.5216966402,-17500.0,2370.5309220185463,75.050809855049152,877.77042826387503,-764.74418365366841,362.31661978956481,312.38953199499099,1353.1090816545295,1289.4970438042455,-145.58639582731348,145.58639582731348,-1289.4970438042455,2357.3685723402582,0.0
427154.6038362722,4645833.5216966402,-17500.0,2012.2531665479221,266.26590768267272,558.08503329328096,-576.68560143567447,162.43792160818913,193.59333018907412,1134.5435157992961,1196.8506809681287,-149.04592511978785,149.04592511978785,-1196.8506809681287,2016.6906221619658,0.0
432154.6038362722,4645833.5216966402,-17500.0,1651.5864265521507,412.3792860244875,350.34679178537175,-416.11803744653258,31.64261299644879,112.12955383982563,953.93811600016204,1098.0810595254106,-153.02733036360081,153.02733036360081,-1098.0810595254106,1758.5750498641748,0.0
437154.6038362722,4645833.5216966402,-17500.0,1317.2909149177074,510.59675724776014,220.54501601158302,-286.99502385189072,-49.001335543792955,58.138467290840801,809.43096741041199,995.15633421419045,-153.61822738327521,153.61822738327521,-995.15633421419045,1563.2578608271924,0.0
442154.6038362722,4645833.5216966402,-17500.0,1023.3654154967003,567.20500736450356,142.36566513706779,-187.34417339031452,-95.11605360493256,23.480493531772503,735.03213361664996,892.07537858535352,-150.07444455472614,150.07444455472614,-892.07537858535352,1411.6059367526102,0.0
447154.6038362722,4645833.5216966402,-17500.0,774.0438934571423,591.32407014115824,97.110840251287357,-112.75804386114608,-118.41447089215953,1.999640721560791,696.59998445357655,792.57391960921939,-143.04438004375038,143.04438004375038,-792.57391960921939,1288.7474428263338,0.0
452154.6038362722,4645833.5216966402,-17500.0,567.89128502850792,591.86873972046055,72.175496377520389,-58.312171140575408,-127.18643416447357,-10.718671630610348,657.41527318449778,699.33657438055843,-133.59849526360159,133.59849526360159,-699.33657438055843,1184.6321978854919,0.0
457154.6038362722,4645833.5216966402,-17500.0,400.63712614969489,576.3484693061281,59.366477309178094,-19.470178255711669,-127.07602321988989,-17.732518400425807,617.03526348652406,613.93081600801258,-122.77500120273643,122.77500120273643,-613.93081600801258,1093.0857331247394,0.0
462154.6038362722,4645833.5216966402,-17500.0,266.93545522206739,550.59854046518888,53.507802190203869,7.5818500971624596,-121.81606789235425,-21.110411739814953,576.53008349595302,537.01626321487936,-111.41076547057864,111.41076547057864,-537.01626321487936,1010.549853313259,0.0
467154.6038362722,4645833.5216966402,-17500.0,161.35927713559212,518.91963742889072,51.412291825938581,25.888110365512741,-113.81485306896953,-22.227074087934025,536.83980355241465,468.61056439523622,-100.11086992506648,100.11086992506648,-468.61056439523622,935.04670338622202,0.0
472154.6038362722,4645833.5216966402,-17500.0,78.902849302825487,484.35591600476369,51.169560503068702,37.80095833551686,-104.58796665572446,-21.983127156187223,498.64148019564578,408.32398991420223,-89.275871542075492,89.275871542075492,-408.32398991420223,865.47896646884737,0.0
272154.6038362722,4650833.5216966402,-17500.0,-1995.2784244635975,-591.67206513301528,226.21931027176706,-491.08217964717778,-115.91018476149563,-89.536043533771547,1317.1981717825959,-1080.5329654903733,643.47938545345573,-643.47938545345573,1080.5329654903733,2479.3793493439753,0.0
277154.6038362722,4650833.5216966402,-17500.0,-2237.5302250626842,-723.71172787169155,229.05245455120496,-571.18548705223748,-148.29930616246492,-106.48366495686921,1500.5295184318859,-1259.966464354105,750.64351625780409,-750.64351625780409,1259.966464354105,2825.7741685707115,0.0
282154.6038362722,4650833.5216966402,-17500.0,-2511.9202084129665,-888.6144937603691,223.38365293992419,-665.80713991474397,-190.29811451524697,-126.59655710534203,1716.0818778458972,-1476.7266156151866,879.76672541598714,-879.76672541598714,1476.7266156151866,3233.3443764673393,0.0
287154.6038362722,4650833.5216966402,-17500.0,-2821.368653257151,-1095.203655757655,204.10742559833992,-777.42030928482222,-244.91446506730628,-150.21090035695565,1970.4057907615741,-1739.8013330943534,1035.9512769405676,-1035.9512769405676,1739.8013330943534,3714.6432938540188,0.0
292154.6038362722,4650833.5216966402,-17500.0,-3167.9630161371206,-1354.6565184774313,163.53866994083609,-908.68303010946579,-316.1028992440522,-177.46558945011321,2271.4702982551262,-2060.4783214409817,1225.5272476730527,-1225.5272476730527,2060.4783214409817,4285.0077770828811,0.0
297154.6038362722,4650833.5216966402,-17500.0,-3552.0962833524768,-1680.9904291351104,90.1514088669541,-1062.2765231557964,-409.03261071662996,-208.07540252058052,2628.9544858792829,-2452.8667440771951,1456.3048484748122,-1456.3048484748122,2452.8667440771951,4963.1739139726224,0.0
302154.6038362722,4650833.5216966402,-17500.0,-3971.0995058534613,-2091.4890561728444,-33.272281426698733,-1240.6122619166902,-530.4000018812493,-240.94941900991978,3054.5802435955138,-2934.4314755853975,1737.8280157087484,-1737.8280157087484,2934.4314755853975,5772.0121805275558,0.0
307154.6038362722,4650833.5216966402,-17500.0,-4417.1309959005848,-2606.8703427550608,-232.31346907228539,-1445.3529524513549,-688.76645996141372,-273.58040442283504,3562.4769687247808,-3526.4040260073184,2081.5717269658676,-2081.5717269658676,3526.4040260073184,6739.388565059854,0.0
312154.6038362722,4650833.5216966402,-17500.0,-4874.011182993333,-3250.7940233718641,-544.66068196625781,-1676.6921053797948,-894.87723570144783,-301.1261908054949,4169.5491806013615,-4253.7631333865456,2500.959532845141,-2500.959532845141,4253.7631333865456,7899.1278871329887,0.0
317154.6038362722,4650833.5216966402,-17500.0,-5312.643250504103,-4047.9432054537278,-1025.0955513076501,-1932.3573381282274,-1161.878856404101,-315.14411131475924,4895.7684021932073,-5144.1461277756707,3010.9495155067589,-3010.9495155067589,5144.1461277756707,9291.9579015610725,0.0
322154.6038362722,4650833.5216966402,-17500.0,-5684.7074171901177,-5019.3057088073847,-1751.5120562540667,-2206.3514526809336,-1505.2968578918317,-302.09099168790988,5764.1831354081769,-6224.4420256676904,3626.6909551835915,-3626.6909551835915,6224.4420256676904,10966.025207962526,0.0
327154.6038362722,4650833.5216966402,-17500.0,-5914.6683884893564,-6172.3602843902136,-2830.7126398212145,-2487.5112897182398,-1942.5496902543612,-242.07544578255775,6800.145894194633,-7512.8025535817851,4360.3111850921578,-4360.3111850921578,7512.8025535817851,12975.854412160194,0.0
332154.6038362722,4650833.5216966402,-17500.0,-5891.1936592882839,-7482.7249462965947,-4400.3120554517973,-2757.9620105419413,-2491.6004144204426,-109.07609595245297,8028.6194524130933,-9002.3527847741007,5214.1560313831342,-5214.1560313831342,9002.3527847741007,15376.994435275174,0.0
337154.6038362722,4650833.5216966402,-17500.0,-5461.7098738589493,-8863.0743299579499,-6618.2505461128112,-2991.2708352775699,-3167.8964074547926,125.09922396814237,9467.2687353103938,-10631.482073622323,6167.8237297605347,-6167.8237297605347,10631.482073622323,18210.531581533134,0.0
342154.6038362722,4650833.5216966402,-17500.0,-4439.5737640015823,-10116.908238709348,-9623.1998840958458,-3149.3376544818066,-3977.5563269779318,480.04186470936736,11111.469526293802,-12236.347184764049,7155.7769533670307,-7155.7769533670307,12236.347184764049,21467.356350539354,0.0
347154.6038362722,4650833.5216966402,-17500.0,-2644.0442477452543,-10884.833331907701,-13438.751226191192,-3176.3223122188019,-4902.1999610843977,947.51461052851073,12906.391320909845,-13490.113784123718,8034.8350244049107,-8034.8350244049107,13490.113784123718,25019.89953842248,0.0
352154.6038362722,4650833.5216966402,-17500.0,-5.9821183555287121,-10621.743705053163,-17793.272745944909,-2990.5064821612891,-5867.7883887292592,1469.2686191655757,14703.22845234026,-13862.999833364771,8553.1532595088538,-8553.1532595088538,13862.999833364771,28520.016006613911,0.0
357154.6038362722,4650833.5216966402,-17500.0,3240.3628571893587,-8704.5704698227346,-21877.031607224577,-2487.8509446207527,-6694.5211818584639,1931.636156837216,16207.578244178101,-12696.913936437013,8362.3659516596163,-8362.3659516596163,12696.913936437013,31305.768720823096,0.0
362154.6038362722,4650833.5216966402,-17500.0,6367.6785517618982,-4808.4192158369769,-24228.243101060449,-1592.2542810626671,-7056.9782939624383,2206.3820925822224,16972.741136707948,-9529.6328852966508,7146.2072031820271,-7146.2072031820271,9529.6328852966508,32441.939594363736,0.0
367154.6038362722,4650833.5216966402,-17500.0,8265.4521752173314,499.61574340394111,-23163.160033463555,-375.80389451883258,-6544.5976305909671,2241.7271495838659,16538.452369441336,-4646.5416521173493,4889.5940396620726,-4889.5940396620726,4646.5416521173493,31054.684324258047,0.0
372154.6038362722,4650833.5216966402,-17500.0,8114.5893124498616,5511.7419653806865,-17954.788924048709,829.35628573119948,-4910.1396595788347,2134.0352535849265,14709.261309256146,608.61320084594558,2109.7691443400126,-2109.7691443400126,-608.61320084594558,26925.823870753189,0.0
377154.6038362722,4650833.5216966402,-17500.0,6227.8565316295681,8200.329640861537,-9955.7973956359783,1517.821763290229,-2398.7240407627828,2069.5422591585784,11781.784624738546,4416.9779979458226,-286.05057458951069,286.05057458951069,-4416.9779979458226,20924.022351416639,0.0
382154.6038362722,4650833.5216966402,-17500.0,4018.789312428873,7789.6417814427314,-2160.7351649297998,1367.4549753261169,210.74034224448451,2142.9290959890077,8504.6576994130373,5794.0139490632482,-1586.189248530743,1586.189248530743,-5794.0139490632482,14761.166662837961,0.0
387154.6038362722,4650833.5216966402,-17500.0,2778.5480458526831,5382.8356294490704,2944.756733567348,543.28344168103342,2081.9004999293311,2255.2594660101458,5776.3467176004024,5266.4040983972363,-1770.4004307090943,1770.4004307090943,-5266.4040983972363,10059.900068273471,0.0
392154.6038362722,4650833.5216966402,-17500.0,2681.2175857482584,2747.4584527014581,4935.2694047029918,-455.74694555036439,2875.0920427334904,2232.3745942206074,4245.622776098513,4066.1202671325818,-1342.1880862301653,1342.1880862301653,-4066.1202671325818,7372.9971816568886,0.0
397154.6038362722,4650833.5216966402,-17500.0,3132.7173982736617,923.78600051338651,4843.7993528537045,-1203.9479792769455,2790.9735845897799,2001.5105505353781,3462.298765747365,3035.964973644097,-809.01686645116092,809.01686645116092,-3035.964973644097,6034.9177787277476,0.0
402154.6038362722,4650833.5216966402,-17500.0,3548.9519473956589,52.492152995471216,3861.972773793841,-1549.2245907383403,2241.4711253336741,1623.0354548386315,2924.0118955838093,2400.3711134531341,-421.80964885251149,421.80964885251149,-2400.3711134531341,5166.3452787510741,0.0
407154.6038362722,4650833.5216966402,-17500.0,3665.3783432588889,-149.96242993339965,2742.809922494424,-1553.1115942579308,1573.4784499892721,1206.1800379212182,2509.9981529683728,2064.0798807770561,-217.84808448269041,217.84808448269041,-2064.0798807770561,4400.164367456885,0.0
412154.6038362722,4650833.5216966402,-17500.0,3472.559362420609,-12.309936696472018,1810.5560266932607,-1354.358889032243,980.49762047885099,833.49802960095451,2136.7900449589579,1877.4754013228553,-143.57143098280505,143.57143098280505,-1877.4754013228553,3705.1607824543557,0.0
417154.6038362722,4650833.5216966402,-17500.0,3071.7411277778078,235.59159617285113,1138.7740174036294,-1076.865926964319,530.3663961017952,540.66910805546615,1795.090232474658,1739.160576502431,-135.98026553559112,135.98026553559112,-1739.160576502431,3120.8179805256182,0.0
422154.6038362722,4650833.5216966402,-17500.0,2576.4093957405244,472.00617032881178,694.88844780216834,-799.17487820264046,221.42743165766316,329.48981837680691,1497.4116837190074,1603.0184142880903,-151.85503493122769,151.85503493122769,-1603.0184142880903,2663.2017697380957,0.0
427154.6038362722,4650833.5216966402,-17500.0,2071.3691843771448,649.34888744087198,418.75793025044629,-559.02213344863821,25.39042482774148,186.11558583070288,1250.210182751556,1457.2230652871499,-168.91829328178369,168.91829328178369,-1457.2230652871499,2318.2163326995856,0.0
432154.6038362722,4650833.5216966402,-17500.0,1606.6259264828154,759.94493652584765,255.10828481227259,-367.90660956105683,-89.817690779835345,93.172608473738691,1069.29669842404,1305.0143307015346,-178.70898660734804,178.70898660734804,-1305.0143307015346,2057.7896916026993,0.0
437154.6038362722,4650833.5216966402,-17500.0,1205.0052148817783,813.23050078215635,162.46217044457478,-223.82108898646075,-151.08440655427333,35.312378699440941,988.88110517529617,1153.6005588871449,-179.88636727564938,179.88636727564938,-1153.6005588871449,1854.2979468183562,0.0
442154.6038362722,4650833.5216966402,-17500.0,872.04757925128433,823.46951805542051,112.64373539718967,-119.36621244944405,-178.19714138394372,0.8012038725340036,929.30986601259804,1009.3654152060994,-173.99730391122699,173.99730391122699,-1009.3654152060994,1687.142638125034,0.0
447154.6038362722,4650833.5216966402,-17500.0,603.9063465626981,804.22391857693049,87.621303198029679,-46.034972481568758,-184.695829477449,-18.662280019683251,868.36870622190702,876.49544332454047,-163.30582946906549,163.30582946906549,-876.49544332454047,1543.2895737421059,0.0
452154.6038362722,4650833.5216966402,-17500.0,392.54142912288023,766.44248395725663,76.322631618421241,3.8932898010668291,-179.41923119727417,-28.683557510379519,806.6741866408197,757.07528320851418,-149.87396918866966,149.87396918866966,-757.07528320851418,1415.3257776348701,0.0
457154.6038362722,4650833.5216966402,-17500.0,228.7265560076884,718.21894189783768,72.173206254329969,36.732373600526486,-167.93792133277947,-32.934361887451423,745.97829134279561,651.62938091898639,-135.27814604138939,135.27814604138939,-651.62938091898639,1299.3013806099648,0.0
462154.6038362722,4650833.5216966402,-17500.0,103.59955023829964,665.19123753651331,71.394969978688664,57.359567785985895,-153.65470706429704,-33.768241039957815,687.62987946980843,559.6830166481634,-120.60299714926964,120.60299714926964,-559.6830166481634,1193.1558940708312,0.0
467154.6038362722,4650833.5216966402,-17500.0,9.3413488264557873,611.09837151797865,71.89969305540744,69.414130939350841,-138.57859778901457,-32.667593623986512,632.48878045198467,480.2030029211997,-106.53165307174305,106.53165307174305,-480.2030029211997,1095.7632110061293,0.0
472154.6038362722,4650833.5216966402,-17500.0,-60.622274214228575,558.29837741834376,72.595291597420257,75.550875378439414,-123.84326626201933,-30.550600065865844,581.02242346935395,411.90165914630552,-93.452226294609972,93.452226294609972,-411.90165914630552,1006.4152487852559,0.0
477154.6038362722,4650833.5216966402,-17500.0,-111.65656898180769,508.18535635666115,72.961831711590591,77.676228091542626,-110.04386996676222,-27.975161219381093,533.41540866243395,353.42823575672935,-81.550320467657144,81.550320467657144,-353.42823575672935,924.56704604924778,0.0
272154.6038362722,4655833.5216966402,-17500.0,-2056.8514444238886,-460.87705391654578,314.55963017497851,-502.16874949687246,-85.973234650307489,-91.185560504387084,1331.958929824174,-977.69488500667956,607.34372281221329,-607.34372281221329,977.69488500667956,2498.3891875506833,0.0
277154.6038362722,4655833.5216966402,-17500.0,-2324.7203988479382,-574.23647673152732,339.81055163990635,-587.56669163603726,-112.6528788061009,-108.79873749473717,1523.0151229846631,-1145.4171901081663,711.97994774904407,-711.97994774904407,1145.4171901081663,2858.086878162962,0.0
282154.6038362722,4655833.5216966402,-17500.0,-2633.9561668535025,-718.64207484784424,362.89071008802898,-689.6322133641396,-147.92024131282247,-129.78120972365824,1749.4077877521593,-1350.438976704271,839.51288248316973,-839.51288248316973,1350.438976704271,3284.6784892717042,0.0
287154.6038362722,4655833.5216966402,-17500.0,-2990.8293569054804,-903.55215992866829,380.52586699117836,-811.7010813413799,-194.72162585937019,-154.49194757635641,2018.9723185604496,-1602.8573332565722,995.92624887923898,-995.92624887923898,1602.8573332565722,3793.1635862165776,0.0
292154.6038362722,4655833.5216966402,-17500.0,-3402.0003970692501,-1141.5224138267843,387.30050013308505,-957.64288762518447,-257.06167795900296,-183.05032772517694,2341.5338768380607,-1915.940968011178,1188.9950302051939,-1188.9950302051939,1915.940968011178,4402.4507420234695,0.0
297154.6038362722,4655833.5216966402,-17500.0,-3874.070233087476,-1449.2231773044991,374.37513041358147,-1131.8409264881668,-340.3871843406788,-215.04928321815558,2729.4775943313734,-2307.2215796697155,1428.8780759984641,-1428.8780759984641,2307.2215796697155,5136.5452530013963,0.0
302154.6038362722,4655833.5216966402,-17500.0,-4412.7089992440979,-1848.7282881105625,327.44104601632523,-1339.0989114438498,-452.10512798151035,-249.05676499181311,3198.5091788872624,-2799.9456552914153,1728.9137505080007,-1728.9137505080007,2799.9456552914153,6026.1787001921321,0.0
307154.6038362722,4655833.5216966402,-17500.0,-5021.0689026933296,-2369.0554617882794,223.46941704366353,-1584.4471059446109,-602.28130029513522,-281.79013972408222,3768.6833024183516,-3424.9406462863908,2106.6739186864952,-2106.6739186864952,3424.9406462863908,7111.0852780545501,0.0
312154.6038362722,4655833.5216966402,-17500.0,-5696.9943309206074,-3047.7880755156584,25.591136880320736,-1872.8361439226667,-804.58742374438293,-306.82681560517841,4465.8041915683971,-4222.8384368793368,2585.3103001379741,-2585.3103001379741,4222.8384368793368,8443.2138952148925,0.0
317154.6038362722,4655833.5216966402,-17500.0,-6428.2272297657773,-3932.2465219513051,-324.81813931377394,-2208.7506284427673,-1077.6071333144796,-312.75462775094576,5323.3091415463787,-5246.2725795846427,3195.1282742849135,-3195.1282742849135,5246.2725795846427,10091.209746373464,0.0
322154.6038362722,4655833.5216966402,-17500.0,-7184.3427504720157,-5078.8735730476601,-919.93009924268904,-2595.8477098831136,-1446.6870520908769,-280.88466361576366,6384.6650359750874,-6560.8561584310701,3975.0218659115781,-3975.0218659115781,6560.8561584310701,12146.330550298442,0.0
327154.6038362722,4655833.5216966402,-17500.0,-7903.5515030453435,-6547.8418034818887,-1901.8262161043101,-3036.7501950800738,-1946.6193365894103,-183.27528399603199,7705.9330221319542,-8241.9450535808119,4972.6168375159414,-4972.6168375159414,8241.9450535808119,14729.040258254134,0.0
332154.6038362722,4655833.5216966402,-17500.0,-8472.1175817100484,-8386.8044348950298,-3482.0449165500231,-3532.8231085095881,-2625.437224412462,16.811666630751873,9357.1071158681352,-10360.654245837075,6240.1824811040424,-6240.1824811040424,10360.654245837075,17992.751770695482,0.0
337154.6038362722,4655833.5216966402,-17500.0,-8695.1665779048126,-10592.706546726233,-5956.7027760026967,-4082.4011606834406,-3548.9414215220481,357.57117682142643,11418.540538437535,-12946.653600141817,7819.8194124248139,-7819.8194124248139,12946.653600141817,22114.698720677759,0.0
342154.6038362722,4655833.5216966402,-17500.0,-8263.5957208759191,-13034.395542998065,-9694.7123076575281,-4672.235585774959,-4802.6111858036384,857.5240262017129,13965.17817243486,-15907.825166985913,9705.6831247544069,-9705.6831247544069,15907.825166985913,27251.922613138766,0.0
347154.6038362722,4655833.5216966402,-17500.0,-6741.9911739513027,-15317.375205295388,-15046.187662209868,-5250.4273923888068,-6478.5793768971525,1475.1711973964502,17028.840547738797,-18885.187336559087,11765.702661756346,-11765.702661756346,18885.187336559087,33424.560622934157,0.0
352154.6038362722,4655833.5216966402,-17500.0,-3655.4964171772103,-16601.350885620308,-22068.33901931216,-5666.9608757090209,-8615.9234443709811,2059.16299715061,20514.736595774375,-21053.316257501967,13615.060830393328,-13615.060830393328,21053.316257501967,40283.663314230522,0.0
357154.6038362722,4655833.5216966402,-17500.0,1164.5724298335347,-15519.96014315998,-29945.362882207588,-5599.9933213595432,-11043.741022487837,2337.6146023593237,23980.652269834194,-21014.107055390945,14501.658947561147,-14501.658947561147,21014.107055390945,46779.026075929149,0.0
362154.6038362722,4655833.5216966402,-17500.0,6900.9241160806459,-10665.80519257517,-36248.929740915672,-4592.3921635509432,-13133.70423642577,2036.000844097327,26470.785661641075,-17219.369033093859,13430.770721890452,-13430.770721890452,17219.369033093859,50967.515120810007,0.0
367154.6038362722,4655833.5216966402,-17500.0,11354.559720808707,-2099.2395777899696,-37108.219849099594,-2402.0073698932133,-13722.797986432803,1154.8772242897996,26790.971478398576,-9350.4536230715421,9828.1081982189899,-9828.1081982189899,9350.4536230715421,50535.576127306093,0.0
372154.6038362722,4655833.5216966402,-17500.0,12143.754584058872,7184.6988123769552,-29773.020623103737,438.90146632939013,-11690.824935164123,191.45520045640205,24188.285721698965,229.39046333529905,4472.9937044261551,-4472.9937044261551,-229.39046333529905,44320.82372216256,0.0
377154.6038362722,4655833.5216966402,-17500.0,9172.6017986269726,12503.959450437264,-16230.204106375553,2562.402077673551,-7137.2872638461831,-105.76857926763884,19040.272973881925,7285.0097628813055,-452.75270129875753,452.75270129875753,-7285.0097628813055,33723.306338343507,0.0
382154.6038362722,4655833.5216966402,-17500.0,5369.2732591581707,11708.672132801872,-3103.372280935796,2812.2744431006013,-1935.0987949713513,535.48286966980061,12912.917340620956,9268.7535828207929,-2948.9503972321309,2948.9503972321309,-9268.7535828207929,22370.421395260706,0.0
387154.6038362722,4655833.5216966402,-17500.0,3540.2544297178652,7481.6909215644209,4304.5489828043119,1485.1469974244158,1716.6902896410484,1567.9334635461055,7741.17820034125,7683.2461610123592,-3000.0871462166674,3000.0871462166674,-7683.2461610123592,13761.060603377902,0.0
392154.6038362722,4655833.5216966402,-17500.0,3605.8372558231267,3564.7691051540637,6224.2421347017971,-192.32112430243731,3168.9332972417819,2250.8381960080164,5121.2766875558755,5430.532197105249,-1988.6073112845429,1988.6073112845429,-5430.532197105249,8977.7567354977873,0.0
397154.6038362722,4655833.5216966402,-17500.0,4222.6367652175886,1330.9263959949542,5406.5121952212976,-1357.8952717475418,3079.6502905651146,2315.7659349715882,3857.4283817644432,3877.2132047854816,-1008.4590034579364,1008.4590034579364,-3877.2132047854816,6825.9568251955225,0.0
402154.6038362722,4655833.5216966402,-17500.0,4559.7353333179708,491.59023426016893,3875.5356452394085,-1821.4036035577417,2320.5334181759686,1942.3924395537433,3087.2054812550195,3063.8200378201345,-420.43177671598824,420.43177671598824,-3063.8200378201345,5688.5824258975445,0.0
407154.6038362722,4655833.5216966402,-17500.0,4422.8783090547095,415.09174190878701,2507.6388983636912,-1767.6141421297411,1468.3213977756584,1419.1000642406063,2748.3552882873587,2663.7972102014019,-175.13275734784952,175.13275734784952,-2663.7972102014019,4826.5989246372765,0.0
412154.6038362722,4655833.5216966402,-17500.0,3926.1618808102166,629.26229781886661,1527.3319349710621,-1455.82467934327,776.45535998284242,936.86607965511496,2370.2154987080376,2417.5109712997923,-122.58532880411849,122.58532880411849,-2417.5109712997923,4107.8340519716721,0.0
417154.6038362722,4655833.5216966402,-17500.0,3253.9092181884662,880.26923371980581,900.64116568225472,-1076.5817762681945,298.686953979208,567.86487395169479,1993.5252422756412,2199.7767658081743,-145.90203554766595,145.90203554766595,-2199.7767658081743,3535.6853405184056,0.0
422154.6038362722,4655833.5216966402,-17500.0,2553.7736294891924,1066.5125550602274,528.56569252189706,-730.12244572288841,3.4780136756557862,314.18172078412886,1672.0553888321876,1973.5798973717317,-182.76601610828152,182.76601610828152,-1973.5798973717317,3097.2922906469576,0.0
427154.6038362722,4655833.5216966402,-17500.0,1912.8570242465025,1166.8305357735819,319.8548157317515,-452.9485783050871,-161.10496223147126,151.76852785744779,1464.8952085338742,1740.3810572007837,-208.84255744207701,208.84255744207701,-1740.3810572007837,2758.8952557650036,0.0
432154.6038362722,4655833.5216966402,-17500.0,1369.0981266238314,1193.2935074940876,208.72888946361869,-247.92832447637954,-241.04003781959577,53.429542583462506,1358.6348758117747,1511.8135834935081,-219.08738585636524,219.08738585636524,-1511.8135834935081,2486.2288078879283,0.0
437154.6038362722,4655833.5216966402,-17500.0,929.8597020222345,1166.8374214980552,152.85035265754652,-104.30091863635245,-269.84622486022522,-2.9379555827545927,1264.0326097742284,1298.2095883369386,-216.00248100241765,216.00248100241765,-1298.2095883369386,2254.923103507685,0.0
442154.6038362722,4655833.5216966402,-17500.0,586.89036304997285,1107.0437065825868,126.72438121924762,-8.0760128208170112,-269.69614711287778,-33.04432606775034,1167.6058318708331,1105.7150578800233,-203.9194879666959,203.9194879666959,-1105.7150578800233,2050.8144481695845,0.0
447154.6038362722,4655833.5216966402,-17500.0,325.77183529277949,1029.0201384729085,115.69915084341211,53.556063457075872,-254.40377259214537,-47.295771724272853,1071.7782410476289,936.68868528452697,-186.75709090883095,186.75709090883095,-936.68868528452697,1866.6425980741024,0.0
452154.6038362722,4655833.5216966402,-17500.0,131.0373120419811,943.28429868873627,111.68567961979932,90.863371905051864,-232.1997251688457,-52.299584455664451,979.42931312740052,790.91476148036918,-167.41251939117308,167.41251939117308,-790.91476148036918,1698.9153697844333,0.0
457154.6038362722,4655833.5216966402,-17500.0,-11.449432664120813,856.63534920889026,110.40849015311568,111.53426024889718,-207.78613059343539,-52.132607079321396,892.4521658049232,666.71364019937459,-147.79465136744489,147.79465136744489,-666.71364019937459,1545.8911046814301,0.0
462154.6038362722,4655833.5216966402,-17500.0,-113.63500038117681,773.16807498300875,109.73787559724512,121.09936305703498,-183.71541571016331,-49.253913408147568,811.84748758802516,561.73178613279401,-129.04626241250202,129.04626241250202,-561.73178613279401,1406.5117216549763,0.0
467154.6038362722,4655833.5216966402,-17500.0,-185.17566830109303,695.13275902706027,108.7142541009773,123.43561337368403,-161.26750492613959,-45.114219917065441,737.98267222723416,473.4327970230205,-111.77648173546015,111.77648173546015,-473.4327970230205,1279.9160839741264,0.0
472154.6038362722,4655833.5216966402,-17500.0,-233.66583841516484,623.57974622530583,106.9921804087427,121.21129669502334,-140.99006572953166,-40.546700675140201,670.81520182617646,399.37147636958383,-96.247876104135742,96.247876104135742,-399.37147636958383,1165.2559955824945,0.0
477154.6038362722,4655833.5216966402,-17500.0,-264.97424473814823,558.81137521116898,104.53078616095111,116.23599968592039,-123.02369146888786,-36.011711034595344,610.0555149838649,337.32754326952664,-82.510958535193296,82.510958535193296,-337.32754326952664,1061.6507757553202,0.0
272154.6038362722,4660833.5216966402,-17500.0,-2079.52165167975,-312.16129869668367,389.37609591967174,-504.76791238101998,-52.892738309428339,-91.516931807058484,1333.394093924913,-851.78678466479903,557.39649781816945,-557.39649781816945,851.78678466479903,2490.890878751009,0.0
277154.6038362722,4660833.5216966402,-17500.0,-2365.411559232472,-400.20950454524819,435.29661760715993,-593.40505783886556,-72.509778417952887,-109.42760673565967,1529.2296168413206,-1000.7656828254651,655.57878350610986,-655.57878350610986,1000.7656828254651,2857.9261392927333,0.0
282154.6038362722,4660833.5216966402,-17500.0,-2700.6167699910525,-514.97363217461134,485.58833203738192,-700.36565333383737,-99.11240572731549,-130.80330803032487,1762.8254261263207,-1184.665146077971,776.3783485284506,-776.3783485284506,1184.665146077971,3296.1327180845865,0.0
287154.6038362722,4660833.5216966402,-17500.0,-3094.8171361510817,-665.57811144396237,539.23711953273778,-829.76637613091339,-135.33411481756173,-155.99276502742657,2043.1649886708055,-1413.8776150013225,926.2853352546706,-926.2853352546706,1413.8776150013225,3822.6505407959216,0.0
292154.6038362722,4660833.5216966402,-17500.0,-3559.6058818869024,-864.63868031952472,593.87502199383346,-986.6351711985543,-184.8734463913971,-185.05080593884148,2381.8030628012934,-1702.587537959062,1114.0598523369536,-1114.0598523369536,1702.587537959062,4459.6588559730271,0.0
297154.6038362722,4660833.5216966402,-17500.0,-4108.7466054171528,-1129.7297637672502,644.71736014978103,-1177.0872137442218,-252.95781156416859,-217.38359045367994,2793.7641347341287,-2070.4077986798388,1351.6891316553088,-1351.6891316553088,2070.4077986798388,5236.2301157034126,0.0
302154.6038362722,4660833.5216966402,-17500.0,-4758.3276066021526,-1485.5016885276887,682.71082580321138,-1408.5440789071431,-347.03189903647944,-251.1167361008973,3298.8408861367575,-2544.8020117602441,1655.819128732958,-1655.819128732958,2544.8020117602441,6191.0717947783369,0.0
307154.6038362722,4660833.5216966402,-17500.0,-5526.6290192212746,-1966.7159739394222,691.30003427964118,-1690.0526856416805,-477.80393298389924,-282.02110414522929,3923.5183989359934,-3164.6598733899491,2049.9158173436344,-2049.9158173436344,3164.6598733899491,7376.6925630787237,0.0
312154.6038362722,4660833.5216966402,-17500.0,-6433.2879441043096,-2622.5103933559922,640.78164136725513,-2032.8465888263224,-660.88980083437298,-301.78812590126108,4703.8825652471751,-3985.4806485999152,2567.5258164049628,-2567.5258164049628,3985.4806485999152,8865.861389671787,0.0
317154.6038362722,4660833.5216966402,-17500.0,-7496.8523883432808,-3522.1154472357739,478.48885986153152,-2451.4671069057886,-919.50872715257708,-295.49200026624845,5690.0498384935909,-5086.5581108123506,3257.1053491081957,-3257.1053491081957,5086.5581108123506,10761.682322745179,0.0
322154.6038362722,4660833.5216966402,-17500.0,-8728.7628681456063,-4761.7013160683791,111.96930096648572,-2966.0401296755244,-1289.0967010921991,-238.40980689800401,6952.7942832920853,-6579.9491525424401,4188.7943403674999,-4188.7943403674999,6579.9491525424401,13212.970683843123,0.0
327154.6038362722,4660833.5216966402,-17500.0,-10119.727774048079,-6470.279995349797,-618.93776222990539,-3606.5646075712871,-1825.4337773316763,-93.443737877050225,8592.857952885859,-8618.9080516910799,5462.7259294448477,-5462.7259294448477,8618.9080516910799,16436.115206545484,0.0
332154.6038362722,4660833.5216966402,-17500.0,-11610.890097635571,-8808.0189620906658,-1985.5366430756076,-4419.7014908387591,-2618.8988082902806,187.00686544225948,10752.226094992999,-11397.947914602442,7215.7634205907052,-7215.7634205907052,11397.947914602442,20741.254648760121,0.0
337154.6038362722,4660833.5216966402,-17500.0,-13037.337460950681,-11940.238364512763,-4429.5725753116403,-5475.6665133168381,-3817.9658143852616,645.87049440449755,13623.311354802709,-15124.642501639688,9616.4914943440472,-9616.4914943440472,15124.642501639688,26550.502746533824,0.0
342154.6038362722,4660833.5216966402,-17500.0,-14028.522417298893,-15951.473084105659,-8622.3098807162678,-6863.1617625701065,-5661.7694749733837,1277.4183706589122,17447.596399093898,-19921.650242163498,12823.168052451514,-12823.168052451514,19921.650242163498,34374.061994224699,0.0
347154.6038362722,4660833.5216966402,-17500.0,-13861.32492530767,-20633.500465517463,-15462.585331061569,-8637.1644111958849,-8504.8594010484176,1938.2317624199056,22527.222585447493,-25587.129207832029,16853.263668311502,-16853.263668311502,25587.129207832029,44671.165004314513,0.0
352154.6038362722,4660833.5216966402,-17500.0,-11336.606087045424,-25045.462157464881,-25839.512431344876,-10648.987810899447,-12764.156433055652,2226.1802945793147,29124.450848625733,-31121.841777413883,21285.704980227132,-21285.704980227132,31121.841777413883,57461.14081795777,0.0
357154.6038362722,4660833.5216966402,-17500.0,-5047.3440469460356,-26826.513962515648,-39710.873910482762,-12203.537604116105,-18598.815678069222,1441.1435355623719,36584.228404000991,-34052.422443194271,24769.132082477998,-24769.132082477998,34052.422443194271,71498.860375413613,0.0
362154.6038362722,4660833.5216966402,-17500.0,5074.9315287320005,-22070.027873702733,-53870.000175238783,-11795.773355362249,-25066.059866606724,-1099.7275317280714,43151.659173093962,-30358.721122991617,24744.404506405768,-24744.404506405768,30358.721122991617,83140.049322722902,0.0
367154.6038362722,4660833.5216966402,-17500.0,15203.387887693254,-8355.7801511181333,-59966.066847340706,-7868.0602664423022,-29187.813308751294,-5193.4371491984757,45926.880663235337,-17285.764764655381,18718.214756786059,-18718.214756786059,17285.764764655381,86511.391275998802,0.0
372154.6038362722,4660833.5216966402,-17500.0,18948.507811005002,9474.8525285223277,-49369.531505289488,-951.3969578473035,-27009.760038992601,-8942.4207900504371,42475.286716532122,1309.750165632041,7478.827611900374,-7478.827611900374,-1309.750165632041,77462.379316897364,0.0
377154.6038362722,4660833.5216966402,-17500.0,14190.994994569479,20316.484295000238,-24373.394852117224,5215.2918924666228,-17477.134976062604,-9522.2304211876453,33013.313170901893,15134.123850389697,-3505.2271425764984,3505.2271425764984,-15134.123850389697,58062.64122671746,0.0
382154.6038362722,4660833.5216966402,-17500.0,7256.578183491727,17807.139113547219,-1186.5208701133442,6430.417627190368,-5838.1548875922408,-6200.185137812241,20926.841574824553,16936.580578089266,-8002.1626738249652,8002.1626738249652,-16936.580578089266,36281.389104255002,0.0
387154.6038362722,4660833.5216966402,-17500.0,4858.7189108734019,9861.3197732204953,7996.5772036063036,3756.5256921662194,1230.5344683653873,-1733.5309454547767,11047.621018040354,12005.2759331299,-6544.6409235041665,6544.6409235041665,-12005.2759331299,20312.642437244038,0.0
392154.6038362722,4660833.5216966402,-17500.0,5148.8219015209088,4542.9856087058797,8088.486277089034,751.81103751522278,3427.1623561558408,1256.3494957297094,6406.0930591423021,7606.7610644625538,-3664.4583171483291,3664.4583171483291,-7606.7610644625538,11579.450341552776,0.0
397154.6038362722,4660833.5216966402,-17500.0,5556.912023494222,2245.5992148579385,5804.0081241232483,-1109.2047516676571,3161.1273025052528,2303.4641876067767,4400.0018824439539,5196.5559588469996,-1591.5459005253967,1591.5459005253967,-5196.5559588469996,7761.9085340040629,0.0
402154.6038362722,4660833.5216966402,-17500.0,5430.6736809266349,1567.9780104761551,3661.2598217542522,-1785.4995934561925,2124.1024237418433,2138.2743256295662,3385.6821410977191,4069.0420726350699,-566.51155527563833,566.51155527563833,-4069.0420726350699,6214.517415611921,0.0
407154.6038362722,4660833.5216966402,-17500.0,4814.9941479838444,1550.5652084189001,2170.483611881994,-1709.0137802778131,1115.7153188926416,1547.9894605723318,3091.7438374528633,3497.5147547572042,-213.26310206695507,213.26310206695507,-3497.5147547572042,5360.6465099295228,0.0
412154.6038362722,4660833.5216966402,-17500.0,3931.5711839035321,1700.6528146426735,1258.280533462326,-1314.7292322399953,390.18120209019912,964.97070689669886,2682.4417534265472,3093.6394083274527,-163.63241484809146,163.63241484809146,-3093.6394083274527,4726.0489771801595,0.0
417154.6038362722,4660833.5216966402,-17500.0,2994.3603942073578,1814.6210717526092,741.88193529206546,-871.83878898084049,-51.116014596052594,530.51537092672424,2307.8138592808991,2718.450277080874,-206.12462220258953,206.12462220258953,-2718.450277080874,4214.3955355996131,0.0
422154.6038362722,4660833.5216966402,-17500.0,2139.9907716476573,1839.2843227791379,465.29799257140212,-497.69501415764682,-283.77200455316961,248.06930634099569,2072.9390945603864,2348.7800162722633,-251.85451725693133,251.85451725693133,-2348.7800162722633,3788.028063751598,0.0
427154.6038362722,4660833.5216966402,-17500.0,1428.6165411386696,1783.8438586952441,323.45874370685584,-221.51046412581235,-384.33530911757936,79.897670821287434,1912.8378692821557,1996.5923985857335,-275.43244215300183,275.43244215300183,-1996.5923985857335,3418.5534156378599,0.0
432154.6038362722,4660833.5216966402,-17500.0,870.26946752852371,1674.642634790908,253.14494240791967,-34.341457439976352,-409.05998933691205,-12.934534627037785,1757.2864382787527,1676.057202532965,-276.63063442527437,276.63063442527437,-1676.057202532965,3087.824028829787,0.0
437154.6038362722,4660833.5216966402,-17500.0,449.85689570663754,1536.7029763652451,218.82900117611123,83.945626688315215,-394.00329064498948,-59.63415250745026,1600.7563733517586,1394.9257716904162,-262.21210459942324,262.21210459942324,-1394.9257716904162,2786.8392254770242,0.0
442154.6038362722,4660833.5216966402,-17500.0,143.32408482146357,1388.464958096489,201.51465998938707,153.20195719733977,-360.5128133548688,-79.51217602421832,1448.7707556825558,1154.7643649465729,-239.04909691395983,239.04909691395983,-1154.7643649465729,2511.9384779100396,0.0
447154.6038362722,4660833.5216966402,-17500.0,-73.914573024931641,1241.781024441078,191.49737414964633,189.35627421749248,-320.49620088853413,-84.520986773803884,1305.7759078097781,953.20733875092901,-212.23350983875025,212.23350983875025,-953.20733875092901,2261.6702334194492,0.0
452154.6038362722,4660833.5216966402,-17500.0,-223.39914841659552,1103.4460175103752,184.08005575507718,204.04849288189874,-280.20374165544388,-81.760117941667531,1174.1616688073004,785.96876993832461,-185.01584863027375,185.01584863027375,-785.96876993832461,2035.095838259826,0.0
457154.6038362722,4660833.5216966402,-17500.0,-322.6147073175494,976.81889081131851,177.16872372084194,205.35191717257939,-242.64646490851013,-75.315930344381087,1054.7898883734513,648.163936987645,-159.24484966267346,159.24484966267346,-648.163936987645,1831.1225842581928,0.0
462154.6038362722,4660833.5216966402,-17500.0,-385.15050072545318,863.09922103918768,169.96861539062746,198.68132245527275,-209.05038007156639,-67.468254556560808,947.56355840321737,535.04112975830037,-135.83197220291882,135.83197220291882,-535.04112975830037,1648.3560109656673,0.0
467154.6038362722,4660833.5216966402,-17500.0,-421.29036302196869,762.22008581910302,162.29767654480182,187.57906389073958,-179.69979532479167,-59.439145533160868,851.8425733624988,442.32617265397494,-115.11119424191398,115.11119424191398,-442.32617265397494,1485.1637631999752,0.0
472154.6038362722,4660833.5216966402,-17500.0,-438.6842326627912,673.42991110739524,154.23531525257516,174.31156171311281,-154.41265419766512,-51.843369694058111,766.71526371328684,366.34097703799341,-97.085087921011564,97.085087921011564,-366.34097703799341,1339.7913398988605,0.0
477154.6038362722,4660833.5216966402,-17500.0,-442.95680104767592,595.6535545973411,145.94962855286897,160.29423575125548,-132.80159130859334,-44.954283367740061,691.16611917459568,304.00376845637686,-81.581780198737107,81.581780198737107,-304.00376845637686,1210.4674843077671,0.0
267154.6038362722,4665833.5216966402,-17500.0,-1808.9373054091006,-108.86498271084167,391.98676322684861,-424.10903749276088,-9.9121777115606378,-75.624925754416097,1154.9508506333796,-606.1487011364004,423.1985036088351,-423.1985036088351,606.1487011364004,2146.8592317034936,0.0
272154.6038362722,4665833.5216966402,-17500.0,-2057.8834791028103,-151.66139339033552,446.01239313611052,-497.91969445152682,-18.022960935284626,-90.412398656681219,1320.4752742951093,-706.85146690066586,494.77557838235589,-494.77557838235589,706.85146690066586,2455.1668694397267,0.0
277154.6038362722,4665833.5216966402,-17500.0,-2351.6986775777737,-209.0528068459389,508.99613180518372,-587.25070634087842,-29.584234021445845,-108.1967014712661,1517.62915506234,-830.68495840978539,582.58651771881773,-582.58651771881773,830.68495840978539,2822.6275943680716,0.0
282154.6038362722,4665833.5216966402,-17500.0,-2700.3388093003928,-286.45985094348583,582.32717709460599,-695.81935331383283,-46.030457867726639,-129.40938314757838,1754.0191981061571,-984.6396815174262,691.36266261628475,-691.36266261628475,984.6396815174262,3263.6022087472138,0.0
287154.6038362722,4665833.5216966402,-17500.0,-3116.404308107009,-391.57986841968909,667.35531018186225,-828.31362356816942,-69.430495766470159,-154.34776444006016,2039.5070966390713,-1178.4014673141207,827.58019720847551,-827.58019720847551,1178.4014673141207,3796.7989699358841,0.0
292154.6038362722,4665833.5216966402,-17500.0,-3615.9813424238168,-535.47643707482462,765.09439427934342,-990.673044637202,-102.79570926807858,-182.9490435813446,2387.0453844621816,-1425.6366632040931,1000.2679372351146,-1000.2679372351146,1425.6366632040931,4446.9501941756453,0.0
297154.6038362722,4665833.5216966402,-17500.0,-4219.8038225364271,-734.25976708384098,875.60743965819256,-1190.4848973200644,-150.55887382049892,-214.3638451584917,2813.9145527915066,-1746.0016997400753,1222.2739069594127,-1222.2739069594127,1746.0016997400753,5247.3403153287882,0.0
302154.6038362722,4665833.5216966402,-17500.0,-4954.8687256268195,-1011.7162608513623,996.77040275258707,-1437.5904422602782,-219.3402447741212,-246.18508578065652,3343.6113402887199,-2168.331907908324,1512.2950189986057,-1512.2950189986057,2168.331907908324,6243.7458937662968,0.0
307154.6038362722,4665833.5216966402,-17500.0,-5856.6612071686131,-1403.4694647534754,1121.8235098098128,-1745.1084304547644,-319.21887106508638,-273.11441403975437,4008.8211269457474,-2735.7459668640313,1898.1875305292615,-1898.1875305292615,2735.7459668640313,7500.7759434826912,0.0
312154.6038362722,4665833.5216966402,-17500.0,-6972.0897862462161,-1963.6059940548662,1234.5493317102582,-2131.3264461918252,-465.94185260152841,-284.78773364846535,4856.2223937210902,-3513.8190237891868,2422.4256945385987,-2422.4256945385987,3513.8190237891868,9112.3470043125526,0.0
317154.6038362722,4665833.5216966402,-17500.0,-8362.8852007388432,-2775.1713777165705,1299.8075839006801,-2623.4027378528349,-684.96260265369995,-262.55434858787203,5954.3705542356065,-4603.4707673985758,3151.0870483949943,-3151.0870483949943,4603.4707673985758,11219.222739988594,0.0
322154.6038362722,4665833.5216966402,-17500.0,-10108.025460319839,-3966.3434890893832,1245.0783130955826,-3264.7086771889262,-1019.1727583614631,-175.55663020800887,7406.5735406745825,-6160.432887259406,4188.3081787610181,-4188.3081787610181,6160.432887259406,14038.137433143707,0.0
327154.6038362722,4665833.5216966402,-17500.0,-12300.454083517761,-5733.5912306971813,925.07363896094489,-4128.9185903052148,-1544.1589218574361,21.645455848443063,9371.1893133737358,-8421.8751587766455,5698.1597774186321,-5698.1597774186321,8421.8751587766455,17908.150190491895,0.0
332154.6038362722,4665833.5216966402,-17500.0,-15025.645985106585,-8369.1792763874655,56.468809527595894,-5344.7599213400435,-2398.342186951847,382.67736464023301,12091.147833276185,-11734.667173607759,7933.3279681938293,-7933.3279681938293,11734.667173607759,23357.686324709473,0.0
337154.6038362722,4665833.5216966402,-17500.0,-18294.772409056488,-12277.215876153065,-1893.4369264932554,-7132.1457729555304,-3840.1767029343841,936.31153291577687,15930.742882182796,-16562.011339704852,11259.905187138113,-11259.905187138113,16562.011339704852,31184.233293244295,0.0
342154.6038362722,4665833.5216966402,-17500.0,-21883.604880302228,-17931.382675362896,-5870.3914151613671,-9833.6256556449152,-6346.5140367073445,1591.9255424702524,21410.252360115614,-23406.643099122688,16140.987701413891,-16140.987701413891,23406.643099122688,42510.511759502224,0.0
347154.6038362722,4665833.5216966402,-17500.0,-25005.090209207752,-25672.02142953267,-13413.638678887217,-13875.072674100433,-10750.735902346643,1936.9343781943003,29562.373351204129,-32526.695475858312,22988.207834674122,-22988.207834674122,32526.695475858312,58731.449927702663,0.0
352154.6038362722,4665833.5216966402,-17500.0,-25721.849746778978,-35124.640949161956,-26729.965432790927,-19474.020819623314,-18346.42848732775,922.70115065445316,41230.100400839416,-43224.839810934332,31696.484050701394,-31696.484050701394,43224.839810934332,81157.36048112117,0.0
357154.6038362722,4665833.5216966402,-17500.0,-20210.29502983412,-43624.579100452691,-48147.995488929562,-25719.11266049332,-30604.907929986108,-3346.6447144059866,56166.10092161459,-52245.926669826702,40503.340232646966,-40503.340232646966,52245.926669826702,109725.75158765475,0.0
362154.6038362722,4665833.5216966402,-17500.0,-4124.023282402135,-43035.626562753198,-76218.20357337741,-28850.971720283374,-47273.928951637085,-12962.896300291844,72248.864497997944,-51102.737030985867,43966.602916491203,-43966.602916491203,51102.737030985867,139270.4902241196,0.0
367154.6038362722,4665833.5216966402,-17500.0,18232.155754869833,-21977.36679631532,-94785.607261665777,-22579.730358783574,-61598.338582351025,-27514.404277363286,82483.828217618749,-28656.055335221932,33458.577256406817,-33458.577256406817,28656.055335221932,155103.84006510992,0.0
372154.6038362722,4665833.5216966402,-17500.0,30042.970612519239,12854.008382462163,-77556.652247007587,-5880.284998203836,-60438.539750377029,-40687.749268423955,78933.793550925504,9880.9375035781904,7865.1102845671503,-7865.1102845671503,-9880.9375035781904,143275.17545464661,0.0
377154.6038362722,4665833.5216966402,-17500.0,23568.93703004394,35088.443663863625,-26690.432896726739,12202.920660456502,-36764.942904962591,-40998.18258758849,61725.721285740234,38522.517965992389,-19135.718961258084,19135.718961258084,-38522.517965992389,107912.59419452873,1.0
382154.6038362722,4665833.5216966402,-17500.0,10666.977673732428,24493.417348306953,13837.812730337953,14188.921272642538,-7234.1882559986307,-25150.101239526455,36321.128844357678,33531.02691702883,-24552.441118284951,24552.441118284951,-33531.02691702883,62986.083909754561,0.0
387154.6038362722,4665833.5216966402,-17500.0,8873.8879228383394,10542.916649310031,16255.883170974254,7521.6825524271271,3047.9793570157176,-9867.5528496828247,18816.513943540172,19102.187165620777,-15207.746843018456,15207.746843018456,-19102.187165620777,32789.352188829973,0.0
392154.6038362722,4665833.5216966402,-17500.0,7922.1161523499904,5785.6432973682276,10306.879335772408,2729.9071226477699,4090.021021010723,-1377.3507055757959,9567.1919537110734,11014.649326571416,-7249.7677826635181,7249.7677826635181,-11014.649326571416,16950.138793409002,0.0
397154.6038362722,4665833.5216966402,-17500.0,6615.818697078781,4189.212322986964,5985.8647681341354,0.11589754747545555,2964.186318174819,1751.9768561586027,5715.9131428386027,7168.5308685239825,-2857.9531537591547,2857.9531537591547,-7168.5308685239825,9999.8752200557064,0.0
402154.6038362722,4665833.5216966402,-17500.0,5410.4051647380902,3585.2438772974256,3433.3445323844044,-1059.7484877826291,1562.5990951392221,2087.5858683985771,4378.1751285199916,5402.324730944003,-993.03246331994478,993.03246331994478,-5402.324730944003,7591.8871796457524,0.0
407154.6038362722,4665833.5216966402,-17500.0,4219.0797843613655,3332.9788610376436,2002.6489729133148,-1107.9945575472796,489.15081031513751,1504.7299384766504,3784.3422677771891,4456.7023916829385,-408.74725557270153,408.74725557270153,-4456.7023916829385,6632.5785050048835,0.0
412154.6038362722,4665833.5216966402,-17500.0,3056.6166871875439,3153.4933693456778,1229.4588574969437,-758.69798168436398,-160.75145598184812,859.62313083043625,3363.2980483885708,3768.988682226669,-312.35124517624172,312.35124517624172,-3768.988682226669,5982.3895483790448,0.0
417154.6038362722,4665833.5216966402,-17500.0,2019.1287540863589,2943.1579860373918,821.58756600030961,-360.19302038061358,-484.27519380944148,394.4052718735453,3050.7398927236623,3165.823427781188,-341.29390283064754,341.29390283064754,-3165.823427781188,5404.3944359893931,0.0
422154.6038362722,4665833.5216966402,-17500.0,1171.8293707062442,2689.3498328563069,607.09482747434276,-44.749154848775774,-604.37409974584909,112.89447286892326,2775.8127414435185,2621.2365480413337,-370.3644402553989,370.3644402553989,-2621.2365480413337,4862.2906427626476,0.0
427154.6038362722,4665833.5216966402,-17500.0,526.6173172495462,2411.5100123062807,490.98700322553844,165.2236139751345,-613.74557759543325,-38.423878458458319,2504.8078860863843,2142.8964211117191,-372.36462071042081,372.36462071042081,-2142.8964211117191,4354.1356806080557,0.0
432154.6038362722,4665833.5216966402,-17500.0,61.505912962116518,2132.1194366849104,423.40690889419835,287.33702169629072,-570.16556976776837,-109.84821668460914,2241.3477346426598,1736.3178653202242,-351.2762731860837,351.2762731860837,-1736.3178653202242,3883.696911269762,0.0
437154.6038362722,4665833.5216966402,-17500.0,-258.24075680532849,1867.2648048127223,379.23496524654826,347.0386229143806,-506.01011980694966,-136.20554151377468,1994.072067283294,1399.4064651219514,-316.91215761856176,316.91215761856176,-1399.4064651219514,3454.4106730807257,0.0
442154.6038362722,4665833.5216966402,-17500.0,-467.58206003859999,1625.8353277859499,346.26703731200524,366.27768611152976,-437.99100123269352,-138.86768542810313,1768.3286758145509,1124.9753526149316,-277.37147448756531,277.37147448756531,-1124.9753526149316,3067.7169877636502,0.0
447154.6038362722,4665833.5216966402,-17500.0,-596.38150133857494,1411.3315177431084,318.79904042593608,361.095706796245,-373.96016702512372,-130.11450795426137,1566.065993923894,903.80102984253517,-237.82153263705885,237.82153263705885,-903.80102984253517,2722.9617625705441,0.0
452154.6038362722,4665833.5216966402,-17500.0,-668.12128847361112,1223.8788338012087,294.29187228350827,342.28425040612075,-317.04628515190927,-116.67731768405285,1387.008174052183,726.59936312079913,-201.06190301278679,201.06190301278679,-726.59936312079913,2417.9084710767202,0.0
457154.6038362722,4665833.5216966402,-17500.0,-700.40628716622518,1061.7622849937975,271.69162667827823,316.73233419185249,-267.99778824796914,-102.07802027710314,1229.662570823707,585.00207284937596,-168.33441343201537,168.33441343201537,-585.00207284937596,2149.3676783215296,0.0
462154.6038362722,4665833.5216966402,-17500.0,-706.04635628394817,922.42431778025627,250.60526496522345,288.65642737466652,-226.45015769590336,-88.045140888900619,1091.9800520583212,471.90046201562609,-139.9645521503929,139.9645521503929,-471.90046201562609,1913.7143070687243,0.0
467154.6038362722,4665833.5216966402,-17500.0,-694.17774774867041,803.05886796334676,230.90924487807968,260.52704966320601,-191.58703206875282,-75.334239096271375,971.7499952080791,381.46041605708871,-115.7885851151097,115.7885851151097,-381.46041605708871,1707.2549872340928,0.0
472154.6038362722,4665833.5216966402,-17500.0,-671.22095008768122,700.93370788159314,212.57117534023774,233.70937683408854,-162.47009498518517,-64.190371071149144,866.81649754220939,308.99041304858588,-95.413080076251262,95.413080076251262,-308.99041304858588,1526.4533407506167,0.0
477154.6038362722,4665833.5216966402,-17500.0,-641.63250526304466,613.54692579999391,195.57455964232872,208.88665544207788,-138.19345924995403,-54.603656745070531,775.18622387092955,250.76248090661318,-78.362743029427818,78.362743029427818,-250.76248090661318,1368.0520935684078,0.0
267154.6038362722,4670833.5216966402,-17500.0,-1745.0275082596929,28.359301543316096,418.38857626719414,-409.39928362835627,18.423465456519697,-73.492810652878788,1129.7656505922591,-472.59628629162569,361.47072667839291,-361.47072667839291,472.59628629162569,2089.1210333397103,0.0
272154.6038362722,4670833.5216966402,-17500.0,-1989.0152398162129,12.813611629841327,481.03281704326707,-481.17696574926083,16.990469248971976,-87.827918274492987,1292.7526969663811,-548.68526030099952,421.64357250164755,-421.64357250164755,548.68526030099952,2390.7277127799748,0.0
277154.6038362722,4670833.5216966402,-17500.0,-2278.8236835526163,-10.688924572728032,555.87201479689963,-568.33107031123927,13.959081544776472,-105.03369259555438,1487.4235159009522,-642.36890706068505,495.58589311263415,-495.58589311263415,642.36890706068505,2751.1374800592525,0.0
282154.6038362722,4670833.5216966402,-17500.0,-2625.496410451944,-45.703394832686648,645.68523387145876,-674.69462628509098,8.4716835872803653,-125.48563383668196,1721.6527491165511,-759.24305871117792,587.48772060274962,-587.48772060274962,759.24305871117792,3185.0924783522887,0.0
287154.6038362722,4670833.5216966402,-17500.0,-3043.4762775657064,-97.502822887300226,753.88604799807558,-805.19395052669449,-0.77371948336450347,-149.38521818885127,2005.7847628959785,-907.2666984074267,703.21741811755192,-703.21741811755192,907.2666984074267,3712.0540711552694,0.0
292154.6038362722,4670833.5216966402,-17500.0,-3551.9637975114001,-174.02116964808783,884.58920616839498,-966.23198218423249,-15.773116993669596,-176.49847258114357,2353.6309426666112,-1098.0275523497926,851.19263102522063,-851.19263102522063,1098.0275523497926,4358.1816270588788,0.0
297154.6038362722,4670833.5216966402,-17500.0,-4176.9755756803215,-287.39247944832908,1042.5694854334824,-1166.2781656874827,-39.62893980557709,-205.66130402773501,2783.9997092526255,-1348.8197836982235,1043.8135148996012,-1043.8135148996012,1348.8197836982235,5159.4227241148546,0.0
302154.6038362722,4670833.5216966402,-17500.0,-4954.5350526629863,-456.51822674261319,1232.9358460657347,-1416.852917042414,-77.256703247729348,-233.87953115280638,3323.1293207420872,-1686.1210090014958,1299.8832013110057,-1299.8832013110057,1686.1210090014958,6166.523740920944,0.0
307154.6038362722,4670833.5216966402,-17500.0,-5935.6980706689483,-711.44205610079757,1460.1174130820614,-1734.3157301028371,-136.65172265249404,-254.76287487694509,4008.6958333867442,-2151.499830772078,1648.7878777441611,-1648.7878777441611,2151.499830772078,7453.4546700023466,0.0
312154.6038362722,4670833.5216966402,-17500.0,-7194.4951231083769,-1100.9476063274108,1725.250320162965,-2143.355034874759,-231.28276107430213,-255.96852539573803,4896.6257845704504,-2811.7401168941615,2137.8357563071304,-2137.8357563071304,2811.7401168941615,9132.0185926154736,0.0
317154.6038362722,4670833.5216966402,-17500.0,-8840.2313455883141,-1705.9202690826337,2019.9159143351008,-2684.1198544965296,-384.86992938756669,-215.48105326023833,6072.9203573423692,-3776.1493863155283,2845.2243659004043,-2845.2243659004043,3776.1493863155283,11377.672104540245,0.0
322154.6038362722,4670833.5216966402,-17500.0,-11035.324115152343,-2662.84157036543,2311.6443176037073,-3427.016581291145,-641.40176504947794,-97.511292328471583,7674.2560862707187,-5225.5440125320793,3902.7352312165081,-3902.7352312165081,5225.5440125320793,14475.163747849278,0.0
327154.6038362722,4670833.5216966402,-17500.0,-14016.998489386006,-4204.0563971043139,2511.1557282980148,-4502.8678013417175,-1086.8466645045703,147.86019310333839,9923.1559352721251,-7458.1977791542549,5534.0203466647008,-5534.0203466647008,7458.1977791542549,18897.025360044645,0.0
332154.6038362722,4670833.5216966402,-17500.0,-18110.680166880142,-6721.7375231613287,2400.6437968139521,-6161.0010538542738,-1896.5883644668247,567.82307923967687,13185.036576050625,-10953.906204792547,8113.7860224330479,-8113.7860224330479,10953.906204792547,25430.105647463271,0.0
337154.6038362722,4670833.5216966402,-17500.0,-23695.550052038827,-10851.305565175773,1486.1366594796025,-8869.0309424908883,-3436.263513034422,1137.4155159672268,18052.934353353528,-16436.081664178459,12242.054899047358,-12242.054899047358,16436.081664178459,35356.935857953613,0.0
342154.6038362722,4670833.5216966402,-17500.0,-31033.320935307642,-17524.924272560595,-1269.3245037067732,-13448.511623360782,-6460.4913033194925,1561.34177474324,25475.768921572897,-24849.506769624128,18787.145034907055,-18787.145034907055,24849.506769624128,50668.829143171504,0.0
347154.6038362722,4670833.5216966402,-17500.0,-39832.415946023058,-27857.364222723943,-7810.973245725213,-21165.825189775736,-12453.741437159821,821.91525653182998,37543.447803357514,-37062.11919663383,28762.798443683721,-28762.798443683721,37062.11919663383,74254.284863365145,0.0
352154.6038362722,4670833.5216966402,-17500.0,-48391.373025144479,-42737.678495952401,-21314.476047126129,-33534.749718524836,-24120.410585641104,-3638.4911906300845,56153.836577976515,-53079.835151342013,42818.96557894718,-42818.96557894718,53079.835151342013,110103.85114850369,0.0
357154.6038362722,4670833.5216966402,-17500.0,-51255.070427081111,-61842.070260040804,-46954.277472445938,-51134.677060339884,-46032.659735599453,-16974.493868681511,83612.800106549461,-70418.973180809073,59940.562023354585,-59940.562023354585,70418.973180809073,163465.0694503611,0.0
362154.6038362722,4670833.5216966402,-17500.0,-33129.15529720093,-75972.706959738163,-92378.868462420825,-68432.692361004578,-83862.217835130563,-47096.748886194742,121387.62990799749,-76704.771825366901,72238.423566996396,-72238.423566996396,76704.771825366901,235247.35443241656,0.0
367154.6038362722,4670833.5216966402,-17500.0,16907.50658275529,-45955.542449462817,-137147.33190305115,-62739.469005071041,-127386.35654736961,-97521.809095278368,156160.83421286062,-33339.225409130435,51527.182353488097,-51527.182353488097,33339.225409130435,293299.98613098974,0.0
372154.6038362722,4670833.5216966402,-17500.0,46322.179533627328,31084.767782013179,-84524.205060534412,-21674.697937804769,-121839.96760308415,-147149.60250439885,155893.30921991027,64313.667521734744,-22094.893119349064,22094.893119349064,-64313.667521734744,279428.20666228281,0.0
377154.6038362722,4670833.5216966402,-17500.0,44326.42386491561,66508.0539698379,44170.572282599969,34634.082461268816,-34134.618132212694,-139531.21330691731,133914.29687989291,123373.24242496271,-103010.86778281331,103010.86778281331,-123373.24242496271,232677.97431195216,0.0
382154.6038362722,4670833.5216966402,-17500.0,29939.703329865784,12532.477423815408,60996.08313610591,14217.830293735102,27764.621608227149,-51203.342301411285,66107.813392844153,56847.401972308733,-62906.19080379494,62906.19080379494,-56847.401972308733,116012.73003344386,0.0
387154.6038362722,4670833.5216966402,-17500.0,22273.163664706699,8303.8322321769319,25192.361373219639,9278.6211244648439,11938.49690127834,-20941.584770086538,30554.95578467369,29316.488552718918,-29745.073205382956,29745.073205382956,-29316.488552718918,53804.3774805422,0.0
392154.6038362722,4670833.5216966402,-17500.0,10987.267734808944,8746.4637427437719,11861.934124207313,6166.1337059926918,5472.7068240645967,-5259.5110280503668,15165.227979914442,15838.036898695686,-12970.053969847999,12970.053969847999,-15838.036898695686,26689.893806051852,0.0
397154.6038362722,4670833.5216966402,-17500.0,5484.404858543423,7605.61886828559,6416.9905931429876,2713.6334780508837,2482.5614687939869,628.14343541629,8129.4460301823046,9423.885588881989,-4934.2661176975125,4934.2661176975125,-9423.885588881989,15591.630469463689,0.0
402154.6038362722,4670833.5216966402,-17500.0,3145.7812127035013,6384.9848299026844,3806.4452248181806,864.64761297702796,706.40083546000494,1665.9779476075294,6469.1962487181636,6584.0222998846475,-1798.0339881731211,1798.0339881731211,-6584.0222998846475,11386.302918055078,0.0
407154.6038362722,4670833.5216966402,-17500.0,1849.7366030066567,5429.8877899690178,2446.4743444390374,328.73890479059992,-294.76313447120782,1188.0028078956832,5459.6353703422974,5123.9093886612518,-830.25348704579255,830.25348704579255,-5123.9093886612518,9498.6723825926438,0.0
412154.6038362722,4670833.5216966402,-17500.0,883.57524553420137,4661.9571819760376,1706.2163727387915,365.52213971524759,-760.60618758305225,561.57471650750836,4764.3198615804504,4123.8716662032284,-606.96095255186287,606.96095255186287,-4123.8716662032284,8269.4154910966845,0.0
417154.6038362722,4670833.5216966402,-17500.0,122.28232789235444,4001.3669767910169,1283.4611120514785,530.7250271181789,-906.82743208343095,130.90828989987662,4188.8164224169195,3312.2711935816933,-567.60462065925003,567.60462065925003,-3312.2711935816933,7258.32091318321,0.0
422154.6038362722,4670833.5216966402,-17500.0,-441.5061929520798,3418.6109588887202,1025.0255865441982,658.15855432646003,-889.27299181921808,-102.91851651185299,3674.0347017447684,2632.2254801229551,-542.15607123267546,542.15607123267546,-2632.2254801229551,6364.0747608590436,0.0
427154.6038362722,4670833.5216966402,-17500.0,-824.3269689726659,2907.2949069725069,853.38373903386548,715.64388043095869,-801.17510791531265,-206.60071627709436,3209.2254893194017,2072.1079154690706,-497.92615608633537,497.92615608633537,-2072.1079154690706,5565.8878154355552,0.0
432154.6038362722,4670833.5216966402,-17500.0,-1059.3093838180989,2465.2092681180629,729.58520477036666,716.09858309104641,-691.65926337019664,-237.27383789908396,2795.0598640620342,1621.1726615942989,-439.45919931979734,439.45919931979734,-1621.1726615942989,4859.0833196078856,0.0
437154.6038362722,4670833.5216966402,-17500.0,-1183.6862251447287,2088.2693107355867,633.97980632217707,680.39154748286023,-583.9350770890245,-231.41509903780292,2431.5680008529853,1264.376157782287,-376.41217208360774,376.41217208360774,-1264.376157782287,4239.5947754234503,0.0
442154.6038362722,4670833.5216966402,-17500.0,-1230.491217690452,1770.1609796044525,556.44202456910011,625.70669849917033,-487.46855012105425,-209.64087258149544,2116.186534294482,985.13262069341158,-315.72574958357103,315.72574958357103,-985.13262069341158,3701.2008163848809,0.0
447154.6038362722,4670833.5216966402,-17500.0,-1225.7120385965659,1503.4403731553234,491.53036127203097,563.63015646681959,-404.97316939156673,-182.73984438386967,1844.5554090962437,767.85876925865216,-261.04186433815073,261.04186433815073,-767.85876925865216,3236.0040040981276,0.0
452154.6038362722,4670833.5216966402,-17500.0,-1188.4126854885471,1280.5611666761995,436.12496445225821,501.13640048981188,-336.11198993793971,-155.95265093561972,1611.5533774764285,599.18126501807683,-213.70047911985745,213.70047911985745,-599.18126501807683,2835.430071551566,0.0
457154.6038362722,4670833.5216966402,-17500.0,-1131.9582930626279,1094.508440531238,388.28194849531894,442.02305369993894,-279.35220709812472,-131.55807155779968,1412.0143537774711,468.20774478076044,-173.72604813202443,173.72604813202443,-468.20774478076044,2491.0228033610529,0.0
462154.6038362722,4670833.5216966402,-17500.0,-1065.4109535955226,939.09161037371734,346.67658930094012,388.08818305738544,-232.84453530299237,-110.32627854279598,1241.1197426736667,366.33283445177381,-140.49964166193104,140.49964166193104,-366.33283445177381,2194.9216381550677,0.0
467154.6038362722,4670833.5216966402,-17500.0,-994.74130976414551,809.02167729401526,310.33132846893977,339.94916791636911,-194.81006602674896,-92.302141747288857,1094.5736647117606,286.8768515858319,-113.1546887275357,113.1546887275357,-286.8768515858319,1940.0927287011277,0.0
472154.6038362722,4670833.5216966402,-17500.0,-923.76540609541837,699.86944309547221,278.47918367230483,297.56712986520665,-163.68632235074304,-77.213874660135147,968.64732208380406,224.70441299097655,-90.787625403550521,90.787625403550521,-224.70441299097655,1720.3922486493063,0.0
477154.6038362722,4670833.5216966402,-17500.0,-854.83100395735357,607.97170200290532,250.49371410747185,260.56762893609215,-138.16179044607159,-64.679099141969559,860.15764202321111,175.88537321797352,-72.558740064011545,72.558740064011545,-175.88537321797352,1530.5389945064678,0.0
267154.6038362722,4675833.5216966402,-17500.0,-1643.813451383659,160.70889413965818,426.29971507346687,-387.18150574315479,45.285581462087997,-70.25904928567536,1092.9826882156817,-334.93104922745454,294.21897978588936,-294.21897978588936,334.93104922745454,2009.3205929323349,0.0
272154.6038362722,4675833.5216966402,-17500.0,-1873.1677623183314,172.42834501260936,492.77948658903733,-454.7229851710639,50.344812561649718,-83.805759526157559,1250.4553315541125,-384.43661491704768,341.09507449891078,-341.09507449891078,384.43661491704768,2298.5003886270847,0.0
277154.6038362722,4675833.5216966402,-17500.0,-2146.2680768233317,183.29511137183943,573.22821950342006,-536.74264061014003,55.687018447501757,-99.98747402854498,1438.7380629326433,-445.04143072657911,398.51022129178369,-398.51022129178369,445.04143072657911,2644.323033016206,0.0
282154.6038362722,4675833.5216966402,-17500.0,-2474.1418148911162,191.99810927450409,671.31286725438167,-636.89583669023136,61.085704383970302,-119.08943846970885,1665.631723747877,-520.4323403042381,469.75174763361241,-469.75174763361241,520.4323403042381,3061.2316902060538,0.0
287154.6038362722,4675833.5216966402,-17500.0,-2871.5165495039919,196.33987520177985,791.83077441260923,-759.92738070454004,66.107863865795764,-141.17623422893567,1941.4758914129186,-616.01794084217613,559.52240557558821,-559.52240557558821,616.01794084217613,3568.4611005487473,0.0
292154.6038362722,4675833.5216966402,-17500.0,-3358.4962571845076,192.64293953551189,941.08731352735663,-912.09892305247467,69.962237171516222,-165.7988789058947,2280.2370175029237,-739.96678880643219,674.75320288218484,-674.75320288218484,739.96678880643219,4192.1662208874995,0.0
297154.6038362722,4675833.5216966402,-17500.0,-3963.2350799906203,174.71616330890865,1127.3852161810078,-1101.887484500151,71.22721322697997,-191.44411271597528,2701.2240822011754,-904.99052753123965,825.99857453518166,-825.99857453518166,904.99052753123965,4968.8360504301809,0.0
302154.6038362722,4675833.5216966402,-17500.0,-4726.3268861415172,132.0119814630547,1361.6187057326149,-1341.22759246706,67.344852772471597,-214.53666856690802,3231.901980209379,-1131.4677676409476,1029.8969458693584,-1029.8969458693584,1131.4677676409476,5950.9966368833193,0.0
307154.6038362722,4675833.5216966402,-17500.0,-5708.191963883417,46.25414011584926,1657.8837308264829,-1647.9078983600657,53.635795156764665,-227.71277951953982,3912.6917660554982,-1453.0095628367376,1313.6156494355246,-1313.6156494355246,1453.0095628367376,7217.1288454320729,0.0
312154.6038362722,4675833.5216966402,-17500.0,-7001.7101723374344,-114.89125081125344,2033.7705450229657,-2050.5065357721664,21.279667632796826,-217.04505971306924,4805.4539529533558,-1926.4834812203571,1723.026194111922,-1723.026194111922,1926.4834812203571,8889.52030856696,0.0
317154.6038362722,4675833.5216966402,-17500.0,-8753.8803063023643,-409.96802063540753,2509.3217147371633,-2598.9914691649124,-47.055489460207461,-158.20463205159973,6008.8743565428776,-2650.1158583282399,2337.8854465053714,-2337.8854465053714,2650.1158583282399,11167.168951829544,0.0
322154.6038362722,4675833.5216966402,-17500.0,-11202.181396543561,-947.42653028836082,3101.7677830455832,-3387.8844225289004,-187.14841907811848,-13.135196120074475,7686.6911110582323,-3795.8191554317305,3299.9230175372963,-3299.9230175372963,3795.8191554317305,14386.84732847896,0.0
327154.6038362722,4675833.5216966402,-17500.0,-14731.800000294317,-1931.8539085899545,3808.1195713351212,-4606.4803026629734,-476.66994235327121,265.62961569914836,10119.156273779296,-5664.9251407476031,4863.5258465497327,-4863.5258465497327,5664.9251407476031,19134.711326753084,0.0
332154.6038362722,4675833.5216966402,-17500.0,-19951.862956566292,-3751.4970339496354,4554.5014389218495,-6643.7625285417662,-1091.5439269584415,699.59771422345102,13794.435942324626,-8776.4699053009444,7481.5777319609533,-7481.5777319609533,8776.4699053009444,26441.763164580472,0.0
337154.6038362722,4675833.5216966402,-17500.0,-27751.240860266058,-7128.0855806467398,5059.2702205333671,-10291.001898839873,-2440.3146550929969,1153.1211961950564,19564.119896880522,-13978.794379163104,11930.510267181613,-11930.510267181613,13978.794379163104,38100.305392027061,0.0
342154.6038362722,4675833.5216966402,-17500.0,-39185.182347244066,-13300.132410474556,4499.8490820087682,-17076.568603555097,-5468.7529226127299,952.4777927862649,28925.795572995634,-22484.902458875222,19422.164335481488,-19422.164335481488,22484.902458875222,57107.168688243422,0.0
347154.6038362722,4675833.5216966402,-17500.0,-54883.18759253907,-23949.411970324745,905.21747015226572,-29655.026395154408,-12262.974217540015,-2047.7749889282309,44761.618779301854,-35427.70967711111,31450.954612057874,-31450.954612057874,35427.70967711111,88127.464204373449,0.0
352154.6038362722,4675833.5216966402,-17500.0,-74110.838549367909,-40108.572998899013,-8930.2060651246029,-51947.553573900805,-26906.007813426426,-13407.999806294401,70983.520589849781,-52048.962664980158,48770.153151420913,-48770.153151420913,52048.962664980158,138095.03133705951,0.0
357154.6038362722,4675833.5216966402,-17500.0,-95263.222281729279,-62011.146633362412,-26585.299457350528,-89589.564636914176,-56644.414676139881,-45888.545438053232,114566.22288891293,-67549.897200781328,69837.329876823467,-69837.329876823467,67549.897200781328,221369.26590878927,0.0
362154.6038362722,4675833.5216966402,-17500.0,-99926.329831818934,-94986.007561692721,-60435.576212424749,-149881.49646573418,-121028.78529730246,-130466.81920607529,194062.51942605045,-70203.855943423026,88386.341827694821,-88386.341827694821,70203.855943423026,376965.01497024379,0.0
367154.6038362722,4675833.5216966402,-17500.0,17607.062995935663,-56090.379470282991,-117384.09388885638,-170439.28407619504,-235628.00324086563,-326593.41241550416,318047.19056427665,53807.864331900557,17593.54642447408,-17593.54642447408,-53807.864331900557,594458.80239498522,0.0
372154.6038362722,4675833.5216966402,-17500.0,139978.74205893785,166908.79968257036,134106.3444490438,46695.791117234912,-47969.560166204414,-423155.7614867675,369108.22188672423,358091.93627278251,-313756.16148151993,313756.16148151993,-358091.93627278251,640990.15085329174,0.0
377154.6038362722,4675833.5216966402,-17500.0,87167.434566855838,19225.415342170185,150670.06229604335,57720.414516127617,162416.8815112173,258579.15066814213,180051.20477190579,7492.309196801576,17118.401715153788,-17118.401715153788,-7492.309196801576,335813.91348448093,1.0
382154.6038362722,4675833.5216966402,-17500.0,107878.18903569934,16098.030878603979,49107.950528228168,-48445.006235540335,63782.323663700328,10769.763481365353,90638.730116867955,74179.342748810901,-33121.532845915732,33121.532845915732,-74179.342748810901,164923.17009676542,0.0
387154.6038362722,4675833.5216966402,-17500.0,36501.246601247345,16198.713469211116,23905.968395784177,9751.2628625861489,20150.976282046227,-24618.580529251689,42389.598691072053,41689.939304063555,-40721.292018159504,40721.292018159504,-41689.939304063555,73587.328710410278,0.0
392154.6038362722,4675833.5216966402,-17500.0,7329.4444861561315,14203.376261912234,13465.710253186404,12785.360403044415,6891.5921133300326,-8569.1950665336153,22720.248607848163,19242.316216566182,-19104.677091937036,19104.677091937036,-19242.316216566182,40324.495210834364,0.0
397154.6038362722,4675833.5216966402,-17500.0,-863.59258184489397,11072.210628959987,8282.1328088628725,7790.2067360142873,2097.5909980692963,-885.14038404157941,14574.629145871593,9932.4477149163358,-7494.0083650814422,7494.0083650814422,-9932.4477149163358,25433.93400759927,0.0
402154.6038362722,4675833.5216966402,-17500.0,-2517.4295857151292,8629.2285107104453,5438.0003380194967,4298.5135746960805,-10.52913822185069,784.37516043828987,10431.920855796699,6372.1977169895381,-2962.8033099072782,2962.8033099072782,-6372.1977169895381,18076.123674263352,0.0
407154.6038362722,4675833.5216966402,-17500.0,-2682.9529276860026,6892.1921774324501,3789.8821246190091,2712.6973576827213,-905.14735785945084,523.59225280576629,8102.2271885889331,4749.3360237464512,-1500.5421077469039,1500.5421077469039,-4749.3360237464512,14087.76357983181,0.0
412154.6038362722,4675833.5216966402,-17500.0,-2672.7463324331852,5599.1139656640134,2786.371809691108,2078.9004469909728,-1184.2053619286382,39.298943138598965,6636.6081467584654,3702.7192114416521,-1057.6040516249757,1057.6040516249757,-3702.7192114416521,11557.444558591927,0.0
417154.6038362722,4675833.5216966402,-17500.0,-2665.020240885106,4584.4765438443792,2139.411783967309,1784.7924608508138,-1173.5490587795277,-266.57452454270111,5560.0124307435071,2880.5533855620547,-882.58473361566291,882.58473361566291,-2880.5533855620547,9698.0575186166898,0.0
422154.6038362722,4675833.5216966402,-17500.0,-2631.4048237536954,3767.3891211270529,1697.298192525581,1583.7738185818707,-1047.2627700128535,-395.93586786620676,4697.5343043457151,2213.28708488947,-759.46159787146735,759.46159787146735,-2213.28708488947,8212.9939040117224,0.0
427154.6038362722,4675833.5216966402,-17500.0,-2550.7419872544779,3104.3894365952196,1379.2042351601126,1402.6157146038602,-889.93671549204362,-418.58584534521896,3984.0883952497757,1682.0013989693489,-643.72581081592045,643.72581081592045,-1682.0013989693489,6985.7686815763564,0.0
432154.6038362722,4675833.5216966402,-17500.0,-2426.1369305709413,2566.1582803055417,1140.6879420978205,1228.8787428052319,-738.32626588353025,-389.44505164450322,3388.8632744604502,1268.6046597651793,-534.07548513092934,534.07548513092934,-1268.6046597651793,5960.4648398622767,0.0
437154.6038362722,4675833.5216966402,-17500.0,-2271.3454329778742,2129.5412231035643,956.1330988222478,1065.732192112087,-605.78230717198994,-340.60793082109467,2891.7031031175193,952.20304014078806,-435.32155493584679,435.32155493584679,-952.20304014078806,5101.5743184202593,0.0
442154.6038362722,4675833.5216966402,-17500.0,-2101.0213624572552,1775.2996974252478,809.94075886197982,917.51110455162836,-495.08296906595211,-288.32887180123265,2476.4849291416149,712.41200473194431,-350.26209355787211,350.26209355787211,-712.41200473194431,4381.6371057260412,0.0
447154.6038362722,4675833.5216966402,-17500.0,-1926.8405121161704,1487.4542553741726,692.07209714761177,786.45050653933902,-404.70335573685423,-239.84632285017537,2129.4911779567001,531.57309817244402,-279.24920345361534,279.24920345361534,-531.57309817244402,3777.6964405823787,0.0
452154.6038362722,4675833.5216966402,-17500.0,-1756.8162354534884,1252.9142093162166,595.73410387187778,672.76279791420734,-331.70750934416526,-197.75618690150228,1839.0290344316002,395.4153061061985,-221.16502412758325,221.16502412758325,-395.4153061061985,3270.2744682302496,0.0
457154.6038362722,4675833.5216966402,-17500.0,-1595.8420123909768,1061.0981508925076,516.13099492259664,575.38181367151321,-272.99518292042103,-162.44993026582432,1595.2561125397997,292.85662971534134,-174.2695495704441,174.2695495704441,-292.85662971534134,2842.941631490597,0.0
462154.6038362722,4675833.5216966402,-17500.0,-1446.5183628232408,903.53768492781444,449.76019964607502,492.61643203487273,-225.78119255898261,-133.37896844200233,1389.9937530414336,215.48483511897729,-136.70880459630297,136.70880459630297,-215.48483511897729,2481.9779823326508,0.0
467154.6038362722,4675833.5216966402,-17500.0,-1309.8950581227834,773.49442236122195,393.99390927346167,422.57814967665104,-187.73118011655154,-109.67430160986437,1216.5063007139026,156.99158083655112,-106.76456679117638,106.76456679117638,-156.99158083655112,2176.0173028045519,0.0
472154.6038362722,4675833.5216966402,-17500.0,-1186.0410911924494,665.62233556018953,346.819422226298,363.42332512577337,-156.95561163165999,-90.43188321631753,1069.2790163428274,112.67388541840899,-82.951640424928655,82.951640424928655,-112.67388541840899,1915.6979954445069,0.0
477154.6038362722,4675833.5216966402,-17500.0,-1074.4450255041834,575.68195387493756,306.66978344262361,313.47124467219038,-131.95234151253914,-74.83068341731547,943.80976261882438,79.031583512454802,-64.035386394635111,64.035386394635111,-79.031583512454802,1693.3342370479788,0.0
482154.6038362722,4675833.5216966402,-17500.0,-974.28217388702399,500.30699777726585,272.30899750652674,271.24881443865081,-111.53784903105452,-62.170648292589135,836.42581055429673,53.457362858680604,-49.012815783920921,49.012815783920921,-53.457362858680604,1502.623678092247,0.0
267154.6038362722,4680833.5216966402,-17500.0,-1508.5079376562239,281.41730949595546,416.27654707909875,-358.15506215142943,69.361441993707089,-66.023812070598765,1045.3975753763473,-199.15753370704653,224.35250086291609,-224.35250086291609,199.15753370704653,1909.4318478627051,0.0
272154.6038362722,4680833.5216966402,-17500.0,-1714.1141150536296,318.22204822948879,481.72295144958099,-419.42316703045833,80.256926486842076,-78.478319222169986,1194.5327231560595,-221.95799687442513,256.91964403046683,-256.91964403046683,221.95799687442513,2180.8901598337034,0.0
277154.6038362722,4680833.5216966402,-17500.0,-1958.3811108412401,360.90553506252655,561.29791641514657,-493.54882695437692,93.152164906106051,-93.235119636417608,1372.6937726433357,-249.07207572863013,296.33512196405559,-296.33512196405559,249.07207572863013,2505.1036822961064,0.0
282154.6038362722,4680833.5216966402,-17500.0,-2251.1204342778742,410.41156338752575,658.92345676470177,-583.71158931774085,108.41626306012118,-110.46126746746171,1587.2525640104345,-282.03819589082559,344.73754309891842,-344.73754309891842,282.03819589082559,2895.5306691431556,0.0
287154.6038362722,4680833.5216966402,-17500.0,-2605.5771740534933,467.7229844222295,779.86283911002499,-694.03446774599036,126.45194524308721,-130.05428882002209,1848.0224073008794,-323.28801897672139,405.26392368353135,-405.26392368353135,323.28801897672139,3370.1631399634107,0.0
292154.6038362722,4680833.5216966402,-17500.0,-3040.110451471277,533.72796533704866,931.26762703580266,-829.97697629248819,147.65685644104963,-151.32604807416544,2168.3441090831752,-376.80202498942583,482.69221619881671,-482.69221619881671,376.80202498942583,3953.612743657382,0.0
297154.6038362722,4680833.5216966402,-17500.0,-3580.969349416654,608.92045374093061,1122.981697215115,-999.01269063270468,172.32915036061175,-172.41744546984472,2566.831101749809,-449.3010037780079,584.59136133839957,-584.59136133839957,449.3010037780079,4680.5174573136719,0.0
302154.6038362722,4680833.5216966402,-17500.0,-4267.0316057344189,692.75532474088322,1368.7349341398105,-1211.9095966661837,200.45106055427436,-189.25278064778053,3070.296197230381,-552.43846566160437,723.43092390955644,-723.43092390955644,552.43846566160437,5601.355326457814,0.0
307154.6038362722,4680833.5216966402,-17500.0,-5158.1293696504663,782.27609619264763,1687.9243701550135,-1485.3518242277228,231.19883494683796,-193.76296975595349,3718.8729486916413,-706.86982357498243,920.52885304023005,-920.52885304023005,706.86982357498243,6792.797870098826,0.0
312154.6038362722,4680833.5216966402,-17500.0,-6350.0035134513964,869.18170829097096,2108.2572205385213,-1847.6360902966258,261.81531899665742,-171.12693397497736,4575.3247893773059,-949.83107075113753,1213.541950250439,-1213.541950250439,949.83107075113753,8376.8425407529921,0.0
317154.6038362722,4680833.5216966402,-17500.0,-8001.4886173405657,933.47735724953077,2669.5570997696623,-2351.5122042928833,284.9358608889591,-96.308863787316099,5742.4771619784779,-1349.1902496508985,1670.7542500977036,-1670.7542500977036,1349.1902496508985,10557.134236395472,0.0
322154.6038362722,4680833.5216966402,-17500.0,-10383.75591452224,929.50863168051671,3428.7359647984067,-3103.595630675035,282.00477499915542,67.448301135333651,7396.4707363527832,-2029.0558325871289,2418.1322105370891,-2418.1322105370891,2029.0558325871289,13688.786819893636,0.0
327154.6038362722,4680833.5216966402,-17500.0,-13966.980881629292,754.77520968637384,4464.2279951146656,-4331.5543096990214,206.45301820422978,357.27342103330227,9850.7168869950692,-3214.7142405863851,3689.194060974708,-3689.194060974708,3214.7142405863851,18412.072467291808,0.0
332154.6038362722,4680833.5216966402,-17500.0,-19561.457364109287,179.76119775444187,5870.9019124330825,-6534.1359758261851,-60.695984896819567,750.65909286046679,13679.104934443207,-5305.7060288929479,5911.6078635510767,-5911.6078635510767,5305.7060288929479,25903.565836698421,0.0
337154.6038362722,4680833.5216966402,-17500.0,-28503.225158596219,-1307.7440686782106,7707.3467429525117,-10800.530873478847,-831.13530824113161,953.14143069391378,19951.861946908593,-8975.6586337697663,9839.7142372638409,-9839.7142372638409,8975.6586337697663,38332.86465340446,0.0
342154.6038362722,4680833.5216966402,-17500.0,-42718.109780117775,-4816.3399695600483,9744.3933755602939,-19431.468549267323,-2942.1580399231539,-238.21605725805699,30667.130743283593,-15230.252592623103,16694.201000043016,-16694.201000043016,15230.252592623103,59636.90328498694,0.0
347154.6038362722,4680833.5216966402,-17500.0,-63827.827432041551,-12376.397672788922,10488.102552774393,-36902.436812547581,-8664.7742202851241,-6655.4811036304,49410.08789370193,-24930.011168705401,27988.557556017127,-27988.557556017127,24930.011168705401,96503.101869508784,0.0
352154.6038362722,4680833.5216966402,-17500.0,-88576.668768479809,-24603.971922497571,4827.8960295880452,-70061.6668700468,-23544.905341324964,-28991.575786417579,81927.959970436787,-34580.09986647842,42951.838977766041,-42951.838977766041,34580.09986647842,157842.77573544119,0.0
357154.6038362722,4680833.5216966402,-17500.0,-103683.69419263767,-23356.983090445297,-7456.6664082821362,-122982.98345143015,-52763.166978317255,-93051.397607180043,136314.7141163827,-16500.885412488999,44417.630374131084,-44417.630374131084,16500.885412488999,252413.38377709576,0.0
362154.6038362722,4680833.5216966402,-17500.0,-107162.66625962652,24048.28181194426,39777.5621553253,-210372.50777337869,-72524.02051966358,-266208.95184261986,259222.75126254407,100209.32915419634,-26667.606279425607,26667.606279425607,-100209.32915419634,469618.34028113773,0.0
367154.6038362722,4680833.5216966402,-17500.0,288945.99593331473,253629.9780841482,213981.23695354807,-50970.678813770042,60997.911656755758,-707061.88516352081,611898.67857175204,614958.09031251399,-555100.95457000379,555100.95457000379,-614958.09031251399,1065329.3795217013,0.0
372154.6038362722,4680833.5216966402,-17500.0,200564.38849152083,46563.937990262886,186742.55379932569,29462.216552009959,564547.17660045275,1503750.0517605175,870478.85769139277,-321040.16397614614,532705.74793273129,-532705.74793273129,321040.16397614614,1637603.5980278158,1.0
377154.6038362722,4680833.5216966402,-17500.0,290765.47274169518,42253.154185574043,115017.69056048458,-216539.48086629505,91199.042445668019,280627.49875710171,255814.2088592517,119575.63951716351,144697.72422649566,-144697.72422649566,-119575.63951716351,447419.44356606487,0.0
382154.6038362722,4680833.5216966402,-17500.0,109634.6290162199,51543.323182897824,48314.356591796968,-18383.389643765808,27899.136023213156,-16558.296998744856,87781.441452744679,106023.21765232817,-49430.742632590758,49430.742632590758,-106023.21765232817,152531.04830253383,0.0
387154.6038362722,4680833.5216966402,-17500.0,19450.012176500171,26034.628218426791,24868.829355822174,26604.350959707761,19398.123058808407,-26686.916445539628,50058.124047676465,41074.326534341541,-47748.819105452552,47748.819105452552,-41074.326534341541,87713.333921972342,0.0
392154.6038362722,4680833.5216966402,-17500.0,-7868.8609062396663,15165.174669280883,16718.327343487883,23465.152537104223,8786.1255030028351,-10619.051425458851,32922.576255362321,14317.729586734196,-23630.641650006626,23630.641650006626,-14317.729586734196,57035.853189198955,0.0
397154.6038362722,4680833.5216966402,-17500.0,-12239.127418696513,10604.326674932056,11393.978786108311,14592.521366859402,2840.4648021619282,-2554.5070666513502,21642.618758724071,5772.3778485074508,-9881.675042927367,9881.675042927367,-5772.3778485074508,37733.578044063986,0.0
402154.6038362722,4680833.5216966402,-17500.0,-10720.39536612037,8164.9547864135129,7903.6761772130567,8734.1652439619811,130.64191289379326,-520.70583506438857,14859.960477269156,3437.5857001103814,-4318.810154590522,4318.810154590522,-3437.5857001103814,26264.758694535973,0.0
407154.6038362722,4680833.5216966402,-17500.0,-8641.5260220327491,6538.5643895710455,5657.6468776303791,5716.3141576796133,-905.32419088131655,-463.43183760481691,11014.290473039555,2668.7633404741518,-2364.0101210467419,2364.0101210467419,-2668.7633404741518,19574.310678037142,0.0
412154.6038362722,4680833.5216966402,-17500.0,-7071.4250672550697,5299.6302489407144,4182.5584548175084,4165.3645485549159,-1177.5806825154057,-674.42602794121046,8647.5173164205589,2154.761004915732,-1629.9207738196537,1629.9207738196537,-2154.761004915732,15363.955761129635,0.0
417154.6038362722,4680833.5216966402,-17500.0,-5958.497295748306,4309.3583033871637,3179.7566376820223,3256.1622203993802,-1139.2636526143629,-767.03856926197591,6996.1456755682066,1682.0485869229792,-1259.4036896245898,1259.4036896245898,-1682.0485869229792,12427.039459227595,0.0
422154.6038362722,4680833.5216966402,-17500.0,-5126.2592679602176,3510.980825777362,2474.0214996935338,2632.993994842438,-995.60480133355259,-741.81808523412769,5747.5956353052661,1263.1595446439212,-1002.1092958999795,1002.1092958999795,-1263.1595446439212,10218.474749337258,0.0
427154.6038362722,4680833.5216966402,-17500.0,-4460.2480659595485,2868.8370635139927,1962.1338671835961,2158.7046690202201,-832.60709318486943,-656.94005074051267,4766.0853695519927,918.93712242491051,-795.59337236922215,795.59337236922215,-918.93712242491051,8487.4168284973839,0.0
432154.6038362722,4680833.5216966402,-17500.0,-3902.0189170105064,2353.8839565558242,1581.3508038616696,1779.6828739610355,-682.69413131264787,-554.4036851407302,3980.3695422700521,650.94560306645008,-625.67636570969762,625.67636570969762,-650.94560306645008,7102.1120454445545,0.0
437154.6038362722,4680833.5216966402,-17500.0,-3423.0417321743921,1941.294383060869,1292.0618127237606,1471.533750668774,-555.42674051261918,-455.74007656243322,3345.3626475400888,449.31515878357533,-487.57431566010877,487.57431566010877,-449.31515878357533,5981.0993115616229,0.0
442154.6038362722,4680833.5216966402,-17500.0,-3008.2211847387648,1610.2717578802133,1068.3405719564819,1219.9228066464434,-451.23571745824768,-369.55094218681631,2828.8439588814754,300.81580728526586,-377.20433758666803,377.20433758666803,-300.81580728526586,5067.4091594325446,0.0
447154.6038362722,4680833.5216966402,-17500.0,-2648.0309461114671,1343.8607282827327,892.66908381659141,1014.3911149105925,-367.35688996402365,-297.82725722913005,2406.3781810550722,192.94103079589414,-290.16368847281353,290.16368847281353,-192.94103079589414,4318.3740037783373,0.0
452154.6038362722,4680833.5216966402,-17500.0,-2335.2510638812937,1128.5155438859399,752.88451932473174,846.49082138547158,-300.28887116301286,-239.65456522233248,2058.9764267206083,115.33347681587344,-222.13046076054121,222.13046076054121,-115.33347681587344,3701.0028774351658,0.0
457154.6038362722,4680833.5216966402,-17500.0,-2063.7592874599645,953.55151896961161,640.34450345197081,709.21841810300566,-246.73274648890992,-193.09717842682113,1771.7425550471489,59.949861782987476,-169.23830619164855,169.23830619164855,-59.949861782987476,3189.4316851019098,0.0
462154.6038362722,4680833.5216966402,-17500.0,-1828.1369230711443,810.59882371241702,548.78509177617252,596.78419858246127,-203.88717615026968,-156.06390133085816,1532.9429499348278,20.753856851910726,-128.23391758771527,128.23391758771527,-20.753856851910726,2763.2543709784181,0.0
467154.6038362722,4680833.5216966402,-17500.0,-1623.5587590160626,693.11907201231213,473.58815048448787,504.44841224152896,-169.48348652206471,-126.658448790153,1333.3103818781929,-6.7016088330549621,-96.482515612731987,96.482515612731987,6.7016088330549621,2406.3118130809848,0.0
472154.6038362722,4680833.5216966402,-17500.0,-1445.7574885931119,596.00349568168917,411.2970659277143,428.36571651305769,-141.72677556521791,-103.28729088568369,1165.5040017583897,-25.661023651780965,-71.899894464921829,71.899894464921829,25.661023651780965,2105.7656455123565,0.0
477154.6038362722,4680833.5216966402,-17500.0,-1290.9970722089058,515.25205883123112,359.28998727650344,365.43682647697904,-119.21298256802302,-84.662305861380105,1023.6895260495958,-38.480644404524753,-52.860607007099816,52.860607007099816,38.480644404524753,1851.3815850217154,0.0
482154.6038362722,4680833.5216966402,-17500.0,-1156.0369985956825,447.72229786411589,315.55445630971531,313.17372604290495,-100.84886091308202,-69.763787127567952,903.21239134148891,-46.869186257386886,-38.107243238316173,38.107243238316173,46.869186257386886,1634.9712898770047,0.0
267154.6038362722,4685833.5216966402,-17500.0,-1344.7735797084213,384.44960475940434,390.43282725281398,-323.47479772922884,89.50350434122538,-60.945989267683174,988.30459642169535,-71.14240426696783,154.9925014834667,-154.9925014834667,71.14240426696783,1792.4267511769581,0.0
272154.6038362722,4685833.5216966402,-17500.0,-1519.0385904748118,442.13320402500932,450.50455828876119,-376.79142329708094,105.15745142910214,-72.061370444813321,1126.6247657453434,-68.995228060168444,173.24159076212035,-173.24159076212035,68.995228060168444,2041.6890382936392,0.0
277154.6038362722,4685833.5216966402,-17500.0,-1724.3267179661709,511.23309893868117,523.37960641094389,-440.74837512543172,124.18200742367614,-85.072666027637837,1291.3802146880353,-64.813208394437382,194.57093046363082,-194.57093046363082,64.813208394437382,2338.3529706655745,0.0
282154.6038362722,4685833.5216966402,-17500.0,-1968.172594798215,594.5648611466637,612.61777507053398,-517.79803768335034,147.41664142022032,-100.01188973664765,1489.1906442805573,-58.080227124147569,219.893613939652,-219.893613939652,58.080227124147569,2694.2965205176288,0.0
287154.6038362722,4685833.5216966402,-17500.0,-2260.7378460806913,695.78126014027555,723.02469219424643,-611.06428203450309,175.9261619777476,-116.59649875803144,1728.8608483937462,-48.335621170429746,250.63460002061447,-250.63460002061447,48.335621170429746,3125.3729014040368,0.0
292154.6038362722,4685833.5216966402,-17500.0,-2616.1607192293782,819.66694597562491,861.18837523838442,-724.62376587802498,211.05796145248934,-133.90224243856386,2022.3670557566124,-35.399522176820753,289.13609236602559,-289.13609236602559,35.399522176820753,3653.2617626403899,0.0
297154.6038362722,4685833.5216966402,-17500.0,-3054.8506265872029,972.55392491307362,1036.2961106415553,-864.02571039986015,254.50672927735258,-149.77137658984265,2386.4607137371731,-19.857534027962771,339.42646371342073,-339.42646371342073,19.857534027962771,4308.5249564456335,0.0
302154.6038362722,4685833.5216966402,-17500.0,-3607.5244822147924,1162.9134323704729,1261.4071121104121,-1037.3548519112201,308.37868077621658,-159.780008169609,2845.395562853259,-4.0498913659525044,408.69322264654579,-408.69322264654579,4.0498913659525044,5135.8850534133526,0.0
307154.6038362722,4685833.5216966402,-17500.0,-4322.5136967284916,1402.204044707071,1555.4860844721702,-1257.5730216207612,375.23341187488847,-155.53653680592475,3435.7721391636164,5.9887421561920746,510.11783056732077,-510.11783056732077,-5.9887421561920746,6203.7478872117281,0.0
312154.6038362722,4685833.5216966402,-17500.0,-5279.2814714749729,1706.077782804814,1946.7445601197662,-1547.9181237218352,458.04770847424237,-122.18182625801245,4215.4860897253511,-3.1247363210856633,668.31605520770586,-668.31605520770586,3.1247363210856633,7622.0385424118349,0.0
317154.6038362722,4685833.5216966402,-17500.0,-6613.7212398641996,2096.0321611496543,2478.295906622755,-1954.6430662958603,559.95692915717848,-35.721930999148135,5280.7738996880398,-58.626429309869764,929.61931012587456,-929.61931012587456,58.626429309869764,9576.5424080286539,0.0
322154.6038362722,4685833.5216966402,-17500.0,-8565.4189286519977,2601.3916651780005,3218.0113033222938,-2577.2716176613717,683.37428142462022,136.08802075065486,6799.4186066778238,-212.09857709681114,1380.7982038746709,-1380.7982038746709,212.09857709681114,12396.029814303529,0.0
327154.6038362722,4685833.5216966402,-17500.0,-11564.1223741591,3260.5268567535718,4276.1393666012837,-3639.9705695310736,827.27328657533235,415.16782144607674,9076.7292935950882,-553.06815500216123,2180.5862836717565,-2180.5862836717565,553.06815500216123,16684.022299896478,0.0
332154.6038362722,4685833.5216966402,-17500.0,-16380.101073350785,4116.1492207409929,5837.0532300811656,-5656.7267446485221,978.51528637347621,730.92907605841185,12690.232381056863,-1215.9571622940073,3604.2656821485289,-3604.2656821485289,1215.9571622940073,23578.106435981674,0.0
337154.6038362722,4685833.5216966402,-17500.0,-24358.950327774131,5182.3780192840477,8213.4054215012948,-9803.2359821518767,1081.0977959274112,638.49261367951999,18774.239516877962,-2344.0916696117702,6080.6569416480825,-6080.6569416480825,2344.0916696117702,35270.280104642901,0.0
342154.6038362722,4685833.5216966402,-17500.0,-37688.937595478601,6286.1308967414689,11907.549414801006,-18738.071793157273,906.94133705185152,-1549.2001976440449,29626.301913692922,-3910.4870193532101,10140.272070453413,-10140.272070453413,3910.4870193532101,56105.686724561769,0.0
347154.6038362722,4685833.5216966402,-17500.0,-59091.72613433373,6373.3179242505266,17400.254497753289,-38445.515905322682,-614.69468994013812,-11412.922262749384,49949.133691682051,-5082.6134550729994,16030.34548896092,-16030.34548896092,5082.6134550729994,95049.510623641792,0.0
352154.6038362722,4685833.5216966402,-17500.0,-85029.595684214888,1558.9812850875285,22102.121124191475,-81722.406579949005,-9416.8487549529473,-47771.842209724877,89419.616260217736,-442.94758314582214,21180.644584873757,-21180.644584873757,442.94758314582214,170829.84354952196,0.0
357154.6038362722,4685833.5216966402,-17500.0,-47127.907057039287,6567.7988649364816,6693.4365676915077,-146195.2123143714,-48539.792069698728,-174941.67612479292,171176.53046284287,62983.009604373423,-14638.291138901372,14638.291138901372,-62983.009604373423,312136.2969554743,0.0
362154.6038362722,4685833.5216966402,-17500.0,159884.0305722178,143861.4036299384,93603.713701144021,-9333.7052977885251,54595.084188728826,-327497.71148435358,305853.03528198111,311533.27684445685,-287290.64558751759,287290.64558751759,-311533.27684445685,530020.52863408264,0.0
367154.6038362722,4685833.5216966402,-17500.0,406760.16694051819,-100783.31106786002,206287.74594106301,569198.59802066209,-135675.35624475873,355056.23236212542,588678.06601230672,-28887.085117381539,11358.564417645071,-11358.564417645071,28887.085117381539,1044104.2293296373,0.0
372154.6038362722,4685833.5216966402,-17500.0,145609.6058994121,214512.39444740859,318131.0118546483,-113536.33965908751,-393579.05601954635,904357.54149562086,583556.96003238962,32193.923715299985,732289.76448786212,-732289.76448786212,-32193.923715299985,1056405.9011883333,1.0
377154.6038362722,4685833.5216966402,-17500.0,192963.56676183044,138355.63026527394,108181.5870717917,-119350.39682938783,-22443.551513103561,91418.054822016085,186107.43580287389,199180.14048370186,50066.155209155491,-50066.155209155491,-199180.14048370186,332508.31193558098,1.0
382154.6038362722,4685833.5216966402,-17500.0,56273.799739131529,40716.157924243555,46491.124637435023,33752.910228851601,36178.435891540226,-56262.554631817547,89299.11764472301,82950.263261286178,-88153.579372738968,88153.579372738968,-82950.263261286178,154845.26554296134,0.0
387154.6038362722,4685833.5216966402,-17500.0,-9720.4203961890926,12839.232501576003,25624.374208203084,46889.772160675755,25499.348567893452,-30534.915616122013,61533.599348310439,18729.086670910572,-54173.115895521056,54173.115895521056,-18729.086670910572,107048.22268921394,0.0
392154.6038362722,4685833.5216966402,-17500.0,-24181.72158908406,5477.4174760675769,17463.620486000953,32766.067129168932,13087.316846101621,-11532.401857291008,40848.837658222656,61.189866777171119,-25670.46731286031,25670.46731286031,-61.189866777171119,72057.198929961873,0.0
397154.6038362722,4685833.5216966402,-17500.0,-22828.384491079105,4215.7307004660042,12766.747094623597,20333.526571001028,5276.6091706627167,-4052.4520532304014,26847.999532101749,-2931.7362627716902,-11457.563417243735,11457.563417243735,2931.7362627716902,48253.695435912436,0.0
402154.6038362722,4685833.5216966402,-17500.0,-18257.659019690487,4120.7446826550276,9428.2685234885848,12762.764898157087,1487.7739205568055,-2010.9455277958036,18430.701932215365,-2062.1796662122683,-5597.5932627344973,5597.5932627344973,2062.1796662122683,33569.442624719508,0.0
407154.6038362722,4685833.5216966402,-17500.0,-14211.884525145111,3914.1641324511834,7009.6556834412868,8588.1172270761253,-70.485969636491745,-1608.5331548502966,13534.261591003084,-1027.0169517668583,-3288.2011594152445,3288.2011594152445,1027.0169517668583,24677.518647975157,0.0
412154.6038362722,4685833.5216966402,-17500.0,-11240.222690126926,3513.8146828557474,5271.0799377204739,6198.6707105802843,-612.75303690941996,-1470.3019734563843,10448.563046570598,-461.28529536296446,-2246.4210509513077,2246.4210509513077,461.28529536296446,18978.882557702549,0.0
417154.6038362722,4685833.5216966402,-17500.0,-9098.2383523842236,3038.3762587711526,4020.2825360609691,4692.2890706515645,-735.13726734438592,-1300.8706516062346,8299.9135626673487,-237.39346122212453,-1650.7099274844268,1650.7099274844268,237.39346122212453,15032.425078707085,0.0
422154.6038362722,4685833.5216966402,-17500.0,-7506.3592960346259,2574.0793959849625,3112.5754563620967,3651.6174673955488,-698.2729906684192,-1097.2669118073604,6705.3185625255246,-179.88802237391394,-1241.5010946977395,1241.5010946977395,179.88802237391394,12129.46193029952,0.0
427154.6038362722,4685833.5216966402,-17500.0,-6278.681841029259,2159.9107098528248,2445.48559985565,2887.5251652149013,-610.58559023385442,-894.92907550989366,5480.2538829087052,-185.28476218936009,-936.66181235981992,936.66181235981992,185.28476218936009,9912.3469794987614,0.0
432154.6038362722,4685833.5216966402,-17500.0,-5303.7756804369119,1806.7537421325389,1948.2692438545496,2307.0188269742698,-515.25746274054234,-715.58746731858901,4520.7194373611146,-205.91935625133749,-704.57025945092835,704.57025945092835,205.91935625133749,8180.8578546018816,0.0
437154.6038362722,4685833.5216966402,-17500.0,-4513.9300274258303,1512.3949780157593,1572.3323260211187,1857.813859267309,-428.08262669684933,-566.45189044931658,3759.851038897883,-223.59425039621817,-527.77335306455586,527.77335306455586,223.59425039621817,6809.257112360795,0.0
442154.6038362722,4685833.5216966402,-17500.0,-3865.4623017306876,1269.6830085186516,1284.124773165441,1506.4726592150773,-353.58498629071875,-446.7419569615293,3150.8937335230389,-233.3099887013712,-393.68007126368849,393.68007126368849,233.3099887013712,5711.4472080558826,0.0
447154.6038362722,4685833.5216966402,-17500.0,-3328.1743982130542,1070.370707201964,1060.2498820338137,1229.6253323386268,-291.85277619546628,-352.46009397418982,2659.6109776122503,-235.20940111358954,-292.37293494767908,292.37293494767908,235.20940111358954,4825.245717611283,0.0
452154.6038362722,4685833.5216966402,-17500.0,-2879.9472744209102,906.72290563417778,884.19188464704212,1010.1167428194371,-241.41931385709148,-278.88957506888062,2260.3181270655637,-231.02121300011504,-216.01289321128729,216.01289321128729,231.02121300011504,4104.363320120221,0.0
457154.6038362722,4685833.5216966402,-17500.0,-2503.9099800617937,772.06596835845437,744.14085140536486,835.04757413736797,-200.44988328908002,-221.6697890950739,1933.4838254620984,-222.64650570097666,-158.50579074306557,158.50579074306557,222.64650570097666,3513.7350130627178,0.0
462154.6038362722,4685833.5216966402,-17500.0,-2186.8558530267205,660.86993922513898,631.54061951242682,694.60488068034931,-167.20124677977574,-177.14828158088372,1664.1212719529917,-211.68390263519203,-115.1900155663748,115.1900155663748,211.68390263519203,3026.4953808378764,0.0
467154.6038362722,4685833.5216966402,-17500.0,-1918.283142885685,568.64730150229127,540.11354969104218,581.27745052927673,-140.17222865213031,-142.4117911898376,1440.6507335903814,-199.33523551006726,-82.540840445758136,82.540840445758136,199.33523551006726,2621.8908336256627,0.0
472154.6038362722,4685833.5216966402,-17500.0,-1689.7567727569101,491.7939277382003,465.19689089655401,489.29057565098361,-118.12706409097788,-115.19571114753235,1254.0670311757426,-186.44651727759219,-57.911639642986657,57.911639642986657,186.44651727759219,2283.7739194202431,0.0
477154.6038362722,4685833.5216966402,-17500.0,-1494.4574936599788,427.42851034129859,403.28718481487454,414.18735730496576,-100.07122388865719,-93.76329350793894,1097.3245816800688,-173.58439256585152,-39.32191283347376,39.32191283347376,173.58439256585152,1999.5001343519191,0.0
267154.6038362722,4690833.5216966402,-17500.0,-1160.2698239930783,465.16084954672164,352.2063474934854,-284.66239564925587,104.84865053540608,-55.231366001713958,923.41834022287424,43.964479445783013,89.173064127806015,-89.173064127806015,-43.964479445783013,1662.0924858644551,0.0
272154.6038362722,4690833.5216966402,-17500.0,-1297.9269690026338,537.96534804556529,403.62868803003238,-328.86668712362348,123.86923097754837,-64.83682111384573,1048.9560023526315,67.651763459477209,94.088912936210974,-94.088912936210974,-67.651763459477209,1885.8266754848162,0.0
277154.6038362722,4690833.5216966402,-17500.0,-1457.2632219215516,625.89301739272082,465.4346927647108,-381.10271574832655,147.15013406948509,-75.889734182693843,1197.7129994377847,98.635444506407794,98.632949327724759,-98.632949327724759,-98.635444506407794,2150.5579724512118,0.0
282154.6038362722,4690833.5216966402,-17500.0,-1642.8356138648205,732.93112497125685,540.36862364840965,-442.93752114651869,175.807614668355,-88.28439886878391,1375.3087378713731,139.081914829808,102.60141549796076,-102.60141549796076,-139.081914829808,2466.1665433684698,0.0
287154.6038362722,4690833.5216966402,-17500.0,-1860.6569166202225,864.3856886060139,632.09453558629968,-516.25864493983636,211.28614439925133,-101.56585571923291,1589.1673144689844,191.77088084640621,105.84933723818587,-105.84933723818587,-191.77088084640621,2845.7365816720244,0.0
292154.6038362722,4690833.5216966402,-17500.0,-2118.9754908178274,1027.4369729272928,745.57952964833464,-603.39238757543762,255.4659688745862,-114.60644524542701,1849.3255181564905,260.22444500633628,108.45991797383944,-108.45991797383944,-260.22444500633628,3307.0320874902868,0.0
297154.6038362722,4690833.5216966402,-17500.0,-2429.6540196296942,1231.9999898929775,887.67191244041408,-707.36818712589195,310.81563343096872,-125.03785916492976,2169.7517458633965,348.8204543891909,111.11609076418654,-111.11609076418654,-348.8204543891909,3874.9379723809825,0.0
302154.6038362722,4690833.5216966402,-17500.0,-2810.6830713075419,1492.1092645713927,1067.9944363534726,-832.56652444498457,380.62473833450781,-128.29126396960388,2570.6007648144373,462.85485035195552,115.87146824362628,-115.87146824362628,-462.85485035195552,4585.6874126011371,0.0
307154.6038362722,4690833.5216966402,-17500.0,-3290.8541741824697,1828.2429738224923,1300.3577360998797,-986.34955853256906,469.40183794052172,-116.08059475719675,3082.236491598821,608.53060594499789,127.67707234339551,-127.67707234339551,-608.53060594499789,5494.4921094365181,0.0
312154.6038362722,4690833.5216966402,-17500.0,-3918.5189279224405,2271.4022864852809,1605.060082809666,-1183.1593565157325,583.65827948984156,-74.334421370153194,3752.6758514020507,792.99833787265698,157.24437537414457,-157.24437537414457,-792.99833787265698,6689.7979749748911,0.0
317154.6038362722,4690833.5216966402,-17500.0,-4777.8785277059651,2870.5980566104481,2012.7418809055862,-1454.6777275099023,733.67342465237812,18.512897110318086,4661.7340504364429,1025.2312881504131,225.95515013165164,-225.95515013165164,-1025.2312881504131,8320.5477163205196,0.0
322154.6038362722,4690833.5216966402,-17500.0,-6018.3394731597809,3707.1650518831493,2571.0661093098761,-1874.5000436842065,937.87112277072231,188.60121441029315,5948.4181893616405,1320.8745883033421,372.77140705298382,-372.77140705298382,-1320.8745883033421,10648.912907105137,0.0
327154.6038362722,4690833.5216966402,-17500.0,-7903.5934373677046,4923.0627628076654,3356.7647936566382,-2616.3212025390453,1234.2775425376863,443.97268505216783,7865.1074942711093,1721.8033516913661,658.43092820721267,-658.43092820721267,-1721.8033516913661,14152.608124433948,0.0
332154.6038362722,4690833.5216966402,-17500.0,-10880.236445959845,6778.143139251375,4498.5511474394789,-4085.404860004729,1711.2489364132289,684.89516220188727,10888.914444402948,2363.8036994915883,1143.7186827541768,-1143.7186827541768,-2363.8036994915883,19725.315335666641,0.0
337154.6038362722,4690833.5216966402,-17500.0,-15626.748328958707,9767.6583307745732,6224.506986525319,-7198.4336606473835,2590.3751098301668,410.90394629168486,15963.757039583223,3690.0695681373559,1756.8009745569602,-1756.8009745569602,-3690.0695681373559,29086.848123614567,0.0
342154.6038362722,4690833.5216966402,-17500.0,-22888.560600321638,14868.58035980971,8975.322683871369,-13941.525528172071,4450.7839933569139,-2157.9913483096489,25058.986719777622,7095.9738972478244,1770.843022814915,-1770.843022814915,-7095.9738972478244,45719.339483123527,0.0
347154.6038362722,4690833.5216966402,-17500.0,-32154.820927838227,24117.665896238654,13740.70632796393,-28450.529753632789,8861.9799164352498,-12792.757265087617,42651.332961041277,17031.814821399352,-2121.3241453263645,2121.3241453263645,-17031.814821399352,77469.634241803768,0.0
352154.6038362722,4690833.5216966402,-17500.0,-31416.035953137685,42780.06500621036,23205.057385079694,-57983.386540506319,20722.496206637683,-52117.735407578955,81353.323607251237,50845.492583823121,-25500.927844306985,25500.927844306985,-50845.492583823121,146313.56886137195,0.0
357154.6038362722,4690833.5216966402,-17500.0,123865.54020122343,95427.656253578389,37497.524555141201,-24102.502390985766,72162.458198549371,-179986.26770696082,198279.46976863639,195815.20026801838,-182697.13142523167,182697.13142523167,-195815.20026801838,343841.01459054829,0.0
362154.6038362722,4690833.5216966402,-17500.0,141632.39267467736,59015.650196255774,-2602.2906836661459,92051.004494551831,45927.291300609832,898732.25930139923,468323.40198063821,-208609.04314498923,448281.79755239427,-448281.79755239427,208609.04314498923,863365.83376428089,1.0
367154.6038362722,4690833.5216966402,-17500.0,211711.72733563549,-19193.27893248179,166739.38588126918,48050.902306265125,-47614.696268880194,226563.2917418163,74063.786117022086,44767.592478531122,107647.8628986431,-107647.8628986431,-44767.592478531122,133207.66304915538,1.0
372154.6038362722,4690833.5216966402,-17500.0,73222.743900681453,93020.80835077689,211570.9383142475,-12165.005306675326,-110729.3634936632,151355.29096575023,156356.78533715016,118072.62032721705,117362.55075156847,-117362.55075156847,-118072.62032721705,278605.40417793277,1.0
377154.6038362722,4690833.5216966402,-17500.0,86413.407471562939,72957.297145288729,64609.401637219402,-10651.060515587295,24058.410104515773,-19172.604632849903,92914.620635937958,117738.86786899857,-53650.520011424975,53650.520011424975,-117738.86786899857,165428.77857076979,0.0
382154.6038362722,4690833.5216966402,-17500.0,23549.967933655935,8046.1390200423548,17341.05502953914,47365.649474501966,52382.965615290705,-49776.843380035578,80772.069052734092,32419.910687618598,-85109.272485946043,85109.272485946043,-32419.910687618598,141833.53849380341,0.0
387154.6038362722,4690833.5216966402,-17500.0,-19357.033618948255,-9007.7394246837684,11799.257880437461,48919.012688453862,33935.352608238267,-25521.324480994299,61170.156288401689,-7666.1801246291652,-49769.489203554615,49769.489203554615,7666.1801246291652,109900.96182753009,0.0
392154.6038362722,4690833.5216966402,-17500.0,-29276.597128848582,-8430.1094331548975,11046.07809290833,34358.574844795308,17767.696014387431,-10618.56429280042,42097.113059147836,-14826.266503305738,-24263.641998152325,24263.641998152325,14826.266503305738,76964.321761876403,0.0
397154.6038362722,4690833.5216966402,-17500.0,-26981.728723925029,-4848.8151517429069,10065.645933977756,22524.329109553546,8361.8471654705918,-5122.9010216086481,28667.591434763974,-12068.774396012304,-11972.650028208489,11972.650028208489,12068.774396012304,53318.241088600538,0.0
402154.6038362722,4690833.5216966402,-17500.0,-22114.078292458329,-1938.0951810291006,8546.507404490214,15076.061405677319,3619.1923265680903,-3368.4513865673493,20328.639539176733,-8189.4114759651129,-6582.8154694985897,6582.8154694985897,8189.4114759651129,38067.641426665839,0.0
407154.6038362722,4690833.5216966402,-17500.0,-17640.061915690898,-218.57053405195217,6913.7941655203686,10570.628464134081,1406.8267278649892,-2672.6210687166413,15183.02087749694,-5364.2579654060901,-4116.2342662843985,4116.2342662843985,5364.2579654060901,28296.697818754714,0.0
412154.6038362722,4690833.5216966402,-17500.0,-14114.227921994283,634.72876383785695,5465.6846506993661,7731.554215494798,414.97413737833057,-2199.1222642366424,11751.407707593284,-3615.1398177114179,-2810.5615128543568,2810.5615128543568,3615.1398177114179,21750.908861308941,0.0
417154.6038362722,4690833.5216966402,-17500.0,-11420.132577271192,989.0314256548254,4292.2193463012873,5826.2295727966784,-14.485717526876993,-1780.4186629971728,9295.1486902923862,-2568.0983177577082,-2001.7025310471317,2001.7025310471317,2568.0983177577082,17120.442224172712,0.0
422154.6038362722,4690833.5216966402,-17500.0,-9348.2419324861912,1085.2155902237575,3378.659494329369,4477.9689509904583,-187.65723092029583,-1411.4088414600792,7460.7065718110589,-1924.956435963157,-1447.9126913915354,1447.9126913915354,1924.956435963157,13702.240297519147,0.0
427154.6038362722,4690833.5216966402,-17500.0,-7730.3525066146049,1057.7922788798421,2678.1003579569183,3489.3617685523427,-244.53960131233691,-1102.7927647935051,6056.2399431340928,-1508.0508426091451,-1051.3878590789955,1051.3878590789955,1508.0508426091451,11105.895056529474,0.0
432154.6038362722,4690833.5216966402,-17500.0,-6448.3017002215392,976.97132761983369,2142.1923206335437,2748.1524644555952,-249.60834181966837,-855.30186925920816,4963.8403408712111,-1220.6811175728167,-762.99539835708993,762.99539835708993,1220.6811175728167,9096.0959112433429,0.0
437154.6038362722,4690833.5216966402,-17500.0,-5420.0524394543863,877.99391031234143,1730.5792225625264,2184.2985583246109,-232.87935732741099,-662.01449001749097,4104.3207761821577,-1011.1957372546727,-552.34219706903707,552.34219706903707,1011.1957372546727,7519.0611358294045,0.0
442154.6038362722,4690833.5216966402,-17500.0,-4587.2943025952209,777.84998977733892,1412.1133958206253,1750.7886509557086,-208.36679458419863,-513.26125982003884,3421.5521091645342,-851.4883884005402,-398.31793869598562,398.31793869598562,851.4883884005402,6268.1765649190993,0.0
447154.6038362722,4690833.5216966402,-17500.0,-3907.3511631571528,684.18488485933767,1163.5213745725891,1414.5531061366005,-182.51423868715483,-399.54976560277294,2874.5054582501966,-725.61205894733769,-285.63213967864647,285.63213967864647,725.61205894733769,5266.6828123725427,0.0
452154.6038362722,4690833.5216966402,-17500.0,-3348.211097125371,599.93619258769695,967.62426325658703,1151.6818653874918,-158.13740717057112,-312.75841339949847,2432.6470610963256,-624.00156684258343,-203.11222721688785,203.11222721688785,624.00156684258343,4458.0040160623948,0.0
457154.6038362722,4690833.5216966402,-17500.0,-2885.4156815095466,525.72880505034993,811.76794599739503,944.60509144052503,-136.31016957019904,-246.3934079650291,2072.9845715301285,-540.56030757346048,-142.60646815294683,142.60646815294683,540.56030757346048,3799.7901844818211,0.0
462154.6038362722,4690833.5216966402,-17500.0,-2500.0281486732647,461.10823859371965,686.60098316193717,780.27619797841339,-117.28305914864099,-195.44649310435085,1778.0494682591111,-471.16971597743424,-98.184492823758262,98.184492823758262,471.16971597743424,3259.9809810945817,0.0
467154.6038362722,4690833.5216966402,-17500.0,-2177.2410471043695,405.17005310740814,585.170194324514,648.93087309295902,-100.93507644695477,-156.12884819415493,1534.4668717061968,-412.90416850409957,-65.53894151346168,65.53894151346168,412.90416850409957,2814.0812262325567,0.0
472154.6038362722,4690833.5216966402,-17500.0,-1905.3843829698626,356.87533547616982,502.26569747871349,543.21119349088917,-86.995767505572999,-125.6013881997673,1331.9212442204439,-363.60011608722129,-41.540807831940128,41.540807831940128,363.60011608722129,2443.2215937004862,0.0
477154.6038362722,4690833.5216966402,-17500.0,-1675.2013553017985,315.20325079458502,433.95134540368224,457.53721124502573,-75.152840549745932,-101.74455807732001,1162.4014988070667,-321.60800905876681,-23.91336130875905,23.91336130875905,321.60800905876681,2132.7575505902832,0.0
267154.6038362722,4695833.5216966402,-17500.0,-963.92343964343809,520.78209257518972,305.92517666276052,-243.46963103350075,114.90428906775456,-49.115230888699834,852.75275849419461,142.21956983243047,29.547593855008145,-29.547593855008145,-142.21956983243047,1522.762280710062,0.0
272154.6038362722,4695833.5216966402,-17500.0,-1062.5306100731898,602.10445541357399,346.84507737716797,-278.01398574445057,135.73678082585201,-57.127041939715262,964.16500288921429,182.84281528789307,22.965265222706336,-22.965265222706336,-182.84281528789307,1718.9889161046392,0.0
277154.6038362722,4695833.5216966402,-17500.0,-1172.8518005257142,700.10424460443846,395.19670169421374,-317.84273024082529,161.17425200950564,-66.131143998393611,1095.1896872973812,234.48723396718736,13.206789615585024,-13.206789615585024,-234.48723396718736,1949.2707177371888,0.0
282154.6038362722,4695833.5216966402,-17500.0,-1296.2654230579578,819.0875111636883,452.71890533631705,-363.60018815899224,192.38628678353348,-75.896287161881645,1250.3029535741548,300.35626216230662,-0.78334875413057148,0.78334875413057148,-300.35626216230662,2221.307342225748,0.0
287154.6038362722,4695833.5216966402,-17500.0,-1434.3438771586166,964.75298550634614,521.65897297572076,-415.88799480035681,230.86758799995533,-85.823078055076778,1435.33762435379,384.64585996478263,-20.331909407616649,20.331909407616649,-384.64585996478263,2545.1479210825264,0.0
292154.6038362722,4695833.5216966402,-17500.0,-1589.0030548406969,1144.772949416039,604.95272474525632,-475.21134774299423,278.53728545158066,-94.639356029669742,1658.0697870534759,492.86571133741347,-47.03961109580996,47.03961109580996,-492.86571133741347,2934.2356421508366,0.0
297154.6038362722,4695833.5216966402,-17500.0,-1762.8493622532303,1369.6981660040492,706.4766996372565,-541.96529191888351,337.88231215619476,-99.883656500443692,1929.1739886666285,632.27857148200405,-82.705822587555645,82.705822587555645,-632.27857148200405,3407.1268368815918,0.0
302154.6038362722,4695833.5216966402,-17500.0,-1959.9369295232311,1654.42754342942,831.3992400745168,-616.60535308476096,412.19073493959462,-97.065367754833176,2263.8516757474049,812.53906286271638,-129.09496033342293,129.09496033342293,-812.53906286271638,3990.4446966864589,0.0
307154.6038362722,4695833.5216966402,-17500.0,-2187.3200965043038,2020.7018517284637,986.65560394035651,-700.39545104694059,505.99791634864312,-78.402822248588208,2684.7178703657823,1046.7388460380143,-187.43553791388865,187.43553791388865,-1046.7388460380143,4724.1372325809371,0.0
312154.6038362722,4695833.5216966402,-17500.0,-2458.007659661565,2501.5229415393219,1181.5439361403571,-797.7256916902785,626.08292290188672,-31.247715350293998,3227.0647416248357,1353.4344337509715,-257.60852975072032,257.60852975072032,-1353.4344337509715,5671.0731802376431,0.0
317154.6038362722,4695833.5216966402,-17500.0,-2795.9495399440307,3149.2824925274281,1428.316639101346,-922.35495302253321,783.94253733637515,62.804119470934026,3948.5865460702926,1761.2974363355379,-337.4921846530151,337.4921846530151,-1761.2974363355379,6934.7397338189485,0.0
322154.6038362722,4695833.5216966402,-17500.0,-3242.3908789004317,4051.0856533336437,1742.2466265746527,-1112.769863293466,1002.2687649978675,224.10540465196948,4947.360421622885,2321.0228498539473,-425.08222629191323,425.08222629191323,-2321.0228498539473,8691.7353507258176,0.0
327154.6038362722,4695833.5216966402,-17500.0,-3856.1711906343126,5357.6836646100692,2139.4631993973635,-1466.7833287187398,1332.1742571622681,453.40923095801656,6395.1396305665348,3137.2424993767445,-533.55963198941504,533.55963198941504,-3137.2424993767445,11250.519724503571,0.0
332154.6038362722,4695833.5216966402,-17500.0,-4674.5465965046233,7335.8814935072187,2627.5316790983065,-2210.1276306354107,1898.5612942760265,654.9457776523725,8600.4085869345545,4453.9195740038158,-753.3218298367658,753.3218298367658,-4453.9195740038158,15156.534395425464,0.0
337154.6038362722,4695833.5216966402,-17500.0,-5511.5813872566032,10450.122114940161,3174.7910859440099,-3799.2036962378093,3015.8625323747333,406.53595731986172,12131.89091930736,6875.1321526955708,-1464.2662763335488,1464.2662763335488,-6875.1321526955708,21383.954061931698,0.0
342154.6038362722,4695833.5216966402,-17500.0,-5165.0606339751375,15416.143741916299,3622.1712630653246,-6930.7825149238697,5464.431350149197,-1647.8428576754916,18058.151607282831,11900.287701724237,-3991.1791418247326,3991.1791418247326,-11900.287701724237,31707.087369053981,0.0
347154.6038362722,4695833.5216966402,-17500.0,1573.2118253287094,22682.307433577222,3481.9454020846547,-11575.801858715247,11022.981091171101,-9213.2421631269863,28411.0309551346,23039.604527283933,-12507.163414371405,12507.163414371405,-23039.604527283933,49503.095199932672,0.0
352154.6038362722,4695833.5216966402,-17500.0,35126.294424529922,26405.561333179699,2760.9039174122518,-8592.3677382986625,21519.864159627807,-29989.29492060942,47890.615776588835,45700.386283516164,-38384.971732647908,38384.971732647908,-45700.386283516164,82961.605695311911,0.0
357154.6038362722,4695833.5216966402,-17500.0,121927.24815488889,-23861.2571314427,39130.416477535786,68937.218831694525,-5396.7114898229438,-36085.565919136141,107492.08981194033,48145.14654063007,-62697.272547050001,62697.272547050001,-48145.14654063007,186528.48859835538,0.0
362154.6038362722,4695833.5216966402,-17500.0,73045.28152886797,9058.828227475653,173541.99735108187,80585.396520702416,-151436.40178658493,109920.16828334336,178636.72883100557,45941.287294190217,98015.268289140178,-98015.268289140178,-45941.287294190217,310291.3131414259,1.0
367154.6038362722,4695833.5216966402,-17500.0,68398.556944800963,36061.946840099066,124888.05075917384,36742.957886011325,-74681.097843450552,66604.586490531045,96036.267518752196,68191.438886123069,43178.955549706654,-43178.955549706654,-68191.438886123069,167269.08782532896,1.0
372154.6038362722,4695833.5216966402,-17500.0,37514.870050042715,53275.552043225529,88274.804031537249,9134.4001523210263,-23662.763262155488,25417.449876783245,66581.802570243686,73751.771582116926,3387.3711589856393,-3387.3711589856393,-73751.771582116926,117396.45204416099,0.0
377154.6038362722,4695833.5216966402,-17500.0,41285.697866003975,33077.010824287026,18607.415783166078,15026.295955896952,35032.15027193429,-22818.128301250646,59577.477922681108,53238.711817044787,-54292.875986637933,54292.875986637933,-53238.711817044787,103977.06313797738,0.0
382154.6038362722,4695833.5216966402,-17500.0,13158.669731253975,-5924.6582188044968,-7393.3669200564036,37233.784508254255,47564.715070111022,-28647.511230665132,62316.108780995404,3954.8257875656891,-59621.06585320062,59621.06585320062,-3954.8257875656891,111186.85184998125,0.0
387154.6038362722,4695833.5216966402,-17500.0,-13982.911181074736,-19138.901214712991,-4643.190253386455,38094.43331807795,33555.684926902701,-16825.148254398769,51199.111081216637,-19978.175066719257,-37813.816298493795,37813.816298493795,19978.175066719257,94616.365080254705,0.0
392154.6038362722,4695833.5216966402,-17500.0,-24035.999563338621,-17159.083805917264,1206.9744618549705,29403.474485580664,19532.66532426895,-9064.3780737624365,37785.67851241547,-22301.684417528613,-20808.30563610711,20808.30563610711,22301.684417528613,71449.278414446482,0.0
397154.6038362722,4695833.5216966402,-17500.0,-24490.585696573064,-11973.600627106111,4437.2531565498521,21210.917559658621,10678.385870478984,-5806.3339183390681,27430.683068772429,-17772.531660867196,-11756.421075233524,11756.421075233524,17772.531660867196,52605.325606724531,0.0
402154.6038362722,4695833.5216966402,-17500.0,-21687.24608955688,-7527.2927322969581,5426.6362272897086,15341.271346763109,5730.2069720447325,-4358.6280449843862,20513.405263593857,-12855.667024157134,-7191.7531551054999,7191.7531551054999,12855.667024157134,39244.713660796297,0.0
407154.6038362722,4695833.5216966402,-17500.0,-18287.429902199568,-4468.167713900435,5230.464808477499,11312.872594432325,3068.6517024653467,-3454.1671886740501,15809.032048126817,-9132.2647388683617,-4722.9073024473682,4722.9073024473682,9132.2647388683617,29939.215765009343,0.0
412154.6038362722,4695833.5216966402,-17500.0,-15167.980725942951,-2539.1374887543438,4576.4550572239423,8499.5843390733535,1642.4634332242968,-2733.1055337040202,12413.703278419056,-6580.5091100414238,-3237.8259280426655,3237.8259280426655,6580.5091100414238,23304.780378651878,0.0
417154.6038362722,4695833.5216966402,-17500.0,-12534.719571647738,-1368.6239040129055,3832.7653250260701,6479.6216014724223,870.01466532545373,-2131.1006136832352,9875.8771817313536,-4864.0069282926788,-2265.5417081379046,2265.5417081379046,4864.0069282926788,18430.828308040978,0.0
422154.6038362722,4695833.5216966402,-17500.0,-10375.683401845643,-671.12594088493131,3149.534753479084,4996.1927096817462,445.96847283873251,-1641.3931957999546,7940.1134486723195,-3691.971708147772,-1597.7326908734312,1597.7326908734312,3691.971708147772,14762.109929904411,0.0
427154.6038362722,4695833.5216966402,-17500.0,-8622.3606889394487,-260.46675617963751,2571.7195023921795,3889.5164075268781,210.94037385199525,-1255.6741497180922,6443.7584414632001,-2869.5636099398357,-1128.821350374405,1128.821350374405,2869.5636099398357,11951.328461853531,0.0
432154.6038362722,4695833.5216966402,-17500.0,-7201.0553965263671,-22.287404855673035,2100.6718628956905,3054.6231758187946,80.467492203687087,-958.84567672644755,5275.3366367046783,-2275.368898843948,-796.52121390127218,796.52121390127218,2275.368898843948,9769.1894935478595,0.0
437154.6038362722,4695833.5216966402,-17500.0,-6047.0051121166007,112.26239112424113,1722.7024995991121,2419.1576897016143,8.7958531996246201,-733.53394182231648,4355.0131539420299,-1834.4443426273569,-560.06797565991474,560.06797565991474,1834.4443426273569,8056.8124757899604,0.0
442154.6038362722,4695833.5216966402,-17500.0,-5106.8360337658678,184.51033080570343,1421.0072487811465,1931.6485927070846,-29.413867797107766,-563.60277567281457,3624.1931306174101,-1499.6965098780595,-391.4077268819085,391.4077268819085,1499.6965098780595,6700.3520970580548,0.0
447154.6038362722,4695833.5216966402,-17500.0,-4337.6403347499436,219.36557779253394,1180.0808003472766,1554.7999278127998,-48.470763538833801,-435.61093073109203,3039.2632358829756,-1240.6547958618398,-270.86291964210966,270.86291964210966,1240.6547958618398,5616.439294045259,0.0
452154.6038362722,4695833.5216966402,-17500.0,-3705.2932944550457,231.93570103893552,986.98310516597178,1261.295054660502,-56.583636360210534,-339.00799717310537,2567.4712831174843,-1036.965960680252,-184.55064003858956,184.55064003858956,1036.965960680252,4743.1399657825095,0.0
457154.6038362722,4695833.5216966402,-17500.0,-3182.7753576849645,231.4377124553971,831.38622732701197,1030.9806135157914,-58.517373076578451,-265.78283404584408,2184.0494725928975,-874.6167507975174,-122.65882977014985,122.65882977014985,874.6167507975174,4033.9540714817736,0.0
462154.6038362722,4695833.5216966402,-17500.0,-2748.7190096731761,223.51660391308167,705.21742326963522,848.89957540690352,-57.058302523637941,-209.96152502985012,1870.1486075818825,-743.69714247531499,-78.243267994616986,78.243267994616986,743.69714247531499,3453.6642731654724,0.0
467154.6038362722,4695833.5216966402,-17500.0,-2386.2132616061954,211.6316162403258,602.22308271654151,703.88795143827338,-53.839659535439708,-167.12891088954183,1611.3323907182289,-637.03603339036135,-46.379023688163784,46.379023688163784,637.03603339036135,2975.3872872618099,0.0
472154.6038362722,4695833.5216966402,-17500.0,-2081.8468247930264,197.89395887014891,517.57088990105137,587.56422603828287,-49.815146446821529,-134.03224397076752,1396.4729466010176,-549.34240615049202,-23.562682461053043,23.562682461053043,549.34240615049202,2578.4484157878214,0.0
477154.6038362722,4695833.5216966402,-17500.0,-1824.9511633933193,183.57781389687113,447.52183264860565,493.59716333658116,-45.534723078776167,-108.27389357229477,1216.9353820071233,-476.64743782792175,-7.2925066415084814,7.2925066415084814,476.64743782792175,2246.8308305516625,0.0
267154.6038362722,4700833.5216966402,-17500.0,-765.03645696154456,550.64511539948353,256.25027081738835,-201.71380891266287,119.58627216938929,-42.842024690218153,778.47267932265265,221.20257558002058,-21.850446828774324,21.850446828774324,-221.20257558002058,1378.9930858125306,0.0
272154.6038362722,4700833.5216966402,-17500.0,-825.07843013383967,633.84375754419386,286.3396672979809,-226.68174762077362,140.68187739646251,-49.264656499744575,875.09124271803557,273.55308177924479,-37.497374496134682,37.497374496134682,-273.55308177924479,1547.1539914744653,0.0
277154.6038362722,4700833.5216966402,-17500.0,-887.36599119239611,733.16887080512947,320.97704695910875,-254.30527038744583,166.19927964597349,-56.251799901852849,987.57923801006154,338.93590516529707,-58.264968959030256,58.264968959030256,-338.93590516529707,1742.4300681854972,0.0
282154.6038362722,4700833.5216966402,-17500.0,-950.41089217452759,852.43932576792838,360.98717410597112,-284.3905127389848,197.15294705027347,-63.471639320144185,1119.2422555157586,420.9171301680833,-85.70454281032039,85.70454281032039,-420.9171301680833,1970.4049996240133,0.0
287154.6038362722,4700833.5216966402,-17500.0,-1011.8488749484109,996.56970149571407,407.36223288163535,-316.39272496610829,234.78467996930533,-70.224426646599596,1274.2902494855434,524.11851794581162,-121.79740655098945,121.79740655098945,-524.11851794581162,2238.2115652213688,0.0
292154.6038362722,4700833.5216966402,-17500.0,-1068.0858919205466,1171.9696762194328,461.29167425954063,-349.22561219228953,280.60441027190359,-75.169940405652042,1458.2023387602906,654.55232882158407,-169.03286462632428,169.03286462632428,-654.55232882158407,2555.1840053345336,0.0
297154.6038362722,4700833.5216966402,-17500.0,-1113.8366575587897,1387.1450981165719,524.18402681345572,-381.02642103616751,336.44074808296295,-75.883235937453577,1678.3175278879426,820.08379342663079,-230.46547279430473,230.46547279430473,-820.08379342663079,2933.9231406151948,0.0
302154.6038362722,4700833.5216966402,-17500.0,-1141.5310485944187,1653.642144104319,597.65417496926341,-408.93974798463819,404.52745765054527,-68.163261052165396,1944.8337675327487,1031.1095113995189,-309.7284763017077,309.7284763017077,-1031.1095113995189,3392.0963754515487,0.0
307154.6038362722,4700833.5216966402,-17500.0,-1140.5241155549611,1987.5958123232433,683.40653606635055,-429.12477535490206,487.71741506496221,-45.050186662175655,2272.5537871869788,1301.6581331370871,-411.00968740256957,411.00968740256957,-1301.6581331370871,3955.5502856980288,0.0
312154.6038362722,4700833.5216966402,-17500.0,-1095.8385528662509,2412.349832486269,782.833609531614,-437.51366668641748,590.10385648056865,4.2926634658989826,2683.9642420868768,1651.4247970858391,-539.16677106983354,539.16677106983354,-1651.4247970858391,4663.7033941504596,0.0
317154.6038362722,4700833.5216966402,-17500.0,-985.39939081422392,2962.9206769086668,895.88933212786469,-432.50868303455428,718.84082869588974,94.9481815591094,3214.5718452559872,2110.0249218048189,-700.80278588591125,700.80278588591125,-2110.0249218048189,5578.712838827465,0.0
322154.6038362722,4700833.5216966402,-17500.0,-772.10266276691152,3693.24269239163,1018.2084854264366,-421.8545053350793,889.25554626525502,242.78057683132315,3921.6720874748371,2726.6013931046327,-909.20057864033993,909.20057864033993,-2726.6013931046327,6800.3367508391157,0.0
327154.6038362722,4700833.5216966402,-17500.0,-379.01824381175697,4685.8152592345969,1134.3519369103703,-436.50234451928048,1138.346664311076,448.16941320515065,4897.6367396383957,3591.8740177017644,-1201.9987330812235,1201.9987330812235,-3591.8740177017644,8488.3675577588856,0.0
332154.6038362722,4700833.5216966402,-17500.0,386.41145542349358,6054.7260963970111,1204.2076974823626,-549.23289277439881,1557.3988274300439,644.31838123302839,6288.4687321769079,4886.0779773689919,-1695.6707482452684,1695.6707482452684,-4886.0779773689919,10894.262678259067,0.0
337154.6038362722,4700833.5216966402,-17500.0,2047.3626564744939,7894.7108136585221,1147.1031403326483,-864.50649314647694,2358.785420205465,562.8907970853594,8318.0724656482598,6966.6970466997573,-2731.5328472616802,2731.5328472616802,-6966.6970466997573,14408.012037736209,0.0
342154.6038362722,4700833.5216966402,-17500.0,5988.5546641209176,9983.2069261243669,898.63977252751999,-1322.121234634212,3956.9313656813829,-546.17316571676929,11324.83033797329,10451.444657391694,-5193.5052383165084,5193.5052383165084,-10451.444657391694,19661.075394924941,0.0
347154.6038362722,4700833.5216966402,-17500.0,15332.178100477151,10588.900798143355,1080.1438575797865,-785.09527592825714,6741.4601311295555,-4256.7315179057214,16024.369606991986,15914.837391961919,-10867.8132389823,10867.8132389823,-15914.837391961919,27968.365838034275,0.0
352154.6038362722,4700833.5216966402,-17500.0,33386.593516081593,3621.3094464586011,7187.4171870640575,5447.7103966170043,8634.4227362587098,-12127.205118284784,25281.498841279383,21939.950627655631,-20887.741440952017,20887.741440952017,-21939.950627655631,43789.413453550202,0.0
357154.6038362722,4700833.5216966402,-17500.0,46887.660505640597,-13011.594670843275,39158.830019138819,22703.284617124667,-2226.6935072100969,-18765.167345346039,43755.352204881645,25663.646266783799,-25802.046589008722,25802.046589008722,-25663.646266783799,77017.567638034438,0.0
362154.6038362722,4700833.5216966402,-17500.0,38570.492077104478,-2349.1895534408895,77011.373405404069,29839.210028467438,-20374.56747461763,-13308.141740874316,56614.8108963013,39809.161118163771,-17898.80146571908,17898.80146571908,-39809.161118163771,100480.91783798441,1.0
367154.6038362722,4700833.5216966402,-17500.0,30078.629842831357,13974.239267459941,64356.609211094998,24565.498378372435,-11572.771627191953,-6082.7804923731092,45599.853282856697,42584.759468390883,-17924.633561508654,17924.633561508654,-42584.759468390883,80747.655661642173,1.0
372154.6038362722,4700833.5216966402,-17500.0,23010.942162743755,21906.10415692176,33491.258349427277,15144.72519462924,9768.150224155228,-7612.5420582582683,34644.110952699608,37252.38781530413,-26224.316260482345,26224.316260482345,-37252.38781530413,61502.432379947837,0.0
377154.6038362722,4700833.5216966402,-17500.0,22304.675742777476,10493.822841944706,-2634.6411993647903,17164.646426870524,31889.681033630641,-15315.773840111908,42208.296448935078,19169.855868466369,-39879.119841818465,39879.119841818465,-19169.855868466369,73240.22750086656,0.0
382154.6038362722,4700833.5216966402,-17500.0,9498.6415453494046,-10034.779928111468,-17280.0852243441,24766.795927585837,36153.70733197729,-15247.375921220719,45159.552466477777,-6852.8669915547216,-38098.130167598414,38098.130167598414,6852.8669915547216,82038.669998958983,0.0
387154.6038362722,4700833.5216966402,-17500.0,-6348.6553976022651,-19668.167180726672,-13965.337444058285,25922.923972188124,28056.614364986319,-11101.618461405689,39484.564682180906,-20845.371078219323,-27017.010721111532,27017.010721111532,20845.371078219323,74715.646863788788,0.0
392154.6038362722,4700833.5216966402,-17500.0,-15573.828699009573,-19313.986627073748,-6805.1202056837246,22371.26214024848,18655.692098375384,-7938.4739443846311,31361.974483630693,-22655.247859317766,-17315.182443511803,17315.182443511803,22655.247859317766,61097.066879901184,0.0
397154.6038362722,4700833.5216966402,-17500.0,-18633.220122198742,-15333.180442754989,-1542.9458932858226,17925.134640889024,11730.371304027438,-6098.4784429687879,24505.681644393331,-19358.9029707796,-11134.348965656711,11134.348965656711,19358.9029707796,48135.543057507362,0.0
402154.6038362722,4700833.5216966402,-17500.0,-18351.391319105998,-11114.696280668186,1313.2050236555492,14032.537953629169,7255.0860730739223,-4855.2613775857053,19476.64125218839,-15177.744286796022,-7389.788681494405,7389.788681494405,15177.744286796022,37718.702675336812,0.0
407154.6038362722,4700833.5216966402,-17500.0,-16654.411610305182,-7717.3389949807379,2531.7597251385796,10917.609393329378,4481.7942324560963,-3852.1654004792754,15539.087801224965,-11569.021142689566,-5032.645956295175,5032.645956295175,11569.021142689566,29713.541962921096,0.0
412154.6038362722,4700833.5216966402,-17500.0,-14529.968199635172,-5248.9426304455455,2848.7347553838995,8488.3844302685811,2781.2916429892839,-3007.4824082754012,12447.109308907467,-8790.2801036117635,-3475.6862006289421,3475.6862006289421,8790.2801036117635,23591.525891105433,0.0
417154.6038362722,4700833.5216966402,-17500.0,-12428.516954104069,-3535.6642927612897,2736.8124276584417,6611.0353177943944,1736.3729396075457,-2313.9315412888004,10022.339307582408,-6729.4900756686593,-2413.8515546738681,2413.8515546738681,6729.4900756686593,18882.958900396679,0.0
422154.6038362722,4700833.5216966402,-17500.0,-10531.101448995036,-2369.9752446345442,2454.2734696784369,5166.1901955711846,1089.531744219945,-1764.0149114869678,8119.0017532366228,-5211.9804533133974,-1677.8672727957264,1677.8672727957264,5211.9804533133974,15235.419658041918,0.0
427154.6038362722,4700833.5216966402,-17500.0,-8891.2900108955309,-1582.4377500284895,2128.3851025023587,4056.0267275198439,685.41740130283688,-1339.6146363489822,6621.1924860752943,-4088.0711878657676,-1164.1020412750531,1164.1020412750531,4088.0711878657676,12390.311076048944,0.0
432154.6038362722,4700833.5216966402,-17500.0,-7505.8426235128618,-1050.6949957411132,1815.8800379663169,3202.6458190944568,430.59737063038511,-1017.6603174262647,5438.002061392961,-3246.6094534774197,-804.33169719150601,804.33169719150601,3246.6094534774197,10156.226165106382,0.0
437154.6038362722,4700833.5216966402,-17500.0,-6348.8737730396351,-690.8037107607405,1538.3036204593161,2545.159630307729,268.56309802426335,-775.64837768198061,4498.7547863904138,-2608.7677120277631,-551.94102544659518,551.94102544659518,2608.7677120277631,8390.0483634690299,0.0
442154.6038362722,4700833.5216966402,-17500.0,-5387.8946651592478,-446.40067601988801,1300.7388281872825,2036.6759817880222,164.81634395646577,-594.3345765234701,3748.875782448144,-2119.2343258663536,-374.61792556356795,374.61792556356795,2119.2343258663536,6984.0626362594767,0.0
447154.6038362722,4700833.5216966402,-17500.0,-4590.9629257718934,-279.91087237177493,1101.1796773487781,1641.4743283940943,98.066599477016041,-458.40194013948451,3146.4064297801615,-1739.0403985064834,-249.87145184493784,249.87145184493784,1739.0403985064834,5856.8452808201419,0.0
452154.6038362722,4700833.5216966402,-17500.0,-3929.537431479067,-166.27877518709658,935.02782023948566,1332.5381790821511,55.026453405107482,-356.14647000568806,2659.1529334406682,-1440.4580043468243,-162.03178121318706,162.03178121318706,1440.4580043468243,4946.6279596174991,0.0
457154.6038362722,4700833.5216966402,-17500.0,-3379.2914113066245,-88.72715356141039,797.14475021395992,1089.5079153977545,27.310801884923308,-278.82785216934366,2262.4051577890277,-1203.5189849039573,-100.1722183298557,100.1722183298557,1203.5189849039573,4206.3693160630155,0.0
462154.6038362722,4700833.5216966402,-17500.0,-2920.0184588358725,-35.952966005448239,682.71646481787877,897.05399302686396,9.5718806410266968,-219.99832467434476,1937.1576326188126,-1013.6664142923501,-56.660616077209625,56.660616077209625,1013.6664142923501,3600.0862673395918,0.0
467154.6038362722,4700833.5216966402,-17500.0,-2535.1733149601223,-0.28717747850821262,587.5573878257934,743.61840542503614,-1.6350719924565591,-174.92671948166594,1668.7406636623296,-860.16109848721089,-26.151296993033156,26.151296993033156,860.16109848721089,3100.1144801761025,0.0
472154.6038362722,4700833.5216966402,-17500.0,-2211.3126358629665,23.511831045232856,508.16190002233373,620.46091056548789,-8.5493431212590263,-140.1447714672878,1445.7798251446754,-734.99070555986918,-4.8866123468699243,4.8866123468699243,734.99070555986918,2685.0666144596712,0.0
477154.6038362722,4700833.5216966402,-17500.0,-1937.552955599298,39.052513529562759,441.65164580505848,520.94473668158275,-12.638552131384481,-113.10505172150644,1259.4098686411653,-632.11390783048944,9.7858920893417007,-9.7858920893417007,632.11390783048944,2338.3102003042172,0.0
267154.6038362722,4705833.5216966402,-17500.0,-572.37904344894571,556.11227254642199,207.59957638799659,-161.11111393089135,119.2031831523027,-36.644767966920355,702.73722714731696,280.11487408106899,-63.755009050300274,63.755009050300274,-280.11487408106899,1235.2318524416771,0.0
272154.6038362722,4705833.5216966402,-17500.0,-596.97114886556483,635.26156415355626,227.90053741820051,-177.15694431411168,139.17643930446772,-41.562447274272209,784.55051193270072,338.99659064811578,-85.745315882531315,85.745315882531315,-338.99659064811578,1376.1129930273457,0.0
277154.6038362722,4705833.5216966402,-17500.0,-615.78071717969658,728.26049975091701,250.43706453811794,-193.56774715502505,162.95048492764442,-46.672365291671916,878.5943549567628,411.30880428220928,-113.8763155881901,113.8763155881901,-411.30880428220928,1537.6605131647739,0.0
282154.6038362722,4705833.5216966402,-17500.0,-625.16466620659867,837.85376714621293,275.42635153215321,-209.49259647304601,191.2297731982803,-51.575725328728801,987.08140801905381,500.3916045645459,-149.82970073681523,149.82970073681523,-500.3916045645459,1723.619486449076,0.0
287154.6038362722,4705833.5216966402,-17500.0,-619.92616930684926,967.35512292156807,303.08910713171923,-223.52533389199232,224.78840660544898,-55.52537705424794,1112.7273019656463,610.45245676083925,-195.7084933618363,195.7084933618363,-610.45245676083925,1938.6497649101516,0.0
292154.6038362722,4705833.5216966402,-17500.0,-592.70423933547602,1120.762546356344,333.64286268956488,-233.44147623528613,264.42691093304387,-57.195200005983047,1258.9290669970228,746.78729723343554,-254.09992844592358,254.09992844592358,-746.78729723343554,2188.6976118335015,0.0
297154.6038362722,4705833.5216966402,-17500.0,-533.131620063897,1302.8994359802548,367.29082776741831,-235.85103445967667,310.89078779670666,-54.320081739501219,1430.0549536584101,916.05969712965179,-328.11422130076159,328.11422130076159,-916.05969712965179,2481.6054509961587,0.0
302154.6038362722,4705833.5216966402,-17500.0,-426.66193069291552,1519.5943542717789,404.1986974573245,-225.78602898860254,364.74533043683101,-43.162342073269066,1631.9360170651385,1126.6723412035271,-421.37991850593551,421.37991850593551,-1126.6723412035271,2828.130667822034,0.0
307154.6038362722,4705833.5216966402,-17500.0,-252.88413034749701,1777.9158229796033,444.43964446183207,-196.31487781570459,426.23681643119511,-17.797677201225355,1872.7155342156723,1389.3187688577154,-538.00340005069825,538.00340005069825,-1389.3187688577154,3243.6400540220311,0.0
312154.6038362722,4705833.5216966402,-17500.0,17.086542155109424,2086.4466553310731,487.8609060551571,-138.42902723084481,495.28446420032134,30.624588981878034,2164.2783877344896,1717.9358546346493,-682.62990852758901,682.62990852758901,-1717.9358546346493,3750.8166097312128,0.0
317154.6038362722,4705833.5216966402,-17500.0,425.16438994224256,2455.3919627827545,533.80056115211437,-41.699337516056104,572.05396097809682,113.99160311110893,2524.4410811409502,2131.5739677304191,-861.17519755473836,861.17519755473836,-2131.5739677304191,4383.6329363736559,0.0
322154.6038362722,4705833.5216966402,-17500.0,1035.3934477419896,2895.4923470279223,580.69625883868116,103.6160984410615,659.26160059731546,244.73941518001041,2979.5502329419396,2658.2287083028359,-1083.9941953848324,1083.9941953848324,-2658.2287083028359,5192.3106054557957,0.0
327154.6038362722,4705833.5216966402,-17500.0,1953.6887632499615,3411.7837597531952,626.63773814916192,303.13014652354849,768.59352415397962,425.84659115402894,3565.4293391963938,3342.1507168486946,-1376.0394097488647,1376.0394097488647,-3342.1507168486946,6247.9211381578052,0.0
332154.6038362722,4705833.5216966402,-17500.0,3369.7548214184894,3979.1706443991047,677.2082573928808,558.64491315990517,934.43962837941604,623.21558671732566,4321.5992981079571,4254.5097012476526,-1803.3198466924607,1803.3198466924607,-4254.5097012476526,7645.6053856997723,0.0
337154.6038362722,4705833.5216966402,-17500.0,5630.0021075328923,4464.0610137754038,789.62451187496811,894.12617751607252,1232.0230592584246,706.49528851186665,5274.8284177952664,5496.0911367745921,-2526.3322690623518,2526.3322690623518,-5496.0911367745921,9517.0421923177182,0.0
342154.6038362722,4705833.5216966402,-17500.0,9281.4916293362257,4426.5917011384381,1262.6386214319807,1463.4650931773006,1759.2629618199169,363.30263649596503,6517.2523251237481,7146.791496895441,-3858.5061870291192,3858.5061870291192,-7146.791496895441,12116.798374702748,0.0
347154.6038362722,4705833.5216966402,-17500.0,14707.037524300524,2863.2378240057542,3265.88086348348,2782.5433306796313,2425.3544915079715,-899.41491367932122,9078.4657591971027,9105.2617436602632,-6155.297404975965,6155.297404975965,-9105.2617436602632,16167.084587951615,0.0
352154.6038362722,4705833.5216966402,-17500.0,20448.9503898925,-989.61198415694651,9887.9579611726076,5676.2874535352912,2370.652159977803,-3287.7238738036035,13379.38886251815,11196.945203828696,-9137.6597182853347,9137.6597182853347,-11196.945203828696,23253.819415147194,0.0
357154.6038362722,4705833.5216966402,-17500.0,22101.069969284439,-3295.5329020651106,23080.648722625403,9456.571375950607,475.76784418866941,-5621.9269908668048,17918.063083844794,14800.237525067709,-11400.551862677099,11400.551862677099,-14800.237525067709,33139.43114785575,0.0
362154.6038362722,4705833.5216966402,-17500.0,20009.169060451106,2324.7500094582847,31411.95023513908,10824.121927109516,-57.595665720203229,-5946.2158996919507,20947.444152478605,20782.171671307438,-13125.444542455825,13125.444542455825,-20782.171671307438,38306.359629083701,1.0
367154.6038362722,4705833.5216966402,-17500.0,18368.975311889692,9227.966172555889,23357.337283215551,9393.2116109266426,5395.589134018468,-4948.1526215688164,20755.041863096747,22456.655921860016,-15865.497094734979,15865.497094734979,-22456.655921860016,35949.784184942066,1.0
372154.6038362722,4705833.5216966402,-17500.0,17799.068733353583,10286.673998069657,5172.9725423100917,7964.2959164224258,15463.678604024244,-5892.8463184262228,23377.921770528825,17601.995291986117,-20811.463156298938,20811.463156298938,-17601.995291986117,40579.57401844945,0.0
377154.6038362722,4705833.5216966402,-17500.0,16285.682963865462,2342.4000198551776,-12700.055735349417,10346.820081073998,24274.272547706212,-8192.6758699248821,30022.963003536748,5807.721436092339,-25315.494981375945,25315.494981375945,-5807.721436092339,53246.514254770438,0.0
382154.6038362722,4705833.5216966402,-17500.0,9226.9260698412327,-9241.9972570065893,-20028.710902215189,14458.102681357774,26019.5922635346,-8912.1488161709931,32159.345972020659,-8234.9285333530097,-24398.700942280677,24398.700942280677,8234.9285333530097,59738.257645317848,0.0
387154.6038362722,4705833.5216966402,-17500.0,-502.25128047483088,-16299.066958898447,-17527.654652291611,16431.161900389368,22082.932668603182,-8172.7988740878372,29759.226995165744,-17059.646185010763,-19558.021419950379,19558.021419950379,17059.646185010763,57341.112952362069,0.0
392154.6038362722,4705833.5216966402,-17500.0,-8165.2660994927346,-17554.075167405907,-11590.501208765634,15901.291147225009,16547.130611667908,-7045.205992943851,25378.502599751198,-19482.856994783939,-14326.817615836186,14326.817615836186,19482.856994783939,50211.907743398631,0.0
397154.6038362722,4705833.5216966402,-17500.0,-12392.369648168335,-15533.66610052089,-6241.5069678038535,14073.311237636157,11666.524083571408,-5919.7018471466536,21356.404514754358,-18134.588313984612,-10175.754904102771,10175.754904102771,18134.588313984612,42027.348442110662,0.0
402154.6038362722,4705833.5216966402,-17500.0,-13899.999821132722,-12476.583503638281,-2572.0772945691419,11870.608942832074,7989.6334937668216,-4850.902964435465,17776.346364911344,-15402.428725329219,-7166.2171244837755,7166.2171244837755,15402.428725329219,34480.90373593117,0.0
407154.6038362722,4705833.5216966402,-17500.0,-13745.398946115791,-9518.1755832405834,-397.59947618821724,9742.0649930791751,5398.4217478477694,-3873.2880820421005,14620.765307460599,-12533.414196640424,-5026.7446346540019,5026.7446346540019,12533.414196640424,28067.609977243301,0.0
412154.6038362722,4705833.5216966402,-17500.0,-12734.773343252513,-7062.5205347563451,748.31343725266674,7867.4811278886746,3629.3141082846882,-3026.649039318107,11965.222315365234,-10008.270683947427,-3511.0304185306532,3511.0304185306532,10008.270683947427,22803.310146989574,0.0
417154.6038362722,4705833.5216966402,-17500.0,-11373.985246061258,-5166.2087755555885,1269.0500623068951,6297.0816987912185,2439.7667489537662,-2330.0700602440493,9784.7597749608722,-7941.9654377937204,-2440.2620855282003,2440.2620855282003,7941.9654377937204,18552.154676647759,0.0
422154.6038362722,4705833.5216966402,-17500.0,-9947.0540301005512,-3755.2171124282613,1439.7405681137257,5020.2762416037385,1644.7293256835869,-1778.6879058110455,8017.8672856504318,-6305.894971482554,-1686.6840471799551,1686.6840471799551,6305.894971482554,15145.945994780641,0.0
427154.6038362722,4705833.5216966402,-17500.0,-8597.34872110387,-2724.9569983798406,1428.4468529344324,4000.7790887751644,1113.5663642010304,-1353.3909452411851,6595.3946819898392,-5028.5408809574747,-1158.2301583699796,1158.2301583699796,5028.5408809574747,12424.975789359196,0.0
432154.6038362722,4705833.5216966402,-17500.0,-7386.4758968774113,-1979.0511762063331,1331.2759683063362,3195.0616763133721,757.58140641411012,-1030.4433034382098,5452.663944431346,-4035.4314480039629,-788.61662232210347,788.61662232210347,4035.4314480039629,10251.097975224709,0.0
437154.6038362722,4705833.5216966402,-17500.0,-6331.7690628199052,-1440.2968924021618,1200.5389976988256,2561.4120219354709,517.74456872764063,-787.20105523741825,4533.9138979743511,-3262.3936205755517,-530.51216992455852,530.51216992455852,3262.3936205755517,8510.2610525254968,0.0
442154.6038362722,4705833.5216966402,-17500.0,-5428.4399959767634,-1050.6780887406367,1063.3334175827695,2063.6656507460771,355.12393301373248,-604.50871482614673,3793.1510090857537,-2658.1210267706238,-350.44079645094189,350.44079645094189,2658.1210267706238,7110.8245889301943,0.0
447154.6038362722,4705833.5216966402,-17500.0,-4661.9547630139414,-767.96842395772092,932.76563758328564,1672.1196141595412,244.10200367435084,-467.17769015955025,3193.3987623925791,-2182.9767092606071,-224.90753484702168,224.90753484702168,2182.9767092606071,5980.3412999343655,0.0
452154.6038362722,4705833.5216966402,-17500.0,-4014.5963750216288,-561.91383057302448,814.41384799539514,1363.1317906440195,167.78888784410836,-363.6010878153686,2705.3660198531761,-1806.81579912083,-137.50335547897032,137.50335547897032,1806.81579912083,5062.0646363625156,0.0
457154.6038362722,4705833.5216966402,-17500.0,-3468.7304228407402,-410.98215627607141,709.94448099370447,1118.2271220130003,114.9965513845535,-285.09344155455778,2306.0339100910278,-1506.8518193133723,-76.793636692789278,76.793636692789278,1506.8518193133723,4311.7481062752759,0.0
462154.6038362722,4705833.5216966402,-17500.0,-3008.2693563919647,-299.86915629901694,619.09340532422948,923.11683293280964,78.266743635706959,-225.22829716455942,1977.3757034925882,-1265.8738441671369,-34.810689330860214,34.810689330860214,1265.8738441671369,3694.9363030734953,0.0
467154.6038362722,4705833.5216966402,-17500.0,-2619.1889923056287,-217.67565728226509,540.7292246210086,766.80515612833301,52.590780236759535,-179.27441392398362,1705.2791886208806,-1070.8505896532049,-5.9938201825862052,5.9938201825862052,1070.8505896532049,3184.7686967350674,0.0
472154.6038362722,4705833.5216966402,-17500.0,-2289.5768873423394,-156.60902439722096,473.409853872849,640.84344515916871,34.578464341743562,-143.7518363557339,1478.6785813190015,-911.87343721771867,13.548240714893325,-13.548240714893325,911.87343721771867,2760.2503238830104,0.0
477154.6038362722,4705833.5216966402,-17500.0,-2009.4661294967013,-111.06892105573557,415.66194733959964,538.73445213515322,21.916543420124682,-116.09637137223717,1288.8700461206133,-781.36729057753132,26.547663832085789,-26.547663832085789,781.36729057753132,2404.9086094551781,0.0
267154.6038362722,4710833.5216966402,-17500.0,-393.41506651937067,540.23992553501955,163.6584083563047,-123.13354559746213,114.39218959246715,-30.727373702500824,627.55555268887883,319.6593454760137,-95.705262401009193,95.705262401009193,-319.6593454760137,1095.513298092945,0.0
272154.6038362722,4710833.5216966402,-17500.0,-387.68967997876672,610.70096196779389,176.22486955843482,-131.35901320224511,132.14168183806339,-34.288008599333779,695.13049040119449,380.42127871726439,-121.34201748716833,121.34201748716833,-380.42127871726439,1211.0412273421741,0.0
277154.6038362722,4710833.5216966402,-17500.0,-370.21280987637681,691.60777582967853,189.59411785019435,-138.14758037965743,152.77265278222342,-37.742991506832603,771.59753713962914,453.71789805119744,-153.2902909149422,153.2902909149422,-453.71789805119744,1341.6548467645903,0.0
282154.6038362722,4710833.5216966402,-17500.0,-336.10372765490598,784.356531590347,203.77890284739865,-142.22608200653056,176.60030877116785,-40.663292185143121,858.23158255267322,542.26242572731576,-193.05927049329921,193.05927049329921,-542.26242572731576,1489.6806484944377,0.0
287154.6038362722,4710833.5216966402,-17500.0,-278.70930624874325,890.34057352998286,218.83316303553437,-141.68458123140161,203.8372004657555,-42.307908574205193,956.49561569228786,649.31472879448495,-242.45014319951187,242.45014319951187,-649.31472879448495,1657.9522850797384,0.0
292154.6038362722,4710833.5216966402,-17500.0,-188.99773569314115,1010.8020546917688,234.91964637793399,-133.71148168376985,234.47055102957111,-41.440311454328558,1068.0876991000421,778.74528742095004,-303.54942425692548,303.54942425692548,-778.74528742095004,1850.0418815506218,0.0
297154.6038362722,4710833.5216966402,-17500.0,-54.767753839353794,1146.5760673473278,252.44296340313636,-114.25111521257358,268.06252512310317,-36.055655552673905,1195.0265786760206,935.07629289350302,-378.66499486574133,378.66499486574133,-935.07629289350302,2070.6575161103383,0.0
302154.6038362722,4710833.5216966402,-17500.0,140.37036475443932,1297.665308896432,272.30330325423517,-77.596069322923896,303.44504754495972,-22.998578715695551,1339.814599559335,1123.4844302539709,-470.16790643224692,470.16790643224692,-1123.4844302539709,2326.3179832140245,0.0
307154.6038362722,4710833.5216966402,-17500.0,418.2968174286558,1462.5430575767307,296.37238226297654,-15.974915031981627,338.29392450891459,2.513163901787665,1505.7424089628269,1349.7573902644117,-580.20786366153845,580.20786366153845,-1349.7573902644117,2626.4496844467958,0.0
312154.6038362722,4710833.5216966402,-17500.0,808.05826596856593,1636.9926441855987,328.39070479724228,80.715422727701167,368.62385300419061,47.329669329861147,1697.4129121558117,1620.2254327728638,-710.32749350882887,710.32749350882887,-1620.2254327728638,2985.0163250949804,0.0
317154.6038362722,4710833.5216966402,-17500.0,1348.0894527902256,1812.0760851266377,375.71540991449376,224.76182334469991,388.39955128811346,120.3471475250193,1921.4892300813065,1941.7525149627063,-861.19686229859815,861.19686229859815,-1941.7525149627063,3422.5740575335822,0.0
322154.6038362722,4710833.5216966402,-17500.0,2089.2420701633632,1970.279031115406,452.96518246588346,429.76578650751662,389.7654066965863,230.94651288850952,2187.2788976897168,2321.9293078171072,-1033.1699714967472,1033.1699714967472,-2321.9293078171072,3968.100786573998,0.0
327154.6038362722,4710833.5216966402,-17500.0,3098.4792458860029,2077.6653314833343,590.36597570747392,709.2148735225677,364.76944509551413,383.6848679398725,2505.885983279014,2769.4500588188207,-1229.2076897610682,1229.2076897610682,-2769.4500588188207,4659.3922381665679,0.0
332154.6038362722,4710833.5216966402,-17500.0,4459.7527970986075,2068.1496215552065,854.44608018796418,1076.5055649345352,309.10902509172854,565.94922463466401,2892.2804491841248,3293.7606222971217,-1462.2396419338547,1462.2396419338547,-3293.7606222971217,5542.2516221658907,0.0
337154.6038362722,4710833.5216966402,-17500.0,6254.355489048733,1818.6182252069025,1399.6765021115903,1551.8463642462511,224.74152383929126,727.31910422075771,3497.8762081887653,3901.7469305480308,-1765.9088653825456,1765.9088653825456,-3901.7469305480308,6677.003541066143,0.0
342154.6038362722,4710833.5216966402,-17500.0,8464.7218901876549,1145.7347131620322,2579.2989408874746,2178.8439297868717,107.98784372322423,763.16008249682488,4529.1763514861304,4596.3199573082074,-2193.7359522244565,2193.7359522244565,-4596.3199573082074,8175.603940658486,0.0
347154.6038362722,4710833.5216966402,-17500.0,10717.973758013597,-19.607427939213359,5066.1815439853381,3013.408295289169,-89.747346207909999,549.07065546327544,5911.1131976875613,5431.0620879317157,-2774.1179358998397,2774.1179358998397,-5431.0620879317157,10253.976006111199,0.0
352154.6038362722,4710833.5216966402,-17500.0,12063.308252405108,-988.94150711637405,9473.4177597896469,3952.6423184562632,-429.12180064956624,85.26691876653274,7317.7566565306715,6743.7456668228087,-3457.8669029777366,3457.8669029777366,-6743.7456668228087,13019.822884731326,0.0
357154.6038362722,4710833.5216966402,-17500.0,11831.8189935514,164.07607369491728,14394.301827736326,4430.0259144601223,-526.93820265835166,-374.16459542673226,8122.1902459963567,9211.5240404519682,-4321.859617824256,4321.859617824256,-9211.5240404519682,15704.111575046209,0.0
362154.6038362722,4710833.5216966402,-17500.0,11311.059793723191,4175.9113531743287,14949.662720299557,3824.0219031407037,998.38159047531803,-652.29673845961702,9966.7782247700125,12322.321155855459,-5919.6188948869112,5919.6188948869112,-12322.321155855459,17293.515249928179,1.0
367154.6038362722,4710833.5216966402,-17500.0,12058.295568615189,7779.2405796279763,7884.828949341002,2666.7946808688403,5331.2136049715746,-1260.1700151473028,11606.688515329926,13338.76237501196,-8829.0884375141832,8829.0884375141832,-13338.76237501196,20672.828222009244,0.0
372154.6038362722,4710833.5216966402,-17500.0,13417.358313781375,7104.5294287995803,-3946.0337152661618,2611.2460831954918,11545.862277139791,-2841.5946938379648,16836.138564745826,10085.306054107732,-12776.881977049081,12776.881977049081,-10085.306054107732,29246.025393346979,0.0
377154.6038362722,4710833.5216966402,-17500.0,12995.913110773477,1343.6597020651352,-14472.007396273288,4677.0477218180195,16714.723434059826,-4830.8907141247882,21398.165223417142,2661.2766153641596,-15910.499974818682,15910.499974818682,-2661.2766153641596,38623.864255515655,0.0
382154.6038362722,4710833.5216966402,-17500.0,9063.1259733616862,-6351.9651014269175,-19062.633963379911,7734.8747351933198,18474.962453915577,-6135.959426142691,23377.234442726858,-6031.037466809903,-16408.207695600289,16408.207695600289,6031.037466809903,43807.358951134636,0.0
387154.6038362722,4710833.5216966402,-17500.0,2886.8519147262737,-12014.034401840083,-17811.601982202861,10009.547938708594,17045.982913587246,-6452.2288758622708,22849.022973666844,-12469.133386324793,-14553.972349006151,14553.972349006151,12469.133386324793,43904.677525992367,0.0
392154.6038362722,4710833.5216966402,-17500.0,-3036.3354887093674,-14260.674855762483,-13666.431345661324,10837.176785870684,14045.603569327692,-6069.6197946331895,20859.746746340654,-15405.363991161132,-11727.000142493463,11727.000142493463,15405.363991161132,40549.060798559753,0.0
397154.6038362722,4710833.5216966402,-17500.0,-7266.8839745928772,-13877.89831771474,-9178.9271917065325,10491.907540386728,10812.826179375654,-5327.2052580799145,18348.58293048176,-15586.673521011511,-8936.0432516294859,8936.0432516294859,15586.673521011511,35635.757308291155,0.0
402154.6038362722,4710833.5216966402,-17500.0,-9618.27127219881,-12138.19878357876,-5526.5894284776359,9475.8866148131274,7993.2367686729367,-4457.6379664112792,15753.397395106664,-14241.395485154811,-6585.882741719739,6585.882741719739,14241.395485154811,30419.051916311339,0.0
407154.6038362722,4710833.5216966402,-17500.0,-10493.559545792543,-9978.3179194202567,-2946.1023219478384,8188.9863812434096,5768.4485653763359,-3604.1484996506601,13302.765790811012,-12300.097833921292,-4747.8274253235577,4747.8274253235577,12300.097833921292,25536.92494906241,0.0
412154.6038362722,4710833.5216966402,-17500.0,-10401.078483094641,-7905.2394350017057,-1277.6754506144339,6879.530885705698,4106.7872904762908,-2844.8872331423172,11122.008170334877,-10293.579308966961,-3367.7685917634362,3367.7685917634362,10293.579308966961,21247.439932354584,0.0
417154.6038362722,4710833.5216966402,-17500.0,-9759.7576228875951,-6128.2088754313654,-269.99099547517721,5677.7502055001869,2904.6889775234749,-2210.7586652631476,9252.928716236338,-8468.8756583218019,-2358.0966310863696,2358.0966310863696,8468.8756583218019,17609.424918091103,0.0
422154.6038362722,4710833.5216966402,-17500.0,-8859.7938567547171,-4693.6259260044708,299.18754487162352,4637.2158228630205,2050.7948240395699,-1702.6902394119234,7687.6880509389357,-6911.2846247229081,-1632.2728208304957,1632.2728208304957,6911.2846247229081,14586.920736677184,0.0
427154.6038362722,4710833.5216966402,-17500.0,-7881.2349461515178,-3574.0043778128138,593.38612238803944,3767.4303036169026,1449.9385455802451,-1306.3630423631153,6394.8618524134999,-5626.0782954967581,-1116.737318542479,1116.737318542479,5626.0782954967581,12105.233387314476,0.0
432154.6038362722,4710833.5216966402,-17500.0,-6925.536754093986,-2716.627867989559,722.44107595553703,3055.7983438329547,1028.6207002815613,-1002.1979461038962,5335.0288081808649,-4584.7697634121514,-753.54314539512688,753.54314539512688,4584.7697634121514,10079.882774559559,0.0
437154.6038362722,4710833.5216966402,-17500.0,-6043.5206206879375,-2066.5724446093336,756.27947117790336,2480.8678199169158,733.05974536820395,-770.83286654851509,4468.9787126712818,-3748.6398099783355,-499.10438197925737,499.10438197925737,3748.6398099783355,8430.5222236825357,0.0
442154.6038362722,4710833.5216966402,-17500.0,-5255.7215903497445,-1575.7929092489123,737.87233937020358,2019.4998995942474,525.0813820713322,-595.49514910389212,3761.4552053716125,-3079.4997914285041,-321.59611502583107,321.59611502583107,3079.4997914285041,7086.6786687408166,0.0
447154.6038362722,4710833.5216966402,-17500.0,-4565.7514327289828,-1205.4780336846027,692.92024338438466,1650.2745311001242,378.03852365171053,-462.62836168702017,3182.4141920754932,-2543.8702761849854,-198.21786110615949,198.21786110615949,2543.8702761849854,5989.2202318126465,0.0
452154.6038362722,4710833.5216966402,-17500.0,-3968.5177572971747,-925.56319381367803,636.40787673225361,1354.7857162640551,273.48221322678637,-361.70145173338722,2707.0348364970832,-2114.0280161952874,-112.8249054568156,112.8249054568156,2114.0280161952874,5089.7991458757479,0.0
457154.6038362722,4710833.5216966402,-17500.0,-3455.0278334720992,-713.29022520324725,576.81282911967583,1117.8601984184781,198.67351416432209,-284.72051314114714,2315.1839968203344,-1767.705915923355,-54.061326342542884,54.061326342542884,1767.705915923355,4349.4839082674034,0.0
462154.6038362722,4710833.5216966402,-17500.0,-3015.053995528237,-551.64279564567346,518.72561075963642,927.2886269073249,144.80752530615828,-225.69598280351428,1990.6989255868905,-1487.3113398407706,-13.964787354658711,13.964787354658711,1487.3113398407706,3737.1873838302017,0.0
467154.6038362722,4710833.5216966402,-17500.0,-2638.5282954137929,-427.97240159589848,464.45161282255799,773.38513017554317,105.77791458758468,-180.16945268307455,1720.6741639966644,-1259.0624284736477,13.043256011815515,-13.043256011815515,1259.0624284736477,3228.1877461323243,0.0
472154.6038362722,4710833.5216966402,-17500.0,-2316.2036863978683,-332.8937260673992,414.97823189996245,648.52633295860187,77.328944024905951,-144.82983816606915,1494.8261702858158,-1072.2007634780939,30.87418723257008,-30.87418723257008,1072.2007634780939,2802.8477083862131,0.0
267154.6038362722,4715833.5216966402,-17500.0,-233.77000742855813,507.25674394184006,127.05430308952442,-88.908775604549078,106.02076069237052,-25.251855342081832,554.67161803525312,341.74614528579309,-117.97908402909545,117.97908402909545,-341.74614528579309,963.2233974569973,0.0
272154.6038362722,4715833.5216966402,-17500.0,-204.08493735592702,565.98629327976482,134.48595519298917,-90.702677694691516,120.79767475994754,-27.646395276466272,609.0324962371551,400.65155187126197,-144.85088268431127,144.85088268431127,-400.65155187126197,1056.1735028808084,0.0
277154.6038362722,4715833.5216966402,-17500.0,-158.97293228195252,631.30068316465668,142.2464146195619,-89.814124950531934,137.39661945411945,-29.720055628955308,669.38194931140629,470.34006826148129,-177.53423247225007,177.53423247225007,-470.34006826148129,1159.7244568891908,0.0
282154.6038362722,4715833.5216966402,-17500.0,-93.227662761358658,703.28494675560637,150.51812019599572,-84.788633230521796,155.74184885545819,-31.048185461222982,736.25401349836682,552.72057208710373,-217.16975200565082,217.16975200565082,-552.72057208710373,1275.2589404342821,0.0
287154.6038362722,4715833.5216966402,-17500.0,-0.048488312183059268,781.56333376074247,159.71312411843653,-73.565176774029624,175.50907062424386,-30.942372237032814,810.15455673944848,649.91880451606858,-265.00654493322281,265.00654493322281,-649.91880451606858,1404.4868824355849,0.0
292154.6038362722,4715833.5216966402,-17500.0,129.37479843166824,864.99607221218105,170.67213616793774,-53.265079127950933,195.95127725929845,-28.314502934661601,891.53334255439995,764.21479952601317,-322.31619798112092,322.31619798112092,-764.21479952601317,1549.6581442934762,0.0
297154.6038362722,4715833.5216966402,-17500.0,306.32340121419685,951.22752342565263,185.01356786927781,-19.940380341592014,215.63231824264579,-21.485989823666277,980.76034065675856,897.91471545684794,-390.2200823813489,390.2200823813489,-897.91471545684794,1713.9412826019397,0.0
302154.6038362722,4715833.5216966402,-17500.0,545.00044554511862,1036.0310754343918,205.73856923078782,31.690158899945043,232.03664186838691,-7.9394788822777986,1078.1286324983309,1053.1308289299752,-469.38346364218302,469.38346364218302,-1053.1308289299752,1902.0690629719425,0.0
307154.6038362722,4715833.5216966402,-17500.0,862.85044673431412,1112.3870673820402,238.27442718525546,108.44444194334218,241.0320980742994,15.961077868729362,1183.9413366555084,1231.4507465952399,-559.52556190911605,559.52556190911605,-1231.4507465952399,2121.3568740777132,0.0
312154.6038362722,4715833.5216966402,-17500.0,1280.5031427816368,1169.2340672781645,292.26711728603777,218.66860604397709,236.20308622922479,55.179857239858578,1298.9145867795942,1433.5071613311152,-658.71987270641785,658.71987270641785,-1433.5071613311152,2383.121370475918,0.0
317154.6038362722,4715833.5216966402,-17500.0,1820.869618253352,1189.8791564778815,384.66713264403455,371.75725604971996,208.17618156957411,115.88631720213449,1426.8183747079163,1658.5441697698811,-762.55649079311058,762.55649079311058,-1658.5441697698811,2704.2566340306553,0.0
322154.6038362722,4715833.5216966402,-17500.0,2506.4394430736202,1150.2264617341957,545.06257567479133,576.84394343823851,144.26279265772894,204.45812366640331,1608.3351262921681,1904.2517134756631,-863.46372275115993,863.46372275115993,-1904.2517134756631,3108.1842137972685,0.0
327154.6038362722,4715833.5216966402,-17500.0,3352.7444637794279,1017.6465406673952,824.86713756388224,840.31896293151624,29.026320731336316,324.74009729568292,1940.7818315752656,2167.5162346115667,-950.85309191414467,950.85309191414467,-2167.5162346115667,3623.851479240393,0.0
332154.6038362722,4715833.5216966402,-17500.0,4353.599093886738,753.72485167573245,1312.4115231110854,1162.0156701640246,-153.42936875993837,472.7659532068443,2381.688780095687,2447.6683689066149,-1013.0528063439681,1013.0528063439681,-2447.6683689066149,4281.7184187619141,0.0
337154.6038362722,4715833.5216966402,-17500.0,5450.344012848177,331.79554246591351,2152.8200607582112,1529.6096388278061,-414.71063195313764,629.88445158297293,2918.1895644822403,2756.527563029767,-1041.7539631007826,1041.7539631007826,-2756.527563029767,5106.8826347780387,0.0
342154.6038362722,4715833.5216966402,-17500.0,6481.3847236118063,-202.37030366471183,3550.6945477295149,1907.4546130167466,-752.77304746204265,760.14379455638084,3525.6306813567062,3146.0112784232506,-1039.597016767874,1039.597016767874,-3146.0112784232506,6106.7479393865642,0.0
347154.6038362722,4715833.5216966402,-17500.0,7154.2703828837248,-589.00335272837674,5663.2527360182385,2208.7174009850414,-1124.6653239766167,822.51479217594135,4099.3004966054878,3765.8167084405536,-1037.968899958943,1037.968899958943,-3765.8167084405536,7234.9286075277496,0.0
352154.6038362722,4715833.5216966402,-17500.0,7203.3259888911261,-208.96951521587442,8195.7012436299392,2252.7538652033418,-1361.7109594363621,794.31624019129333,4448.76755448524,4899.530861954182,-1150.7208826731032,1150.7208826731032,-4899.530861954182,8326.9941878638729,0.0
357154.6038362722,4715833.5216966402,-17500.0,6857.1197941417513,1617.4398955461352,9769.9157776918819,1805.7277912841073,-1021.0063626051142,653.10808932891825,5267.6352500156991,6727.6989048694813,-1664.9830178011657,1664.9830178011657,-6727.6989048694813,9262.9810560163533,0.0
362154.6038362722,4715833.5216966402,-17500.0,7014.8067047155073,4539.1680900054207,8179.5320470507813,872.20863663761236,580.38550191722436,272.10368072345767,6048.9579783757481,8676.5128330807347,-3006.6938843444541,3006.6938843444541,-8676.5128330807347,10944.357123132775,0.0
367154.6038362722,4715833.5216966402,-17500.0,8272.2899986118664,6622.6866707225636,2420.1456417106438,31.898958525093683,3797.3527641501901,-597.63497073188512,8755.2476310880302,9245.3359806109893,-5388.4178835533739,5388.4178835533739,-9245.3359806109893,15357.660436175731,1.0
372154.6038362722,4715833.5216966402,-17500.0,9879.1894623446515,5801.2180143353753,-5758.2327046417186,189.65642742324329,7960.0676779448495,-2012.5433840140727,12683.562769474473,7085.6460764766734,-8346.2064814242003,8346.2064814242003,-7085.6460764766734,22161.78168932988,0.0
377154.6038362722,4715833.5216966402,-17500.0,10175.391936417984,1787.6062101490213,-12948.249395178938,1708.4522367047207,11541.106591790089,-3562.0478597200131,15880.497814635928,2242.9151271467308,-10750.478178500727,10750.478178500727,-2242.9151271467308,28700.084826298487,0.0
382154.6038362722,4715833.5216966402,-17500.0,8136.0342278403741,-3643.9443803406571,-16589.826821991122,3968.5838990321731,13296.249719360001,-4686.5390610525837,17635.168056784067,-3667.539490778815,-11653.858404321789,11653.858404321789,3667.539490778815,32805.367871629198,0.0
387154.6038362722,4715833.5216966402,-17500.0,4283.6632184779191,-8239.7594043682766,-16439.759274500575,5991.226761448459,13083.693387463582,-5136.8058681243892,17873.703482221958,-8658.4237349157211,-11015.407453533537,11015.407453533537,8658.4237349157211,33880.606755027336,0.0
392154.6038362722,4715833.5216966402,-17500.0,-11.711420617710932,-10831.603160817207,-13890.995590532755,7200.6779690412159,11564.540120128922,-5003.2191301459479,16982.042695394259,-11668.142857973347,-9437.0949508774502,9437.0949508774502,11668.142857973347,32511.64498543051,0.0
397154.6038362722,4715833.5216966402,-17500.0,-3635.9529092159219,-11479.415100583426,-10524.923288341117,7546.6326054748306,9514.4961056698121,-4505.7287903824554,15443.864759874627,-12725.622346698769,-7559.1874998513122,7559.1874998513122,12725.622346698769,29664.547448445301,0.0
402154.6038362722,4715833.5216966402,-17500.0,-6126.6560712704668,-10811.134431707447,-7355.3737889436488,7250.7539008098347,7465.3535467768761,-3846.2865106336353,13633.646796765555,-12395.999941319929,-5782.6168895824121,5782.6168895824121,12395.999941319929,26173.81235646805,0.0
407154.6038362722,4715833.5216966402,-17500.0,-7508.3316165816486,-9477.4493466991935,-4805.0174458809988,6580.8873100066567,5678.7896260894568,-3163.8799874840684,11794.590897707119,-11292.063200313456,-4281.8237339869165,4281.8237339869165,11292.063200313456,22595.886271202708,0.0
412154.6038362722,4715833.5216966402,-17500.0,-8022.3747028230446,-7940.8939362226529,-2934.0113504126766,5751.1296568677517,4235.677885352864,-2537.3305167228709,10069.197219800988,-9871.1392157043538,-3094.5958475654388,3094.5958475654388,9871.1392157043538,19242.921333868377,0.0
417154.6038362722,4715833.5216966402,-17500.0,-7947.7007925665712,-6465.2146905146974,-1643.3612148558266,4901.7597367680446,3122.6825209950343,-2001.2647549230178,8527.748541124236,-8413.2827362176031,-2193.7838354993755,2193.7838354993755,8413.2827362176031,16258.801736830426,0.0
422154.6038362722,4715833.5216966402,-17500.0,-7520.0848626881807,-5170.7246112535577,-792.99599953316567,4111.0133633895366,2288.4977270739428,-1562.70466808065,7193.0354699935097,-7063.8286131613559,-1529.0758811562546,1529.0758811562546,7063.8286131613559,13685.408820119377,0.0
427154.6038362722,4715833.5216966402,-17500.0,-6911.0375251000505,-4092.2515754620649,-254.39219651962378,3414.1900104887964,1673.9736895638307,-1214.1091801004848,6060.158864236274,-5882.6449143054688,-1047.8891004277411,1047.8891004277411,5882.6449143054688,11509.113825026145,0.0
432154.6038362722,4715833.5216966402,-17500.0,-6233.5196541544001,-3221.0137651545647,73.075373041353529,2820.5218254545207,1225.5830455009075,-941.99527744711725,5110.3588878438895,-4881.7672596547745,-704.20853532993806,704.20853532993806,4881.7672596547745,9690.141912258543,0.0
437154.6038362722,4715833.5216966402,-17500.0,-5555.9511797245996,-2530.0497925274344,261.98770308155093,2325.2766913560263,899.81198155046707,-731.83221866997121,4319.6202912429399,-4049.6564451653057,-461.14140500992858,461.14140500992858,4049.6564451653057,8179.6872222715729,0.0
442154.6038362722,4715833.5216966402,-17500.0,-4916.1219172519159,-1987.8254028605986,362.22201974512404,1917.4184810665172,663.27806134354626,-570.38654897075935,3663.4872704132235,-3365.2357551130535,-290.56776786105115,290.56776786105115,3365.2357551130535,6929.046718471579,0.0
447154.6038362722,4715833.5216966402,-17500.0,-4332.1838240745647,-1564.6177939443417,407.01121606323892,1583.993309242152,491.21609229431704,-446.56932553048802,3119.4401184022258,-2805.3021891854487,-171.71168524166274,171.71168524166274,2805.3021891854487,5893.9252949893444,0.0
452154.6038362722,4715833.5216966402,-17500.0,-3810.4222796963563,-1234.9443297188407,418.03594618792073,1312.3948296397627,365.60895912306063,-351.51679791484355,2667.8393398640087,-2348.0400152439825,-89.520424157340813,89.520424157340813,2348.0400152439825,5036.0164371290721,0.0
457154.6038362722,4715833.5216966402,-17500.0,-3350.3864571728013,-978.03185225337961,409.21729339746406,1091.3731825340114,273.48964130938066,-278.34004894013697,2292.0973835995701,-1974.4079049999393,-33.219219541198981,33.219219541198981,1974.4079049999393,4323.1617170492427,0.0
462154.6038362722,4715833.5216966402,-17500.0,-2948.108331303994,-777.427599213755,389.37034572363581,911.35514829899614,205.57269104310566,-221.77357386881778,1978.4719677201654,-1668.4442522709514,4.8490038896075021,-4.8490038896075021,1668.4442522709514,3728.8399052243012,0.0
467154.6038362722,4715833.5216966402,-17500.0,-2598.0423000060246,-620.31873331314648,363.9960378846759,764.42073740042269,155.21734115973837,-177.8305074671818,1715.7103541199667,-1417.0785249911669,30.104287022812628,-30.104287022812628,1417.0785249911669,3231.4109261364997,0.0
472154.6038362722,4715833.5216966402,-17500.0,-2294.1814218648883,-496.82146522005081,336.46500336319428,644.12843836047989,117.66774454356806,-143.50606301834256,1494.6589101947968,-1209.751489598013,46.376293071262012,-46.376293071262012,1209.751489598013,2813.3209563932551,0.0
272154.6038362722,4720833.5216966402,-17500.0,-50.116801181137262,507.5518294741284,104.20453824587848,-56.042705060654427,106.49481904201532,-21.772333646312241,527.97470829376118,403.49743368748079,-157.60472730551268,157.60472730551268,-403.49743368748079,914.6128695106944,0.0
277154.6038362722,4720833.5216966402,-17500.0,13.686735823169627,556.00748377573086,109.87020321727417,-49.530154917387691,118.68572824963319,-22.757893436778105,574.04861169115429,466.5259489360032,-188.63313278337006,188.63313278337006,-466.5259489360032,995.55834699161608,0.0
282154.6038362722,4720833.5216966402,-17500.0,99.20849009715387,606.3784833644097,116.83371174917872,-38.206461814072618,131.23999518881499,-22.896314647307033,623.70763815399573,539.3065841493717,-225.2249820395451,225.2249820395451,-539.3065841493717,1084.6695171686445,0.0
287154.6038362722,4720833.5216966402,-17500.0,212.40162319708131,656.99540663934647,126.17799389000179,-20.146769023661598,143.40960065544508,-21.585940897695007,676.79534381535552,622.92960981545048,-268.00567870923999,268.00567870923999,-622.92960981545048,1183.1546593895739,0.0
292154.6038362722,4720833.5216966402,-17500.0,360.53269759365355,705.14953284211106,139.7833903746039,7.1988792549902225,153.91662320076122,-17.923174589179055,732.94298197769649,718.33089319158751,-317.39193121287701,317.39193121287701,-718.33089319158751,1292.8067432963526,0.0
297154.6038362722,4720833.5216966402,-17500.0,552.23714162306658,746.66555430162293,160.8467928327324,47.128597344609211,160.68327465190509,-10.582880097969632,791.5064959864203,826.11274048660675,-373.35745756561482,373.35745756561482,-826.11274048660675,1416.4460687339799,0.0
302154.6038362722,4720833.5216966402,-17500.0,797.35716715508624,775.37506956609116,194.71146214692286,103.76079194638356,160.46211439240855,2.3210636427987121,851.52537381490765,946.30434485398121,-435.06863571945735,435.06863571945735,-946.30434485398121,1558.621772708316,0.0
307154.6038362722,4720833.5216966402,-17500.0,1106.3504120955242,782.54385442337923,250.17237315434497,181.9649528825351,148.36563229990824,23.364605827879721,911.89343581083688,1078.0904773264597,-500.35750027568446,500.35750027568446,-1078.0904773264597,1726.6053093264422,0.0
312154.6038362722,4720833.5216966402,-17500.0,1488.9198901377154,756.42062288404554,341.47947349318252,286.99025299163418,117.34385589687405,55.852885770958196,980.16730826922776,1219.6099009031398,-565.03419065471849,565.03419065471849,-1219.6099009031398,1931.542643030092,0.0
317154.6038362722,4720833.5216966402,-17500.0,1951.3183160788255,682.32702764760791,491.29359221058075,423.53486268531327,57.770033453573184,103.60798569468963,1157.9970957417702,1368.0819340251787,-622.14035255546958,622.14035255546958,-1368.0819340251787,2189.2626344063274,0.0
322154.6038362722,4720833.5216966402,-17500.0,2491.5362254791316,544.2303357220004,734.73262765577215,593.89670959149225,-42.494225603671602,170.22900296076619,1392.318033241243,1520.8196749069255,-661.46079139817198,661.46079139817198,-1520.8196749069255,2519.6948982064146,0.0
327154.6038362722,4720833.5216966402,-17500.0,3091.426060612403,329.79893599477765,1124.0021723832217,794.78350494359722,-196.82935413613961,257.47488337029239,1674.7399258622963,1678.2302639727409,-670.00248719175249,670.00248719175249,-1678.2302639727409,2943.4711896798876,0.0
332154.6038362722,4720833.5216966402,-17500.0,3705.3542426957497,42.862949807649741,1730.8364997583556,1012.3863860510962,-416.12313680211224,362.58853149118136,2003.8666134734483,1850.7408389724901,-634.7535218591388,634.7535218591388,-1850.7408389724901,3474.5098051743839,0.0
337154.6038362722,4720833.5216966402,-17500.0,4248.313702872355,-270.40171852029573,2637.4348146966308,1215.4549700121406,-700.44610557440342,475.08941223781125,2364.5388122565005,2072.315403520382,-549.88211288241428,549.88211288241428,-2072.315403520382,4108.1824266493659,0.0
342154.6038362722,4720833.5216966402,-17500.0,4597.490951880558,-477.26713337667582,3892.0106447373987,1346.737399278928,-1022.378704301301,574.64080776984201,2717.908540837821,2420.9989647784914,-431.68320157711014,431.68320157711014,-2420.9989647784914,4806.5804324031815,0.0
347154.6038362722,4720833.5216966402,-17500.0,4642.7064408869437,-316.14190039334613,5388.3346473081538,1317.0741315441505,-1296.1987949743848,631.03794300969707,3036.1816746176164,3031.9269699212687,-345.02306051918049,345.02306051918049,-3031.9269699212687,5494.0825077241725,0.0
352154.6038362722,4720833.5216966402,-17500.0,4422.9206923932261,553.80104739216677,6661.3091216968087,1020.7792195531655,-1333.0038700926764,601.95092591302114,3474.8611439368251,4047.9271206129997,-437.4482477147551,437.4482477147551,-4047.9271206129997,6126.970101880941,0.0
357154.6038362722,4720833.5216966402,-17500.0,4274.3861425535606,2269.3979430144645,6774.1931425793109,410.75822259269103,-819.7840237765256,420.00211561695295,3986.9185867119377,5428.6429429429299,-945.94543977265585,945.94543977265585,-5428.6429429429299,6979.493749282994,0.0
362154.6038362722,4720833.5216966402,-17500.0,4711.4758094350764,4328.8606089422974,4690.8365713492894,-362.57275472495473,575.70188687746145,-15.847245049419413,4773.624981784551,6689.1980744365173,-2103.5085724085779,2103.5085724085779,-6689.1980744365173,8936.2306597136121,0.0
367154.6038362722,4720833.5216966402,-17500.0,5908.5685217488144,5557.8018942771505,170.26323855706846,-885.36869548706875,2921.2759986698748,-785.97950843876879,7282.1437731162141,6931.6550336880628,-3925.338921264849,3925.338921264849,-6931.6550336880628,12647.151448905017,0.0
372154.6038362722,4720833.5216966402,-17500.0,7287.5846594695458,4849.9506754260719,-5665.3890797624272,-684.5312606856412,5768.6024868152981,-1825.7148776221638,9969.3946949016608,5393.064906018285,-6030.9774488158428,6030.9774488158428,-5393.064906018285,17452.494529886688,0.0
377154.6038362722,4720833.5216966402,-17500.0,7819.9977762051221,2075.0695227936117,-10872.565998182758,384.89132680934102,8288.6166774987432,-2882.3822144808264,12221.34337101297,2092.7935756640304,-7758.0298053760616,7758.0298053760616,-2092.7935756640304,21985.532089629622,0.0
382154.6038362722,4720833.5216966402,-17500.0,6834.4815781515954,-1790.9617357827469,-13912.027828910932,1986.632155960652,9776.4293641558506,-3663.0353855292446,13633.713811483032,-2076.8381056953158,-8573.8020883108038,8573.8020883108038,2076.8381056953158,25120.253734102462,0.0
387154.6038362722,4720833.5216966402,-17500.0,4490.0082379347905,-5411.506109853849,-14425.097117581472,3568.123530181279,10034.429302627726,-4016.4659485353136,14091.894321187987,-5933.0218897699233,-8385.2877584943435,8385.2877584943435,5933.0218897699233,26407.527037825021,0.0
392154.6038362722,4720833.5216966402,-17500.0,1518.8855269558671,-7897.5430617225957,-13040.453269544492,4718.8649420917791,9321.2814612771417,-3968.6532612900328,13735.832923992017,-8670.838856862194,-7468.8743279618229,7468.8743279618229,8670.838856862194,26014.764543778161,0.0
397154.6038362722,4720833.5216966402,-17500.0,-1320.0785431755287,-9041.5019964856965,-10704.551661549483,5302.7948690764561,8064.9081758436523,-3642.2326326463171,12820.429138707837,-10081.407663692331,-6206.7015578917835,6206.7015578917835,10081.407663692331,24421.342094111315,0.0
402154.6038362722,4720833.5216966402,-17500.0,-3564.1426248462249,-9089.1726431991647,-8185.7985769418601,5386.1150425228934,6637.2446855001044,-3171.6409321883457,11596.375982729429,-10372.156291379481,-4900.7045016610582,4900.7045016610582,10372.156291379481,22143.999275548063,0.0
407154.6038362722,4720833.5216966402,-17500.0,-5069.6262152029913,-8433.528409651728,-5926.3471998913865,5117.5465429672686,5275.6463512307046,-2660.8448266973469,10257.542230083422,-9901.7715540078152,-3724.2806054229204,3724.2806054229204,9901.7715540078152,19596.893570756434,0.0
412154.6038362722,4720833.5216966402,-17500.0,-5898.2234603151728,-7427.2842010910008,-4099.3025151700867,4647.0553273363676,4095.5009346580696,-2174.8585413096271,8933.8590757957136,-9007.7637798068972,-2747.652703921327,2747.652703921327,9007.7637798068972,17058.720025910621,0.0
417154.6038362722,4720833.5216966402,-17500.0,-6199.3214068824373,-6318.3535453269415,-2716.839904415172,4091.1435914040294,3130.7423564687251,-1746.4686045512865,7701.7013798132011,-7940.1542631305538,-1978.4810992691482,1978.4810992691482,7940.1542631305538,14691.16684652328,0.0
422154.6038362722,4720833.5216966402,-17500.0,-6134.2153368936006,-5253.1224410483037,-1717.599595567445,3526.9152280884809,2370.9987354275245,-1386.6713746365792,6598.2681496004589,-6857.5521898472944,-1393.9925753088305,1393.9925753088305,6857.5521898472944,12571.625794393138,0.0
427154.6038362722,4720833.5216966402,-17500.0,-5840.3357858547297,-4303.1436523224293,-1019.3216307243295,2998.6305386981703,1786.8934304123381,-1093.87555434212,5634.9546774261707,-5847.242502968953,-960.8882805346534,960.8882805346534,5847.242502968953,10723.514621884624,0.0
432154.6038362722,4720833.5216966402,-17500.0,-5420.8574676036233,-3492.8656761123766,-544.39728565493181,2527.3659875539179,1344.5018058655785,-860.44675384104937,4807.8813125974148,-4948.7215634296062,-645.78290038893419,645.78290038893419,4948.7215634296062,9139.1833465845611,0.0
437154.6038362722,4720833.5216966402,-17500.0,-4946.8135892166865,-2820.7121797315608,-229.20509466584505,2119.6311865429279,1012.3467534054319,-676.73120461250198,4105.2681233141193,-4172.8148168753887,-419.70314078016395,419.70314078016395,4172.8148168753887,7795.3290565613815,0.0
442154.6038362722,4720833.5216966402,-17500.0,-4463.7052805982239,-2272.7918084006892,-25.361218179170589,1773.7205609376895,764.02199197835557,-533.215894870086,3512.1311610138555,-3514.8946931684304,-259.34336524573655,259.34336524573655,3514.8946931684304,6662.5048675962216,0.0
447154.6038362722,4720833.5216966402,-17500.0,-3998.5811717485176,-1830.885641429998,102.30732685928432,1483.8907654556886,578.57935038885762,-421.50207602063904,3013.0194007865766,-2963.1395642649327,-146.78748716170185,146.78748716170185,2963.1395642649327,5710.5221402524185,0.0
452154.6038362722,4720833.5216966402,-17500.0,-3565.9904328415314,-1476.6393844374545,178.64548388575275,1242.8765427635858,439.94458510356191,-334.60726739506163,2593.449601654288,-2503.2876383089588,-68.651091634864315,68.651091634864315,2503.2876383089588,4911.2171077334051,0.0
457154.6038362722,4720833.5216966402,-17500.0,-3172.4454519257156,-1193.4845338319274,220.87116024423881,1043.2821466608079,336.02990812558215,-266.93095258555263,2240.5425912100045,-2121.1526885997246,-15.118266925407397,15.118266925407397,2121.1526885997246,4239.6413440725246,0.0
462154.6038362722,4720833.5216966402,-17500.0,-2819.5422077823432,-967.30636594051293,240.76049454453957,878.27121274970216,257.85287330640506,-214.07898414675967,1943.202033098825,-1803.8057130378834,20.924079530312724,-20.924079530312724,1803.8057130378834,3674.3673189407978,0.0
467154.6038362722,4720833.5216966402,-17500.0,-2506.0431000676131,-786.48102694985005,246.28995266307118,741.84883514506646,198.78157674098549,-172.64982850940359,1692.0555488582092,-1540.0137303187282,44.591002928666967,-44.591002928666967,1540.0137303187282,3197.343367892684,0.0
472154.6038362722,4720833.5216966402,-17500.0,-2229.2123813340368,-641.63093159886398,242.8193353469577,628.92066339861958,153.93283404069294,-140.03073127476574,1479.284051579074,-1320.2888165608738,59.542964224190655,-59.542964224190655,1320.2888165608738,2793.5421575943087,0.0
272154.6038362722,4725833.5216966402,-17500.0,72.992829973250778,441.64789949383834,85.393403633635188,-27.695673882391283,90.557618104562565,-16.731541547344385,453.15959446795114,393.15579645817149,-161.42059153532171,161.42059153532171,-393.15579645817149,788.27575744641456,0.0
277154.6038362722,4725833.5216966402,-17500.0,147.2131135539008,473.85992385622205,91.91918945326762,-17.51006981644144,98.410595723781398,-16.914181112843735,486.98123636159175,447.93686193129196,-189.17848880995899,189.17848880995899,-447.93686193129196,851.18938593068572,0.0
282154.6038362722,4725833.5216966402,-17500.0,241.95342605727413,504.21224215845473,101.20989850101013,-2.4628089555096002,105.4632488999079,-16.239186036734569,522.14730872035398,509.6617475193168,-220.92006942160774,220.92006942160774,-509.6617475193168,919.89611847785602,0.0
287154.6038362722,4725833.5216966402,-17500.0,361.74544245447754,530.34858739957519,115.08438311761716,19.044866137573472,110.70199032156643,-14.211104571761069,558.09517649094801,578.6534043358705,-256.71463023535296,256.71463023535296,-578.6534043358705,995.54655768737985,0.0
292154.6038362722,4725833.5216966402,-17500.0,511.67205154069654,548.91881759155058,136.43678539920953,49.002075724346071,112.57056020825179,-10.123451845691838,593.99262997781545,654.95553914041159,-296.27822152381339,296.27822152381339,-654.95553914041159,1080.0146230477185,0.0
297154.6038362722,4725833.5216966402,-17500.0,697.09805777130919,555.32598477875706,169.81077985610858,89.789594411813596,108.74756337373975,-2.9955167354576049,628.6711675225672,738.2028071840781,-338.74012811935029,338.74012811935029,-738.2028071840781,1176.366401617229,0.0
302154.6038362722,4725833.5216966402,-17500.0,923.09096759273268,543.52679325751183,222.23794674435862,144.08570992923197,95.872465614439776,8.4860831035264948,660.5645455557576,827.50458727408204,-382.31966216439537,382.31966216439537,-827.50458727408204,1289.5015489558966,0.0
307154.6038362722,4725833.5216966402,-17500.0,1193.3432067826575,506.03694994825992,304.41387729846758,214.58666182300686,69.250289916905587,25.99117452064722,736.72149601434398,921.42310365040191,-423.91863286230557,423.91863286230557,-921.42310365040191,1426.8713884332199,0.0
312154.6038362722,4725833.5216966402,-17500.0,1508.3476834662097,434.44717713494828,432.23803882130028,303.40087118673966,22.624872531316988,51.474934120565138,867.40557545501679,1018.2175234938309,-458.68812361283636,458.68812361283636,-1018.2175234938309,1598.956011945264,0.0
317154.6038362722,4725833.5216966402,-17500.0,1862.5657838517984,321.02326270612656,628.57132234859102,410.9202568924689,-51.773656947701149,86.908198037227322,1023.0916555786787,1116.6835952026147,-479.74514583430914,479.74514583430914,-1116.6835952026147,1818.8805017071561,0.0
322154.6038362722,4725833.5216966402,-17500.0,2240.4746482270607,162.3692842953177,924.59436671585843,533.93838062986947,-162.50284675550964,133.65894168467122,1206.1384199757949,1218.1440888498671,-478.43035837468932,478.43035837468932,-1218.1440888498671,2100.3522451184431,0.0
327154.6038362722,4725833.5216966402,-17500.0,2611.9743456912215,-33.371748282275341,1359.0395913080833,662.83913465785201,-316.79249702529791,191.36422486996236,1416.2410296473233,1330.3856083258247,-445.84751354294127,445.84751354294127,-1330.3856083258247,2453.32691322246,0.0
332154.6038362722,4725833.5216966402,-17500.0,2929.2356304387722,-234.15776253103121,1971.2729835944499,777.94669141610325,-515.92945758694975,256.2271142394352,1648.1330777920195,1474.2781007786039,-376.87697961554534,376.87697961554534,-1474.2781007786039,2877.614810940082,0.0
337154.6038362722,4725833.5216966402,-17500.0,3130.4568066706202,-366.61895037126033,2780.3774917527244,845.84780142392844,-746.6568968155832,318.91555590368017,1892.4604011556755,1692.4970862863411,-278.19575269409313,278.19575269409313,-1692.4970862863411,3356.3597445875048,0.0
342154.6038362722,4725833.5216966402,-17500.0,3160.8958573218265,-300.88590593375693,3739.0578597117869,818.17851993448232,-967.24996742920905,362.46827232072116,2155.6411453823389,2055.0319771789882,-181.34592394800165,181.34592394800165,-2055.0319771789882,3856.1607202865534,0.0
347154.6038362722,4725833.5216966402,-17500.0,3021.8894260836519,137.9330885749421,4658.2491497116425,638.74496631701697,-1089.3014258696253,360.3889648474489,2479.0187892084264,2645.6717145650578,-158.74872870870195,158.74872870870195,-2645.6717145650578,4353.9895274815344,0.0
352154.6038362722,4725833.5216966402,-17500.0,2836.7497177257878,1088.4470046999093,5136.5492926749994,268.99483554979031,-964.74502357305471,274.71152061516307,2841.3928445209772,3503.1055049658039,-331.96100761535718,331.96100761535718,-3503.1055049658039,4930.3870393118223,0.0
357154.6038362722,4725833.5216966402,-17500.0,2866.2650722540284,2483.3519021134234,4599.8790330348975,-261.90438996953384,-404.15577390081484,56.281338964292317,3190.2257553760151,4508.7420208093436,-848.93959209364289,848.93959209364289,-4508.7420208093436,5913.5243622009884,1.0
362154.6038362722,4725833.5216966402,-17500.0,3374.9050856881254,3893.5525789842918,2567.4470417199391,-804.44567734466466,740.50352066123901,-342.54956750691781,4329.8622290518551,5293.8101777119336,-1808.4102478220475,1808.4102478220475,-5293.8101777119336,7780.4536448845574,0.0
367154.6038362722,4725833.5216966402,-17500.0,4368.9901390597579,4606.8714530607385,-936.40563391425508,-1099.2757736688206,2440.0170862863756,-931.66164543876346,6143.8420548502691,5315.1923871331401,-3151.9426876033049,3151.9426876033049,-5315.1923871331401,10643.220549054882,0.0
372154.6038362722,4725833.5216966402,-17500.0,5446.5325159717204,4022.4859460737975,-5181.6403916101053,-902.07122270572074,4403.2065460554368,-1641.2482186593104,8009.6496051669337,4152.224744236928,-4611.6018600164462,4611.6018600164462,-4152.224744236928,14036.081953673494,0.0
377154.6038362722,4725833.5216966402,-17500.0,5984.3382533501026,2078.983848697681,-9026.1838514581996,-154.64953996622742,6165.4612740792809,-2325.8636692346158,9609.1253471910441,1824.2428629172605,-5802.1776007136323,5802.1776007136323,-1824.2428629172605,17225.323490003833,0.0
382154.6038362722,4725833.5216966402,-17500.0,5545.507110409525,-680.87398362931879,-11518.571376948279,957.93841690109582,7320.3342501678626,-2832.7029669730723,10698.123339768485,-1163.7818452827951,-6420.6481510273798,6420.6481510273798,1163.7818452827951,19578.466006264407,0.0
387154.6038362722,4725833.5216966402,-17500.0,4139.031169505115,-3457.736696410092,-12320.628424196955,2123.307919309811,7705.3109708752454,-3077.0679961942456,11176.102845741809,-4099.2162137556797,-6389.2839831709434,6389.2839831709434,4099.2162137556797,20778.030115180143,0.0
392154.6038362722,4725833.5216966402,-17500.0,2141.415925296415,-5621.1003574739252,-11687.230980657258,3073.0227198074176,7411.0257621828359,-3063.6419607106714,11086.353482770039,-6414.114570200165,-5838.8237182795783,5838.8237182795783,6414.114570200165,20838.325685009735,0.0
397154.6038362722,4725833.5216966402,-17500.0,32.035536556720089,-6905.1076125260061,-10161.711934541432,3674.6268634658336,6663.7300282614769,-2856.207559586137,10559.924946514229,-7858.4737012933592,-4990.6219827150117,4990.6219827150117,7858.4737012933592,19989.459466858611,0.0
402154.6038362722,4725833.5216966402,-17500.0,-1820.1329694356073,-7355.8361093848753,-8278.9590892204051,3923.5008413912847,5700.9667112986517,-2535.3638652441559,9751.9584942255642,-8463.9120830296197,-4049.1309627460168,4049.1309627460168,8463.9120830296197,18536.937545883888,0.0
407154.6038362722,4725833.5216966402,-17500.0,-3227.9200216530112,-7179.46525574525,-6417.8118084226635,3888.8013278040194,4703.6869890084708,-2170.6472624091584,8800.3794012349208,-8415.2642516108608,-3153.520797806771,3153.520797806771,8415.2642516108608,16764.31705254587,0.0
412154.6038362722,4725833.5216966402,-17500.0,-4156.8714888257991,-6612.9831949427708,-4783.5376116629614,3662.3181713736949,3781.6118615409205,-1810.3214563302886,7809.4222049085383,-7935.0452979769989,-2376.1831522116763,2376.1831522116763,7935.0452979769989,14889.715883265659,0.0
417154.6038362722,4725833.5216966402,-17500.0,-4663.4541745147881,-5854.9201186698747,-3450.9691024044059,3327.8355184582815,2986.0520972817371,-1482.1173853864827,6848.6487852146383,-7217.5492830097601,-1740.9240922990894,1740.9240922990894,7217.5492830097601,13059.362860973477,0.0
422154.6038362722,4725833.5216966402,-17500.0,-4841.0227754691214,-5044.3526599351117,-2417.4148599528148,2948.9728005759612,2329.814229110219,-1198.2944509388353,5958.8040697873348,-6405.6382787517141,-1243.0339287525021,1243.0339287525021,6405.6382787517141,11358.90425210849,0.0
427154.6038362722,4725833.5216966402,-17500.0,-4785.6575278305691,-4265.6835658794671,-1643.6505930615797,2568.1132246341353,1804.4370671939803,-961.18513177346983,5159.4857356655903,-5591.845400109537,-864.40874794237061,864.40874794237061,5591.845400109537,9829.7529338610857,0.0
432154.6038362722,4725833.5216966402,-17500.0,-4579.6117163046856,-3562.4581334431027,-1079.2978627388743,2210.1933343096398,1392.0719681707199,-767.64218446016503,4456.221530782158,-4829.1130742661189,-582.91170594274945,582.91170594274945,4829.1130742661189,8484.2206300799699,0.0
437154.6038362722,4725833.5216966402,-17500.0,-4286.1888995013032,-2951.4407491725133,-675.94310536218109,1887.6498591938189,1072.5094642495631,-612.06427674201029,3846.0413923497972,-4142.956657114667,-377.30172235133955,377.30172235133955,4142.956657114667,7317.2451499380259,0.0
442154.6038362722,4725833.5216966402,-17500.0,-3950.5900387880747,-2433.6715732242442,-392.51884991073496,1604.818573483107,826.7645769075815,-488.21235710400066,3321.4347185805727,-3541.6292008602618,-229.33698662130746,229.33698662130746,3541.6292008602618,6314.567479944043,0.0
447154.6038362722,4725833.5216966402,-17500.0,-3603.1418385667521,-2002.0325240795532,-196.50504775907868,1361.2489958679043,638.54915074157282,-390.16839241227962,2872.9328029783746,-3023.469238279692,-124.30605509357633,124.30605509357633,3023.469238279692,5457.9825268160885,0.0
452154.6038362722,4725833.5216966402,-17500.0,-3262.9717460915408,-1645.9508645217118,-63.213842582990118,1153.9640387364077,494.59622259083932,-312.75638019272492,2490.6726814087501,-2581.7479263235282,-50.801619178987949,50.801619178987949,2581.7479263235282,4728.4759104511704,0.0
457154.6038362722,4725833.5216966402,-17500.0,-2941.2625611779358,-1354.0811761437003,25.592380238291881,978.8854921859396,384.43852543778286,-251.65865056648235,2165.2623035128618,-2207.6411761519839,-0.20341904907104436,0.20341904907104436,2207.6411761519839,4107.9398293367321,0.0
462154.6038362722,4725833.5216966402,-17500.0,-2643.8179145861691,-1115.68991462794,83.144288487499864,831.67131748104623,299.98127505430222,-203.37778437181726,1888.2000180331529,-1891.9285530889688,33.890658023232845,-33.890658023232845,1891.9285530889688,3579.9961852093388,0.0
467154.6038362722,4725833.5216966402,-17500.0,-2372.9499733454281,-921.26569134608815,118.92287816989877,708.16792126659345,235.04164555643791,-165.13319390162329,1652.0264567417671,-1625.8842887954488,56.179365903723919,-56.179365903723919,1625.8842887954488,3130.2902593244703,0.0
272154.6038362722,4730833.5216966402,-17500.0,166.30249776642762,373.74044111502855,76.891402438632198,-5.5202965499376102,74.162898771375765,-12.529265079055335,385.29799603122774,373.703381423179,-158.31719127849209,158.31719127849209,-373.703381423179,677.95514544386344,0.0
277154.6038362722,4730833.5216966402,-17500.0,243.97897256424702,391.67089625154046,86.376032323861054,6.639333027039287,78.084719844391103,-12.165517686659781,408.9040548752356,419.85669890924419,-181.92247076998228,181.92247076998228,-419.85669890924419,727.13255148460507,0.0
282154.6038362722,4730833.5216966402,-17500.0,339.46830767049619,405.19950965204123,100.32865431275474,23.258950618109427,80.344520781822027,-11.00129945637557,432.24557148062905,470.60321621369621,-207.99887296015507,207.99887296015507,-470.60321621369621,780.86754910438754,0.0
287154.6038362722,4730833.5216966402,-17500.0,455.7065410109638,411.85317736121186,121.16534127671956,45.521613561922067,79.824968323514199,-8.6528057440492248,454.56589501486849,525.817446475682,-236.20705075681633,236.20705075681633,-525.817446475682,840.47720491522455,0.0
292154.6038362722,4730833.5216966402,-17500.0,595.54113894664613,408.42976342512679,152.48894945380752,74.778479197931063,74.928185191746792,-4.6029268876038758,474.90735485344493,585.12136828360167,-265.80809645441104,265.80809645441104,-585.12136828360167,908.09458571661503,0.0
297154.6038362722,4730833.5216966402,-17500.0,761.28881098932959,390.96946351162131,199.59734767102864,112.46209067631885,63.428036563291649,1.8213319643361068,497.84710314622015,647.85334090935851,-295.47933586522538,295.47933586522538,-647.85334090935851,987.0590809092464,0.0
302154.6038362722,4730833.5216966402,-17500.0,954.00532311041286,354.90196412406664,270.14192959383956,159.88925214456359,42.321737435799477,11.453319892024336,572.71829104995118,713.11908130522147,-323.0957480138361,323.0957480138361,-713.11908130522147,1082.3261652230299,0.0
307154.6038362722,4730833.5216966402,-17500.0,1172.3662660881118,295.55387547383202,374.90318301962583,217.88201623353621,7.7332270892491151,25.24727193747767,662.72899409486547,780.02672375648694,-345.51581891824185,345.51581891824185,-780.02672375648694,1200.7071721268644,0.0
312154.6038362722,4730833.5216966402,-17500.0,1411.0873793939495,209.32176227800662,528.53102214247292,286.11141147173652,-45.020995520824485,44.150948245698672,767.59054396606609,848.27940915836848,-358.47009299933507,358.47009299933507,-848.27940915836848,1350.6032663896519,0.0
317154.6038362722,4730833.5216966402,-17500.0,1658.9454609461955,95.968484638171816,749.83738106482213,362.05963118259444,-120.99629688544969,68.824543600050703,888.27166653319102,919.38848080600883,-356.75651273194666,356.75651273194666,-919.38848080600883,1540.8380674318203,0.0
322154.6038362722,4730833.5216966402,-17500.0,1896.7970428707677,-37.382275714942857,1060.7190480449408,439.53471510545063,-224.46535469413823,99.123491104644344,1024.7458693211699,998.8273259723552,-335.10667815457998,335.10667815457998,-998.8273259723552,1778.3644173719367,0.0
327154.6038362722,4730833.5216966402,-17500.0,2096.7044862696011,-170.10352138668227,1481.9153016941466,506.82333761215727,-356.52555603143088,133.27134331655654,1176.0020817867457,1099.3348059618352,-290.28328968989001,290.28328968989001,-1099.3348059618352,2065.1113079717734,0.0
332154.6038362722,4730833.5216966402,-17500.0,2224.4774990977608,-260.20724476891621,2022.6129397563209,544.9321124991344,-510.8333905299483,166.70997071742755,1343.5113560800662,1244.9550833831418,-225.08677146572302,225.08677146572302,-1244.9550833831418,2395.1189692499552,0.0
337154.6038362722,4730833.5216966402,-17500.0,2249.3388725998338,-237.78582176829593,2660.1453492294559,527.07795116161333,-666.99978834494129,190.74038836016859,1541.3042178351818,1473.6805555960468,-154.69039450687148,154.69039450687148,-1473.6805555960468,2754.9956832127896,0.0
342154.6038362722,4730833.5216966402,-17500.0,2164.36629600584,-7.9596383560705339,3308.2008376183667,421.70206530483813,-782.14454137547762,191.22923548700945,1785.4239939481113,1833.2250629770797,-114.4994544797554,114.4994544797554,-1833.2250629770797,3134.8856210907934,0.0
347154.6038362722,4730833.5216966402,-17500.0,2015.7451675554853,522.23633397493688,3781.9785544874039,202.3979730261423,-783.72367445898851,147.85110036502701,2056.6508219275856,2360.6629462671481,-165.82060889079798,165.82060889079798,-2360.6629462671481,3562.5133074601499,0.0
352154.6038362722,4730833.5216966402,-17500.0,1923.3545793579701,1380.4431477541959,3789.7034184515919,-132.547731731471,-571.52387664600701,34.837213326694048,2323.5621421595411,3038.5389951868628,-391.27826834101688,391.27826834101688,-3038.5389951868628,4162.1969205605701,0.0
357154.6038362722,4730833.5216966402,-17500.0,2056.7315738480729,2442.9113187742619,2998.4208200594644,-534.58046904053094,-41.048369478492425,-174.53649491158126,2763.1753983933786,3738.5008601317118,-869.84633754214565,869.84633754214565,-3738.5008601317118,5170.3315029694131,0.0
362154.6038362722,4730833.5216966402,-17500.0,2539.9408062767156,3390.3382445553339,1197.4810327012806,-890.38025176321594,864.82491868958834,-496.57622471031118,3859.8535903429374,4198.0700901526643,-1629.7026182263505,1629.7026182263505,-4198.0700901526643,6786.1262582491381,0.0
367154.6038362722,4730833.5216966402,-17500.0,3324.0573417370447,3790.4327288970858,-1509.8361565693738,-1045.092665840004,2093.6135859572341,-919.69828028591155,5175.1736874588514,4089.5436795179467,-2599.8812961834828,2599.8812961834828,-4089.5436795179467,8966.0791777731247,0.0
372154.6038362722,4730833.5216966402,-17500.0,4138.7371200595899,3310.3963985668674,-4642.9476269151555,-871.63297184533144,3458.4475383240911,-1392.2497832049864,6502.0650107691054,3182.1643984306324,-3602.3849187370229,3602.3849187370229,-3182.1643984306324,11409.48741096614,1.0
377154.6038362722,4730833.5216966402,-17500.0,4603.5999071014649,1922.9167245854637,-7509.7778142316847,-347.59743380440307,4691.5186171467622,-1831.9792252410844,7655.8933455509568,1497.4392075105466,-4411.6684308526965,4411.6684308526965,-1497.4392075105466,13699.647317536181,0.0
382154.6038362722,4730833.5216966402,-17500.0,4436.411310706113,-61.747819845755181,-9512.3095040673779,422.61565067790809,5554.8302912304425,-2157.9565832131661,8486.5628461523593,-669.39764071119134,-4853.1870431806474,4853.1870431806474,669.39764071119134,15465.612584832765,0.0
387154.6038362722,4730833.5216966402,-17500.0,3596.7852676695966,-2161.2684721508103,-10378.765259240659,1260.6016318879497,5932.4143473387476,-2323.1892592564977,8918.4089606766338,-2884.5696138301596,-4872.4100326159569,4872.4100326159569,2884.5696138301596,16492.07147162615,0.0
392154.6038362722,4730833.5216966402,-17500.0,2271.6302201711828,-3946.121268431084,-10190.544878446935,1997.1100455672704,5847.8182681520366,-2325.9225278833651,8957.6019396643969,-4762.5199945679005,-4532.6124308548506,4532.6124308548506,4762.5199945679005,16745.736543316936,0.0
397154.6038362722,4730833.5216966402,-17500.0,750.52022716786223,-5175.7272468223509,-9247.8646495740395,2528.1044345923638,5417.0043240166196,-2198.3390447276979,8669.8493534401587,-6083.3906338293682,-3960.9855714954601,3960.9855714954601,6083.3906338293682,16332.478147467498,0.0
402154.6038362722,4730833.5216966402,-17500.0,-701.99608493537767,-5807.5170075007145,-7902.3294582379358,2824.2603321832034,4783.9755133632025,-1986.5611527688288,8147.7109290970711,-6804.5337925676358,-3289.6475883088351,3289.6475883088351,6804.5337925676358,15427.766434533874,0.0
407154.6038362722,4730833.5216966402,-17500.0,-1913.8109508526966,-5930.6369548374068,-6445.4051531767373,2910.045937196694,4074.8078893358156,-1734.5048298574625,7483.8188229829093,-7005.3759706186765,-2620.4394422675878,2620.4394422675878,7005.3759706186765,14216.704379810424,0.0
412154.6038362722,4730833.5216966402,-17500.0,-2812.166070379667,-5688.3827962674295,-5068.6148694734711,2835.7312942655881,3378.4618791828952,-1475.7668890987193,6755.7579497300667,-6819.3781648926179,-2015.5400191075782,2015.5400191075782,6819.3781648926179,12858.159538600108,0.0
417154.6038362722,4730833.5216966402,-17500.0,-3398.2387315311812,-5223.3685797313246,-3871.0318609172909,2655.8935364189306,2746.6193657295507,-1231.9886983497281,6020.893930840728,-6383.7454333602327,-1503.3293657371287,1503.3293657371287,6383.7454333602327,11471.014074257984,0.0
422154.6038362722,4730833.5216966402,-17500.0,-3714.9665665206021,-4650.6711714307785,-2885.4389618635419,2417.5787164924614,2202.1483939693007,-1014.6646279695499,5317.21387196245,-5813.1311704882692,-1089.2145529986192,1089.2145529986192,5813.1311704882692,10134.516852821464,0.0
427154.6038362722,4730833.5216966402,-17500.0,-3821.2397834815683,-4051.0724907295735,-2105.2070813897744,2156.0712197295038,1749.1300619741398,-828.0484830626433,4666.8761544272311,-5191.5141274544712,-765.65288435970933,765.65288435970933,5191.5141274544712,8895.2465087032142,0.0
432154.6038362722,4730833.5216966402,-17500.0,-3775.7493076343471,-3474.8141530479925,-1504.654910930391,1895.1001504915434,1381.1704493422301,-671.88855943766509,4080.4055514836818,-4574.1908109675151,-519.37727689160647,519.37727689160647,4574.1908109675151,7775.7809843007408,0.0
437154.6038362722,4730833.5216966402,-17500.0,-3628.9974895199398,-2949.0368053367997,-1051.9470013023799,1648.9782322258786,1087.1617292111337,-543.51594324167365,3560.4913209600199,-3993.7962553843608,-335.82068892026109,335.82068892026109,3993.7962553843608,6782.5915114478958,0.0
442154.6038362722,4730833.5216966402,-17500.0,-3420.6907614568695,-2485.2261908298174,-716.10429386772751,1425.1658439476953,854.78108970272808,-439.24060262687959,3104.984038924762,-3466.8659957145637,-201.43517623415801,201.43517623415801,3466.8659957145637,5912.2361334655461,0.0
447154.6038362722,4730833.5216966402,-17500.0,-3180.0785063400294,-2085.2069540439884,-470.1477536971604,1226.5483760663999,672.35621682437966,-355.18718438762477,2709.0584788051301,-2999.4093654096187,-104.66305895110531,104.66305895110531,2999.4093654096187,5155.7920173053481,0.0
452154.6038362722,4730833.5216966402,-17500.0,-2927.5721801643676,-1745.4165571152062,-292.01845540825133,1053.1902611303394,529.69031720099872,-287.73765688790326,2366.6632866945733,-2591.0757051995361,-36.146703270744865,36.146703270744865,2591.0757051995361,4501.802481693484,0.0
457154.6038362722,4730833.5216966402,-17500.0,-2676.6930445035723,-1459.7054282500942,-164.37921801093253,903.57164545620742,418.29183234167994,-233.72573001512797,2071.4317197116297,-2238.0232501056107,11.435699948236334,-11.435699948236334,2238.0232501056107,3938.1161281510012,0.0
462154.6038362722,4730833.5216966402,-17500.0,-2435.8766328113306,-1221.0407875195028,-73.953743215817312,775.40169489013954,331.29928844865492,-190.48767026083249,1817.2101174649092,-1934.7685768914503,43.680996208322881,-43.680996208322881,1934.7685768914503,3452.9492579676985,0.0
277154.6038362722,4735833.5216966402,-17500.0,308.32862261808776,314.53531833174884,90.38770913784694,23.73771939804622,58.873223684391071,-8.4285228162074226,340.00735916495245,386.74847947741728,-169.45848456282161,169.45848456282161,-386.74847947741728,622.64355463358265,0.0
282154.6038362722,4735833.5216966402,-17500.0,398.46759412377037,315.19502963391807,110.0235470192293,40.288921669959024,57.280822057098021,-7.0338690219898643,354.04847420962778,427.59979532199753,-189.83013585784994,189.83013585784994,-427.59979532199753,665.9005265497226,0.0
287154.6038362722,4735833.5216966402,-17500.0,504.41230037664712,307.97142173594955,138.44767970263294,61.382754824898363,52.400740263144712,-4.6613769030614325,366.49212475151131,471.0000722949485,-210.81526992505394,210.81526992505394,-471.0000722949485,714.74707947050024,0.0
292154.6038362722,4735833.5216966402,-17500.0,627.11206679761381,290.33258974246706,179.54223708817617,87.771576344125577,42.773884127433561,-0.96109095159469571,397.60464650526973,516.51975004245583,-231.47012874866093,231.47012874866093,-516.51975004245583,771.4709651204364,0.0
297154.6038362722,4735833.5216966402,-17500.0,766.53178694193821,259.54131740294741,238.67442484649874,120.06643441158202,26.497905625176386,4.4854026331409198,452.19606197856643,563.65850544402747,-250.37236910286055,250.37236910286055,-563.65850544402747,839.36621428499541,0.0
302154.6038362722,4735833.5216966402,-17500.0,920.98504437552322,213.05187180314351,323.07724536762754,158.50363349166142,1.1955895654772222,12.138583514603997,515.40672469027902,612.03040999670384,-265.52332235985835,265.52332235985835,-612.03040999670384,922.84182421165247,0.0
307154.6038362722,4735833.5216966402,-17500.0,1086.2604424449307,149.29598445107379,442.14173719078991,202.56638270781747,-35.919606827609812,22.431873825893405,587.46088464307638,661.7561591094759,-274.31985910466136,274.31985910466136,-661.7561591094759,1027.2420334228086,0.0
312154.6038362722,4735833.5216966402,-17500.0,1254.6130716925743,69.070636285915626,607.37598065799989,250.41627652790535,-87.775844241219247,35.63006321948869,668.5850669322341,714.18412447580852,-273.7007526555725,273.7007526555725,-714.18412447580852,1158.1948886392997,0.0
317154.6038362722,4735833.5216966402,-17500.0,1413.8680503277699,-22.240354427645158,831.5533463876061,298.11317075425802,-156.8052833089022,51.576871650535821,758.61905163700828,773.07104562124982,-260.64360671251171,260.64360671251171,-773.07104562124982,1320.4194272966547,0.0
322154.6038362722,4735833.5216966402,-17500.0,1547.1955687436023,-111.48656394874811,1126.2182957207103,338.67597042499659,-243.6974093265587,69.291693158019669,857.75852289991769,846.27582547896554,-233.26889781836985,233.26889781836985,-846.27582547896554,1516.1843783423431,0.0
327154.6038362722,4735833.5216966402,-17500.0,1634.5867164795766,-173.90836864181608,1496.3001913380701,361.20346252776653,-345.2638733759336,86.393661417535895,970.62068620374623,947.73687937566751,-192.85037192449801,192.85037192449801,-947.73687937566751,1744.043655932408,0.0
332154.6038362722,4735833.5216966402,-17500.0,1657.5324464697806,-169.94348484073907,1930.3850553037694,350.57183558501703,-451.21680146065989,98.383051184980332,1112.829994111248,1098.8246296972613,-146.91888444489399,146.91888444489399,-1098.8246296972613,1999.2366964986447,0.0
337154.6038362722,4735833.5216966402,-17500.0,1608.3578344327825,-45.838271398272809,2385.9781788939745,288.65427046010825,-540.04335676547805,97.906353633105482,1293.7613619761148,1326.9501246554382,-113.17604283983098,113.17604283983098,-1326.9501246554382,2278.579088655853,0.0
342154.6038362722,4735833.5216966402,-17500.0,1503.9250419588475,256.52476516802665,2772.2374225056647,158.40887033507417,-575.08847917791411,74.27783901701099,1497.2959435712237,1657.8728224432455,-122.86697757583238,122.86697757583238,-1657.8728224432455,2594.3442176238973,0.0
347154.6038362722,4735833.5216966402,-17500.0,1398.6120241744461,774.72436393265673,2939.3626906993463,-47.954353774476424,-503.58112125913306,13.734737976665052,1703.873219852157,2098.017603679024,-220.62469276116872,220.62469276116872,-2098.017603679024,2998.9702455016222,0.0
352154.6038362722,4735833.5216966402,-17500.0,1384.2742993364641,1485.969610885581,2692.097462838608,-317.17626019649106,-263.12856185169653,-98.8183649093383,1933.7141442691018,2607.4467853065157,-456.50064098828307,456.50064098828307,-2607.4467853065157,3603.250967024459,0.0
357154.6038362722,4735833.5216966402,-17500.0,1561.9426439578035,2268.420500111461,1845.2617469681238,-604.01159975812072,199.93047030771436,-275.64344972952654,2508.4556299193996,3075.2816647204827,-867.24076153388933,867.24076153388933,-3075.2816647204827,4541.9397752930008,0.0
362154.6038362722,4735833.5216966402,-17500.0,1983.0566532714679,2897.8342146782916,318.13612872410243,-830.62491942237625,901.37617458302577,-519.30560020306143,3377.1189279770151,3321.9208386939845,-1450.3300626757346,1450.3300626757346,-3321.9208386939845,5879.3811431906133,0.0
367154.6038362722,4735833.5216966402,-17500.0,2588.8694891946066,3109.9835451347226,-1776.5817039374031,-905.81984226441693,1791.578914897987,-815.27284688542329,4347.8840722498635,3149.4998817250071,-2144.3513102989991,2144.3513102989991,-3149.4998817250071,7542.6466627534328,0.0
372154.6038362722,4735833.5216966402,-17500.0,3198.977056166621,2716.4103145395952,-4118.7090314922934,-762.2804343120348,2750.7811431122855,-1129.3133044302472,5312.8380094295389,2430.8827551374739,-2833.6993269813852,2833.6993269813852,-2430.8827551374739,9337.5487700138565,0.0
377154.6038362722,4735833.5216966402,-17500.0,3576.9983725686538,1706.5417463926935,-6276.583015755813,-392.18040275877416,3620.403734712806,-1414.6265163333712,6160.0920759386008,1186.8938752997437,-3384.2802548231539,3384.2802548231539,-1186.8938752997437,11015.636309968333,0.0
382154.6038362722,4735833.5216966402,-17500.0,3539.9544223579342,263.5405169663909,-7867.7950916726295,143.96555859845179,4258.2324103530564,-1627.141342996583,6795.5053322632612,-404.0540432439941,-3693.5820414217096,3693.5820414217096,404.0540432439941,12351.472068430425,0.0
387154.6038362722,4735833.5216966402,-17500.0,3038.6839108174518,-1317.2355593515279,-8688.5236515008419,742.42974633189181,4585.4953430284077,-1740.287153118416,7165.1099025033336,-2073.9007928020533,-3725.2794748267256,3725.2794748267256,2073.9007928020533,13200.803498367974,0.0
392154.6038362722,4735833.5216966402,-17500.0,2162.618760269695,-2748.4330799378795,-8745.449944541695,1297.6110354416148,4600.9483651577611,-1750.878467482853,7262.1594011531379,-3565.0964072277684,-3510.5510236548789,3510.5510236548789,3565.0964072277684,13521.536182817115,0.0
397154.6038362722,4735833.5216966402,-17500.0,1082.27637006077,-3838.1649739266823,-8198.6268084330932,1734.5289135330531,4362.4895210880923,-1674.9190062549774,7118.5777541081334,-4705.0277628344002,-3122.8120434894436,3122.8120434894436,4705.0277628344002,13358.977282773809,0.0
402154.6038362722,4735833.5216966402,-17500.0,-23.258273332832381,-4514.509744869536,-7270.531070871516,2020.1588185283558,3954.8372422009015,-1538.2770933420841,6788.5037658333649,-5428.2033175640408,-2645.8357296417889,2645.8357296417889,5428.2033175640408,12811.956245929481,0.0
407154.6038362722,4735833.5216966402,-17500.0,-1016.3391983736493,-4801.4533574276811,-6171.2952591085359,2157.1193934092798,3461.4398098648862,-1367.8593905786679,6332.2011134724853,-5756.5162020758253,-2150.8162595858525,2150.8162595858525,5756.5162020758253,11997.963128099604,0.0
412154.6038362722,4735833.5216966402,-17500.0,-1818.2503173967559,-4776.7638197540955,-5059.6892540888739,2169.7920874075617,2948.5544604015881,-1186.1221478339996,5804.8585153987251,-5762.6822804015464,-1686.6806832667321,1686.6806832667321,5762.6822804015464,11027.866899794635,0.0
417154.6038362722,4735833.5216966402,-17500.0,-2403.127616802768,-4534.5856087273514,-4035.0260424016205,2091.0180702273728,2460.6076288811087,-1009.0210423186613,5250.9568981751663,-5536.646194222747,-1280.346321659023,1280.346321659023,5536.646194222747,9992.4924460875573,0.0
422154.6038362722,4735833.5216966402,-17500.0,-2781.7101908767631,-4161.6586884389417,-3146.4983529093083,1952.979199369533,2022.4366505068201,-846.25079499250523,4702.8593009321239,-5163.3504317201259,-941.76952584363607,941.76952584363607,5163.3504317201259,8958.5963490167887,0.0
427154.6038362722,4735833.5216966402,-17500.0,-2984.5872299897651,-3726.5549113880502,-2408.2649208036364,1782.5125454673303,1644.2713576388903,-702.54914277421631,4181.875061875402,-4711.9529759637098,-669.95210117795455,669.95210117795455,4711.9529759637098,7970.5224493231663,0.0
432154.6038362722,4735833.5216966402,-17500.0,-3049.4105743104269,-3277.6954102169116,-1813.5627298364925,1599.6597939853102,1326.8708501772066,-579.22656024420723,3700.4022066855255,-4233.1172728120673,-457.98228864592215,457.98228864592215,4233.1172728120673,7054.4108261357878,0.0
437154.6038362722,4735833.5216966402,-17500.0,-3012.920263310773,-2845.8997007943476,-1345.2794213966754,1418.0648537984309,1065.6643294100402,-475.49743734890535,3264.2674618268693,-3760.7213623120533,-296.55437597173136,296.55437597173136,3760.7213623120533,6222.9503562348309,0.0
442154.6038362722,4735833.5216966402,-17500.0,-2906.9175108022259,-2448.5099118574699,-982.79191885816454,1246.1673957594808,853.63883206255741,-389.4713655457158,2874.808000996281,-3315.3139938423001,-176.10149379135964,176.10149379135964,3315.3139938423001,5479.6360737171271,0.0
447154.6038362722,4735833.5216966402,-17500.0,-2756.8830669996019,-2093.468346691373,-705.8462659387078,1088.5577763121273,683.13718439243758,-318.81386317066978,2530.5243107885449,-2907.7695398380506,-87.906814509598462,87.906814509598462,2907.7695398380506,4822.1464341496931,0.0
452154.6038362722,4735833.5216966402,-17500.0,-2582.101223064335,-1782.6657008947529,-496.42846293352795,947.18249681276859,546.8548758399279,-261.14521138966848,2228.2916325653377,-2542.4276322771311,-24.55740229162916,24.55740229162916,2542.4276322771311,4244.8108032518485,0.0
457154.6038362722,4735833.5216966402,-17500.0,-2396.4931964049952,-1514.4145965760563,-339.41946841309436,822.29395038475809,438.31120174791818,-214.25519502451718,1964.1964813227496,-2219.5087682293129,19.978643149810068,-19.978643149810068,2219.5087682293129,3740.3071288889255,0.0
462154.6038362722,4735833.5216966402,-17500.0,-2209.668085057418,-1285.1403026032235,-222.59196066984904,713.13923850930291,352.0040958562048,-176.19894962343778,1734.0769075209837,-1936.8344762592524,50.464122271897622,-50.464122271897622,1936.8344762592524,3300.7560411673394,0.0
277154.6038362722,4740833.5216966402,-17500.0,345.6446276383756,245.77177810594969,100.84622783207263,34.847946278474701,41.56944326076038,-5.5820707978219986,280.24322380134277,352.05427649273167,-154.01425104738485,154.01425104738485,-352.05427649273167,536.04590396185063,0.0
282154.6038362722,4740833.5216966402,-17500.0,426.59259304281136,237.58675538202965,126.08305782869357,50.200345787704435,37.13409373915087,-4.1480185524814903,290.41394676537175,384.61132497570645,-169.16636365478962,169.16636365478962,-384.61132497570645,572.22481608868259,0.0
287154.6038362722,4740833.5216966402,-17500.0,518.53952159462096,221.79385508334971,161.33547044553089,68.921054884782521,29.291083592512841,-1.951037843653602,322.21770983978666,418.59416326460962,-183.8751272383239,183.8751272383239,-418.59416326460962,613.99153155157433,0.0
292154.6038362722,4740833.5216966402,-17500.0,621.05233018319234,196.77042954113776,210.34767611482286,91.270901823553018,16.829973669980443,1.2217320913081755,362.25148736960767,453.74751411731972,-197.19263618507077,197.19263618507077,-453.74751411731972,663.54928547901147,0.0
297154.6038362722,4740833.5216966402,-17500.0,732.57960161557673,161.15835316069166,277.97814585098075,117.24091442530913,-1.7159016216206093,5.5927609971580798,407.5614895091598,489.95281640920382,-207.84459614350519,207.84459614350519,-489.95281640920382,723.77085277743424,0.0
302154.6038362722,4740833.5216966402,-17500.0,849.9640156393848,114.37525718087549,370.29814637983219,146.33259425099848,-28.014922016505235,11.354298669894238,458.14622513825105,527.48112353024703,-214.23466213853973,214.23466213853973,-527.48112353024703,798.08046901394687,0.0
307154.6038362722,4740833.5216966402,-17500.0,967.91653498222581,57.450533952858343,494.46715103240945,177.24263513324311,-63.770719188520559,18.592843368430209,513.85706459029268,567.42123703756351,-214.54875714674108,214.54875714674108,-567.42123703756351,890.08973380046643,0.0
312154.6038362722,4740833.5216966402,-17500.0,1078.5940309460716,-5.7175200940267619,658.13587776770521,207.44613966457641,-110.36200063647792,27.160103463139116,574.32038405228059,612.33684651030535,-207.04543821087705,207.04543821087705,-612.33684651030535,1002.9723233193114,1.0
317154.6038362722,4740833.5216966402,-17500.0,1171.5651157476818,-66.653873519041682,867.97770741646082,232.70859425658537,-168.17702865919745,36.471341627103065,639.71917907932482,667.1619638270472,-190.65172765600232,190.65172765600232,-667.1619638270472,1138.7017337477848,0.0
322154.6038362722,4740833.5216966402,-17500.0,1234.6426366430917,-110.31776905604653,1126.7879569630218,246.63136743062202,-235.51585348554607,45.21809740445218,714.74948267653895,740.21138297094058,-165.99872072262104,165.99872072262104,-740.21138297094058,1297.4870481929383,0.0
327154.6038362722,4740833.5216966402,-17500.0,1256.2453661622276,-113.43099980640942,1428.5341992671022,240.46333533790977,-306.9693568592553,51.002994454771617,815.10236261360808,843.89962879841971,-136.98357545585816,136.98357545585816,-843.89962879841971,1478.0732724158761,0.0
332154.6038362722,4740833.5216966402,-17500.0,1229.9296812552811,-44.447898669313012,1751.0488045844641,203.58801992358448,-371.33605591885822,49.947490180293784,948.31240118976734,994.28153418883221,-112.75771203517678,112.75771203517678,-994.28153418883221,1680.1121655545023,0.0
337154.6038362722,4740833.5216966402,-17500.0,1161.1302787084103,132.61265476915941,2047.1727469451912,125.26422027577779,-409.4908391885055,36.394017795357961,1100.4386654755433,1207.9439534287294,-109.63024754381365,109.63024754381365,-1207.9439534287294,1910.378750474156,0.0
342154.6038362722,4740833.5216966402,-17500.0,1074.4980416296671,447.81961148512914,2237.5287515578998,-1.8061043039578861,-393.23003518234435,2.9194729397668473,1258.2268657266175,1494.5337009279754,-151.72803403290823,151.72803403290823,-1494.5337009279754,2193.7927034334466,0.0
347154.6038362722,4740833.5216966402,-17500.0,1017.4801536148203,907.23286942869743,2211.4319191151071,-175.99292937612509,-286.85663056271562,-59.021804618177065,1420.3564907649736,1844.2598854274463,-268.60990786688649,268.60990786688649,-1844.2598854274463,2584.311097603686,0.0
352154.6038362722,4740833.5216966402,-17500.0,1053.4297489901453,1470.6857604082356,1844.5309808871086,-380.53485485855151,-53.602915037144257,-157.4613878954481,1698.656130239671,2213.1677448847136,-488.07544566476543,488.07544566476543,-2213.1677448847136,3159.4027816932476,0.0
357154.6038362722,4740833.5216966402,-17500.0,1239.1542647793287,2036.871878535886,1038.0654284222005,-579.78621952084018,332.12496540471494,-297.08841692884909,2248.933035656949,2514.4735818523332,-824.11500279700363,824.11500279700363,-2514.4735818523332,3984.6549852738226,0.0
362154.6038362722,4740833.5216966402,-17500.0,1590.8347970606567,2452.259496202405,-228.3524265924836,-722.44434833250261,869.13059359641306,-475.64767572472266,2923.1619547689497,2627.7892830859028,-1263.6356746633101,1263.6356746633101,-2627.7892830859028,5068.8405812641995,0.0
367154.6038362722,4740833.5216966402,-17500.0,2055.7764394908008,2553.4673889603519,-1855.8383047444922,-754.6309926917711,1517.6280417660034,-681.05692148379137,3651.0607894369787,2432.9476641738806,-1759.4276155985185,1759.4276155985185,-2432.9476641738806,6345.4018446484206,0.0
372154.6038362722,4740833.5216966402,-17500.0,2513.1233883314426,2231.293446162183,-3628.3312491573693,-639.83310406935914,2200.4272510952101,-891.49953759179539,4366.5926401686484,1859.2936686108631,-2236.7617893787256,2236.7617893787256,-1859.2936686108631,7686.9627206509967,0.0
377154.6038362722,4740833.5216966402,-17500.0,2812.791427379168,1483.0096303946195,-5269.3474418979549,-375.97124182070144,2821.1468578063323,-1079.8886382410842,4999.5640073318518,925.02983432941824,-2614.3449004339991,2614.3449004339991,-925.02983432941824,8939.3159988355656,0.0
382154.6038362722,4740833.5216966402,-17500.0,2834.8316115401958,420.25302726275675,-6529.69522955719,0.94375903669602401,3292.8103118970444,-1221.4336517489846,5489.5583348114396,-258.63125963831862,-2830.5647463455543,2830.5647463455543,258.63125963831862,9960.9379906883096,0.0
387154.6038362722,4740833.5216966402,-17500.0,2535.2216306596165,-772.7096864108895,-7260.9782790961426,429.28832886141493,3562.6530167175019,-1300.6636718294912,5798.6997965663913,-1522.897890622831,-2861.5123510822532,2861.5123510822532,1522.897890622831,10654.766314216467,0.0
392154.6038362722,4740833.5216966402,-17500.0,1954.488972497694,-1904.4179724545625,-7441.4310339593239,842.97002713982647,3621.7216163867661,-1314.5376251545947,5916.9047972838716,-2696.1256589869481,-2722.7427387527669,2722.7427387527669,2696.1256589869481,10982.584235715098,0.0
397154.6038362722,4740833.5216966402,-17500.0,1191.6398193305554,-2830.5303337613032,-7152.9216014817384,1189.9868026107858,3498.0321984895741,-1270.9165839916684,5858.8685219678282,-3649.6578294012543,-2457.1135670920594,2457.1135670920594,3649.6578294012543,10960.81820179118,0.0
402154.6038362722,4740833.5216966402,-17500.0,364.09463117364891,-3477.4573109899684,-6532.629836776332,1441.434395316104,3240.5554574178086,-1184.2035025120358,5655.8552463219903,-4318.2196419108132,-2117.5164186207053,2117.5164186207053,4318.2196419108132,10644.18979022818,0.0
407154.6038362722,4740833.5216966402,-17500.0,-425.75296722678456,-3837.0332004861639,-5725.9760017756544,1590.8627579800202,2902.8892141119436,-1070.6337211002519,5346.36720692159,-4695.6370023860618,-1752.6151851080181,1752.6151851080181,4695.6370023860618,10106.014309992166,0.0
412154.6038362722,4740833.5216966402,-17500.0,-1107.8691420694192,-3945.5864449481469,-4855.7778345559536,1647.9949102838641,2531.9665448635092,-944.84267302652881,4968.5821176762047,-4816.7305112872709,-1399.1118334870744,1399.1118334870744,4816.7305112872709,9421.6552753123124,0.0
417154.6038362722,4740833.5216966402,-17500.0,-1646.9701743718235,-3860.7065843639966,-4009.6327105911987,1631.1450697087832,2162.8646020210235,-818.14012972561738,4555.6482018516181,-4736.6944859144787,-1079.9805517706195,1079.9805517706195,4736.6944859144787,8657.8517985311119,0.0
422154.6038362722,4740833.5216966402,-17500.0,-2035.972700021171,-3643.3155059106257,-3240.3507311818971,1561.0076682109909,1818.2414720498712,-698.15657915668999,4133.6174445271045,-4514.741712790611,-806.35046115069781,806.35046115069781,4514.741712790611,7867.718815540019,0.0
427154.6038362722,4740833.5216966402,-17500.0,-2286.4116370191505,-3347.0747668388526,-2572.9246931505795,1456.7068678060768,1510.3050984118843,-589.29550070425944,3721.2461948881328,-4204.0692164765733,-580.79610361566779,580.79610361566779,4204.0692164765733,7089.874222702033,0.0
432154.6038362722,4740833.5216966402,-17500.0,-2419.576391100084,-3013.9681562763644,-2013.1607433874417,1333.8942467306867,1243.6349633308362,-493.50616746803001,3330.8497565725402,-3847.3491948689107,-400.59420764538572,400.59420764538572,3847.3491948689107,6349.9490233524275,0.0
437154.6038362722,4740833.5216966402,-17500.0,-2459.9417751323749,-2673.8930057590846,-1555.3232034739647,1204.2716590973123,1017.8688158183375,-411.07114617192764,2969.5902009964252,-3475.9477171985818,-260.29782897577729,260.29782897577729,3475.9477171985818,5663.1132848130756,0.0
442154.6038362722,4740833.5216966402,-17500.0,-2431.0642158119344,-2346.3022737924016,-1187.8391874364786,1075.9172082009877,829.83311608324288,-341.2622007897823,2640.8071998652044,-3111.1588187520692,-153.49410788643854,153.49410788643854,3111.1588187520692,5036.7501786478642,0.0
447154.6038362722,4740833.5216966402,-17500.0,-2353.4651334055243,-2042.5534800797698,-897.06339719938956,953.95442355536102,675.04171711177969,-282.82360831229619,2345.1893692109015,-2766.2284020465013,-73.860951803080752,73.860951803080752,2766.2284020465013,4472.8270337229105,0.0
452154.6038362722,4740833.5216966402,-17500.0,-2243.8676294397251,-1768.211903290656,-669.49602414473702,841.28511185026832,548.65106868683415,-234.29598942285685,2081.710792144625,-2448.4472427831197,-15.713620251291331,15.713620251291331,2448.4472427831197,3969.794391106826,0.0
457154.6038362722,4740833.5216966402,-17500.0,-2115.2315583028326,-1524.9758557505279,-492.91972801383963,739.24469940011909,446.00978304396415,-194.21449778803981,1848.3294956354671,-2160.9678249624321,25.778872269319436,-25.778872269319436,2160.9678249624321,3524.0019801891194,0.0
282154.6038362722,4745833.5216966402,-17500.0,431.39061965300772,173.69834224914834,144.80358946969636,54.592486420456169,20.301211297445295,-2.1427063378806719,264.32853036244904,344.19116287397418,-148.06382226165908,148.06382226165908,-344.19116287397418,496.51688873011204,0.0
287154.6038362722,4745833.5216966402,-17500.0,508.01979441390745,153.80147473084062,185.26023129441751,70.332580094551716,10.741684542887805,-0.23766750616906984,294.17238678904357,371.10921262133627,-157.70331397518805,157.70331397518805,-371.10921262133627,533.48409023873228,0.0
292154.6038362722,4745833.5216966402,-17500.0,590.17331294351754,126.71636260048939,239.48828387302709,88.240178837229678,-2.9725411241814439,2.3356402228946633,327.30934689029164,398.95512105071487,-165.45113699969181,165.45113699969181,-398.95512105071487,577.87875274575367,0.0
297154.6038362722,4745833.5216966402,-17500.0,675.53707877499198,92.323878199509437,311.46245383025803,107.8982312459609,-21.855312971796621,5.6594270318298987,363.60415967848621,428.02609821590977,-170.31384242508656,170.31384242508656,-428.02609821590977,631.92649137936178,0.0
302154.6038362722,4745833.5216966402,-17500.0,760.48612559279877,51.596201026682174,405.71907886385395,128.39224761817772,-46.912870854870228,9.7484358671344324,402.74246694714435,459.16224493313268,-171.19756720910888,171.19756720910888,-459.16224493313268,697.97736865127422,0.0
307154.6038362722,4745833.5216966402,-17500.0,839.87902941778759,7.3243605573423745,526.95325948324512,148.08217121981906,-78.93547346525844,14.481555329903795,444.20321608962547,494.12006137994359,-167.0808988476511,167.0808988476511,-494.12006137994359,778.17333649040563,0.0
312154.6038362722,4745833.5216966402,-17500.0,907.07531752166221,-34.932582923184142,679.14013999001418,164.34142410744056,-118.13151089190623,19.497824813030633,487.80453842343314,536.06035524684967,-157.34578864462418,157.34578864462418,-536.06035524684967,874.06432602214272,0.0
317154.6038362722,4745833.5216966402,-17500.0,954.40895767794086,-65.770880125412319,863.91552877083905,173.31446813124637,-163.54471234629162,24.050269009385364,537.02656063928214,590.08468000984897,-142.3287283993842,142.3287283993842,-590.08468000984897,986.35529188161456,0.0
322154.6038362722,4745833.5216966402,-17500.0,974.42695110121531,-71.02313252403539,1077.9332921699797,169.80032421701239,-212.2107439131874,26.819283275312035,607.07344869349345,663.62865190625644,-124.13296777920351,124.13296777920351,-663.62865190625644,1115.1173763774862,0.0
327154.6038362722,4745833.5216966402,-17500.0,962.19738815956202,-31.590616534028147,1309.0473024041266,147.44644104504991,-258.07213658370534,25.705860259416632,705.66632716965262,766.31785467921372,-107.66557012456332,107.66557012456332,-766.31785467921372,1261.016333801957,0.0
332154.6038362722,4745833.5216966402,-17500.0,918.76589357151636,74.996945406152705,1531.6005482322289,99.513230582773531,-290.81204206200636,17.655700628718321,819.67739824868124,908.64096523556668,-101.69711037702996,101.69711037702996,-908.64096523556668,1428.3188207646474,0.0
337154.6038362722,4745833.5216966402,-17500.0,855.22310947303026,270.0634782400337,1702.0105145704572,20.487634103394793,-295.01030402964227,-1.3912372797986854,939.55697715238352,1098.6371945375624,-119.47556342447268,119.47556342447268,-1098.6371945375624,1630.1418966127553,0.0
342154.6038362722,4745833.5216966402,-17500.0,795.76770645040187,565.4049678033897,1757.2078156385542,-91.320438550901059,-250.34186422756568,-36.28483984872674,1061.6219743299662,1336.0485530618862,-178.12505648970398,178.12505648970398,-1336.0485530618862,1894.3935603826221,0.0
347154.6038362722,4745833.5216966402,-17500.0,776.93933019559995,951.66131640271658,1619.7415713175194,-230.49926123408395,-133.77131926981693,-92.017225304229981,1212.0893695680959,1604.4777542564063,-295.93571177605418,295.93571177605418,-1604.4777542564063,2264.4671458595035,0.0
352154.6038362722,4745833.5216966402,-17500.0,839.92103522185823,1387.0290354077556,1213.131432920509,-381.62769658427402,75.473145341762873,-172.5226632192344,1534.7640847244963,1864.2040653781644,-487.05961763035089,487.05961763035089,-1864.2040653781644,2787.066392715225,0.0
357154.6038362722,4745833.5216966402,-17500.0,1014.9922331290613,1793.2001193285955,487.53298531840801,-518.59007581112553,388.33686764772995,-278.98670331975774,1992.998535365,2050.6346784910247,-754.36160703754774,754.36160703754774,-2050.6346784910247,3489.4121513465639,0.0
362154.6038362722,4745833.5216966402,-17500.0,1302.3834824582054,2066.0122649442551,-551.2495352231673,-608.08414174826316,797.80645444600964,-408.08054942056816,2517.5484505270988,2083.7356617523042,-1082.9910052860221,1082.9910052860221,-2083.7356617523042,4360.6277514650601,0.0
367154.6038362722,4745833.5216966402,-17500.0,1659.3925456172879,2102.9763985067107,-1823.3278442557032,-617.90165298979673,1274.0566370935696,-550.94060664773224,3071.0455177995336,1889.8200182553674,-1438.486511720851,1438.486511720851,-1889.8200182553674,5347.8536928501635,0.0
372154.6038362722,4745833.5216966402,-17500.0,2004.2733963760836,1839.3564650545459,-3180.9193603445729,-527.71770404184099,1766.8168414849376,-693.80748628293236,3610.7266319916735,1429.2400997716084,-1772.3043762219525,1772.3043762219525,-1429.2400997716084,6365.9936160872985,0.0
377154.6038362722,4745833.5216966402,-17500.0,2239.6075222123909,1275.8372764669625,-4442.5663122035057,-337.57223529103237,2216.0263447591838,-820.66345406277469,4091.2095793630961,716.98136344535976,-2034.1090960014112,2034.1090960014112,-716.98136344535976,7316.0719344387671,0.0
382154.6038362722,4745833.5216966402,-17500.0,2285.5895304100445,482.51306906807281,-5442.6872289114681,-69.428888298456215,2567.2040478471044,-917.10294308044433,4472.8016789232088,-175.63916180492924,-2185.9731723760988,2185.9731723760988,175.63916180492924,8106.5858723136016,0.0
387154.6038362722,4745833.5216966402,-17500.0,2106.6655684704906,-423.29668553356788,-6074.3351284683213,239.26682849460761,2784.9505223978349,-973.8321619135537,4728.9187652426881,-1140.1414318348402,-2212.1066931029595,2212.1066931029595,1140.1414318348402,8671.4369585000695,0.0
392154.6038362722,4745833.5216966402,-17500.0,1719.3340944880135,-1313.478697348291,-6307.8505920369871,546.73209463038745,2859.1441183120869,-988.35837799985381,4849.70344710465,-2061.4753527445837,-2120.315487356439,2120.315487356439,2061.4753527445837,8979.3478075565763,0.0
397154.6038362722,4745833.5216966402,-17500.0,1180.6027147435077,-2082.4814710554519,-6182.5652680845669,817.47113629434637,2802.6624673397228,-964.46835623944071,4841.1885637686846,-2846.0381949284224,-1935.994970091188,1935.994970091188,2846.0381949284224,9033.4251055485838,0.0
402154.6038362722,4745833.5216966402,-17500.0,566.14182317190989,-2665.8410037085309,-5781.4678341595763,1028.5839211205332,2643.4863010390045,-910.16917796912219,4721.222684402248,-3437.3464879845801,-1692.6706833982621,1692.6706833982621,3437.3464879845801,8863.3365871288715,0.0
407154.6038362722,4745833.5216966402,-17500.0,-50.933000332491716,-3042.096343424535,-5202.5829107922955,1170.9360840431409,2415.4395576511365,-835.19325847197058,4514.1476885667053,-3817.6545698352365,-1423.296701451919,1423.296701451919,3817.6545698352365,8514.3229831024983,0.0
412154.6038362722,4745833.5216966402,-17500.0,-613.87602706153746,-3223.4460232065749,-4536.8816299309356,1246.6427051702085,2150.7605626081945,-748.93726983776503,4245.9262714676279,-3999.8204869549536,-1154.6782564455573,1154.6782564455573,3999.8204869549536,8036.7809710702304,0.0
417154.6038362722,4745833.5216966402,-17500.0,-1087.4112803378496,-3242.2887531779611,-3856.1675715403476,1265.0121457637126,1875.760995797224,-659.2080141519865,3940.6301514957336,-4015.416423623918,-905.31347946962205,905.31347946962205,4015.416423623918,7478.5342232429339,0.0
422154.6038362722,4745833.5216966402,-17500.0,-1456.3109268019964,-3138.9288217758158,-3209.6695577492433,1238.6325092726659,1609.317349820107,-571.73883403040566,3618.460948539438,-3903.6654569703492,-685.73052862696886,685.73052862696886,3903.6654569703492,6880.3101173192517,0.0
427154.6038362722,4745833.5216966402,-17500.0,-1720.6275343395487,-2952.8779482367331,-2626.1687358271315,1180.4505803984086,1363.2674980793433,-490.24547243373809,3295.0385039848816,-3703.4248121369365,-500.11598602152321,500.11598602152321,3703.4248121369365,6273.9426679141579,0.0
432154.6038362722,4745833.5216966402,-17500.0,-1890.1609163601661,-2718.0066049863472,-2118.6010453841914,1102.0144862228908,1143.7519305434437,-416.76665373359737,2981.5398846045205,-3448.5518419683867,-348.28629229282092,348.28629229282092,3448.5518419683867,5682.4423318495883,0.0
437154.6038362722,4745833.5216966402,-17500.0,-1979.6590347736792,-2460.706235023169,-1689.0376959763112,1012.6823641214602,952.80128746312494,-352.09585216486829,2685.3016946901876,-3165.9961291645182,-227.45389617272895,227.45389617272895,3165.9961291645182,5121.1044904462506,0.0
442154.6038362722,4745833.5216966402,-17500.0,-2005.3214783348903,-2199.9583702478681,-1332.9523215236281,919.48297992930009,789.77634173065712,-296.18846466932479,2410.5973641247533,-2875.6777870085953,-133.57008374974544,133.57008374974544,2875.6777870085953,4599.0308730903716,0.0
447154.6038362722,4745833.5216966402,-17500.0,-1982.6038736359217,-1948.3750882971074,-1042.4088191421461,827.34075853209492,652.50021053197145,-248.49298297757545,2159.4109459854462,-2591.3244584849995,-62.227848408564114,62.227848408564114,2591.3244584849995,4120.6733744331314,0.0
452154.6038362722,4745833.5216966402,-17500.0,-1925.0601705365311,-1713.5710920061206,-808.20568431634581,739.45587181200699,538.06310841992354,-208.19432030249294,1932.1136954736053,-2321.6794753804243,-9.201298107320099,9.201298107320099,2321.6794753804243,3687.194232895024,0.0
287154.6038362722,4750833.5216966402,-17500.0,481.3100838549002,102.72081790481521,206.93622689835109,67.539377158530812,-3.4411644314218166,0.7361965643224202,266.62463100270566,329.62304934767997,-133.72182589369052,133.72182589369052,-329.62304934767997,468.77530870364103,0.0
292154.6038362722,4750833.5216966402,-17500.0,544.74054789418244,77.275344540755725,263.49090481127166,81.12744690413254,-17.209223801979963,2.7133391871216328,293.23304767237698,352.60057836551545,-137.54649388711385,137.54649388711385,-352.60057836551545,508.91825907484508,0.0
297154.6038362722,4750833.5216966402,-17500.0,607.43329046958036,47.817505503364913,335.87441682820662,95.063898299480371,-35.091323545914946,5.0957267442100447,321.38245358636743,377.30385315910877,-138.71876224818169,138.71876224818169,-377.30385315910877,557.35969616830209,0.0
302154.6038362722,4750833.5216966402,-17500.0,665.9540956848258,16.347833139774615,427.03437344752138,108.26628533223671,-57.548681013333415,7.7921717255707783,350.50212920413787,404.94729588165785,-136.62584397823593,136.62584397823593,-404.94729588165785,615.55987555016031,0.0
307154.6038362722,4750833.5216966402,-17500.0,715.96969641434362,-13.415601872820554,539.40096196239688,119.06733616747509,-84.690432483415776,10.575455755253495,380.07881677964792,437.59848750953302,-130.9049043331311,130.9049043331311,-437.59848750953302,684.68636556286037,0.0
312154.6038362722,4750833.5216966402,-17500.0,752.52218095407534,-35.431832460766564,673.95197481537843,125.08151488016824,-115.95390959619547,13.005897973178412,411.90985799067897,478.47274896067108,-121.74626278840972,121.74626278840972,-478.47274896067108,765.50113722351341,0.0
317154.6038362722,4750833.5216966402,-17500.0,770.70297352988393,-40.812610723756286,828.74306763518859,123.13344765011153,-149.65077278543814,14.334029168694759,459.97437963565864,532.15424353241997,-110.33038939078975,110.33038939078975,-532.15424353241997,858.50507510764135,0.0
322154.6038362722,4750833.5216966402,-17500.0,766.87736564278794,-17.65965288857587,996.82391219347244,109.3343020375131,-182.38408397266949,13.390525010429492,533.9019690330224,604.55824782187369,-99.384977266247972,99.384977266247972,-604.55824782187369,964.60818534661553,0.0
327154.6038362722,4750833.5216966402,-17500.0,740.52284894075854,48.282683519000955,1163.6436672164959,79.428079247164149,-208.40093215685133,8.4850626752650555,620.10524125800316,702.33675877106441,-93.778267475738971,93.778267475738971,-702.33675877106441,1086.6756332898196,0.0
332154.6038362722,4750833.5216966402,-17500.0,696.49827423879799,171.56896612094036,1304.4209792214949,29.545357809777471,-219.04695759139292,-2.6450783384879593,711.38697155872399,831.34247816462334,-100.95100650713067,100.95100650713067,-831.34247816462334,1232.18009420613,0.0
337154.6038362722,4750833.5216966402,-17500.0,647.11712806522394,363.05634079648104,1382.5345185980188,-42.540611938698852,-202.62756010580165,-22.773625731802117,804.67254579354051,993.8173879259798,-130.85031064547974,130.85031064547974,-993.8173879259798,1416.4301202436743,0.0
342154.6038362722,4750833.5216966402,-17500.0,612.82966641937594,623.92946058034352,1350.6304666357705,-135.71162285802325,-145.10974595814625,-54.933134668692922,904.79622968606975,1184.3277645381995,-194.9324165258256,194.9324165258256,-1184.3277645381995,1664.0974948923745,0.0
347154.6038362722,4750833.5216966402,-17500.0,619.9415312780651,938.81660583986763,1156.4029077539099,-243.70283096602901,-32.110650687277754,-101.9022864926097,1078.7145319014962,1385.2579300992029,-303.87548624516592,303.87548624516592,-1385.2579300992029,2005.3645511759844,0.0
352154.6038362722,4750833.5216966402,-17500.0,694.18327323383414,1270.6333791044235,754.18787395947049,-353.92444819703695,147.63980737655098,-165.4202499612912,1383.4272372884902,1563.7859947020711,-464.03512721136542,464.03512721136542,-1563.7859947020711,2465.5235896120839,0.0
357154.6038362722,4750833.5216966402,-17500.0,850.6130046040862,1560.9635723848164,121.08161078559023,-447.88689588390844,397.81359413228364,-245.23807393224035,1754.5571762884588,1673.0825882943636,-673.41047722413771,673.41047722413771,-1673.0825882943636,3052.8748223001016,0.0
362154.6038362722,4750833.5216966402,-17500.0,1083.0425593575237,1739.1505424900918,-727.26977663453238,-504.01368902939117,710.32065769785322,-338.28872840329649,2165.2897443493321,1659.9673346588254,-918.69901222352632,918.69901222352632,-1659.9673346588254,3751.5395978748088,0.0
367154.6038362722,4750833.5216966402,-17500.0,1358.3698051964386,1739.8786357635875,-1728.687138532508,-502.74003182091366,1063.4563837416999,-438.38883829309651,2591.5895546613815,1478.7178247237723,-1175.3077687254302,1175.3077687254302,-1478.7178247237723,4521.5218688953128,0.0
372154.6038362722,4750833.5216966402,-17500.0,1620.6120089188971,1523.9220488070405,-2780.6711369490286,-432.45274296268366,1424.0523134090345,-536.8347874067988,3004.835424594562,1106.8996882533502,-1411.3826762312297,1411.3826762312297,-1106.8996882533502,5304.919614611279,0.0
377154.6038362722,4750833.5216966402,-17500.0,1805.1673298407086,1093.2496605703416,-3761.4407889282115,-293.85645290055646,1753.7875510780971,-623.93648746772908,3374.9004683770636,556.44556355797442,-1595.087009315208,1595.087009315208,-556.44556355797442,6036.3692648097349,0.0
382154.6038362722,4750833.5216966402,-17500.0,1858.0650321639589,493.07872071291592,-4558.8310058124216,-100.65855054524792,2017.7323881386355,-691.06376724200607,3675.1145179624637,-125.72030792956423,-1702.5225428644781,1702.5225428644781,125.72030792956423,6655.1202980293656,0.0
387154.6038362722,4750833.5216966402,-17500.0,1751.821511685167,-200.34401345768237,-5095.7782333286159,123.87602907179156,2191.9321575703493,-732.46688746647226,3886.6812727506067,-868.41947603903486,-1723.161414398355,1723.161414398355,868.41947603903486,7115.4794105945266,0.0
392154.6038362722,4750833.5216966402,-17500.0,1491.4424408602163,-900.52067672201554,-5343.207143077484,352.97544560533009,2267.3420685384986,-746.22237975825362,4001.1038985686891,-1593.7455201056728,-1660.9110480349591,1660.9110480349591,1593.7455201056728,7392.9041303081267,0.0
397154.6038362722,4750833.5216966402,-17500.0,1109.5282376952068,-1531.2136847341753,-5317.8387549134795,562.50882783081033,2249.2944673907909,-734.08668370859539,4020.157586494242,-2234.2485887294761,-1531.074711671544,1531.074711671544,2234.2485887294761,7484.7474329736524,0.0
402154.6038362722,4750833.5216966402,-17500.0,654.42514756322635,-2039.8220857061776,-5069.04181668817,735.18026737803541,2153.6160173410831,-700.51297522942207,3953.8823324946884,-2744.1319881397858,-1355.0889501407064,1355.0889501407064,2744.1319881397858,7406.569123024492,0.0
407154.6038362722,4750833.5216966402,-17500.0,177.127899287178,-2401.415173936075,-4661.7587566872617,862.01442123730317,2001.4331770759954,-651.32677987351008,3817.5669438365521,-3102.5666117985656,-1155.2382641174427,1155.2382641174427,3102.5666117985656,7186.0391259522466,0.0
412154.6038362722,4750833.5216966402,-17500.0,-278.72440957547161,-2615.2770090080121,-4161.505457713446,941.57380872893486,1814.4744767367824,-592.51301039392831,3628.6860976086336,-3310.5976669085662,-950.82340788677311,950.82340788677311,3310.5976669085662,6856.5106005155203,0.0
417154.6038362722,4750833.5216966402,-17500.0,-682.060068812964,-2697.5782110756413,-3624.4926940120608,977.91571420980017,1611.8472073578075,-529.36829345170611,3404.4296013843191,-3384.6570003460724,-756.23589410832528,756.23589410832528,3384.6570003460724,6451.6979238049125,0.0
422154.6038362722,4750833.5216966402,-17500.0,-1015.2759679468493,-2673.4737312364387,-3093.1435850393159,978.25872311725277,1408.4430688369823,-466.06744711621621,3160.0733269145157,-3349.4991549483102,-580.64061111306978,580.64061111306978,3349.4991549483102,6002.069462389064,0.0
427154.6038362722,4750833.5216966402,-17500.0,-1272.3424297922174,-2570.640279917824,-2595.7053845607084,950.98735477107175,1214.6340857636699,-405.56585142971136,2908.1552508787913,-3232.3349809513411,-428.66475545386697,428.66475545386697,3232.3349809513411,5532.9345053620127,0.0
432154.6038362722,4750833.5216966402,-17500.0,-1455.68381820226,-2414.9727787328015,-2148.2354574030569,904.25247663943821,1036.7622388374818,-349.71434207157188,2658.2702896398446,-3058.8390407204047,-301.51702532103309,301.51702532103309,3058.8390407204047,5063.8585326722668,0.0
437154.6038362722,4750833.5216966402,-17500.0,-1572.9773244673265,-2228.3073610384727,-1757.5218033392061,845.16736630836908,877.98463324367287,-299.4754550106943,2417.2650574017534,-2850.961588075219,-198.13750604872871,198.13750604872871,2850.961588075219,4608.9518527167947,0.0
442154.6038362722,4750833.5216966402,-17500.0,-1634.4851091437263,-2027.6564355351234,-1424.0027927689493,779.47163827790382,739.17391334485512,-255.16097242267784,2189.6410416353483,-2626.1200871433307,-116.16688907223079,116.16688907223079,2626.1200871433307,4177.6247712267841,0.0
447154.6038362722,4750833.5216966402,-17500.0,-1651.1295050777774,-1825.3880217168548,-1144.2195658691642,711.50511700853394,619.71057661032182,-216.64633046846063,1978.0292108764361,-2397.2797111422924,-52.664296557292801,52.664296557292801,2397.2797111422924,3775.5148478355795,0.0
292154.6038362722,4755833.5216966402,-17500.0,492.3995865782652,44.732000953434756,280.58281242200343,71.814628244473141,-26.717670752699295,2.6196842091430419,260.6709519545322,314.12482453222469,-113.93201553910487,113.93201553910487,-314.12482453222469,452.3532686089427,0.0
297154.6038362722,4755833.5216966402,-17500.0,536.55937411777302,22.042037621295755,350.14498704219221,80.903483773684357,-42.786378479984641,4.2047347016942824,281.67233914790279,336.27820599607855,-113.03705119888818,113.03705119888818,-336.27820599607855,495.47847569894236,0.0
302154.6038362722,4755833.5216966402,-17500.0,574.70696821694969,0.75759341941257485,434.5363860329453,88.293440550963396,-61.984093641237763,5.7981594737055051,302.27431246930695,362.08493711559964,-109.7473535092178,109.7473535092178,-362.08493711559964,546.32933859919581,0.0
307154.6038362722,4755833.5216966402,-17500.0,603.55604070348738,-15.142077068771657,534.35121208244425,92.470628126305883,-83.967240073205659,7.1342643511579364,322.74529903572193,393.62339566286937,-104.17582831364462,104.17582831364462,-393.62339566286937,605.57804427013343,0.0
312154.6038362722,4755833.5216966402,-17500.0,619.80629605561114,-19.925078193933768,648.40959905088403,91.445466832759166,-107.74016493553181,7.7747552406498546,354.38279312686353,433.79720164235363,-97.009130447980112,97.009130447980112,-433.79720164235363,673.80156971920314,0.0
317154.6038362722,4755833.5216966402,-17500.0,620.8177733741918,-5.9802852566611548,772.57688467350988,82.78185578149818,-131.33238047985068,7.0490965831376045,410.844973882543,486.33205464209891,-89.816069398158788,89.816069398158788,-486.33205464209891,751.86314331001904,0.0
322154.6038362722,4755833.5216966402,-17500.0,605.62146841132972,35.905957193087339,898.28742480188657,63.758717616285026,-151.4321830957908,3.9966354509722488,476.82122859556279,555.49750318625206,-85.384901160313859,85.384901160313859,-555.49750318625206,841.74774280943336,0.0
327154.6038362722,4755833.5216966402,-17500.0,576.2057872470931,115.57654807566836,1010.9745593902127,31.7333879394989,-163.04838094210689,-2.6714927356874281,546.79783435737659,645.36402899508471,-88.002520437193141,88.002520437193141,-645.36402899508471,947.97136953597214,0.0
332154.6038362722,4755833.5216966402,-17500.0,538.82588259595252,241.53814597496503,1088.8639448432057,-15.235675750858089,-159.33369210708366,-14.562355320752511,618.6710522120211,758.40789985109393,-103.52364056483646,103.52364056483646,-758.40789985109393,1079.3725434207809,0.0
337154.6038362722,4755833.5216966402,-17500.0,504.81930210089774,417.86869041717063,1102.9015098286009,-77.503027001739284,-131.76989309606532,-33.505818315161818,692.7421427914793,893.39459179780636,-139.02132537928048,139.02132537928048,-893.39459179780636,1250.3646420228592,0.0
342154.6038362722,4755833.5216966402,-17500.0,490.16916683155119,640.28386291981121,1018.8132061488693,-152.797088014042,-70.947873706136136,-61.335942768640805,789.10203197750559,1042.7717910870604,-201.80884597827549,201.80884597827549,-1042.7717910870604,1479.933857669849,0.0
347154.6038362722,4755833.5216966402,-17500.0,513.04172001132304,892.33436966080239,802.16827597802057,-235.30479571963659,31.883547825467723,-99.528356487400202,980.10318957990467,1190.2885143386541,-297.73964974652182,297.73964974652182,-1190.2885143386541,1787.1438511935087,0.0
352154.6038362722,4755833.5216966402,-17500.0,588.99942726825475,1143.4436698827913,426.55292426782631,-315.32198208795666,182.53765367007807,-148.71593860023299,1240.5441425033953,1310.0775715927261,-428.97028996925803,428.97028996925803,-1310.0775715927261,2184.3552061767264,0.0
357154.6038362722,4755833.5216966402,-17500.0,724.65968247365549,1350.7780285609413,-116.52610334393191,-379.95561153819028,381.28770473849784,-208.17496443833224,1539.9679789252909,1368.6213666303452,-591.76579302741209,591.76579302741209,-1368.6213666303452,2671.3536546368623,1.0
362154.6038362722,4755833.5216966402,-17500.0,911.91524415435219,1466.1708520988266,-809.1102119165605,-415.151635654941,620.76217337606943,-275.44862172569913,1864.0842444697628,1330.433208485206,-775.25491128006411,775.25491128006411,-1330.433208485206,3232.6983626253514,0.0
367154.6038362722,4755833.5216966402,-17500.0,1125.6133658964661,1447.3146171711287,-1603.6183090348841,-408.81143634746866,885.35212659280944,-346.30875729274993,2196.3443750572178,1166.7792429711296,-962.02595587865642,962.02595587865642,-1166.7792429711296,3838.6362330164234,0.0
372154.6038362722,4755833.5216966402,-17500.0,1326.8896614136113,1269.9464444010384,-2427.9562807747789,-354.12969192654577,1152.8560354472222,-415.19646097970229,2517.1178740423366,864.90033957156072,-1130.9078551672333,1130.9078551672333,-864.90033957156072,4449.0688515965348,0.0
377154.6038362722,4755833.5216966402,-17500.0,1472.027968135623,936.34214973573671,-3198.7031182221403,-251.91910370062885,1398.2780986927589,-476.11607973069385,2805.9319918976144,434.13325207409554,-1261.3442267353842,1261.3442267353842,-434.13325207409554,5019.7491610267125,0.0
382154.6038362722,4755833.5216966402,-17500.0,1523.9189367754323,476.39406040091393,-3838.4602337499123,-110.91977987606369,1598.7259249650642,-523.75138623241696,3044.48770855562,-93.919930422574566,-1337.9414315171557,1337.9414315171557,93.919930422574566,5509.3753435880753,0.0
387154.6038362722,4755833.5216966402,-17500.0,1461.7177195545578,-59.34301343145318,-4291.4112045236161,54.102862808644183,1737.7984307302113,-554.45008955434662,3219.3548611699471,-671.60294838124923,-1353.5961609493067,1353.5961609493067,671.60294838124923,5885.8583069709475,0.0
392154.6038362722,4755833.5216966402,-17500.0,1285.1851452141964,-611.79470585220463,-4532.0836282540795,225.73746701340298,1808.084329398544,-566.76908204518156,3323.5875277737964,-1245.4977950501798,-1310.2368049967845,1310.2368049967845,1245.4977950501798,6130.2766880069466,0.0
397154.6038362722,4755833.5216966402,-17500.0,1012.7971690728215,-1126.0814509518364,-4565.524271289617,387.53740562389686,1811.247978927667,-561.46172483318219,3356.9575912162641,-1767.0661587789225,-1217.2504104492939,1217.2504104492939,1767.0661587789225,6237.854660442762,0.0
402154.6038362722,4755833.5216966402,-17500.0,675.32966513826932,-1560.8231308608244,-4420.5533803869448,526.74913194188775,1756.1297459136492,-541.00416759823997,3324.9806396950071,-2200.390337903641,-1088.5027627621705,1088.5027627621705,2200.390337903641,6216.27481578264,0.0
407154.6038362722,4755833.5216966402,-17500.0,307.8842689244492,-1892.2315897471165,-4139.6823913581356,635.61465793506295,1655.8426604363081,-508.88799117361009,3237.2104330626553,-2525.5150157431335,-939.11737036001887,939.11737036001887,2525.5150157431335,6082.3022734558263,0.0
412154.6038362722,4755833.5216966402,-17500.0,-57.0020448027458,-2113.4285974095906,-3769.2317560615156,711.32012726597532,1524.8639388671334,-468.912194320943,3105.3373438357139,-2737.7312200579713,-782.90490791799266,782.90490791799266,2737.7312200579713,5857.859223350898,0.0
417154.6038362722,4755833.5216966402,-17500.0,-393.7418013141085,-2230.724054496703,-3351.8979705215365,755.04023677619011,1376.7831652197663,-424.63245733450464,2941.5064201452324,-2844.2439956881058,-630.83661717780024,630.83661717780024,2844.2439956881058,5566.4625320622763,0.0
422154.6038362722,4755833.5216966402,-17500.0,-685.40270327290739,-2258.7857706202035,-2922.4898944269275,770.60794810854827,1222.9454511145025,-379.02566996442226,2757.0751043556734,-2859.8580941671325,-490.51892000615021,490.51892000615021,2859.8580941671325,5230.5309630266556,0.0
427154.6038362722,4755833.5216966402,-17500.0,-923.3521443157457,-2216.1398745433016,-2506.4602513086556,763.22271030617151,1071.913041720434,-334.35363973907488,2561.8577252067275,-2802.9258786359405,-366.38982971172322,366.38982971172322,2802.9258786359405,4869.6967132108966,0.0
432154.6038362722,4755833.5216966402,-17500.0,-1105.7118525244869,-2121.7459201509873,-2120.3666265527531,738.4262633254624,929.51525481543342,-292.17228958802218,2363.7923482400606,-2692.2210608295891,-260.30791688522777,260.30791688522777,2692.2210608295891,4500.0073163560364,0.0
437154.6038362722,4755833.5216966402,-17500.0,-1235.3899959605906,-1992.8199809566263,-1773.364873656835,701.41643872215388,799.23476888243067,-253.42585344384315,2168.9168194107961,-2544.9117364490176,-172.26611576863274,172.26611576863274,2544.9117364490176,4133.7901161154814,0.0
442154.6038362722,4755833.5216966402,-17500.0,-1318.2050318519339,-1843.7399808101695,-1469.0432539546669,656.66890883424958,682.72671088611582,-218.57641983478661,1981.5375109256049,-2375.5052502471094,-101.06021683990593,101.06021683990593,2375.5052502471094,3779.9367827647975,0.0
297154.6038362722,4760833.5216966402,-17500.0,468.16036440855714,9.8347505577044245,354.68777303771685,66.850131049600037,-46.271787994300574,3.1948775656293029,244.9831345332596,303.13843662275298,-92.706663359275765,92.706663359275765,-303.13843662275298,443.20234246857797,0.0
302154.6038362722,4760833.5216966402,-17500.0,491.32308125867024,-1.7818373933603515,430.02073031415614,69.844374428748651,-62.048220080665686,3.9527581387069635,258.53965638677562,327.89302681477875,-89.355178633234587,89.355178633234587,-327.89302681477875,487.44747727175269,0.0
307154.6038362722,4760833.5216966402,-17500.0,505.68844562920424,-5.7824043735008388,515.54364954517689,69.361261785075868,-79.139426859079464,4.2635405411240193,277.36502914603727,358.61768483552839,-84.871919289703527,84.871919289703527,-358.61768483552839,538.31971386530688,0.0
312154.6038362722,4760833.5216966402,-17500.0,509.3446035482562,2.8221982304582101,608.70932178885209,63.840028103698806,-96.366316642561515,3.7318960665862524,321.51416222527399,397.71520163830962,-80.188183397095173,80.188183397095173,-397.71520163830962,596.5463639474483,0.0
317154.6038362722,4760833.5216966402,-17500.0,501.30255701025573,30.103565907107086,704.30298344801429,51.514041556042805,-111.7646445881098,1.7972001556225323,372.65008819421047,447.96996529642928,-76.949567537018027,76.949567537018027,-447.96996529642928,663.5272005900174,0.0
322154.6038362722,4760833.5216966402,-17500.0,482.23992807019562,82.740425005973989,793.4926515767238,30.591365615093444,-122.37736450875086,-2.2919476668111018,426.75745802606616,512.173958748117,-77.691349211047395,77.691349211047395,-512.173958748117,742.11545544998739,0.0
327154.6038362722,4760833.5216966402,-17500.0,455.31086049576487,167.02201255697943,863.00324669343058,-0.42842355534916066,-124.11208338740735,-9.482277765716578,482.56441509188755,592.41146677941401,-85.922788295742777,85.922788295742777,-592.41146677941401,837.63918435618575,0.0
332154.6038362722,4760833.5216966402,-17500.0,426.79212886211064,287.2196839578047,894.77467657780335,-42.287460814169386,-111.7575647239438,-20.881709145842688,539.52417645456853,688.93811061494375,-106.01871531926503,106.01871531926503,-688.93811061494375,958.77132928750996,0.0
337154.6038362722,4760833.5216966402,-17500.0,406.20205977945363,443.37853555546582,866.60541392386972,-94.384459884989937,-79.278093629171607,-37.666665490999769,602.31817716972284,798.70669823349806,-142.80388661886229,142.80388661886229,-798.70669823349806,1117.4449643095038,0.0
342154.6038362722,4760833.5216966402,-17500.0,405.4589877925776,628.87642669899651,754.30988816590855,-154.17584820343549,-20.497513302906501,-60.915240107954304,711.6007511582402,913.8014018805286,-200.74690581113123,200.74690581113123,-913.8014018805286,1326.9983576820166,0.0
347154.6038362722,4760833.5216966402,-17500.0,436.7524669827107,828.47862078148205,535.6988285543797,-216.75467342304322,69.78186149655869,-91.365913425451112,891.58244368050737,1020.3099540873823,-282.78142905127271,282.78142905127271,-1020.3099540873823,1598.6374084274541,0.0
352154.6038362722,4760833.5216966402,-17500.0,509.18180218639577,1017.9216227573473,196.12782631454434,-274.8597011997245,194.32403149725681,-129.12899264834815,1108.5510720741909,1098.3752952470197,-388.94565380412337,388.94565380412337,-1098.3752952470197,1937.5345350110531,0.0
357154.6038362722,4760833.5216966402,-17500.0,624.8461747727797,1166.0201458651482,-265.48997885999313,-319.54293641342309,351.96769589307002,-173.41408448343103,1350.6947565155333,1124.1247873774578,-515.22755992072325,515.22755992072325,-1124.1247873774578,2340.0798538364934,0.0
362154.6038362722,4760833.5216966402,-17500.0,775.71282380986213,1239.67990713628,-832.11232604222471,-341.56492995438913,536.5777661381095,-222.36693189632447,1608.5790787129201,1073.7123510669317,-653.11854882388525,653.11854882388525,-1073.7123510669317,2792.9720543540266,0.0
367154.6038362722,4760833.5216966402,-17500.0,942.81714736117226,1211.0517316680096,-1467.5635726018502,-333.30536695098544,736.95605936288086,-273.11179366299956,1870.443209314441,928.84866712679786,-790.2910054241579,790.2910054241579,-928.84866712679786,3274.1557266016139,0.0
372154.6038362722,4760833.5216966402,-17500.0,1098.7997967120064,1064.838746253394,-2120.4314817159971,-290.67995227041479,938.01913228110664,-322.0520854928958,2122.5477214566895,682.27837162902972,-912.47602265220428,912.47602265220428,-682.27837162902972,3755.3945361395249,0.0
377154.6038362722,4760833.5216966402,-17500.0,1213.5132138103361,803.20697269999187,-2732.4879622529788,-214.41779978591725,1123.1245540335519,-365.39693283138837,2350.6872598134632,341.24886627203932,-1006.137347738643,1006.137347738643,-341.24886627203932,4206.0761798035319,0.0
382154.6038362722,4760833.5216966402,-17500.0,1261.0255990374953,446.36102821544392,-3249.3849558537399,-110.20465364269349,1276.958884589556,-399.78801456312846,2542.0628191607329,-72.502046193448791,-1061.1540569252747,1061.1540569252747,72.502046193448791,4597.5184239633982,0.0
387154.6038362722,4760833.5216966402,-17500.0,1225.6353838290538,28.466017428153393,-3630.3750906575951,12.398135528010775,1388.1468835584972,-422.85066837065744,2686.9652893240268,-526.44696412520557,-1072.6726762239209,1072.6726762239209,526.44696412520557,4906.8346060196454,0.0
392154.6038362722,4760833.5216966402,-17500.0,1104.9322087987537,-409.61824487160845,-3854.2523203412411,141.89154457799043,1450.8497302965036,-433.51663479622215,2779.85482578459,-983.45989502650718,-1041.6137268760838,1041.6137268760838,983.45989502650718,5119.5253788762748,0.0
397154.6038362722,4760833.5216966402,-17500.0,909.23025641329866,-828.31179383584697,-3920.308016875244,266.99554795284968,1465.0285514649793,-432.05283491349877,2819.6438135616036,-1408.4920251469146,-973.84077268509168,973.84077268509168,1408.4920251469146,5230.3718185694815,0.0
402154.6038362722,4760833.5216966402,-17500.0,658.09969378315475,-1195.6806289537869,-3844.9339185257359,378.41159247130241,1435.5266401474701,-419.83239413663421,2809.2389496597807,-1773.849525237765,-878.44172825916053,878.44172825916053,1773.849525237765,5242.7128072303267,0.0
407154.6038362722,4760833.5216966402,-17500.0,375.54037810202976,-1490.9022757456955,-3655.6990091155012,469.83232510317004,1370.4463180035484,-398.95339198679596,2754.5765658596874,-2062.0146832521568,-765.74981168119461,765.74981168119461,2062.0146832521568,5166.5778970241772,0.0
412154.6038362722,4760833.5216966402,-17500.0,85.36465647753397,-1704.7554895384353,-3384.9520117023312,538.15509436456057,1279.3676237243644,-371.82659596798368,2663.4490651675592,-2265.9464133821853,-645.63720890350453,645.63720890350453,2265.9464133821853,5016.3008580885844,0.0
417154.6038362722,4760833.5216966402,-17500.0,-192.17761235442768,-1837.9135126705999,-3064.4763299387755,583.08636102937646,1171.8280141381654,-340.82501486755274,2544.381210512799,-2387.5082171667555,-526.37250801094297,526.37250801094297,2387.5082171667555,4808.172861626741,0.0
422154.6038362722,4760833.5216966402,-17500.0,-442.18197211032242,-1898.1223835698947,-2721.922617222911,606.41547217361972,1056.2742713439745,-308.04237580975456,2405.7226886707103,-2434.9349172489556,-414.08840624589322,414.08840624589322,2434.9349172489556,4558.5069115545948,0.0
427154.6038362722,4760833.5216966402,-17500.0,-655.45889251403844,-1897.2122385916086,-2379.0499894180643,611.21131010145757,939.51067505301251,-275.16594894565895,2255.0240156555928,-2420.1485539715968,-312.7430723377995,312.7430723377995,2420.1485539715968,4282.2751057345067,0.0
432154.6038362722,4760833.5216966402,-17500.0,-827.92892418025394,-1848.5502174568639,-2051.3981316191926,601.11311472689476,826.55277476525089,-243.44324404978494,2098.6875876735653,-2356.4538402087874,-224.39656645489458,224.39656645489458,2356.4538402087874,3992.3168413270191,0.0
437154.6038362722,4760833.5216966402,-17500.0,-959.51732031327151,-1765.1983487107123,-1748.8775197476864,579.79682350590247,720.75252494325161,-213.7122543028388,1941.8426484121132,-2256.8512785215453,-149.63270164033224,149.63270164033224,2256.8512785215453,3699.0194462499176,0.0
302154.6038362722,4765833.5216966402,-17500.0,417.81466590259811,3.6103730070494713,415.94641181517392,53.599117202890078,-59.235763927205888,2.3505639394540809,220.42928161905795,300.08595476768073,-74.153861983240418,74.153861983240418,-300.08595476768073,437.06068862958,0.0
307154.6038362722,4765833.5216966402,-17500.0,422.79002550619259,9.0448270286175276,486.90463517792676,50.035899610138614,-71.992961805310401,1.9708308764262596,255.90473053697997,329.83947225879427,-71.141428139059769,71.141428139059769,-329.83947225879427,481.12918871555468,0.0
312154.6038362722,4765833.5216966402,-17500.0,419.2636454940469,27.239574840544325,560.37722419716317,41.911097552758328,-83.797930447687065,0.72387769931881774,295.90317205712739,367.24814746668989,-68.887958953066914,68.887958953066914,-367.24814746668989,531.70678652036077,0.0
317154.6038362722,4765833.5216966402,-17500.0,407.33178216971197,62.768388393395867,630.85354004627504,28.006318106599778,-92.852956019700684,-1.8387125643674231,338.09171367721319,414.22737826444722,-68.931781117435861,68.931781117435861,-414.22737826444722,590.65951773446477,0.0
322154.6038362722,4765833.5216966402,-17500.0,388.55308078491851,120.17985080541301,690.03680113883024,7.2164266095420748,-96.658699395541859,-6.2851986644212623,381.76468099501136,472.38131388784922,-73.419591465776136,73.419591465776136,-472.38131388784922,661.3180373676912,0.0
327154.6038362722,4765833.5216966402,-17500.0,366.40450342422031,203.1214681870344,726.50583083610013,-21.200154417075254,-91.983961801371464,-13.292904930380192,426.34125159351328,542.39589053043346,-85.084416478433411,85.084416478433411,-542.39589053043346,749.05214005545781,0.0
332154.6038362722,4765833.5216966402,-17500.0,346.51711060691377,313.09759527805898,725.84031086903951,-57.292988654206923,-74.967179725242474,-23.609295769609499,472.67966849894464,623.20511138446614,-107.07136426280977,107.07136426280977,-623.20511138446614,861.43785973448848,0.0
337154.6038362722,4765833.5216966402,-17500.0,336.46046268612872,447.97833593055191,671.50795832251129,-100.05161127327236,-41.414498759012289,-37.975334841963452,534.51997236686407,711.0226527307384,-142.55603347222882,142.55603347222882,-711.0226527307384,1007.5430473721424,0.0
342154.6038362722,4765833.5216966402,-17500.0,344.85133324299221,600.56235803558275,546.76243863753848,-147.0795250726417,12.659904761785779,-57.006596614249062,652.40672865647389,798.46150631787123,-194.13600808146685,194.13600808146685,-798.46150631787123,1196.1608948716414,0.0
347154.6038362722,4765833.5216966402,-17500.0,379.68469930620705,757.690172412435,337.59801658606165,-194.4322454042894,90.258963332966815,-81.038311757712037,809.13675343695343,874.09888492238258,-263.04794097708839,263.04794097708839,-874.09888492238258,1433.4509430927585,0.0
352154.6038362722,4765833.5216966402,-17500.0,446.04872210324936,900.50426864678946,36.435625319596504,-236.75736212579858,192.49004495049627,-109.95678959794392,988.92596314995069,922.90986222900301,-348.36234478586965,348.36234478586965,-922.90986222900301,1720.8198888764605,0.0
357154.6038362722,4765833.5216966402,-17500.0,543.7386571894973,1006.3270293936488,-354.25173863612019,-267.83671370423627,317.71571269206095,-143.05709677818083,1185.666026344499,927.89196334137148,-446.39982457048325,446.39982457048325,-927.89196334137148,2053.6457279357987,0.0
362154.6038362722,4765833.5216966402,-17500.0,665.5784651010473,1052.2043089667936,-819.52033244122072,-281.52676005604468,461.04325241205595,-178.97777048281878,1392.5731060975011,872.88473335970866,-550.64103971901022,550.64103971901022,-872.88473335970866,2421.0329487007293,0.0
367154.6038362722,4765833.5216966402,-17500.0,797.28501135151362,1019.5159770506508,-1331.8826164265295,-272.94002247692765,614.41576657175585,-215.75834955219537,1601.1227666341399,746.10374833100389,-652.31864402244526,652.31864402244526,-746.10374833100389,2806.5851067279309,0.0
372154.6038362722,4765833.5216966402,-17500.0,919.3310098147615,898.44780302795471,-1854.1813790675328,-239.5700450596064,767.43267997943565,-251.03804631723764,1801.5274125788881,543.45708176596543,-741.67693076579928,741.67693076579928,-543.45708176596543,3190.1045689375792,0.0
377154.6038362722,4765833.5216966402,-17500.0,1010.5576952301625,690.90388451764215,-2345.065510299125,-182.01421789569093,908.8002941432876,-282.37050422524965,1983.7439781696862,270.55782602903008,-809.63592913487946,809.63592913487946,-270.55782602903008,3549.9966958626756,0.0
382154.6038362722,4765833.5216966402,-17500.0,1052.5614955078386,410.81895083315152,-2765.7452473318112,-104.04133911173948,1028.0792888672727,-307.58547620000434,2138.6614904107191,-57.3511092455376,-849.41395620978403,849.41395620978403,57.3511092455376,3865.9590424825651,0.0
387154.6038362722,4765833.5216966402,-17500.0,1033.519804991729,81.700534473802108,-3086.1978333133125,-11.960936333940348,1117.2756732779387,-325.10681865213007,2259.1763189040812,-417.66236816109756,-857.65273499868215,857.65273499868215,417.66236816109756,4121.4257934395746,0.0
392154.6038362722,4765833.5216966402,-17500.0,950.32960882653265,-267.81768642863028,-3289.2115617708882,86.515957688219999,1171.8745677618588,-334.14823225799114,2340.9191399998831,-784.21464754285034,-834.76176456963231,834.76176456963231,784.21464754285034,4305.2874412084229,0.0
397154.6038362722,4765833.5216966402,-17500.0,808.59516991134399,-609.04602156342071,-3371.4789901633612,183.58752429025296,1191.1178471909386,-334.74961028546591,2382.5128868105144,-1131.5419746308219,-784.4711684423512,784.4711684423512,1131.5419746308219,4412.6183590281926,0.0
402154.6038362722,4765833.5216966402,-17500.0,620.7594675358564,-917.57095666086502,-3341.9421336967703,272.50093471340966,1177.5725346933032,-327.66666003599801,2385.371086390327,-1438.4588539256611,-712.82175205094825,712.82175205094825,1438.4588539256611,4444.4119125781308,0.0
407154.6038362722,4765833.5216966402,-17500.0,403.18689422313093,-1175.9725064264676,-3218.3239641332743,348.29296464474771,1136.2222467131915,-314.16376168088942,2353.1527831722588,-1690.2691423381709,-626.93604625261537,626.93604625261537,1690.2691423381709,4406.5520112858776,0.0
412154.6038362722,4765833.5216966402,-17500.0,173.11597768549487,-1374.7074222850179,-3023.0260828582236,408.06497332688161,1073.3810471003969,-295.77316995339061,2291.039292820712,-1879.4221434774026,-533.88850291587289,533.88850291587289,1879.4221434774026,4308.3637209847375,0.0
417154.6038362722,4765833.5216966402,-17500.0,-53.817070995500941,-1511.4746232428411,-2779.3877303898139,450.86125715369297,995.68695433432856,-274.07462597941867,2204.9912243254089,-2004.8817131550122,-439.87623225853588,439.87623225853588,2004.8817131550122,4161.0807542424773,0.0
422154.6038362722,4765833.5216966402,-17500.0,-265.14244950465371,-1589.6456977950265,-2508.8948639207906,477.2922249649074,909.33366649289883,-250.52818332892122,2101.1025267323444,-2070.6989153407785,-349.75658458439761,349.75658458439761,2070.6989153407785,3976.4854278160801,0.0
427154.6038362722,4765833.5216966402,-17500.0,-452.19656905221768,-1616.3533009912419,-2229.5131129541242,489.051511943999,819.59312963969103,-226.37113752184575,1985.1134655063461,-2084.2919252155907,-266.91297291042656,266.91297291042656,2084.2919252155907,3765.8626259575312,0.0
432154.6038362722,4765833.5216966402,-17500.0,-610.03299835688699,-1600.6843395975031,-1955.0217216181381,488.44391049959671,730.60441580725023,-202.57331899485411,1862.0968004010699,-2054.8176684369096,-193.35645959049361,193.35645959049361,2054.8176684369096,3539.3076432168182,0.0
307154.6038362722,4770833.5216966402,-17500.0,353.8525836383522,25.624220729855914,451.98313321781546,34.341703434512475,-63.791791455670712,0.2086343874356128,238.62857466915244,305.32682672637554,-61.445187650696255,61.445187650696255,-305.32682672637554,432.56555632384448,0.0
312154.6038362722,4770833.5216966402,-17500.0,346.74937458677641,50.100053252128298,507.85411556235545,24.949309018082623,-71.285083903313406,-1.429825416594293,271.73579124000662,340.46922063117734,-61.295024926828802,61.295024926828802,-340.46922063117734,477.40858008603897,0.0
317154.6038362722,4770833.5216966402,-17500.0,334.00504282223585,89.913078457478235,557.1789686798063,10.806273992990381,-75.615097645020498,-4.2384064430334716,306.16568427015619,383.49056927043182,-63.838438347045326,63.838438347045326,-383.49056927043182,530.52680545210728,0.0
322154.6038362722,4770833.5216966402,-17500.0,317.54303473705232,147.95112629896877,592.59760261635745,-8.7121189568478918,-74.745804891306292,-8.6367152071974989,341.43028364037167,435.11321901909071,-70.806997497987709,70.806997497987709,-435.11321901909071,595.33401647559378,0.0
327154.6038362722,4770833.5216966402,-17500.0,300.69258986393987,226.01371732211018,604.65297184107624,-33.871289294565898,-66.191900364944587,-15.100183977002112,377.46422789006289,495.11411066572242,-84.252108906167052,84.252108906167052,-495.11411066572242,676.7111488475922,0.0
332154.6038362722,4770833.5216966402,-17500.0,288.19531513776315,323.91591941573313,582.13063051766858,-64.356452078867861,-47.145557197155547,-24.124819980047462,417.70040644048061,561.73817736610863,-106.36415006137014,106.36415006137014,-561.73817736610863,780.76993529367451,0.0
337154.6038362722,4770833.5216966402,-17500.0,285.8643119871046,438.52549348965596,512.9481698774398,-99.050823005848542,-14.734978973096819,-36.168853146875691,487.70236374737379,631.09398421036394,-139.1600430591854,139.1600430591854,-631.09398421036394,914.00183381615079,1.0
342154.6038362722,4770833.5216966402,-17500.0,299.79340345246425,562.96440094926572,385.69040073288636,-135.87027634265124,33.572361231368987,-51.571277385250447,599.44110060717856,696.69908923161074,-184.04722599984024,184.04722599984024,-696.69908923161074,1081.9273823233541,0.0
347154.6038362722,4770833.5216966402,-17500.0,335.11544045431521,686.29431622417951,191.73109340588147,-171.72862916276986,99.446192776721887,-70.454442423380272,732.82657804380995,749.40271006369301,-241.31853785419787,241.31853785419787,-749.40271006369301,1287.6467277470067,0.0
352154.6038362722,4770833.5216966402,-17500.0,394.47803343876427,794.01856389106615,-72.34916283612435,-202.70609407124758,183.1265716557711,-92.626735874500426,881.91517306900664,777.91830698366073,-309.68694216370216,309.68694216370216,-777.91830698366073,1530.711167591689,0.0
357154.6038362722,4770833.5216966402,-17500.0,476.59634558997124,869.60684490622009,-402.58648965090856,-224.46049262450288,282.94281294893977,-117.50933655166679,1042.6771740885479,770.10081373307469,-386.00793451879406,386.00793451879406,-770.10081373307469,1806.5331826032161,0.0
362154.6038362722,4770833.5216966402,-17500.0,575.36956271450356,896.97457987276084,-786.38299261648524,-232.85615380769417,395.07491702026209,-144.11450502341415,1210.0564397513178,714.89723062426367,-465.33490039823016,465.33490039823016,-714.89723062426367,2106.3895185850415,0.0
367154.6038362722,4770833.5216966402,-17500.0,680.0113852795505,863.48543808265265,-1202.7938716147241,-224.70296763049294,513.69192525011829,-171.0969879807659,1377.7811407091558,604.62820200826036,-541.3887114479794,541.3887114479794,-604.62820200826036,2418.0164469231836,0.0
372154.6038362722,4770833.5216966402,-17500.0,776.39737368581859,762.74201457821687,-1624.6176211082395,-198.43076190597688,631.51788415429667,-196.88392881680224,1538.7676436401969,437.03396435516066,-607.40418016365584,607.40418016365584,-437.03396435516066,2726.7529143297998,0.0
377154.6038362722,4770833.5216966402,-17500.0,849.43385883581209,596.35428352689803,-2022.0181466281431,-154.50950464499425,740.75242276064932,-219.86606150283001,1685.7940970705145,216.46766139701057,-657.18421721682307,657.18421721682307,-216.46766139701057,3017.0967584115074,1.0
382154.6038362722,4770833.5216966402,-17500.0,885.8675735344184,374.11117175585326,-2366.8867963110629,-95.48164309361151,834.15355427056454,-238.61170197946791,1812.2696417906182,-46.192865521616909,-686.10428646289597,686.10428646289597,46.192865521616909,3274.4272704838736,0.0
387154.6038362722,4770833.5216966402,-17500.0,876.76781324777073,112.46184378890753,-2636.8846266432729,-25.585101136172074,906.03033568321791,-252.05530770395657,1912.9352096644743,-334.96641527782793,-691.81203634736244,691.81203634736244,334.96641527782793,3486.5861085409056,0.0
392154.6038362722,4770833.5216966402,-17500.0,819.02008667760526,-168.26428307513729,-2818.2168337128851,49.931878325742119,952.92012820794901,-259.61878684128419,1984.358620752384,-631.16519992500434,-674.46177216859292,674.46177216859292,631.16519992500434,3645.0346495628578,0.0
397154.6038362722,4770833.5216966402,-17500.0,715.51991284531539,-447.12782277380103,-2906.6250824131607,125.62132982349536,973.8275677314025,-261.24405857173571,2025.147011684169,-916.14092224557714,-636.46985875081293,636.46985875081293,916.14092224557714,3745.417721984229,0.0
402154.6038362722,4770833.5216966402,-17500.0,574.17491940225898,-705.53026739853647,-2906.6322936622159,196.57672715303755,970.03264845020965,-257.34066761776671,2035.8707627771687,-1173.7254462675071,-581.9102052863168,581.9102052863168,1173.7254462675071,3787.5094315002061,0.0
407154.6038362722,4770833.5216966402,-17500.0,406.13991656421996,-929.26454966553308,-2829.5176419182935,258.96168926930983,944.58185769413217,-248.67227057816976,2018.7566616406248,-1391.8968348864419,-515.74181037544417,515.74181037544417,1391.8968348864419,3774.6518740751549,0.0
412154.6038362722,4770833.5216966402,-17500.0,223.82071088050026,-1109.4406205416578,-2690.698882913598,310.26641575289318,901.6263106762068,-236.21541093200062,1977.2416685455521,-1563.4914574095428,-443.05888159268682,443.05888159268682,1563.4914574095428,3712.8741744332269,0.0
417154.6038362722,4770833.5216966402,-17500.0,39.10664977414153,-1242.3884627432642,-2507.1563577703682,349.31070986470417,845.76282321108874,-221.02152154378055,1915.4844976956897,-1686.0511935475652,-368.49874056920646,368.49874056920646,1686.0511935475652,3609.8964918381002,0.0
422154.6038362722,4770833.5216966402,-17500.0,-137.89242268762538,-1328.8398490831219,-2295.3342483610945,376.06243634103669,781.48772044053328,-204.10386949564634,1837.9127664827931,-1761.0601025375984,-295.86820128055456,295.86820128055456,1761.0601025375984,3474.1870869865029,0.0
427154.6038362722,4770833.5216966402,-17500.0,-299.52561330047899,-1372.7472945055638,-2069.7160469689043,391.35665574413372,712.81608079500938,-186.35961170727549,1748.8556826776858,-1792.8742975367982,-227.98415456575185,227.98415456575185,1792.8742975367982,3314.1834414569139,0.0
312154.6038362722,4775833.5216966402,-17500.0,288.81301817061086,69.771963229410588,454.4419210227237,12.135218036385607,-59.557036995232963,-2.9054961952004779,248.74625031690917,316.20127165876636,-56.10535927740969,56.10535927740969,-316.20127165876636,431.89921930449611,0.0
317154.6038362722,4775833.5216966402,-17500.0,276.94245416951628,110.98084543358677,486.53479952058939,-1.4398807880438169,-60.490921210900666,-5.7213342893078085,276.87171576898692,354.91291217917029,-60.409725826276713,60.409725826276713,-354.91291217917029,480.63068304146532,0.0
322154.6038362722,4775833.5216966402,-17500.0,263.57280930843319,166.96819064836868,503.69881937247419,-19.131732964849661,-56.56457425778445,-9.8480325145920631,305.53350259002718,399.995559009879,-68.84260629705355,68.84260629705355,-399.995559009879,540.74648971082593,0.0
327154.6038362722,4775833.5216966402,-17500.0,251.66047773715846,238.30858708197181,498.31012880822993,-40.924782441778369,-45.901751819393532,-15.614555877025417,335.44599021844692,450.68609294514101,-82.898959990545109,82.898959990545109,-450.68609294514101,616.37136670427617,0.0
332154.6038362722,4775833.5216966402,-17500.0,245.04111647562192,323.86834701817156,461.81163730619443,-66.340588449245402,-26.488845908729356,-23.345610045149741,375.71477728227529,504.95299970183004,-104.06031599001204,104.06031599001204,-504.95299970183004,712.16538856263389,0.0
337154.6038362722,4775833.5216966402,-17500.0,248.07273583578379,420.20892472541095,385.4992969251029,-94.309764863035483,3.6175287878216222,-33.319199425874658,451.24150718719665,559.13897147472858,-133.55490833684519,133.55490833684519,-559.13897147472858,832.57857464039353,0.0
342154.6038362722,4775833.5216966402,-17500.0,264.99065236281422,521.17748844751088,261.7061658197016,-123.09724967994507,45.99952612953269,-45.712201939571223,550.08808304473837,607.75773536066106,-172.05564468206046,172.05564468206046,-607.75773536066106,980.92361752673139,0.0
347154.6038362722,4775833.5216966402,-17500.0,299.01179480044249,617.88299938716159,85.295737250355415,-150.32437052301333,101.52950373381697,-60.539866858218097,662.97005242788987,643.58498372576298,-219.36130910363696,219.36130910363696,-643.58498372576298,1158.5185192049096,0.0
352154.6038362722,4775833.5216966402,-17500.0,351.32905675024568,699.2363622955445,-144.76363496122121,-173.1244209215011,170.01975565319557,-77.600067597302427,786.98124926377909,658.16553438696417,-274.13451702169107,274.13451702169107,-658.16553438696417,1364.0859089501353,1.0
357154.6038362722,4775833.5216966402,-17500.0,420.23747778207155,753.13304989275412,-424.09741502871304,-188.44403965369116,249.951410954023,-96.436357380239116,919.15073731717837,642.78265963816148,-333.78422836482923,333.78422836482923,-642.78265963816148,1593.4855757766484,0.0
362154.6038362722,4775833.5216966402,-17500.0,500.6836159489668,768.18316701736751,-742.30471560801584,-193.46374491766002,338.37177179000139,-116.33468031827982,1055.6399477805164,589.80548168337089,-394.56928609378326,394.56928609378326,-589.80548168337089,1839.8022153454704,0.0
367154.6038362722,4775833.5216966402,-17500.0,584.48226537641267,735.68965228048319,-1083.3495264717833,-186.06626512863104,431.02892951253267,-136.36377001365727,1191.7754586484366,494.17890669860373,-451.95492181729895,451.95492181729895,-494.17890669860373,2093.7930963900208,0.0
372154.6038362722,4775833.5216966402,-17500.0,661.28563727100823,651.42218918231504,-1427.0733751569214,-165.24912506473774,522.76153152792835,-155.46005474886064,1322.3560233258572,354.70833168660408,-501.18476555612767,501.18476555612767,-354.70833168660408,2344.6688349632855,1.0
377154.6038362722,4775833.5216966402,-17500.0,720.16319989032536,516.71485785320033,-1751.6310860043172,-131.37510885035334,608.09327684528614,-172.54580332234926,1442.1077261202884,174.78171244585138,-537.96048906874807,537.96048906874807,-174.78171244585138,2581.1231341760849,1.0
382154.6038362722,4775833.5216966402,-17500.0,751.43855250033164,338.56106615715339,-2036.3648312858263,-86.187790913591499,681.91857106217003,-186.65866293539244,1546.1918521275743,-37.7124120588511,-559.07708951257075,559.07708951257075,37.7124120588511,2792.4609407983212,0.0
387154.6038362722,4775833.5216966402,-17500.0,748.32991256599826,128.65341104833516,-2264.4872640067038,-32.581195994183076,740.13515410894809,-197.06626199855828,1630.6704278825619,-271.29716159222829,-562.86730776516038,562.86730776516038,271.29716159222829,2969.6422807305539,0.0
392154.6038362722,4775833.5216966402,-17500.0,707.99768906904978,-98.389378408365218,-2425.0030997745071,25.821258455071394,780.09371250963102,-203.34286316198776,1692.8474406008843,-512.44578069546083,-549.36218463344267,549.36218463344267,512.44578069546083,3106.072294457535,0.0
397154.6038362722,4775833.5216966402,-17500.0,631.79142418794504,-327.16295623471575,-2513.533297733632,85.176584326043766,800.78781450811732,-205.39538877323801,1731.4356955246994,-747.38363544141953,-520.15523307476246,520.15523307476246,747.38363544141953,3198.0275654529205,0.0
402154.6038362722,4775833.5216966402,-17500.0,524.72679359064693,-543.49647930716537,-2532.0176426783496,141.90810787923959,802.77876985242563,-203.43940732627783,1746.5409023070008,-963.75887881971721,-478.03417220058532,478.03417220058532,963.75887881971721,3244.6933358590418,0.0
407154.6038362722,4775833.5216966402,-17500.0,394.41547234225868,-735.9698304734776,-2487.5377709944969,193.07803251532201,787.91098982178755,-197.9365909839324,1739.4900437300253,-1151.8754874777906,-426.48902251240304,426.48902251240304,1151.8754874777906,3247.8620431405639,0.0
412154.6038362722,4775833.5216966402,-17500.0,249.76167782632876,-896.74157477836911,-2390.6507074052629,236.60047801716738,758.90826828680576,-189.51129141245497,1712.555905643203,-1305.3396845656343,-369.21171514384787,369.21171514384787,1305.3396845656343,3211.3980616760614,0.0
417154.6038362722,4775833.5216966402,-17500.0,99.720853091466864,-1021.6972184095004,-2253.631816376705,271.29401105956191,718.9445988368102,-178.86424923205928,1668.6362916333305,-1421.1317217793785,-309.67656234292281,309.67656234292281,1421.1317217793785,3140.5907724693775,0.0
422154.6038362722,4775833.5216966402,-17500.0,-47.67445137259206,-1110.0667038597733,-2088.9348401311804,296.80558562682472,671.26316337630442,-166.69713583778403,1610.939693754736,-1499.2299319451758,-250.85002175008037,250.85002175008037,1499.2299319451758,3041.5064876668748,0.0
317154.6038362722,4780833.5216966402,-17500.0,232.48639517225379,126.26265157004828,420.86159077882445,-9.8931692511825311,-47.568876707512963,-6.5427672352071662,250.25133971782128,328.09229698948388,-57.857739318999251,57.857739318999251,-328.09229698948388,438.81215805495395,0.0
322154.6038362722,4780833.5216966402,-17500.0,222.2883409295878,178.6179096158275,424.38935992129262,-25.565012692852367,-41.770268327111573,-10.290479253342493,273.84177711871143,366.94675931379453,-66.991462424436179,66.991462424436179,-366.94675931379453,494.82339729132184,0.0
327154.6038362722,4780833.5216966402,-17500.0,214.59031171521661,242.51319165125798,406.98510922080089,-44.173759903683695,-30.193128467251345,-15.327825658091358,300.25658408625253,409.28399099978594,-80.881672376259445,80.881672376259445,-409.28399099978594,564.92472425082326,0.0
332154.6038362722,4780833.5216966402,-17500.0,212.41184310205028,316.34915054084672,362.21194603031535,-65.193228607589063,-11.408606712691125,-21.864718394387722,346.16614150367315,453.04687059460252,-100.50014152475978,100.50014152475978,-453.04687059460252,652.52703113643031,0.0
337154.6038362722,4780833.5216966402,-17500.0,218.96276827083801,396.76636908782507,283.87436066780288,-87.669233100277296,15.884356714682244,-30.065937492755005,418.48333616299959,494.96770356057772,-126.55196651640671,126.55196651640671,-494.96770356057772,760.57802857088166,0.0
342154.6038362722,4780833.5216966402,-17500.0,237.14151644783527,478.46380093101254,166.90548893847438,-110.19361247251044,52.653274039696647,-40.015285737444586,504.0788346949268,530.50636311618382,-159.2713124519689,159.2713124519689,-530.50636311618382,890.96039455732978,0.0
347154.6038362722,4780833.5216966402,-17500.0,268.90094646024488,554.30833301210555,8.4051670153847216,-130.94725198105064,99.302010621369902,-51.678291093041473,599.60087610388712,554.0069899060743,-198.22393592987083,198.22393592987083,-554.0069899060743,1043.9908815612489,0.0
352154.6038362722,4780833.5216966402,-17500.0,314.58924193867693,615.82778224480126,-191.33912276641064,-147.82971635493161,155.45492398810185,-64.870462303858432,703.18041661565053,559.13441152136636,-242.16452865665963,242.16452865665963,-559.13441152136636,1218.0988864459748,0.0
357154.6038362722,4780833.5216966402,-17500.0,372.42478592008149,654.10616607801319,-428.07868083998034,-158.67633842868133,219.80537260251884,-79.239274963541462,812.5236017629602,539.59593563240935,-289.00019937161323,289.00019937161323,-539.59593563240935,1409.7127202910958,0.0
362154.6038362722,4780833.5216966402,-17500.0,438.2796637298116,660.99308926521155,-693.3204228225128,-161.54055782909541,290.07945614348216,-94.267856114501427,924.68129025081782,490.07451171733948,-335.89969292045743,335.89969292045743,-490.07451171733948,1613.367508504592,0.0
367154.6038362722,4780833.5216966402,-17500.0,505.90433644159481,630.42292418884483,-974.71346971956177,-154.99479447426918,363.15045596308119,-109.30506836531946,1036.1310268537468,407.2132683567566,-379.55830517779651,379.55830517779651,-407.2132683567566,1822.0389157147047,0.0
372154.6038362722,4780833.5216966402,-17500.0,567.62541288829379,559.56243513551567,-1257.1444031850328,-138.38778398239717,435.30817443861366,-123.62125211976577,1143.0028339423036,290.43618287415029,-416.58766991355105,416.58766991355105,-290.43618287415029,2027.6844667450762,0.0
377154.6038362722,4780833.5216966402,-17500.0,615.41608163845137,449.50574196338317,-1524.4010615424447,-111.99732253172206,502.64932206217912,-136.48248584234906,1241.3905744940362,142.39288266608634,-443.96133351811255,443.96133351811255,-142.39288266608634,2221.93809032737,0.0
382154.6038362722,4780833.5216966402,-17500.0,642.11983143434065,305.32697816761726,-1761.1015043116981,-77.03771343781429,561.52041633590716,-147.23069270423497,1327.6933216445877,-31.110972279450777,-459.42457039999073,459.42457039999073,31.110972279450777,2396.8639239854451,0.0
387154.6038362722,4780833.5216966402,-17500.0,642.55369660826057,135.46047424549408,-1954.5064411384908,-35.516068868266885,608.92893759892377,-155.35486865250374,1398.9302319643436,-221.71140504248359,-461.78236878439742,461.78236878439742,221.71140504248359,2545.6588648152178,0.0
392154.6038362722,4780833.5216966402,-17500.0,614.24770322492452,-49.451509115496968,-2095.8637679670674,10.031611609489223,642.84571024656441,-160.540348859961,1452.9783287253833,-419.49264446116109,-451.01006997581902,451.01006997581902,419.49264446116109,2663.198978811994,0.0
397154.6038362722,4780833.5216966402,-17500.0,557.68263630217518,-237.98007868878801,-2181.0654710029062,56.866360431464678,662.35048569901903,-162.68863317844435,1488.7011361228861,-614.18737222229242,-428.17718671386228,428.17718671386228,614.18737222229242,2746.3593920743128,0.0
402154.6038362722,4780833.5216966402,-17500.0,476.02508882001825,-419.30094836602905,-2210.5756547012961,102.36786660199841,667.61194378695973,-161.90712761536111,1505.9591424248774,-796.329118636359,-395.21899082901774,395.21899082901774,796.329118636359,2794.0841826195638,0.0
407154.6038362722,4780833.5216966402,-17500.0,374.47764008421308,-584.30621199469294,-2188.7523728499582,144.29568639929158,659.72934036618835,-158.47453869370048,1505.5155071428194,-958.15656929867464,-354.61910804547966,354.61910804547966,958.15656929867464,2807.2300395684601,0.0
412154.6038362722,4780833.5216966402,-17500.0,259.4278521671207,-726.29350818412138,-2122.7876366612068,180.95669773874116,640.48578919931185,-152.79132705690881,1488.8657961569306,-1094.1561458789579,-309.07320760161906,309.07320760161906,1094.1561458789579,2788.2412505652478,0.0
327154.6038362722,4785833.5216966402,-17500.0,186.11133643926931,240.79270036752192,329.46737232022372,-44.911560939367057,-18.196646260341819,-14.57231507784687,272.89452743378462,371.0201950557925,-78.246158621154507,78.246158621154507,-371.0201950557925,520.17493800798047,0.0
332154.6038362722,4785833.5216966402,-17500.0,187.14752208078778,303.96297143446515,280.44132617851682,-62.213566243506563,-0.59110779133806735,-20.055416274640358,322.91901159899686,406.00830097842061,-96.050735820383466,96.050735820383466,-406.00830097842061,599.80049816153939,0.0
337154.6038362722,4785833.5216966402,-17500.0,195.84728832551028,370.79199267406045,203.33417356047423,-80.258174483033272,23.766569862315787,-26.775449388596357,387.78915786833051,438.12550831581325,-118.78525283310501,118.78525283310501,-438.12550831581325,696.24885380337537,0.0
342154.6038362722,4785833.5216966402,-17500.0,214.16291459576908,436.81594211510748,94.864189702515162,-97.919683274261558,55.450226131108934,-34.764165355823728,461.48802159817069,463.66731689674759,-146.43265121769778,146.43265121769778,-463.66731689674759,810.50211065366886,0.0
347154.6038362722,4785833.5216966402,-17500.0,243.22389509151279,496.35387728745684,-46.454850731638572,-113.81143177515129,94.595021667075756,-43.967642829361367,542.48965111201119,478.22492135390627,-178.47246060721994,178.47246060721994,-478.22492135390627,942.34004775063954,0.0
352154.6038362722,4785833.5216966402,-17500.0,282.90662661037493,542.92509121663386,-219.6533334350251,-126.3884223956409,140.76463982302454,-54.228317261049156,629.405605267596,477.0417313248663,-213.80706837756472,213.80706837756472,-477.0417313248663,1090.1674528880212,0.0
357154.6038362722,4785833.5216966402,-17500.0,331.52105458322097,569.91848752208796,-420.85002770540348,-134.10249672979924,192.86778174734528,-65.276709066747202,720.42768468313011,455.54589087801423,-250.76399811625845,250.76399811625845,-455.54589087801423,1250.9744912143713,0.0
362154.6038362722,4785833.5216966402,-17500.0,385.71896851666605,571.44168341572276,-643.14609507197667,-135.59309434170424,249.15315426350028,-76.737134078410534,813.26894760141681,409.99961750980776,-287.19419031108941,287.19419031108941,-409.99961750980776,1420.4397824864186,0.0
367154.6038362722,4785833.5216966402,-17500.0,440.69627603823085,543.21160288023793,-876.96621164320777,-129.88327442754317,307.30108961682748,-88.149522240383618,905.24634418071867,338.1577572580718,-320.66694485127914,320.66694485127914,-338.1577572580718,1593.1790389401908,0.0
372154.6038362722,4785833.5216966402,-17500.0,490.69717733981275,483.30909263502645,-1110.854465620152,-116.54312170651812,364.61076967494722,-99.006271087433063,993.44492295721864,239.80031951050773,-348.73798877393347,348.73798877393347,-239.80031951050773,1763.12514311327,0.0
377154.6038362722,4785833.5216966402,-17500.0,529.75044957473938,392.62731637910144,-1332.6277024184005,-95.784930226737274,418.26075413591923,-108.79976010985561,1074.9338224929302,117.01120515598198,-369.24640365861853,369.24640365861853,-117.01120515598198,1924.0051596786918,0.0
382154.6038362722,4785833.5216966402,-17500.0,552.49911012730217,274.90077476939348,-1530.692453904275,-68.466704582538199,465.6003821479627,-117.07283461843531,1146.9995967547659,-25.878440787262178,-380.5838763836756,380.5838763836756,25.878440787262178,2069.8532748050006,0.0
387154.6038362722,4785833.5216966402,-17500.0,554.9543198127493,136.29730372707417,-1695.2891495886115,-36.000738993419709,504.42178384308539,-123.46397052659536,1207.3625630605079,-182.68948923251935,-381.88468706144886,381.88468706144886,182.68948923251935,2195.4916883405049,0.0
392154.6038362722,4785833.5216966402,-17500.0,535.02154157157656,-15.343888342932146,-1819.443116122937,-0.18517317806679107,533.16593706936612,-127.73950060153587,1254.3445766945249,-346.06507354116638,-373.10263249168474,373.10263249168474,346.06507354116638,2296.9137402197935,0.0
397154.6038362722,4785833.5216966402,-17500.0,492.70688954078116,-171.46943439853331,-1899.4769355821097,37.007720762552076,551.03220536926506,-129.80829082103261,1286.9670646089405,-508.28178949070326,-354.96791403329092,354.96791403329092,508.28178949070326,2371.5230015023722,0.0
402154.6038362722,4785833.5216966402,-17500.0,429.99183219949089,-323.77809052684654,-1935.0437801228363,73.646597419608838,557.98302314080593,-129.71810007004689,1304.9717763751851,-662.05145757040441,-328.84313935584743,328.84313935584743,662.05145757040441,2418.2096921971415,0.0
342154.6038362722,4790833.5216966402,-17500.0,194.71930816974597,397.3749969536446,40.4710451305018,-86.638247958811974,55.726056053631901,-30.071121379522104,422.33910896461271,405.95801174513286,-134.00380637706104,134.00380637706104,-405.95801174513286,738.3800736554789,0.0
347154.6038362722,4790833.5216966402,-17500.0,220.96426478535034,444.17137392592502,-84.942285015566483,-98.86740909587958,88.590046048623037,-37.364355261131188,491.24070182906371,414.07315217949832,-160.3652223527609,160.3652223527609,-414.07315217949832,852.06900368420179,0.0
352154.6038362722,4790833.5216966402,-17500.0,255.32909441713662,479.44500491976231,-235.13868007996288,-108.2927981686029,126.68792758168172,-45.395292877915644,564.52790549794713,408.77415094494171,-188.8657005170233,188.8657005170233,-408.77415094494171,977.97351476327265,0.0
357154.6038362722,4790833.5216966402,-17500.0,296.28808636540089,498.25921564077493,-406.69007720676939,-113.7971129839123,169.12317580568376,-53.958819564083754,640.75956671358301,386.7172544535685,-218.17575831522817,218.17575831522817,-386.7172544535685,1113.5884784391567,0.0
362154.6038362722,4790833.5216966402,-17500.0,341.13336269038876,496.31162321037499,-594.00241918348752,-114.41802201072285,214.54376290624131,-62.78028015162915,718.14788527045494,345.25284961957925,-246.65693110452469,246.65693110452469,-345.25284961957925,1255.4872652065326,0.0
367154.6038362722,4790833.5216966402,-17500.0,386.14558502409744,470.54260759805982,-789.60092788607415,-109.47756080368698,261.21328648876482,-71.531119255837808,794.6288543448569,282.87115454505778,-272.50471928163921,272.50471928163921,-282.87115454505778,1399.5071375068153,0.0
372154.6038362722,4790833.5216966402,-17500.0,426.96044639659169,419.63939474373291,-984.71191327420922,-98.68778115313502,307.14224129451094,-79.853526598937037,867.98192294878424,199.55311824219828,-293.93491540892285,293.93491540892285,-199.55311824219828,1541.0199692349868,0.0
377154.6038362722,4790833.5216966402,-17500.0,459.08230090421932,344.33019014715734,-1170.0730901988325,-82.211160645701923,350.26441370291127,-87.39124560432208,935.98153659561444,96.947664326804954,-309.38438821330391,309.38438821330391,-96.947664326804954,1675.2646489043366,0.0
382154.6038362722,4790833.5216966402,-17500.0,478.45568939437754,247.40000082079857,-1336.8470436739374,-60.66219790852967,388.63191246060438,-93.822040255690609,996.55916551820496,-21.673376943787957,-317.6910610007846,317.6910610007846,21.673376943787957,1797.7020787557847,0.0
387154.6038362722,4790833.5216966402,-17500.0,481.98846864294649,133.41719046957448,-1477.4885460487283,-35.04822016980858,420.59822015826825,-98.886869363054956,1047.9543869258891,-151.68673486750569,-318.22141352029871,318.22141352029871,151.68673486750569,1904.3499200344127,0.0
392154.6038362722,4790833.5216966402,-17500.0,467.92941883275813,8.2212999148479593,-1586.42410863906,-6.6599725987918328,444.96032151076253,-102.4112407230952,1088.8344581844046,-287.5714216212881,-310.92440408707205,310.92440408707205,287.5714216212881,1992.0543255991129,0.0
352154.6038362722,4580833.5216966402,-22500.0,435.24791317275077,94.18231962625471,-1155.7360123455985,47.532811679653662,-308.82911058953869,-60.025773195355065,842.93359046012358,-122.23064596380618,84.33523045525817,-84.33523045525817,122.23064596380618,1519.232929183079,0.0
357154.6038362722,4580833.5216966402,-22500.0,438.05515465827307,194.14728027577394,-1041.7551515228438,70.705421576591945,-273.75351828401222,-52.058884421704064,802.49688561492439,-14.989262360760494,32.574636169153123,-32.574636169153123,14.989262360760494,1434.4597390319357,0.0
362154.6038362722,4580833.5216966402,-22500.0,426.25126836114816,281.33586495303859,-903.40552714994419,89.724624710183136,-232.99856037953521,-43.160137532702848,754.65928286564258,85.146303597382285,-16.234713710917369,16.234713710917369,-85.146303597382285,1337.4020768177659,0.0
367154.6038362722,4580833.5216966402,-22500.0,401.98105743856189,351.13541561532173,-746.30986200996381,103.56287500801545,-188.16879386598828,-33.675290410922074,700.77037616643508,174.01369558380111,-60.061709646322477,60.061709646322477,-174.01369558380111,1231.4198282334798,0.0
372154.6038362722,4580833.5216966402,-22500.0,368.45400919904603,400.22787735291246,-577.59742473682377,111.55579182075464,-141.19156070314736,-23.995006366524709,642.46719347467479,248.31110435964902,-97.243458991040626,97.243458991040626,-248.31110435964902,1120.4637019943414,0.0
377154.6038362722,4580833.5216966402,-22500.0,329.563273001249,426.97873951284731,-405.26517583561184,113.48133569206287,-94.151620725161322,-14.52210876602733,581.56300238446443,305.9214832668431,-126.64426997013024,126.64426997013024,-305.9214832668431,1008.8032650171493,0.0
382154.6038362722,4580833.5216966402,-22500.0,289.39655654206291,431.60277303400835,-237.40134420432167,109.5834836273378,-49.099873227417966,-5.6364310962298543,519.91621830353085,346.07944949114199,-147.74665625498878,147.74665625498878,-346.07944949114199,900.68785206822838,0.0
387154.6038362722,4580833.5216966402,-22500.0,251.72939772933466,416.07490189616976,-81.399180274019145,100.5356264920989,-7.8661339669919457,2.3374789585606872,459.30444063729266,369.35413555763148,-160.66021158790966,160.66021158790966,-369.35413555763148,799.97139955252578,0.0
392154.6038362722,4580833.5216966402,-22500.0,219.59278770213228,383.80565996442209,56.71287982345558,87.35013227346451,28.095582670166831,9.155209033918041,401.3364165188633,377.45857312002113,-166.05051279139661,166.05051279139661,-377.45857312002113,709.7297805940633,0.0
397154.6038362722,4580833.5216966402,-22500.0,194.98796931916951,339.1485475982692,172.7236553781832,71.25094104152376,57.807418696545554,14.66672557086075,347.4999585944318,372.93044029071643,-165.00573067213611,165.00573067213611,-372.93044029071643,631.91543470798831,0.0
402154.6038362722,4580833.5216966402,-22500.0,178.78475525379361,286.83629937623789,264.42281561786649,53.53218151948343,80.80307394268371,18.818841555472961,300.08186139060984,358.75117528546855,-158.86919759725504,158.86919759725504,-358.75117528546855,567.12593228645369,0.0
342154.6038362722,4585833.5216966402,-22500.0,428.53292044944851,-170.5485240600909,-1474.582105120531,-15.454763925811868,-419.34395698015561,-85.455573915163939,1025.0408931801501,-410.0263226734437,230.07138583000619,-230.07138583000619,410.0263226734437,1877.0659965548882,0.0
347154.6038362722,4585833.5216966402,-22500.0,472.3397481703098,-40.936609938109974,-1416.8607637029031,18.472157758168656,-395.78943525862866,-78.735721018783863,1000.2700111824848,-283.76320172537407,169.48912331413672,-169.48912331413672,283.76320172537407,1818.6999751071148,0.0
352154.6038362722,4585833.5216966402,-22500.0,497.6363238656931,87.956446114778899,-1322.142030628147,50.840088750806196,-362.54368226203894,-70.167507110224108,964.32515351652432,-153.71050365640428,106.52267590130269,-106.52267590130269,153.71050365640428,1739.5385153835857,0.0
357154.6038362722,4585833.5216966402,-22500.0,503.50580285945864,208.92923028667042,-1191.9420903596083,79.794370603709794,-320.36747659398105,-59.997995908252172,917.83459150406225,-25.758064230753071,43.96985421270184,-43.96985421270184,25.758064230753071,1641.5390388678572,0.0
362154.6038362722,4585833.5216966402,-22500.0,490.79087396655092,314.8662545417688,-1030.5941761363729,103.59616306420249,-270.72343203053339,-48.601031532184756,861.98912065552975,94.075988965053298,-15.263403126153165,15.263403126153165,-94.075988965053298,1527.8827235509473,0.0
367154.6038362722,4585833.5216966402,-22500.0,462.11022646633575,399.56637497132135,-845.10952936346462,120.823682212142,-215.70703048847218,-36.454110571856724,798.49480970206082,200.2783177969788,-68.456856592058941,68.456856592058941,-200.2783177969788,1402.8543248851884,0.0
372154.6038362722,4585833.5216966402,-22500.0,421.58927040960526,458.5241714240064,-644.63852435599676,130.55058184647811,-157.88446768184482,-24.099838968601613,729.46507435456783,288.45297338299611,-113.36722504056078,113.36722504056078,-288.45297338299611,1271.5818897392337,0.0
377154.6038362722,4585833.5216966402,-22500.0,374.33155953491166,489.51072659122951,-439.5840899999568,132.46711198965588,-100.05491307977508,-12.096830263611054,657.26440723829478,355.79921602468823,-148.46466323562663,148.46466323562663,-355.79921602468823,1139.6505120575048,0.0
382154.6038362722,4585833.5216966402,-22500.0,325.72199603797492,492.82988018878672,-240.50123955640538,126.91836339569718,-44.97150727382521,-0.96697490644248685,584.32632451452605,401.3609421751338,-173.0703538819098,173.0703538819098,-401.3609421751338,1012.6161883081826,0.0
387154.6038362722,4585833.5216966402,-22500.0,280.69759845593467,471.1916739848391,-56.972354588917369,114.84978022009111,4.9330739322674084,8.8526398161194919,512.97961192028311,426.0007690261213,-187.37044590850331,187.37044590850331,-426.0007690261213,895.45296186387566,0.0
392154.6038362722,4585833.5216966402,-22500.0,243.13224628085959,429.23418535085551,103.34064696017185,97.670703731668397,47.770347322012803,17.045672360177555,445.35233105544671,432.1157273335578,-192.30964494275366,192.30964494275366,-432.1157273335578,791.98642751506418,0.0
397154.6038362722,4585833.5216966402,-22500.0,215.44845943527787,372.80168080652845,235.3115832223682,77.063498601681715,82.334599840537649,23.435411563015478,383.61165544569388,423.16689301427039,-189.39296671312377,189.39296671312377,-423.16689301427039,704.39628069561581,0.0
402154.6038362722,4585833.5216966402,-22500.0,198.50704161542166,308.13198437140591,336.56016649758931,54.775169274317427,108.14127690219719,27.985190089561286,332.75843940665919,403.12854622641555,-180.44049485986829,180.44049485986829,-403.12854622641555,632.92808896158317,0.0
407154.6038362722,4585833.5216966402,-22500.0,191.75714243633587,241.10807076211401,407.27440750718142,32.428238914265918,125.37112592849493,30.782350271541315,307.08311144178447,375.96501242934636,-167.34354711381712,167.34354711381712,-375.96501242934636,575.98720233672168,0.0
412154.6038362722,4585833.5216966402,-22500.0,193.57428180627144,176.69054550199405,449.73902652268288,11.378403915288844,134.74343302666577,32.010580359976842,293.51495129672895,345.21820436129502,-151.86165048890649,151.86165048890649,-345.21820436129502,530.68310644382666,0.0
417154.6038362722,4585833.5216966402,-22500.0,201.68814319926202,118.58818588140875,467.7016326051878,-7.3676146740235824,137.35033294395802,31.916587626687271,280.12430216446523,313.74839486218912,-135.48311438875047,135.48311438875047,-313.74839486218912,493.65447646761459,0.0
332154.6038362722,4590833.5216966402,-22500.0,309.81344356168694,-508.15782700831437,-1668.4226550490498,-108.49760019107251,-510.24201704613159,-110.54229960446708,1186.5839221342171,-752.20376050005973,404.6293658842543,-404.6293658842543,752.20376050005973,2202.1769171296801,0.0
337154.6038362722,4590833.5216966402,-22500.0,401.18851636769074,-379.41986369315669,-1694.5247258867662,-70.212940532783051,-507.80111553294751,-107.2240463092871,1187.7308272211819,-634.45573120320478,348.76166095536502,-348.76166095536502,634.45573120320478,2192.0912791845353,0.0
342154.6038362722,4590833.5216966402,-22500.0,478.31369495451042,-234.68160747265782,-1681.542993828095,-29.096869387770997,-493.75177064187005,-101.34004768444608,1175.6381362089255,-498.91108156150011,283.7108628517056,-283.7108628517056,498.91108156150011,2155.9566441225093,0.0
347154.6038362722,4590833.5216966402,-22500.0,536.26632940064746,-80.403935566704021,-1624.5530749261918,12.868884952688374,-467.2132747642666,-92.849870851792488,1149.5822426678887,-350.4827577373361,211.74490204628921,-211.74490204628921,350.4827577373361,2092.9111624636839,0.0
352154.6038362722,4590833.5216966402,-22500.0,571.39980246564608,75.153449973888527,-1521.258637988077,53.336786593160269,-428.08331509175986,-81.889324603707294,1109.4805091787352,-195.66403841729192,135.92143647984386,-135.92143647984386,195.66403841729192,2003.531772059519,0.0
357154.6038362722,4590833.5216966402,-22500.0,582.00556803100892,222.60983506426265,-1372.7828242645294,89.798267741746301,-377.19770293330447,-68.786564668527561,1055.993881554532,-42.040772365198642,59.871888140041484,-59.871888140041484,42.040772365198642,1890.0418185329729,0.0
362154.6038362722,4590833.5216966402,-22500.0,568.76502166153739,352.46414765458252,-1184.1053156417947,119.85442137245924,-316.38829686397327,-54.05532333148367,990.56162355606364,102.45169828175133,-12.537678273793261,12.537678273793261,-102.45169828175133,1756.3681645994614,0.0
367154.6038362722,4590833.5216966402,-22500.0,534.85029116200838,456.28279094447851,-963.97593919008807,141.51426850210962,-248.40574709723182,-38.362030454018196,915.35042843393808,230.42912302097892,-77.626625414727002,77.626625414727002,-230.42912302097892,1608.0061683099668,0.0
372154.6038362722,4590833.5216966402,-22500.0,485.59488092381582,527.85892411874875,-724.22484030794578,153.46687766117302,-176.69747790892868,-22.468566580746028,833.11288717310026,335.95848066334253,-132.33028678210997,132.33028678210997,-335.95848066334253,1451.6729732189149,0.0
377154.6038362722,4590833.5216966402,-22500.0,427.75741858657682,564.09664169614598,-478.52524243150515,155.27064230127613,-105.06305819432656,-7.1577697582970545,746.96931206836098,415.27549445839753,-174.55784003752711,174.55784003752711,-415.27549445839753,1294.7587063606481,0.0
382154.6038362722,4590833.5216966402,-22500.0,368.51370898346886,565.41379218371935,-240.80914239501286,147.41592506080849,-37.241083661812183,6.8466810265924938,660.14964820159275,467.16461933403531,-203.40389616141493,203.40389616141493,-467.16461933403531,1144.6129129951055,0.0
387154.6038362722,4590833.5216966402,-22500.0,314.39135047089303,535.56275920585961,-23.63403321244305,131.24356122533337,23.499170002948269,18.95264575366302,575.75641840400021,492.92169678078699,-219.17173513992614,219.17173513992614,-492.92169678078699,1007.7167577988859,0.0
392154.6038362722,4590833.5216966402,-22500.0,270.38148553542032,480.91661016213408,163.1782350197868,108.73638783972392,74.685990835100625,28.751867378715662,496.69604680808766,495.92499864030913,-223.21234125727707,223.21234125727707,-495.92499864030913,888.83130255200399,0.0
397154.6038362722,4590833.5216966402,-22500.0,239.40518510581424,409.39501276154033,313.38742332139134,82.229005017529602,114.8383980746255,36.044683267581654,426.46899799503836,480.93204342067173,-217.62533119617279,217.62533119617279,-480.93204342067173,790.2753701131918,0.0
402154.6038362722,4590833.5216966402,-22500.0,222.20816159562591,329.27865758848793,424.55873578553815,54.097040493466736,143.50209121584101,40.835271108653394,375.45572374169973,453.27368478132706,-204.89533934280217,204.89533934280217,-453.27368478132706,711.59968504866129,0.0
407154.6038362722,4590833.5216966402,-22500.0,217.64203311399376,248.15468402195606,497.71202947269194,26.48453506511623,161.14236159720798,43.301867045045391,352.75480338782296,418.1149914474824,-187.5406638697811,187.5406638697811,-418.1149914474824,649.92942812566037,0.0
412154.6038362722,4590833.5216966402,-22500.0,223.20494135886173,172.16510635597371,536.56048269283167,1.1109561293245447,168.93533649371594,43.75042262045951,336.87714719241956,379.90506810647776,-167.83372623533501,167.83372623533501,-379.90506810647776,600.97612714934542,0.0
417154.6038362722,4590833.5216966402,-22500.0,235.68098369902424,105.62712550705521,546.55547925192843,-20.825470280716146,168.51156773986031,42.561871892285339,320.3075942487219,342.06812694013252,-147.62396839979633,147.62396839979633,-342.06812694013252,560.29863889462229,0.0
422154.6038362722,4590833.5216966402,-22500.0,251.73513827420291,50.999908389187169,533.94052592963692,-38.654283217433459,161.70277538046696,40.142216321814566,302.28666671497848,306.92385027621572,-128.26513182320704,128.26513182320704,-306.92385027621572,524.26415431949738,0.0
427154.6038362722,4590833.5216966402,-22500.0,268.36897503193143,9.1084716210766405,504.95962648648788,-52.171364823579545,150.32876456903028,36.881827368366849,283.07838601622768,275.78135966815785,-110.62755883964498,110.62755883964498,-275.78135966815785,490.44856001136145,0.0
322154.6038362722,4595833.5216966402,-22500.0,68.240998295791371,-844.79685231946667,-1678.4774423679912,-217.0418654742777,-559.67148260143199,-130.54138830776051,1302.4495972821946,-1082.4419255089522,575.68200815528053,-575.68200815528053,1082.4419255089522,2442.4139846273602,0.0
327154.6038362722,4595833.5216966402,-22500.0,193.46114092283051,-754.85980910536875,-1790.5380471703597,-184.58838124813084,-583.02602431530556,-132.3753955718509,1336.0763386872527,-1005.7027530555923,540.68034626489191,-540.68034626489191,1005.7027530555923,2495.4717878154188,0.0
332154.6038362722,4595833.5216966402,-22500.0,317.29135686396154,-635.79060462610857,-1875.4096330565944,-144.92044655663017,-596.50092287667326,-131.5286814873036,1357.4986811077717,-900.75568022344919,491.4635287976451,-491.4635287976451,900.75568022344919,2523.5657025122996,0.0
337154.6038362722,4595833.5216966402,-22500.0,432.79674604164944,-489.41748727685325,-1923.210585380845,-99.07560306155662,-597.58836939298271,-127.57743341711543,1364.5327533746358,-768.50386360385278,428.3183838020002,-428.3183838020002,768.50386360385278,2522.6803256061603,0.0
342154.6038362722,4595833.5216966402,-22500.0,532.60375880495997,-320.38543249211415,-1924.6075778331865,-48.836083118812262,-584.13050040858411,-120.23199335057473,1355.3667181352496,-612.15746697446696,352.65115885723446,-352.65115885723446,612.15746697446696,2489.7082862579764,0.0
347154.6038362722,4595833.5216966402,-22500.0,609.7655110207063,-136.33775398970391,-1872.0981598412257,3.2886629312607862,-554.6573296721283,-109.40055095393178,1328.7970636786517,-437.42317253494099,267.095072003555,-267.095072003555,437.42317253494099,2422.9539076066276,0.0
352154.6038362722,4595833.5216966402,-22500.0,658.7968454888437,52.36017274818181,-1761.4101632150978,54.201564725548067,-508.72341749193879,-95.241802443958122,1284.4510830378426,-252.34352010404891,175.45445994417176,-175.45445994417176,252.34352010404891,2322.6027136460893,0.0
357154.6038362722,4595833.5216966402,-22500.0,676.69860511325942,233.44929727102223,-1592.7684289535471,100.49042701448144,-447.17858923242972,-78.194277316979949,1222.9612877861136,-66.712295325821032,82.448682448626045,-82.448682448626045,66.712295325821032,2191.0810447562417,0.0
362154.6038362722,4595833.5216966402,-22500.0,663.72716835485107,394.13791512999069,-1371.7056663948149,138.81457906872063,-372.29686387193021,-58.970660334869898,1146.0464222084199,108.92623564160178,-6.7447389412951395,6.7447389412951395,-108.92623564160178,2033.207687698012,0.0
367154.6038362722,4595833.5216966402,-22500.0,623.66683911434302,522.8161959228463,-1109.1219388052327,166.35067131935634,-287.70268657085609,-38.511045034498693,1056.4670445133656,264.56612306541194,-87.093136942075148,87.093136942075148,-264.56612306541194,1856.0626502851105,0.0
372154.6038362722,4595833.5216966402,-22500.0,563.44774591616397,610.79912829525631,-820.42098710407345,181.21347139927443,-198.06838411859383,-17.896887583973012,957.84157677964004,392.08014070692496,-154.35279823339982,154.35279823339982,-392.08014070692496,1668.5276557824902,0.0
377154.6038362722,4595833.5216966402,-22500.0,492.11562563593714,653.69712362522046,-523.77232240474336,182.75694639785013,-108.61071099466335,1.7631190035616235,854.3403857837767,486.31708149868859,-205.61935309567647,205.61935309567647,-486.31708149868859,1480.499798804967,0.0
382154.6038362722,4595833.5216966402,-22500.0,419.35324699528672,652.06463148554724,-237.79704985230742,171.67986121362446,-24.470258320289968,19.456242175022268,750.31718908336507,545.69515869758277,-239.66042606986892,239.66042606986892,-545.69515869758277,1301.8275029564854,0.0
387154.6038362722,4595833.5216966402,-22500.0,353.89744349996346,611.14803564425779,20.844855625246044,149.90351200681127,49.906508037198904,34.375945706219987,649.99214042795415,572.15172223298794,-256.95678068007066,256.95678068007066,-572.15172223298794,1141.0484143564759,0.0
392154.6038362722,4595833.5216966402,-22500.0,302.23434282907743,539.80245938329278,239.44441137643986,120.24842874152772,111.25708928303973,45.998691460235847,557.50928262096011,570.4865795854887,-259.4554853916481,259.4554853916481,-570.4865795854887,1004.0835745093358,0.0
397154.6038362722,4595833.5216966402,-22500.0,267.85988208426056,448.86857216866406,410.41739254341815,85.986682952410789,157.77466953267592,54.115343783227111,479.0892903155534,547.29485431717762,-250.11219011934313,250.11219011934313,-547.29485431717762,893.19030106265063,0.0
402154.6038362722,4595833.5216966402,-22500.0,251.21114959769758,349.41977137478318,531.50885167697504,50.372491908575952,189.12945454232283,58.815372598363162,430.88936542313371,509.77294685645336,-232.34475379384921,232.34475379384921,-509.77294685645336,806.66943441118281,0.0
407154.6038362722,4595833.5216966402,-22500.0,250.17716817567415,251.26585096068646,605.1349071116166,16.24640367165626,206.26981253699395,60.432515619155211,408.09017213339871,464.66690690492896,-209.52212102410542,209.52212102410542,-464.66690690492896,739.72054832678452,0.0
412154.6038362722,4595833.5216966402,-22500.0,260.96419055909269,161.96620503558597,637.15440842076396,-14.224319623710793,211.07841047275784,59.467307792729777,388.72502597064528,417.54343556729179,-184.57939519194258,184.57939519194258,-417.54343556729179,686.2140078983947,0.0
417154.6038362722,4595833.5216966402,-22500.0,279.05135834686297,86.42648319084266,635.42760364849869,-39.650370079909251,205.97425909181453,56.503659467770589,367.97987083880929,372.44152642306483,-159.79838968108675,159.79838968108675,-372.44152642306483,640.50251566767406,0.0
422154.6038362722,4595833.5216966402,-22500.0,300.02044525122034,27.000391100182217,608.47276412141309,-59.389609394591176,193.54123816531504,52.134275599379798,345.48215683505748,331.85973920208232,-136.74576665984776,136.74576665984776,-331.85973920208232,598.49354470079697,0.0
427154.6038362722,4595833.5216966402,-22500.0,320.13542670579938,-16.069543529370581,564.41853067659451,-73.423152107252093,176.23557223511438,46.903926179207161,321.71162087395237,296.9735845738569,-116.32966441249283,116.32966441249283,-296.9735845738569,557.85305060005635,0.0
432154.6038362722,4595833.5216966402,-22500.0,336.64307115839296,-44.054870195491475,510.32732310848627,-82.186268197457736,156.19383581607471,41.274005465826995,297.39732364082363,267.96595733220295,-98.925234239806201,98.925234239806201,-267.96595733220295,517.6734930560857,0.0
317154.6038362722,4600833.5216966402,-22500.0,-131.84383178585986,-1072.2223811283388,-1675.0574676637402,-301.81680639210606,-602.76931610851329,-149.0134573839309,1420.907191968354,-1314.1428972546528,703.68589205973569,-703.68589205973569,1314.1428972546528,2677.230271123924,0.0
322154.6038362722,4600833.5216966402,-22500.0,10.03839976675747,-1016.4061605728168,-1839.8675322794707,-275.55672396611294,-644.01093246900075,-154.50474523479707,1479.0049435913404,-1271.3819033839468,686.2806982342039,-686.2806982342039,1271.3819033839468,2777.7916195261323,0.0
327154.6038362722,4600833.5216966402,-22500.0,161.03769652485133,-925.30787295622406,-1988.251166194995,-239.39200255342004,-677.25122057860835,-157.26015932505075,1526.1565708710366,-1195.5162937389503,652.18507102385979,-652.18507102385979,1195.5162937389503,2855.3737624160494,0.0
332154.6038362722,4600833.5216966402,-22500.0,314.10442987555621,-796.90721496103095,-2108.2684300759688,-193.44945450974399,-699.03594877222451,-156.57481870778611,1559.2182018379672,-1084.1716992580218,600.04553557519091,-600.04553557519091,1084.1716992580218,2903.9066385328051,0.0
337154.6038362722,4600833.5216966402,-22500.0,460.44254657503205,-632.05841120699904,-2186.7854746252083,-138.74577103610156,-705.84084139008758,-151.82413941772651,1575.1364803153658,-937.27668258053143,529.61972490151504,-529.61972490151504,937.27668258053143,2917.662714570246,0.0
342154.6038362722,4600833.5216966402,-22500.0,590.19880302881245,-435.33824455309929,-2210.720033265005,-77.342794596625339,-694.46280684972362,-142.55734409347045,1571.2399268086592,-757.77331574388711,442.13546389718556,-442.13546389718556,757.77331574388711,2891.8898767412766,0.0
347154.6038362722,4600833.5216966402,-22500.0,693.59541154031729,-215.54456439585493,-2168.7862964566107,-12.382102462299573,-662.50863474670621,-128.59585796692667,1545.5792367065828,-552.06807510944554,340.53112697913258,-340.53112697913258,552.06807510944554,2823.5427526539816,0.0
352154.6038362722,4600833.5216966402,-22500.0,762.40824016683473,14.42648392920761,-2053.5527623570547,52.058178242766679,-608.91650525188447,-110.11902261447473,1497.2715807872146,-330.0127531620542,229.47654884520921,-229.47654884520921,330.0127531620542,2712.0158387419042,0.0
357154.6038362722,4600833.5216966402,-22500.0,791.54634612670691,238.53437050304277,-1863.457470568499,111.31689429707011,-534.41074068895716,-87.716068713507809,1426.7939180670091,-104.25230042802271,115.09464540904274,-115.09464540904274,104.25230042802271,2559.7572938527173,0.0
362154.6038362722,4600833.5216966402,-22500.0,780.35379234005052,439.42283227422212,-1604.271220933854,160.69981735685229,-441.76502824235047,-62.384794289971673,1336.1518590242349,111.10298703951318,4.3574790264817764,-4.3574790264817764,-111.10298703951318,2372.6038137453243,0.0
367154.6038362722,4600833.5216966402,-22500.0,733.21786023066022,600.90609691307498,-1289.4897463450511,196.15040024978759,-335.76175765308517,-35.464923185832085,1228.8643616400959,302.32895438970127,-95.780564532534626,95.780564532534626,-302.32895438970127,2159.6981257442167,0.0
372154.6038362722,4600833.5216966402,-22500.0,659.1747344513808,710.62397799473445,-939.30161080773973,214.90908489599514,-222.78683277654955,-8.5078326149616199,1109.7311943670356,458.10983493712251,-179.35673021439047,179.35673021439047,-458.10983493712251,1932.8918294388129,0.0
377154.6038362722,4600833.5216966402,-22500.0,570.46629424785067,762.20952897738823,-578.13596496363778,216.00226583520021,-110.08928701884581,16.899962449670589,984.40418614570353,571.25087112306903,-242.26188927641184,242.26188927641184,-571.25087112306903,1705.6128758654445,0.0
382154.6038362722,4600833.5216966402,-22500.0,480.33868486329044,756.36036918348373,-231.228673181304,200.42550988775034,-4.8344930108356481,39.328568876204827,858.85661261257917,639.63032127960821,-282.77629558888611,282.77629558888611,-639.63032127960821,1491.2524670749322,0.0
387154.6038362722,4600833.5216966402,-22500.0,400.64557919124803,700.48814726771968,79.01094611877339,170.96023562297273,86.847823521508488,57.674095063442799,738.97318339523895,666.13894168276329,-301.64610593490085,301.64610593490085,-666.13894168276329,1301.2023447167894,0.0
392154.6038362722,4600833.5216966402,-22500.0,339.89459196055066,607.04630880119726,335.96559228674215,131.66485157093499,160.60939366522291,71.272367363397322,630.96595334671485,657.65844495159206,-301.70007565288893,301.70007565288893,-657.65844495159206,1142.815214485149,0.0
397154.6038362722,4600833.5216966402,-22500.0,302.21493963383489,491.03609923923182,530.45613772894717,87.173609799017086,214.26991406132902,79.937262423658453,545.97053417114796,623.41676228496169,-287.13855406634229,287.13855406634229,-623.41676228496169,1017.897926547675,0.0
402154.6038362722,4600833.5216966402,-22500.0,287.39212542613552,367.37613150022645,660.84971124687161,41.977217785428408,247.79763179410941,83.922488553368723,500.64230979894711,573.19265850715351,-262.69981194029009,262.69981194029009,-573.19265850715351,922.63246545200855,0.0
407154.6038362722,4600833.5216966402,-22500.0,291.78121029052994,248.76670428211716,731.856985729759,-0.15572205118168428,262.94674548892289,83.823801532340056,475.10417805529255,515.81041080464649,-232.90972105889728,232.90972105889728,-515.81041080464649,849.41606708334245,0.0
412154.6038362722,4600833.5216966402,-22500.0,309.69454058301432,144.41630509217268,752.54638379489768,-36.522681824440689,262.68904415339131,80.449583572856938,450.87614922696446,458.18674681076914,-201.55308858982332,201.55308858982332,-458.18674681076914,789.79686328623166,0.0
417154.6038362722,4600833.5216966402,-22500.0,334.82792402818569,59.685256269575731,734.16792173108695,-65.581077941999752,250.59490547865036,74.689070405308527,424.60834741195021,404.97890219742715,-171.41325533375289,171.41325533375289,-404.97890219742715,736.89317332523376,0.0
422154.6038362722,4600833.5216966402,-22500.0,361.40230321123505,-3.5412889460911003,688.25910286725366,-86.839569775010503,230.29059006392362,67.401631735218714,396.27311913183951,358.71871005751314,-144.24880775754366,144.24880775754366,-358.71871005751314,686.38917774058098,0.0
427154.6038362722,4600833.5216966402,-22500.0,384.87064296112356,-46.052636931695822,625.28999659572787,-100.62620986128495,205.06397485675029,59.339647505603203,366.63584908789403,320.23952558601934,-120.93181196188424,120.93181196188424,-320.23952558601934,636.34030668359196,0.0
432154.6038362722,4600833.5216966402,-22500.0,402.19450502116985,-70.376445410963385,553.89963743924125,-107.81324067404221,177.63677619482203,51.10716793938883,336.7052597476706,289.20788863380233,-101.66450080685476,101.66450080685476,-289.20788863380233,586.45767621721188,0.0
437154.6038362722,4600833.5216966402,-22500.0,411.79064006392957,-79.920132740126661,480.63608384570023,-109.5592313365493,150.08225682445888,43.149232445546446,307.50906385572682,264.62311658222654,-86.20717017938594,86.20717017938594,-264.62311658222654,537.36474916906241,0.0
312154.6038362722,4605833.5216966402,-22500.0,-385.59519867339685,-1274.4783409225108,-1590.7627034194359,-391.43706254849218,-625.96869440760963,-165.48384934177324,1520.8043842298134,-1522.3006855003619,822.86874394282415,-822.86874394282415,1522.3006855003619,2876.4932177266346,0.0
317154.6038362722,4605833.5216966402,-22500.0,-241.50318665385964,-1266.6122921425149,-1799.4378765236402,-376.61426238298753,-685.43661157226416,-175.34284879844145,1606.0035187161989,-1525.7908385366682,829.79138697715814,-829.79138697715814,1525.7908385366682,3030.2666916964017,0.0
322154.6038362722,4605833.5216966402,-22500.0,-76.31487531856304,-1222.2473029584512,-2006.888398998467,-350.10654023200749,-740.48402377488105,-182.75403957409935,1683.2479057465557,-1495.577093192908,819.70899754578454,-819.70899754578454,1495.577093192908,3166.5902386213029,0.0
327154.6038362722,4605833.5216966402,-22500.0,104.74034572017112,-1134.9893506307276,-2201.3551182707874,-310.77328506132437,-787.15179921294464,-186.74043348438306,1748.6801087040958,-1425.6166607167409,789.41348075117844,-789.41348075117844,1425.6166607167409,3277.807388818419,0.0
332154.6038362722,4605833.5216966402,-22500.0,293.5224231135968,-1000.4274370656779,-2368.0011199086048,-258.28028225902284,-820.84688236284023,-186.30010830653376,1798.1117688167985,-1311.4031768366215,736.42306256261395,-736.42306256261395,1311.4031768366215,3355.7321650930185,0.0
337154.6038362722,4605833.5216966402,-22500.0,479.09393073452861,-817.54386694365883,-2489.5940918997949,-193.44699289879367,-836.65777418193647,-180.51499787638375,1827.29684043467,-1151.1116332954186,659.55275364305021,-659.55275364305021,1151.1116332954186,3392.2569510665603,0.0
342154.6038362722,4605833.5216966402,-22500.0,648.42868842638927,-590.12865594207892,-2547.9671469248583,-118.53920621262888,-829.86688056318633,-168.68923502236999,1832.3176260898886,-946.75986229008174,559.4992089156973,-559.4992089156973,946.75986229008174,3380.198655383605,0.0
347154.6038362722,4605833.5216966402,-22500.0,787.83167068985324,-327.84260163454229,-2526.3287606714871,-37.412464060027915,-796.64631927987728,-150.50133492808345,1810.0703469922926,-705.11678321451018,439.31210951912158,-439.31210951912158,705.11678321451018,3314.3505459412449,0.0
352154.6038362722,4605833.5216966402,-22500.0,885.01155834600445,-46.475113214291582,-2412.2471934628652,44.596794248911067,-734.8577185661245,-126.14277667658149,1758.7936944018347,-438.00924682949119,304.5855089652423,-304.5855089652423,438.00924682949119,3192.6172516068636,0.0
357154.6038362722,4605833.5216966402,-22500.0,931.49955553928214,233.02503405935752,-2200.8350817862533,121.10852374366519,-644.8106481673002,-96.408871051265905,1678.558924747864,-161.70310058174269,163.21235405181423,-163.21235405181423,161.70310058174269,3017.0530297082601,0.0
362154.6038362722,4605833.5216966402,-22500.0,924.84098991969449,486.94808803501672,-1897.3430896436921,185.47238749996842,-529.77538325991281,-62.707881291053553,1571.6023236619951,104.80842021667236,24.614517138229999,-24.614517138229999,-104.80842021667236,2794.5433009476087,0.0
367154.6038362722,4605833.5216966402,-22500.0,869.84845081877143,692.43207209911975,-1518.2564501622703,231.78050324513643,-396.04500887486302,-26.966496998908429,1442.3902970994825,342.46362742198642,-101.49791309976749,101.49791309976749,-342.46362742198642,2536.8764203631717,0.0
372154.6038362722,4605833.5216966402,-22500.0,778.31464043940332,831.56094005931106,-1090.1805458024314,255.91420100746979,-252.41240155082897,8.5684369147842858,1297.3433680234189,535.22303602146712,-206.61390322066779,206.61390322066779,-535.22303602146712,2260.0020996084527,0.0
377154.6038362722,4605833.5216966402,-22500.0,666.99849195406932,894.86488149157253,-646.37477417379705,256.35485400759165,-109.0770025843762,41.604971139890985,1144.236171893162,672.80058353710513,-284.79712878862381,284.79712878862381,-672.80058353710513,1982.3943957718723,0.0
382154.6038362722,4605833.5216966402,-22500.0,554.29744873166692,883.14061395398505,-221.57415900432213,234.51304621198881,23.820924882588859,70.106658756528532,991.42897370172909,752.23751369764364,-333.57253447616102,333.57253447616102,-752.23751369764364,1722.5710534202458,0.0
387154.6038362722,4605833.5216966402,-22500.0,456.5407867374912,806.97529361871329,153.60329228786708,194.45545586419018,137.69865178204427,92.555975210733138,847.35680428941214,777.84737638516913,-354.07565902045059,354.07565902045059,-777.84737638516913,1495.9747071160009,0.0
392154.6038362722,4605833.5216966402,-22500.0,385.0039304567938,684.12024378819251,457.17246598848402,142.0930263761752,226.69224639041482,108.1242568578883,721.72184037452428,759.60281538017432,-350.45155721577532,350.45155721577532,-759.60281538017432,1311.736857670935,0.0
397154.6038362722,4605833.5216966402,-22500.0,344.45253130526311,535.57911365742711,678.11698952518066,84.062404634087059,288.21483271350553,116.71533290201322,632.15586458079338,710.54822084755278,-328.7292802286795,328.7292802286795,-710.54822084755278,1170.522022476526,0.0
402154.6038362722,4605833.5216966402,-22500.0,333.42220896192788,381.60242107150623,816.23088783252979,26.607249039720951,322.84278119094614,118.88411431613517,586.96186976061995,644.06120214277553,-295.53043111182649,295.53043111182649,-644.06120214277553,1065.0723510630537,0.0
407154.6038362722,4605833.5216966402,-22500.0,345.84030390460794,238.62491009022534,879.9494632216439,-25.27325923959452,333.66013735040946,115.66259267690069,556.32733942085747,571.68670727248332,-256.95700040471928,256.95700040471928,-571.68670727248332,983.83098877006773,0.0
412154.6038362722,4605833.5216966402,-22500.0,373.25724459003504,117.67340052863619,883.12652578009204,-68.268089436397318,325.31409636781774,108.34339241435002,525.42782487525267,501.92079473661931,-217.86995312522376,217.86995312522376,-501.92079473661931,915.54788838736727,0.0
417154.6038362722,4605833.5216966402,-22500.0,406.96623496266625,24.218352323199447,841.75184173843309,-100.79240245139235,303.05035933130841,98.271995433796604,491.78637401184267,439.94484685571649,-181.60498994588386,181.60498994588386,-439.94484685571649,852.23350170915626,0.0
422154.6038362722,4605833.5216966402,-22500.0,439.53998639130259,-40.941635279396799,771.3131819070461,-122.72645799861506,271.92617192337354,86.684105941436258,455.77116659386559,388.04995067547213,-150.04199844185959,150.04199844185959,-388.04995067547213,789.74323710403633,0.0
427154.6038362722,4605833.5216966402,-22500.0,465.63141178691023,-80.297054596299503,685.10729027127172,-135.00131334077221,236.29406064950439,74.604427590090765,418.54912558413201,346.40731439843853,-123.88692702476746,123.88692702476746,-346.40731439843853,726.92249828344688,0.0
432154.6038362722,4605833.5216966402,-22500.0,482.12998321566755,-98.202410834714371,593.4700777228918,-139.16192980487753,199.55618472832481,62.804927095571834,381.50517706970425,313.89134708196519,-103.02956584756038,103.02956584756038,-313.89134708196519,664.39076747418505,0.0
437154.6038362722,4605833.5216966402,-22500.0,487.88527107107126,-99.693033209060175,503.70695625154889,-136.99408067959013,164.1320290827496,51.809150321117436,345.93979957891707,288.77319524419352,-86.880332964816233,86.880332964816233,-288.77319524419352,603.52992788674226,0.0
442154.6038362722,4605833.5216966402,-22500.0,483.22025663607906,-89.656504245046449,420.45116902206348,-130.25373015316771,131.56229326609051,41.925177127178337,312.84801088749867,269.21173045264379,-74.635769921608912,74.635769921608912,-269.21173045264379,545.82093766582659,0.0
447154.6038362722,4605833.5216966402,-22500.0,469.40712185103632,-72.350149990214746,346.21480290060936,-120.50145871117573,102.67885955880803,33.291592602797095,282.78290987893547,253.54569890434027,-65.459796151212956,65.459796151212956,-253.54569890434027,492.48482290091698,0.0
307154.6038362722,4610833.5216966402,-22500.0,-677.81031967771287,-1426.4383488237388,-1427.6328958365652,-478.69566514590554,-625.17171661390364,-178.51273024236164,1594.6464799950045,-1684.1961260134253,921.14496696031711,-921.14496696031711,1684.1961260134253,3024.9071585007564,0.0
312154.6038362722,4610833.5216966402,-22500.0,-550.30001678380063,-1474.8385532439152,-1663.5154220026134,-480.15114279176345,-700.78030600057639,-193.10283529421108,1707.4829780503887,-1741.4823818027926,956.936413245111,-956.936413245111,1741.4823818027926,3233.3939623910437,0.0
317154.6038362722,4610833.5216966402,-22500.0,-390.9792792804941,-1491.8534436109528,-1915.1927960241283,-469.73945756945778,-776.92130184531788,-205.9248331001597,1817.0818746858545,-1769.9387184810655,978.24215238602733,-978.24215238602733,1769.9387184810655,3433.5404722085741,0.0
322154.6038362722,4610833.5216966402,-22500.0,-201.34363057373571,-1467.4954101769758,-2173.7784596016818,-444.97408503272737,-849.84806033777693,-215.80593527036746,1919.3749031110583,-1760.5310006668465,980.31858760011573,-980.31858760011573,1760.5310006668465,3617.1178695518402,0.0
327154.6038362722,4610833.5216966402,-22500.0,13.765299686488222,-1391.9999992987207,-2426.0153940030859,-403.80828370859928,-914.6386264781072,-221.40244054129673,2009.4945529949264,-1704.3009571893465,958.41197004349101,-958.41197004349101,1704.3009571893465,3774.3797930538326,0.0
332154.6038362722,4610833.5216966402,-22500.0,245.45471472703446,-1257.3413365154531,-2653.9619610589643,-345.10207452204008,-965.28463380100141,-221.29440101345193,2081.9232474167193,-1593.58060876116,908.36316384889233,-908.36316384889233,1593.58060876116,3894.4194605988168,0.0
337154.6038362722,4610833.5216966402,-22500.0,480.53648302059992,-1059.231784493533,-2835.4202699085504,-269.15887395533088,-995.02194599619713,-214.13720750819445,2130.8007092675998,-1423.596793284712,827.40879547111547,-827.40879547111547,1423.596793284712,3965.8661406546612,0.0
342154.6038362722,4610833.5216966402,-22500.0,702.0833433644467,-799.37383587837303,-2945.4784670063395,-178.24082950483083,-996.96896834240601,-198.86551820604279,2150.4166056975018,-1194.2921935170505,715.09579013430891,-715.09579013430891,1194.2921935170505,3977.9763311212155,0.0
347154.6038362722,4610833.5216966402,-22500.0,891.0783633042613,-487.47928228982494,-2959.428691817674,-76.919613610897656,-965.08956037131077,-174.92739594565734,2135.8869313335931,-911.99691239189269,574.13588388826383,-574.13588388826383,911.99691239189269,3922.1119024038585,0.0
352154.6038362722,4610833.5216966402,-22500.0,1029.2312416248237,-142.33297392846862,-2857.0012942380527,27.914232903844212,-895.40108403161253,-142.50703442996129,2083.9563241578526,-590.40185558352118,410.93889926296089,-410.93889926296089,590.40185558352118,3793.4772230637991,0.0
357154.6038362722,4610833.5216966402,-22500.0,1102.6356951489608,208.89690288495717,-2627.3444685975123,127.54309383305601,-787.22656763219015,-102.68044080869875,1993.8096984778504,-250.22443356389385,235.5333529141966,-235.5333529141966,250.22443356389385,3592.8576660080244,0.0
362154.6038362722,4610833.5216966402,-22500.0,1105.4402326241634,533.65887043227644,-2273.5686386698471,212.48342847439261,-644.16726747627922,-57.446785280812804,1867.7094001109001,82.873628355978312,60.654427488460598,-60.654427488460598,-82.873628355978312,3327.9541788383181,0.0
367154.6038362722,4610833.5216966402,-22500.0,1042.3257624449839,799.23021958187917,-1815.2755876610877,274.01225661491918,-474.42142242460733,-9.5953368932062624,1711.2500839290185,382.07747542072252,-100.00765343614685,100.00765343614685,-382.07747542072252,3013.8404672207671,0.0
372154.6038362722,4610833.5216966402,-22500.0,928.62567881075097,979.12040627131228,-1287.651661655548,305.84873272902087,-290.16206437693904,37.596007057061961,1533.0771911199424,624.19969042198466,-234.09574095171021,234.09574095171021,-624.19969042198466,2672.1326646137986,0.0
377154.6038362722,4610833.5216966402,-22500.0,787.55437877749125,1058.8505665008051,-736.59135152259785,305.52959197925054,-105.92637538358883,80.789717444649099,1344.0547679607128,794.13796212627699,-332.82523669443231,332.82523669443231,-794.13796212627699,2328.631337303405,0.0
382154.6038362722,4610833.5216966402,-22500.0,645.09847640375551,1039.1421715674803,-210.74964569035993,275.02275146595298,63.688607847568854,117.06221051795896,1156.1394671753324,887.56521724372453,-392.49674333816927,392.49674333816927,-887.56521724372453,2009.4551688447841,0.0
387154.6038362722,4610833.5216966402,-22500.0,524.1478538129777,935.30491618809731,247.28017694987724,220.32990450617248,206.44080248984551,144.31737333236791,981.75168775193492,910.93375318296205,-414.80165790045942,414.80165790045942,-910.93375318296205,1735.9836392245054,0.0
392154.6038362722,4610833.5216966402,-22500.0,439.81953175702205,773.02378669684515,608.01779622627305,150.17159587342093,314.30148418242976,161.54397429020079,836.15792791616082,878.87633294894044,-405.8684763320536,405.8684763320536,-878.87633294894044,1519.6188751660079,0.0
397154.6038362722,4610833.5216966402,-22500.0,397.38913500466407,582.08874649687618,858.44738468969729,74.167716733629007,384.27897854893104,168.86146150755914,742.16588410377665,810.047642531831,-374.44610492616141,374.44610492616141,-810.047642531831,1358.7345779728194,0.0
402154.6038362722,4610833.5216966402,-22500.0,393.10614185239132,390.19397233358302,1001.2334772627138,1.0674347371646065,418.10328677807729,167.35857051597154,693.08941775681319,722.87731288235932,-329.86743476667812,329.86743476667812,-722.87731288235932,1240.6661890697073,0.0
407154.6038362722,4610833.5216966402,-22500.0,417.07161461438761,218.53618954623687,1050.816957445136,-62.512284808461416,421.03980519474328,158.78546297318752,654.70668713413988,632.44135889671202,-280.38285733480842,280.38285733480842,-632.44135889671202,1148.4135360421972,0.0
412154.6038362722,4610833.5216966402,-22500.0,456.83730777897148,79.947812681480059,1028.1640885477302,-112.63042960238904,400.31015008166622,145.19201771369305,614.64971078990118,548.98437074934998,-232.19075911779603,232.19075911779603,-548.98437074934998,1067.5040166708225,0.0
417154.6038362722,4610833.5216966402,-22500.0,500.52878841221252,-20.70739903597066,955.83153192574673,-147.9066444220322,363.58645560153769,128.60028473268406,571.08862606314574,477.93543699600826,-189.18080852307622,189.18080852307622,-477.93543699600826,989.17759569459827,0.0
422154.6038362722,4610833.5216966402,-22500.0,538.83836069376571,-84.723493776442254,854.36813152661557,-168.972969689959,317.86466021040894,110.76877317565004,524.93275659975279,420.87313810658964,-153.19814860125089,153.19814860125089,-420.87313810658964,910.04117388857276,0.0
427154.6038362722,4610833.5216966402,-22500.0,565.80553487757061,-117.2546581701997,740.33868575479062,-177.75766538893743,268.82052260899349,93.067287564680839,477.92585959560409,376.84041059287881,-124.56938644987315,124.56938644987315,-376.84041059287881,830.23160298799178,0.0
432154.6038362722,4610833.5216966402,-22500.0,578.66941228562723,-125.21393324344153,625.73251408924261,-176.8088681544003,220.59569764718623,76.448672272190834,431.94380756806555,343.57033273980687,-102.67212637745703,102.67212637745703,-343.57033273980687,751.58750211569247,0.0
437154.6038362722,4610833.5216966402,-22500.0,577.19915752504937,-115.71154740184707,518.29564382913907,-168.77300488384557,175.88478286300753,61.487672412961928,388.57844886223234,318.40435677351826,-86.415862281186207,86.415862281186207,-318.40435677351826,676.37088933739653,0.0
442154.6038362722,4610833.5216966402,-22500.0,562.85644847256685,-95.098084431908688,422.32835204412459,-156.05942237115437,136.18476453875419,48.45465723319132,348.87648074676855,298.86054882079401,-74.5834966230275,74.5834966230275,-298.86054882079401,606.54998259959348,0.0
447154.6038362722,4610833.5216966402,-22500.0,538.02190061395629,-68.51646192136954,339.60730181278871,-140.67011740143425,102.09761205997204,37.398811406140311,313.26222259459843,282.90958944209223,-66.037200126349987,66.037200126349987,-282.90958944209223,543.48912655778895,0.0
452154.6038362722,4610833.5216966402,-22500.0,505.39503449499784,-39.808557307546586,270.22938239716882,-124.1503345423081,73.616519721501319,28.224384737739793,281.6560965869395,269.04966909130161,-59.818174783600412,59.818174783600412,-269.04966909130161,487.88607506014654,0.0
302154.6038362722,4615833.5216966402,-22500.0,-984.10592202650651,-1507.573002880114,-1199.6163754672295,-555.58602813028233,-599.08484132610431,-186.87151519562389,1636.5893843778019,-1780.7559632373991,987.66153461647673,-987.66153461647673,1780.7559632373991,3110.450823564277,0.0
307154.6038362722,4615833.5216966402,-22500.0,-892.77846260131594,-1612.2059058922925,-1440.9659289173571,-576.66489344550826,-686.35539707884811,-206.07840523563681,1775.0763650220715,-1892.1929590511766,1053.2841898767067,-1053.2841898767067,1892.1929590511766,3370.0161530556065,0.0
312154.6038362722,4615833.5216966402,-22500.0,-763.21954028415246,-1696.5867594587392,-1713.3640308204351,-587.69319445928556,-779.70783270166214,-224.55544504917063,1916.3817651148252,-1984.9206818490998,1109.7619180333272,-1109.7619180333272,1984.9206818490998,3633.1728510231083,0.0
317154.6038362722,4615833.5216966402,-22500.0,-592.13557550341704,-1749.2238220592487,-2012.9846389418938,-585.15509470415816,-876.41357844859226,-241.07469255877865,2056.9072763914974,-2048.6711006545884,1151.6995897519155,-1151.6995897519155,2048.6711006545884,3892.5228331212461,0.0
322154.6038362722,4615833.5216966402,-22500.0,-378.90258132219839,-1756.7812793299015,-2331.5588069278419,-565.3913144538501,-972.25878350224411,-254.08054500847609,2191.8804134082466,-2071.5474148949252,1172.8203249442306,-1172.8203249442306,2071.5474148949252,4138.3434166741308,0.0
327154.6038362722,4615833.5216966402,-22500.0,-126.94136447423978,-1705.0663126908535,-2655.048476461418,-525.0298250905189,-1061.3216721161532,-261.73439836361752,2315.2985731866761,-2040.8049787990103,1166.3546003368415,-1166.3546003368415,2040.8049787990103,4358.5154494250392,0.0
332154.6038362722,4615833.5216966402,-22500.0,154.93364874174969,-1580.8201612769315,-2962.6220976521117,-461.61160928011009,-1135.9291540754618,-262.03357948294939,2420.0137943107043,-1944.2680311218928,1125.7475388621069,-1125.7475388621069,1944.2680311218928,4538.7591952512839,0.0
337154.6038362722,4615833.5216966402,-22500.0,451.58797339194592,-1374.4031066520902,-3226.4495806146733,-374.38375790562986,-1186.9285255206894,-253.02047045267031,2498.032312980823,-1772.4577765565857,1045.7212614473276,-1045.7212614473276,1772.4577765565857,4663.3353147558428,0.0
342154.6038362722,4615833.5216966402,-22500.0,741.62163147991328,-1083.2080427660205,-3412.9785213991036,-265.15632490411474,-1204.4137208017039,-233.08048911990866,2541.0985627258283,-1521.3153907904566,923.63711788324554,-923.63711788324554,1521.3153907904566,4716.3575913159693,0.0
347154.6038362722,4615833.5216966402,-22500.0,999.01029404485666,-715.21998723240711,-3486.3264745300371,-139.0226374881052,-1178.9955283401907,-201.29931554710276,2541.5992652464874,-1195.0879285615977,760.9538144208932,-760.9538144208932,1195.0879285615977,4683.7899611301073,0.0
352154.6038362722,4615833.5216966402,-22500.0,1196.7265182569759,-291.64492425254963,-3414.0704566021691,-4.6564312009174378,-1103.5795202294471,-157.81665959572075,2493.7560712658646,-808.57005453955685,564.4022211633494,-564.4022211633494,808.57005453955685,4556.0521268165057,0.0
357154.6038362722,4615833.5216966402,-22500.0,1312.1497222005344,152.82705814995336,-3174.910344801222,126.12673623994152,-975.40436187946773,-104.08674594827889,2394.9584945968109,-387.61217047205179,346.36198283272216,-346.36198283272216,387.61217047205179,4330.9039327081218,0.0
362154.6038362722,4615833.5216966402,-22500.0,1333.1634335544386,573.41885112388627,-2766.5428529589544,239.75432680428611,-797.84942419212211,-42.951260881070922,2246.9596528385291,33.110175506703456,123.95211894692943,-123.95211894692943,-33.110175506703456,4015.9908221217365,0.0
367154.6038362722,4615833.5216966402,-22500.0,1262.9439857169109,922.67783922227125,-2211.049253252776,323.1723853268216,-581.34403407577247,21.544677482484225,2056.5567255900769,415.39578354014645,-83.363842949530749,83.363842949530749,-415.39578354014645,3630.192209508964,0.0
372154.6038362722,4615833.5216966402,-22500.0,1121.1909803080766,1160.5842499868927,-1554.9705997011413,366.57179861585513,-342.77026271683809,84.60558897880621,1835.4245022429598,724.98592656709718,-257.30921778054255,257.30921778054255,-724.98592656709718,3202.927799801877,0.0
377154.6038362722,4615833.5216966402,-22500.0,940.44370381626504,1264.3243099361985,-862.55974993208815,365.7786844748772,-103.12261464299456,141.34805643241424,1598.9891072332848,939.02556116276969,-384.51730363069345,384.51730363069345,-939.02556116276969,2770.8186401992839,0.0
382154.6038362722,4615833.5216966402,-22500.0,758.11227888327107,1234.0598181379121,-203.35128801344973,323.4442734476844,116.16972609243594,187.54417565267298,1364.7371700295994,1050.8295348100396,-459.20187458778508,459.20187458778508,-1050.8295348100396,2371.5871102052201,0.0
387154.6038362722,4615833.5216966402,-22500.0,606.93591937925044,1092.2381564100276,362.14938497841291,248.49974913768128,297.24276396429337,220.27613116340046,1151.3494753216989,1070.0985902605487,-483.81130965237884,483.81130965237884,-1070.0985902605487,2035.6929677147714,0.0
392154.6038362722,4615833.5216966402,-22500.0,507.44977375000843,876.66606118773791,793.79940581024425,153.99235690901691,428.87521602326308,238.33750663753986,982.05017993044112,1018.6316447694135,-467.4979303633873,467.4979303633873,-1018.6316447694135,1777.6531332049699,0.0
397154.6038362722,4615833.5216966402,-22500.0,465.03014094761102,630.20701460194414,1076.6748316117257,54.058657421879033,507.74131990999581,242.27975939966925,880.50287066798535,923.47180374790173,-423.11860532388761,423.11860532388761,-923.47180374790173,1591.7363007840354,0.0
402154.6038362722,4615833.5216966402,-22500.0,471.8439737748522,391.00412241623263,1218.8883167839517,-38.935706043089795,537.67605123925614,234.10895633933748,822.96600993107359,810.1899014572723,-363.95238996057464,363.95238996057464,-810.1899014572723,1456.9416721100188,0.0
407154.6038362722,4615833.5216966402,-22500.0,511.98114259200844,186.18251798306423,1244.5410426134151,-116.27505901478337,527.51777780128214,216.74583646658783,773.39615987070363,698.37612459502043,-301.17934536008028,301.17934536008028,-698.37612459502043,1348.8743140796316,0.0
412154.6038362722,4615833.5216966402,-22500.0,567.2671539364942,29.94978432124989,1185.1270399376019,-173.49426637225287,488.44298529538571,193.41796854329672,720.73561338985178,600.01337043581168,-242.61111313525737,242.61111313525737,-600.01337043581168,1249.4886422071713,0.0
417154.6038362722,4615833.5216966402,-22500.0,621.79105602339484,-74.787591559724433,1072.1758139618155,-209.90614942379023,431.61617415035585,167.14245743964378,663.81109524369674,520.18056713172678,-192.58822018459017,192.58822018459017,-520.18056713172678,1149.8510638399455,0.0
422154.6038362722,4615833.5216966402,-22500.0,664.32404223708875,-132.99040458426435,932.51864584799796,-227.52657114346687,366.61184413001712,140.39044323062549,604.33450251287411,458.98255276538129,-152.6255040098834,152.6255040098834,-458.98255276538129,1048.106875805353,0.0
427154.6038362722,4615833.5216966402,-22500.0,688.80293492948294,-153.80133762832102,786.2428981093999,-229.86965815069613,300.67904549939396,114.9475397158039,544.85916869791595,413.69337250948274,-122.34008344528186,122.34008344528186,-413.69337250948274,946.27131860348811,0.0
432154.6038362722,4615833.5216966402,-22500.0,693.55569078223743,-147.56700909512264,646.64520249163184,-220.93135814878607,238.67074150780866,91.929976544580612,487.85042183506499,380.50142803822962,-100.32642141393737,100.32642141393737,-380.50142803822962,847.69261412168987,0.0
437154.6038362722,4615833.5216966402,-22500.0,679.99039175235316,-123.90110486365244,521.30424139120396,-204.49409729658012,183.37295953189468,71.893826180421769,435.14218185270977,355.64701432563652,-84.814785265745172,84.814785265745172,-355.64701432563652,755.54689467137791,0.0
442154.6038362722,4615833.5216966402,-22500.0,651.27003769310716,-90.706034702355112,413.5523626748074,-183.748587676569,135.99817590187226,54.980050983926766,387.70080484814889,336.00409147677499,-74.083286978618304,74.083286978618304,-336.00409147677499,672.14780230848521,0.0
447154.6038362722,4615833.5216966402,-22500.0,611.24772583836148,-53.890434936764827,323.89435778577831,-161.16005099410523,96.683608880334191,41.055930771782037,345.69615155334503,319.26605884500066,-66.66567597400288,66.66567597400288,-319.26605884500066,598.7633023697648,0.0
452154.6038362722,4615833.5216966402,-22500.0,563.74204827032497,-17.501470837106176,251.16044556186023,-138.48990909020512,64.911248922008866,29.831982371853684,308.77940182031415,303.90115299628008,-61.419555387779567,61.419555387779567,-303.90115299628008,535.69994645552049,0.0
297154.6038362722,4620833.5216966402,-22500.0,-1274.816134282757,-1506.8779442329985,-930.4628230925872,-614.75784025595021,-549.70988736086179,-189.77206946504947,1643.4258035928556,-1800.828344073213,1015.1055932951343,-1015.1055932951343,1800.828344073213,3126.4403421014613,0.0
302154.6038362722,4620833.5216966402,-22500.0,-1235.6438381417834,-1658.5953855921427,-1154.8598280270019,-656.43141953807935,-642.43140554482704,-212.96131546698516,1803.0825728360157,-1958.7932497536976,1107.3273169352647,-1107.3273169352647,1958.7932497536976,3428.3328485872867,0.0
307154.6038362722,4620833.5216966402,-22500.0,-1158.2725823202666,-1805.0153314367872,-1420.4562188840575,-691.77593581272583,-746.35023771322574,-236.69564245772966,1972.2259228958028,-2111.6126892696379,1197.7310239284002,-1197.7310239284002,2111.6126892696379,3747.0902867575446,0.0
312154.6038362722,4620833.5216966402,-22500.0,-1035.0325069557398,-1935.8895875164162,-1729.2709588290318,-716.92079598512271,-860.37708662549414,-259.86766770034177,2148.4162169250762,-2250.1044642312809,1281.4814554901857,-1281.4814554901857,2250.1044642312809,4077.5819741496734,0.0
317154.6038362722,4620833.5216966402,-22500.0,-859.26114301085056,-2037.5784771878054,-2080.1607733087185,-727.24079299779635,-982.00835913333424,-280.91735622252395,2327.8996435649374,-2362.1790056336022,1352.1943174800742,-1352.1943174800742,2362.1790056336022,4412.0306068491209,0.0
322154.6038362722,4620833.5216966402,-22500.0,-626.80645990219728,-2093.0601641242547,-2466.9740280385922,-717.57984639713084,-1106.8371836424462,-297.79832080769495,2505.3327964237287,-2432.8276343099556,1401.9239730101003,-1401.9239730101003,2432.8276343099556,4739.4750610910723,0.0
327154.6038362722,4620833.5216966402,-22500.0,-338.00626685016732,-2082.6654628822721,-2876.3767773330919,-682.72123989986301,-1228.0888655733809,-308.0141890664504,2673.5675067972193,-2444.6789220247656,1421.4382314362583,-1421.4382314362583,2444.6789220247656,5045.3714758507595,0.0
332154.6038362722,4620833.5216966402,-22500.0,0.043876514237978892,-1985.9336888940065,-3285.6942687100736,-618.16793512612969,-1336.3173822329022,-308.76354371379426,2823.5808292000606,-2379.4329030474019,1400.9313392718252,-1400.9313392718252,2379.4329030474019,5311.5159736066471,0.0
337154.6038362722,4620833.5216966402,-22500.0,371.40552929003115,-1784.9381259241356,-3661.4464815758406,-521.2476451227592,-1419.4674700513688,-297.22463704444039,2944.6680129173124,-2220.4526266104067,1331.3101402550219,-1331.3101402550219,2220.4526266104067,5516.5431647384657,0.0
342154.6038362722,4620833.5216966402,-22500.0,750.21641816508281,-1469.157478504374,-3959.6315082139258,-392.45554094886592,-1463.5553909922899,-270.98608775480824,3025.0366357911162,-1956.5941393671135,1206.093417170852,-1206.093417170852,1956.5941393671135,5637.2982744486799,0.0
347154.6038362722,4620833.5216966402,-22500.0,1101.7189467498911,-1041.3710537838722,-4129.0500344441089,-236.79100115075235,-1454.2092305653887,-228.58483032675676,3052.9329063977148,-1586.9113047175092,1023.758925042053,-1023.758925042053,1586.9113047175092,5651.3613359674164,0.0
352154.6038362722,4620833.5216966402,-22500.0,1386.4508877204062,-523.12736459630275,-4118.7188145621021,-64.657812807474912,-1379.1659300038168,-170.05549155969791,3018.3450377947593,-1125.1671531514166,790.04739446627639,-790.04739446627639,1125.1671531514166,5540.8120707650878,0.0
357154.6038362722,4620833.5216966402,-22500.0,1567.9345371431987,42.625259367027162,-3889.3477608147937,108.23654171686218,-1231.5113280892022,-97.350203807206313,2915.1588739366248,-602.33890097192079,519.38640054956454,-519.38640054956454,602.33890097192079,5296.9454451535203,0.0
362154.6038362722,4620833.5216966402,-22500.0,1622.6592541834732,594.4983120677465,-3426.8086144794265,262.50123518650372,-1012.9781743016445,-14.478578894988949,2743.3684891529056,-64.996234302919277,234.42929101731255,-234.42929101731255,64.996234302919277,4925.0432410148233,0.0
367154.6038362722,4620833.5216966402,-22500.0,1549.2041259433208,1062.8311758572925,-2753.1546363278294,378.35817821438411,-736.15630134651428,72.739676032780707,2510.6825998226809,431.78207916158237,-36.993702910919751,36.993702910919751,-431.78207916158237,4447.6996061009768,0.0
372154.6038362722,4620833.5216966402,-22500.0,1372.1815453589381,1385.7511546442624,-1929.5832031368188,440.07813993345138,-424.33982983425415,157.33177787191852,2232.8018872023381,836.14497008833473,-267.29819626148742,267.29819626148742,-836.14497008833473,3904.9302482954126,0.0
377154.6038362722,4620833.5216966402,-22500.0,1137.7266714612881,1526.1199113392775,-1047.4702720017281,440.24338701169978,-108.25219065872236,232.16113428228888,1931.9752713035705,1112.2989227804862,-435.47219853775954,435.47219853775954,-1112.2989227804862,3349.6298095499801,0.0
382154.6038362722,4620833.5216966402,-22500.0,900.87706616080743,1482.3480725082543,-208.53361581300194,382.1561720344767,179.90763660112884,291.07178487746842,1634.3617006099018,1249.2943539751875,-531.97804954288449,531.97804954288449,-1249.2943539751875,2837.8561919484268,0.0
387154.6038362722,4620833.5216966402,-22500.0,709.57872670105371,1287.8918494306342,499.14651578444455,279.1960683209964,413.31095124220349,329.93303256794445,1368.4588642409662,1261.8535803858381,-560.20984340267921,560.20984340267921,-1261.8535803858381,2414.7149509043829,0.0
392154.6038362722,4620833.5216966402,-22500.0,592.1473317351996,999.53058382473534,1019.9570522783156,151.19913338623533,575.8159452789198,347.30093541463754,1167.8760356011369,1183.0854080630827,-534.00792550291339,534.00792550291339,-1183.0854080630827,2099.5662146009827,0.0
397154.6038362722,4620833.5216966402,-22500.0,553.04723491920902,679.93723126895634,1337.8178516353544,19.281104494676008,663.95667440799969,344.48990485491839,1052.2236478243472,1052.8341904701006,-472.56179406195332,472.56179406195332,-1052.8341904701006,1879.7886424173566,0.0
402154.6038362722,4620833.5216966402,-22500.0,577.23694294288146,381.9717322322017,1470.9301884330134,-98.903263798410805,685.34187721462854,325.03525900854351,980.74343923182141,906.83748501374976,-394.98195595144472,394.98195595144472,-906.83748501374976,1721.5741323808593,0.0
407154.6038362722,4620833.5216966402,-22500.0,639.3921058886441,139.80211515570792,1458.9325961231818,-191.97272500030408,654.6770383486861,293.74710622538748,915.2987861348538,770.29074216975152,-316.44195999173633,316.44195999173633,-770.29074216975152,1590.4048863916375,0.0
412154.6038362722,4620833.5216966402,-22500.0,713.2814621536977,-32.283203710569765,1348.7969512890825,-255.31629847905009,589.21831131871193,255.67880827662754,845.33749311915585,656.48988313579912,-246.60564063479745,246.60564063479745,-656.48988313579912,1464.3477073042013,0.0
417154.6038362722,4620833.5216966402,-22500.0,778.13773110537443,-135.7250819715145,1184.0503329176317,-289.84872254843515,505.11581509766353,215.30282642346674,770.56538781145184,569.02702158462841,-189.96082291246634,189.96082291246634,-569.02702158462841,1335.1916155710412,0.0
422154.6038362722,4620833.5216966402,-22500.0,821.21802776813865,-181.51076031629034,998.93924470645288,-299.98807427821168,415.28386656546297,176.04117599203869,693.88294205666443,505.37404721600387,-147.17830480528619,147.17830480528619,-505.37404721600387,1203.6189962790388,0.0
427154.6038362722,4620833.5216966402,-22500.0,837.41494646089154,-184.4875041226949,816.88880270600839,-291.68281772479935,328.71378389560778,140.14376594102814,618.89838960529414,460.22084182161245,-116.68114907665483,116.68114907665483,-460.22084182161245,1074.1498519491251,0.0
432154.6038362722,4620833.5216966402,-22500.0,827.329214665422,-159.36799194584447,651.65908318185336,-270.94182543410403,250.77147148666239,108.81176044832272,548.67157706700084,427.81457363184859,-95.937259681358228,95.937259681358228,-427.81457363184859,951.8335742494703,0.0
437154.6038362722,4620833.5216966402,-22500.0,794.99081763042057,-118.55693630952767,509.65722919860133,-242.9726797704615,183.97329122615815,82.440668299150005,485.09862604077335,403.22751797579951,-82.311109883346518,82.311109883346518,-403.22751797579951,840.61965679649109,1.0
442154.6038362722,4620833.5216966402,-22500.0,745.92073027861079,-71.383537240872229,392.36614024755852,-211.82742896933141,128.86400449468641,60.884839508923925,428.8429187971077,382.81612020716318,-73.512984686457031,73.512984686457031,-382.81612020716318,742.82880825837594,0.0
447154.6038362722,4620833.5216966402,-22500.0,685.78377263837717,-24.197134477196716,298.36834788536339,-180.38423004120372,84.785710344885189,43.685919261953778,379.66239320764134,364.19909007345211,-67.762559264481041,67.762559264481041,-364.19909007345211,659.21128432225726,0.0
452154.6038362722,4620833.5216966402,-22500.0,619.61208747565877,19.125470658106334,224.81112647949436,-150.5061923505815,50.458471738613611,30.243282815426991,336.85636633721049,346.01707056075577,-63.785902836789745,63.785902836789745,-346.01707056075577,589.26384671977632,0.0
457154.6038362722,4620833.5216966402,-22500.0,551.4640383522709,56.558042662454518,168.35607882355075,-123.26453210244077,24.372312986664735,19.927061026660592,299.60217577089344,327.63930444648315,-60.735239241540086,60.735239241540086,-327.63930444648315,531.62780235340631,0.0
292154.6038362722,4625833.5216966402,-22500.0,-1520.8263921519358,-1425.5621508721504,-648.88245148094234,-650.94604608770976,-482.04472923635279,-187.01803339684139,1615.1238697321817,-1743.7110376704293,1001.2965743800703,-1001.2965743800703,1743.7110376704293,3072.6699827394409,0.0
297154.6038362722,4625833.5216966402,-22500.0,-1542.3274013648468,-1607.9099955293839,-837.91109262160933,-711.47341266418152,-573.41019186336291,-213.10551560384238,1789.5040069810038,-1933.9584624131833,1113.158151409689,-1113.158151409689,1933.9584624131833,3404.0875781467907,0.0
302154.6038362722,4625833.5216966402,-22500.0,-1532.4619750928214,-1800.3247904127079,-1071.3211864492002,-770.6800446556764,-679.69230316754238,-241.06304000485662,1979.747172112478,-2133.2032183029246,1231.0661901120318,-1231.0661901120318,2133.2032183029246,3765.1217033036119,0.0
307154.6038362722,4625833.5216966402,-22500.0,-1481.0348167721061,-1996.1702755844788,-1356.0429764037663,-825.17008252910705,-801.65223096405066,-270.06782213562576,2185.0759312715327,-2335.3871320065173,1351.8597570763031,-1351.8597570763031,2335.3871320065173,4153.9675287471719,0.0
312154.6038362722,4625833.5216966402,-22500.0,-1376.8578880477198,-2185.020142859099,-1697.9687698056064,-870.3806463972121,-939.08412471324721,-298.78847225485612,2403.5606772217229,-2531.2114735448558,1470.6464062507775,-1470.6464062507775,2531.2114735448558,4566.4854261441124,0.0
317154.6038362722,4625833.5216966402,-22500.0,-1208.7380699319613,-2351.7267764728617,-2100.3429848107676,-900.51159554328387,-1090.2312225178025,-325.26703953959094,2631.7020488834887,-2707.3622329133486,1580.3954877396372,-1580.3954877396372,2707.3622329133486,4995.3598217695471,0.0
322154.6038362722,4625833.5216966402,-22500.0,-967.18939673620616,-2475.7619092070513,-2561.3812355222899,-908.64093911162206,-1251.058052757136,-346.84207668054705,2863.9618541760983,-2845.9387835534526,1671.6371905188953,-1671.6371905188953,2845.9387835534526,5429.1570217883691,0.0
327154.6038362722,4625833.5216966402,-22500.0,-647.01788345561249,-2531.2769828448677,-3071.0731706784472,-887.14794798158823,-1414.4392819757829,-360.16453120357886,3092.2929208102637,-2924.4303064718201,1732.4371382989534,-1732.4371382989534,2924.4303064718201,5851.3910012960459,0.0
332154.6038362722,4625833.5216966402,-22500.0,-250.74544365873351,-2488.536573402801,-3607.3945886950341,-828.57811570757133,-1569.4122307938792,-361.36896383496264,3305.7660034498149,-2916.7474968312522,1748.8919316854058,-1748.8919316854058,2916.7474968312522,6239.8108036336707,0.0
337154.6038362722,4625833.5216966402,-22500.0,207.54224602899271,-2317.5075547897827,-4132.6620176962124,-727.05451486294339,-1700.7630134536519,-346.45772870087552,3490.4599344333647,-2795.9312879290528,1706.4428547098241,-1706.4428547098241,2795.9312879290528,6566.2736050593894,0.0
342154.6038362722,4625833.5216966402,-22500.0,698.95634937616933,-1994.2413042250992,-4591.5022357782454,-580.23120587689459,-1789.3487681273675,-311.91622281302278,3629.8545748887527,-2539.0736019847532,1592.2656100856798,-1592.2656100856798,2539.0736019847532,6797.7307138229762,0.0
347154.6038362722,4625833.5216966402,-22500.0,1178.9470377105654,-1509.9902590048505,-4912.7166331813442,-391.56844799670768,-1813.6533707009603,-255.50556143271368,3706.028662915669,-2134.4874218312393,1398.7746443067194,-1398.7746443067194,2134.4874218312393,6898.9870774678775,0.0
352154.6038362722,4625833.5216966402,-22500.0,1591.077888338172,-881.50002147782061,-5017.6353973703872,-172.37559131897356,-1753.0046810151941,-177.08228006124531,3701.927768563582,-1590.0374813692815,1127.7811612799046,-1127.7811612799046,1590.0374813692815,6837.8038294236367,0.0
357154.6038362722,4625833.5216966402,-22500.0,1877.1587686396729,-158.78057885861958,-4836.485360575728,57.304308598577791,-1592.5025475365771,-79.225933387060721,3604.7418074335378,-939.88817720692225,794.09331013861345,-794.09331013861345,939.88817720692225,6592.3945715176551,0.0
362154.6038362722,4625833.5216966402,-22500.0,1993.1630688821672,575.0673154730473,-4331.0060877441219,270.08920489025633,-1328.9034064369796,32.542781099677406,3409.94061481875,-245.51441576479823,426.65069065438189,-426.65069065438189,245.51441576479823,6160.2562983473445,0.0
367154.6038362722,4625833.5216966402,-22500.0,1926.3881661645376,1216.7213824791302,-3516.4345243347607,435.71906913500021,-975.61885810272577,150.08217334113328,3124.8512653500984,412.83712432960363,65.284881934708125,-65.284881934708125,-412.83712432960363,5565.7655192768971,0.0
372154.6038362722,4625833.5216966402,-22500.0,1705.7214709752848,1668.1355573966812,-2471.886977342494,528.22772660726037,-564.2100512065208,263.50096103612987,2770.2306675356131,954.56237130319187,-247.43314099583398,247.43314099583398,-954.56237130319187,4862.8675709664431,0.0
377154.6038362722,4625833.5216966402,-22500.0,1397.2565234520139,1866.7019540001861,-1329.5631869916424,533.74834206072978,-140.22347897870088,362.50389899973669,2378.650958856842,1321.4101237043672,-477.18828560538009,477.18828560538009,-1321.4101237043672,4129.4131763021596,0.0
382154.6038362722,4625833.5216966402,-22500.0,1084.0336251595845,1806.30934098885,-242.39982024672059,455.62005772898249,246.56503915931438,438.05896008671607,1990.1918047317774,1494.3935217226208,-607.32586293215263,607.32586293215263,-1494.3935217226208,3451.561780560095,0.0
387154.6038362722,4625833.5216966402,-22500.0,838.26086869269511,1537.8663403313833,657.66216184300163,313.97984421132236,554.34568605765776,484.08135695429939,1648.9311157467966,1496.2494691144534,-642.22397073550428,642.22397073550428,-1496.2494691144534,2899.4552499523506,0.0
392154.6038362722,4625833.5216966402,-22500.0,699.63633460289088,1148.7307938506278,1292.1616380767568,139.58299545338295,758.95305110922152,498.64500715221601,1402.2933429097418,1378.5673927124949,-603.19283605406395,603.19283605406395,-1378.5673927124949,2501.160319872718,0.0
397154.6038362722,4625833.5216966402,-22500.0,669.40871718337917,732.19838635058386,1646.2752592829811,-35.371714427930918,857.20300919281476,484.22673221520097,1262.4362297498001,1201.2256636428065,-519.4783937498039,519.4783937498039,-1201.2256636428065,2232.9233297005412,0.0
402154.6038362722,4625833.5216966402,-22500.0,719.84137099078748,361.80280185260216,1756.7616368381657,-185.35377189363376,863.45664266013466,446.82162661415913,1169.8816674271902,1014.5014971779221,-418.99092611367382,418.99092611367382,-1014.5014971779221,2040.9035034213598,0.0
407154.6038362722,4625833.5216966402,-22500.0,810.94993880712218,79.283184835804974,1688.2683315238764,-295.7149510793335,802.13049667120185,394.27428332559487,1082.1884721379556,850.15646842124647,-322.34181100741233,322.34181100741233,-850.15646842124647,1876.2470116058741,0.0
412154.6038362722,4625833.5216966402,-22500.0,905.50517959875026,-103.97229933853528,1510.2434591797924,-362.6269545890566,699.84402553026405,334.48162421430652,988.79560836431881,721.50593928526393,-241.13095476367525,241.13095476367525,-721.50593928526393,1712.7074215878226,0.0
417154.6038362722,4625833.5216966402,-22500.0,977.49359609129499,-197.77120525428941,1281.6869493685472,-390.22681431691052,579.78021235872802,274.04828170770401,890.71669436013622,628.65339617853738,-179.32405954416902,179.32405954416902,-628.65339617853738,1544.0073925286028,0.0
422154.6038362722,4625833.5216966402,-22500.0,1013.9566961082968,-222.47439357539272,1044.8650700746766,-386.92512431701613,459.01152691883487,217.64220105172436,792.49459878242521,564.78493615541106,-135.90643991860685,135.90643991860685,-564.78493615541106,1374.5462368480075,0.0
427154.6038362722,4625833.5216966402,-22500.0,1012.6474307370215,-200.65393875086943,825.51345865516498,-362.2729034507517,348.22416098109954,167.970543798893,698.92504569231232,521.08589783666639,-107.43519049299059,107.43519049299059,-521.08589783666639,1211.9082489453358,0.0
432154.6038362722,4625833.5216966402,-22500.0,978.1744495491256,-152.1701417240287,636.27460995859462,-324.950626707879,252.80492566790824,126.13370913982109,613.45084780671925,489.60195715030579,-89.855593298192957,89.855593298192957,-489.60195715030579,1062.7950451404356,0.0
437154.6038362722,4625833.5216966402,-22500.0,918.40064978206487,-92.161914389321367,480.90522141221169,-281.82951836194798,174.38370492272571,92.112052276025594,537.67196497162695,464.39044031663752,-79.512370829920172,79.512370829920172,-464.39044031663752,931.47824964934887,0.0
442154.6038362722,4625833.5216966402,-22500.0,841.8505441231091,-30.905126650826393,357.93525836237694,-237.78840096681091,112.27850289348044,65.222573201670315,471.66136175689797,441.61787342029339,-73.552781250089708,73.552781250089708,-441.61787342029339,819.64480150318116,0.0
447154.6038362722,4625833.5216966402,-22500.0,756.19814606531668,25.412164707425127,263.33037335854527,-195.94458802829061,64.608009621317393,44.470763705620904,414.61679208857038,419.17046736697455,-69.966665229005656,69.966665229005656,-419.17046736697455,726.86297350686471,0.0
452154.6038362722,4625833.5216966402,-22500.0,667.59781931450607,73.636620804090526,192.19257060499606,-158.04404342220246,29.039831675102246,28.785358567790823,365.42239058456391,396.13871247858128,-67.456787799499097,67.456787799499097,-396.13871247858128,651.2506920925357,0.0
457154.6038362722,4625833.5216966402,-22500.0,580.55678035776577,112.66011808010747,139.71988241040211,-124.86032611354321,3.236561204401097,17.154768625321061,322.9647770920742,372.35558002322045,-65.259660387919666,65.259660387919666,-372.35558002322045,590.14340458983952,0.0
462154.6038362722,4625833.5216966402,-22500.0,498.09701710217718,142.6299478771646,101.66743388516942,-96.532080337176396,-14.913776458411306,8.6930965826468096,286.26282301316667,348.04973267020432,-62.977589976442232,62.977589976442232,-348.04973267020432,540.65785439122419,0.0
287154.6038362722,4630833.5216966402,-22500.0,-1699.4831105897581,-1276.4851908572582,-382.54616037830738,-661.92115614685713,-403.06148619209284,-179.03113925599521,1554.7649475163653,-1619.0215515398581,949.50860949750688,-949.50860949750688,1619.0215515398581,2955.2995802703117,0.0
292154.6038362722,4630833.5216966402,-22500.0,-1780.906853545571,-1469.5020102772751,-525.14769874299327,-737.1853003131846,-486.9269771338856,-206.65237409310541,1736.3611603096062,-1823.7710986360144,1071.7581668457892,-1071.7581668457892,1823.7710986360144,3301.25012157332,0.0
297154.6038362722,4630833.5216966402,-22500.0,-1842.945709444135,-1684.9837975236194,-708.54822244598745,-816.46870334984828,-587.45044779465854,-237.31762824417268,1939.0587940393084,-2049.3227316269981,1206.8837733044688,-1206.8837733044688,2049.3227316269981,3687.2954103952429,0.0
302154.6038362722,4630833.5216966402,-22500.0,-1875.4529290781616,-1921.0211312563538,-942.39486114312069,-897.55280916369645,-706.98244255572854,-270.59448848938314,2163.9205980720189,-2293.7635093699791,1354.0154263141483,-1354.0154263141483,2293.7635093699791,4115.3352323646895,0.0
307154.6038362722,4630833.5216966402,-22500.0,-1865.7695275300382,-2172.7316293876465,-1237.3979756904173,-976.98520424402443,-847.56669952818174,-305.57063638528979,2411.2834472638551,-2552.6234275346678,1510.9146664876012,-1510.9146664876012,2552.6234275346678,4585.8023493267301,0.0
312154.6038362722,4630833.5216966402,-22500.0,-1798.8424950067824,-2430.8831563734016,-1604.5350811605119,-1049.7636931866166,-1010.4701121458071,-340.67268356568349,2680.3331627380117,-2817.738972058663,1673.3760273984785,-1673.3760273984785,2817.738972058663,5096.8049896088814,0.0
317154.6038362722,4630833.5216966402,-22500.0,-1657.9164658366458,-2680.2581290672342,-2053.4756053405208,-1109.0699012663756,-1195.4808152926698,-373.48154690989594,2968.5424653230125,-3075.8945977870203,1834.5178290598283,-1834.5178290598283,3075.8945977870203,5642.986111737232,0.0
322154.6038362722,4630833.5216966402,-22500.0,-1426.1521754838554,-2897.9749476379079,-2589.867442559359,-1146.160688845428,-1399.934126875906,-400.59227902943303,3270.9625001819695,-3307.3973490230105,1984.0397363689303,-1984.0397363689303,3307.3973490230105,6214.0761241712098,0.0
327154.6038362722,4630833.5216966402,-22500.0,-1089.5747080516603,-3052.2603010788716,-3211.137060478578,-1150.583064025047,-1617.4714393190645,-417.59541762608166,3579.3879794252789,-3484.9524053578507,2107.6238571010736,-2107.6238571010736,3484.9524053578507,6793.1784545602959,0.0
332154.6038362722,4630833.5216966402,-22500.0,-641.66546063036958,-3102.5698841386497,-3900.6662107242346,-1110.9327547134558,-1836.6335028767401,-419.28017706380422,3881.4705807931223,-3573.5255192237673,2186.8013940862511,-2186.8013940862511,3573.5255192237673,7354.9505229782826,0.0
337154.6038362722,4630833.5216966402,-22500.0,-89.533090156231481,-3002.4312561718557,-4620.8140364706878,-1016.4040127680322,-2039.5632793288692,-400.15526387392481,4159.9648861583446,-3532.2756132706677,2199.7901628282157,-2199.7901628282157,3532.2756132706677,7864.0920403282344,0.0
342154.6038362722,4630833.5216966402,-22500.0,539.27211389827062,-2706.6740121305033,-5306.4449786193472,-859.32467840823927,-2201.352463041861,-355.32167132438934,4392.4579423892237,-3319.9244954290443,2123.9513677752057,-2123.9513677752057,3319.9244954290443,8274.9375536851658,0.0
347154.6038362722,4630833.5216966402,-22500.0,1191.6840101036746,-2184.2910047621785,-5862.422697606029,-638.65860940571588,-2290.8807661884825,-281.60322035900475,4552.1536767682755,-2904.6960908084975,1940.4490395562298,-1940.4490395562298,2904.6960908084975,8533.4466346046593,0.0
352154.6038362722,4630833.5216966402,-22500.0,1789.8679196312105,-1436.2266716451227,-6170.3335762670267,-363.98793323017458,-2274.2290246121524,-178.67775919904835,4610.455873502664,-2278.5375365263085,1641.1316354126066,-1641.1316354126066,2278.5375365263085,8583.240382302256,0.0
357154.6038362722,4630833.5216966402,-22500.0,2242.5497792261463,-513.35477716812568,-6109.7610512495248,-58.7097796938857,-2121.5580647075171,-49.864578439669231,4541.9573547865857,-1472.2202542270431,1236.3125295839925,-1236.3125295839925,1472.2202542270431,8376.9486264891802,0.0
362154.6038362722,4630833.5216966402,-22500.0,2469.1417605743277,475.17482188153713,-5595.062822392596,239.69801169408993,-1817.2350763052305,97.684863467216488,4331.6592159541306,-563.82401187520429,760.18978043290861,-760.18978043290861,563.82401187520429,7892.2784102542146,0.0
367154.6038362722,4630833.5216966402,-22500.0,2431.5107410288924,1375.118171604689,-4618.4277901371688,484.73844172477027,-1370.6795792467972,253.40127308229336,3982.7086868377196,328.86311187705326,269.33291718820817,-269.33291718820817,-328.86311187705326,7148.7277077523468,0.0
372154.6038362722,4630833.5216966402,-22500.0,2158.62519172579,2027.0280524654979,-3278.2306329155408,632.16767140268121,-822.73725413104603,404.17254151565317,3521.3892615876134,1076.7671182295032,-168.90244831986075,168.90244831986075,-1076.7671182295032,6217.3085083631531,0.0
377154.6038362722,4630833.5216966402,-22500.0,1745.9384398806178,2321.3853412591375,-1769.4482699708005,654.67701728160193,-241.76925357763474,535.69470209914459,2996.0861038524481,1580.9816433814435,-495.91863101334923,495.91863101334923,-1580.9816433814435,5214.9603726007717,0.0
382154.6038362722,4630833.5216966402,-22500.0,1322.5411187773248,2241.3148709707257,-329.66717726354256,553.26726285539348,292.46620199467196,634.54497669984335,2469.9610007102956,1806.8706495444189,-680.8430826357154,680.8430826357154,-1806.8706495444189,4279.2310634398846,0.0
387154.6038362722,4630833.5216966402,-22500.0,1000.8459010275559,1866.5076246287611,836.86488014895792,358.33570117990774,711.65950139651613,690.95733720052976,2012.8470235728678,1790.7180922846051,-728.62200460021722,728.62200460021722,-1790.7180922846051,3525.3720590230205,0.0
392154.6038362722,4630833.5216966402,-22500.0,837.44049341179937,1335.3997039395329,1617.6569595920141,118.8356723136025,977.70605058889873,701.42948557014722,1693.4687095514862,1615.7401316650037,-673.05197677652654,673.05197677652654,-1615.7401316650037,2998.8872901820023,0.0
397154.6038362722,4630833.5216966402,-22500.0,825.22021304419525,789.59300992285489,2005.7453692108713,-114.77171789498655,1088.637682004008,669.76010331369821,1514.7436036231884,1374.1063997997658,-560.05901155080574,560.05901155080574,-1374.1063997997658,2658.3109438244869,0.0
402154.6038362722,4630833.5216966402,-22500.0,914.03990176100547,331.18643485018322,2072.1840721501512,-304.95209298768668,1071.0877987435786,605.74684224208761,1391.4937640516746,1136.8160433814078,-431.21389290794934,431.21389290794934,-1136.8160433814078,2417.2542808728858,0.0
407154.6038362722,4630833.5216966402,-22500.0,1041.3684343026036,8.0831167677930598,1921.7936270385003,-433.3305193510663,965.77015402556401,522.14779788998101,1273.2032608675104,942.325529000713,-314.48746178847767,314.48746178847767,-942.325529000713,2205.3415873101676,0.0
412154.6038362722,4630833.5216966402,-22500.0,1155.7697625878941,-177.3458248189213,1655.8808059286703,-498.87127222600805,813.75042935822432,431.38370640316811,1148.9995440083794,800.95704619431581,-223.07290903238567,223.07290903238567,-800.95704619431581,1991.145707312173,0.0
417154.6038362722,4630833.5216966402,-22500.0,1226.8438231996197,-249.66826031434542,1352.164313055888,-511.73477685975354,647.95130717539109,343.24491258075528,1021.7230125516635,706.01910513859491,-159.09016104364423,159.09016104364423,-706.01910513859491,1771.8149350084659,0.0
422154.6038362722,4630833.5216966402,-22500.0,1244.2910326348408,-242.98472125193348,1060.1581671979366,-486.71774852211337,490.30063630422205,264.02544346627258,897.85305468947308,644.25679996053259,-118.52138450471136,118.52138450471136,-644.25679996053259,1556.7009320884733,0.0
427154.6038362722,4630833.5216966402,-22500.0,1211.7879166756918,-189.57610819488161,805.46867498237634,-438.48103893824157,352.68609980113291,196.78253041703448,783.14597197829869,602.53105661541372,-95.184415187887794,95.184415187887794,-602.53105661541372,1356.7209231613933,0.0
432154.6038362722,4630833.5216966402,-22500.0,1140.2280030707607,-114.68661046550034,597.08096697640519,-379.03556221114496,239.56645654690743,142.16046918911081,680.87979341722564,570.78518799563176,-83.109526764864484,83.109526764864484,-570.78518799563176,1179.6988054527042,0.0
437154.6038362722,4630833.5216966402,-22500.0,1042.5668716169896,-35.502092537622012,434.16548092667455,-316.98569734298189,150.73842780425008,99.307493880225692,591.87008033242023,542.58121885701769,-77.570115144396169,77.570115144396169,-542.58121885701769,1029.2703251429712,0.0
442154.6038362722,4630833.5216966402,-22500.0,930.74929112157133,37.735548902746359,311.09930135653184,-257.79169873081531,83.550343699352695,66.630194155061602,515.35138742271693,514.48318771741162,-75.277223473375471,75.277223473375471,-514.48318771741162,905.4281354808511,0.0
447154.6038362722,4630833.5216966402,-22500.0,814.33156514372956,99.915121890054195,220.63507861373083,-204.4524047491841,34.398062398554416,42.309480245477864,449.88275433788118,485.12356063492234,-74.176625345774056,74.176625345774056,-485.12356063492234,805.63512250985093,0.0
452154.6038362722,4630833.5216966402,-22500.0,700.1894321054566,149.31115933225715,155.63757906775479,-158.24463947568157,-0.39579889768393034,24.601561126810772,393.90620166979357,454.36116761872586,-73.125393748206221,73.125393748206221,-454.36116761872586,725.99524769183756,0.0
457154.6038362722,4630833.5216966402,-22500.0,592.79240937164013,186.20626424080677,109.87865919697809,-119.3511967306785,-24.140263510744941,11.982742917968903,345.99943646335237,422.66512780030178,-71.58580737239015,71.58580737239015,-422.66512780030178,662.24261760078161,0.0
462154.6038362722,4630833.5216966402,-22500.0,494.69557944171697,211.92472932591883,78.284955201055951,-87.328622389751402,-39.607161510029044,3.1960832461838806,306.62184072600689,390.7220779481911,-69.386532511459194,69.386532511459194,-390.7220779481911,610.43039735085199,0.0
467154.6038362722,4630833.5216966402,-22500.0,407.05342868461116,228.2131117771103,56.90493926520621,-61.425466769316152,-49.013403575777012,-2.7558441771786688,296.06302760216795,359.21542088177955,-66.556226170583699,66.556226170583699,-359.21542088177955,567.29479565591441,0.0
282154.6038362722,4635833.5216966402,-22500.0,-1798.6402339758156,-1080.6436630507383,-152.92782023422706,-648.68283727699247,-320.30022372766854,-166.74688674430362,1467.9158720731152,-1444.0428806725813,867.45727866824279,-867.45727866824279,1444.0428806725813,2785.5583382167306,0.0
287154.6038362722,4635833.5216966402,-22500.0,-1930.7222542362426,-1265.2526792668716,-246.43779803111156,-733.07638992480918,-392.17583258378744,-194.47745546775906,1649.2029449172617,-1645.6970692410084,990.44989777187334,-990.44989777187334,1645.6970692410084,3131.0112843124643,0.0
292154.6038362722,4635833.5216966402,-22500.0,-2057.5898471546311,-1479.5851504411817,-372.35840627207727,-826.18590396727495,-480.42098822972281,-226.11493401291688,1855.1108687223552,-1875.6321318575663,1130.9423258779314,-1130.9423258779314,1875.6321318575663,3523.5671320053193,0.0
297154.6038362722,4635833.5216966402,-22500.0,-2171.439122314262,-1726.0716233266503,-540.54595133888722,-927.3256942742845,-588.37099070214026,-261.63916877768224,2088.3687788700322,-2135.8431506025454,1290.3059350579408,-1290.3059350579408,2135.8431506025454,3968.4730741123026,0.0
302154.6038362722,4635833.5216966402,-22500.0,-2261.4369480865998,-2005.7097738408745,-763.2671898236141,-1034.8482507802762,-719.69342857004006,-300.65024333395672,2351.5444033889908,-2427.07854227609,1469.2673032141877,-1469.2673032141877,2427.07854227609,4470.6632028252916,0.0
307154.6038362722,4635833.5216966402,-22500.0,-2313.0843833763315,-2316.865323677257,-1055.3266743602487,-1145.7330004865707,-878.16947890479128,-342.16332504312362,2646.741882891125,-2747.8545995486538,1667.3900578464618,-1667.3900578464618,2747.8545995486538,5034.1628031099599,0.0
312154.6038362722,4635833.5216966402,-22500.0,-2307.7508014702385,-2653.5258575086227,-1433.7728473305444,-1255.096966267894,-1067.2735758607589,-384.35734906979724,2975.144025923777,-3093.0196180695475,1882.3285152502501,-1882.3285152502501,3093.0196180695475,5661.1746690348227,0.0
317154.6038362722,4635833.5216966402,-22500.0,-2222.6776714289326,-3002.9135756635606,-1916.7858517642112,-1355.6693267947765,-1289.4547500570816,-424.30604632040166,3336.3424657190153,-3451.7733523518582,2108.8064329420113,-2108.8064329420113,3451.7733523518582,6350.7221318035854,0.0
322154.6038362722,4635833.5216966402,-22500.0,-2031.9442550101355,-3342.4959921518289,-2521.1469540618386,-1437.3258403578161,-1545.0071474110907,-457.75823506143428,3727.3925554763546,-3805.1378279076166,2337.3134137755292,-2337.3134137755292,3805.1378279076166,7096.7015788546387,0.0
327154.6038362722,4635833.5216966402,-22500.0,-1709.1096007917101,-3636.7443653285,-3257.4856444463917,-1486.8563685142572,-1830.4218159208285,-479.08218565845885,4141.5311604007102,-4123.1027666662203,2552.6087989785251,-2552.6087989785251,4123.1027666662203,7885.1929074557547,0.0
332154.6038362722,4635833.5216966402,-22500.0,-1232.4182973868956,-3834.5937444182118,-4122.4509873857969,-1488.2442705364474,-2136.1694679023185,-481.533011216582,4566.5340015614447,-4362.1418948285227,2732.3266932412448,-2732.3266932412448,4362.1418948285227,8690.960893541207,0.0
337154.6038362722,4635833.5216966402,-22500.0,-593.34622228829323,-3869.5326830332879,-5087.377035579947,-1423.8609243746464,-2444.0269084155921,-457.99451720254399,4982.8081286275237,-4464.5988537430467,2846.3352949220775,-2846.3352949220775,4464.5988537430467,9473.3679178221082,0.0
342154.6038362722,4635833.5216966402,-22500.0,191.56132396874688,-3665.4712290935931,-6084.469351332079,-1277.0947256019058,-2724.4155706054876,-402.23198319289628,5361.5893981747586,-4362.5157869061068,2858.0230127641153,-2858.0230127641153,4362.5157869061068,10172.598386395897,0.0
347154.6038362722,4635833.5216966402,-22500.0,1067.768833855087,-3152.3168680660442,-6994.6743433355405,-1036.9470978900231,-2934.8752321866286,-310.43734802082395,5664.1257577284923,-3989.2989917882201,2729.187433288484,-2729.187433288484,3989.2989917882201,10708.328248817243,0.0
352154.6038362722,4635833.5216966402,-22500.0,1934.8078289610794,-2293.8184872803376,-7646.2263871680907,-704.7846131049032,-3021.7658974226215,-182.54119818733159,5843.458271796736,-3301.7871495822988,2430.1203149475946,-2430.1203149475946,3301.7871495822988,10984.587898672489,0.0
357154.6038362722,4635833.5216966402,-22500.0,2653.6326148736171,-1124.0787172655337,-7837.0061694660071,-302.24704652271987,-2928.121391742126,-22.696759673524724,5850.8915531402818,-2310.5486043557057,1954.7027344601856,-1954.7027344601856,2310.5486043557057,10905.33079103148,0.0
362154.6038362722,4635833.5216966402,-22500.0,3079.5276849476736,222.77092323079134,-7390.9051743479886,123.07646515329199,-2609.9173556912174,161.17799814371799,5648.4328023847911,-1106.6228551012287,1335.999017279863,-1335.999017279863,1106.6228551012287,10402.868576119274,0.0
367154.6038362722,4635833.5216966402,-22500.0,3119.3249732832642,1516.6625216827258,-6240.4419162702679,500.22766168213809,-2058.8472538448841,358.05980603989349,5225.2208659571534,136.77198813777187,652.41561964444304,-652.41561964444304,-136.77198813777187,9473.8090577936364,0.0
372154.6038362722,4635833.5216966402,-22500.0,2788.3256703439483,2491.312098842393,-4497.4670076433649,751.24028210629831,-1322.0093573664885,553.70087637942834,4611.2250587968883,1206.0517195489285,13.575227122061051,-13.575227122061051,-1206.0517195489285,8206.791698543675,0.0
377154.6038362722,4635833.5216966402,-22500.0,2224.8755160525452,2947.6180325156615,-2456.0299349243378,819.45772810957806,-503.21923653532366,730.08011319246202,3879.3846369313424,1925.3814915380092,-475.15891890413172,475.15891890413172,-1925.3814915380092,6781.4357690257093,0.0
382154.6038362722,4635833.5216966402,-22500.0,1637.0069370977933,2844.1960372806934,-499.95261495301605,696.22779666634813,263.65166679150678,866.64699987622976,3132.7809891641928,2228.9723008896171,-753.14321815745132,753.14321815745132,-2228.9723008896171,5426.3166022470832,0.0
387154.6038362722,4635833.5216966402,-22500.0,1206.6310492867919,2311.0500145995279,1042.8563531377927,427.64647178553423,860.2859541742979,945.17091822122495,2486.3427421897682,2178.2808611906944,-824.58293192146584,824.58293192146584,-2178.2808611906944,4340.9837353988314,0.0
392154.6038362722,4635833.5216966402,-22500.0,1015.313433758062,1575.6494379960996,2010.1649894329719,94.639950531861956,1222.9447649740109,956.48719757708852,2047.5189302160879,1913.9194305324827,-745.90494577383026,745.90494577383026,-1913.9194305324827,3607.4061077296901,0.0
397154.6038362722,4635833.5216966402,-22500.0,1036.01208696054,857.01280759045653,2420.2271928970395,-220.77806461589955,1353.3654135938143,904.57256143831432,1808.6110897610833,1581.6936927823299,-592.41236132958056,592.41236132958056,-1581.6936927823299,3155.8998608672646,0.0
402154.6038362722,4635833.5216966402,-22500.0,1178.9457876638412,294.73125344273967,2408.0658829993117,-462.33315095956783,1301.2946988967562,804.93358607174537,1641.5710491340508,1281.3585824952265,-427.59345227844562,427.59345227844562,-1281.3585824952265,2844.6944108992707,0.0
407154.6038362722,4635833.5216966402,-22500.0,1347.8856268847924,-63.638477316716148,2142.2708651219891,-608.15967123003406,1135.3077918073934,678.60104609507846,1482.4926927212166,1055.5057450021113,-289.11056634292703,289.11056634292703,-1055.5057450021113,2568.8820562463216,0.0
412154.6038362722,4635833.5216966402,-22500.0,1474.9950761065595,-236.33334697034081,1767.1320869670028,-664.13434963259181,918.7084518976983,545.56052631548289,1319.9497943246211,905.20974494072493,-190.3261848318723,190.3261848318723,-905.20974494072493,2289.8851851451695,0.0
417154.6038362722,4635833.5216966402,-22500.0,1529.1370099011906,-272.07338383616246,1380.2993849455361,-651.13885341054697,697.46869986538945,420.59509557398036,1158.6355976996738,811.90126080014909,-129.01341438786278,129.01341438786278,-811.90126080014909,2009.8333334992617,0.0
422154.6038362722,4635833.5216966402,-22500.0,1507.9861289162425,-223.58651431682713,1034.9481178809949,-593.78122205812736,498.54426754992369,312.18474043977636,1006.4815490620604,753.4636198864057,-96.157362639978771,96.157362639978771,-753.4636198864057,1743.9572177804637,0.0
427154.6038362722,4635833.5216966402,-22500.0,1425.4862540478275,-134.01690154878307,752.05662344612404,-513.58493526778125,333.73361342447043,223.48566798113379,869.30219691377806,712.13774485138697,-81.787724460450818,81.787724460450818,-712.13774485138697,1506.0459776219982,0.0
432154.6038362722,4635833.5216966402,-22500.0,1301.3259644564459,-33.06988246842814,533.40301580711423,-426.34658578962154,204.98563514117038,154.0904620973794,749.42236475439051,676.53300589155515,-77.737223366722901,77.737223366722901,-676.53300589155515,1303.6559745707787,0.0
437154.6038362722,4635833.5216966402,-22500.0,1154.4384827406079,61.653150707906107,371.40425876492878,-342.12182088534212,108.95896681783545,101.68760990962154,646.52005265449009,640.73137621955266,-78.356092862115531,78.356092862115531,-640.73137621955266,1138.0898719877257,0.0
442154.6038362722,4635833.5216966402,-22500.0,1000.0190844398653,141.50148524884656,255.26485308705432,-266.3813157652408,40.157026003603733,63.259683430394617,558.94579648346712,602.5372012536119,-80.226729143103967,80.226729143103967,-602.5372012536119,1006.1333411620577,0.0
447154.6038362722,4635833.5216966402,-22500.0,848.82095859636468,203.61353093633718,174.24937748191246,-201.4126495615568,-7.2414632985336116,35.799152407127259,484.64773415125785,561.875113302827,-81.561262174593651,81.561262174593651,-561.875113302827,902.1328963230859,0.0
452154.6038362722,4635833.5216966402,-22500.0,707.60991449876678,248.44194973486498,119.10723951337452,-147.5297429502094,-38.482831046595393,16.657821905401537,421.62461416100217,519.64765484988629,-81.618565617707702,81.618565617707702,-519.64765484988629,819.77503324466545,0.0
457154.6038362722,4635833.5216966402,-22500.0,580.04397597051604,278.06609226770593,82.469378683098768,-103.96163599980734,-57.906282787177609,3.6657849025983387,384.66452819652244,477.04241285757723,-80.2583176275798,80.2583176275798,-477.04241285757723,753.29070467094141,0.0
462154.6038362722,4635833.5216966402,-22500.0,467.57986251499659,295.15393749582989,58.749870847946497,-69.439230961121709,-68.914253075471876,-4.8741528855026388,370.56137346253325,435.17036013530981,-77.641925311305499,77.641925311305499,-435.17036013530981,698.04145382164006,0.0
467154.6038362722,4635833.5216966402,-22500.0,370.23719282051411,302.38434018266781,43.857128920346774,-42.549623583101607,-74.079342046919479,-10.247556812717582,355.13263465030155,394.91407780615367,-74.05081125010787,74.05081125010787,-394.91407780615367,650.6254526493974,0.0
282154.6038362722,4640833.5216966402,-22500.0,-1985.5114099717923,-1023.6271285784146,-21.377775660811476,-702.45227551205744,-298.04442273597959,-177.98238871564527,1535.9916246373075,-1423.8747851120279,880.81371974836657,-880.81371974836657,1423.8747851120279,2909.4673185045076,0.0
287154.6038362722,4640833.5216966402,-22500.0,-2161.3161157850486,-1216.5319943945419,-92.255004976982278,-802.06397039249998,-370.02874054046816,-208.92453211798608,1736.5595922009943,-1638.9971363074912,1015.7011712534766,-1015.7011712534766,1638.9971363074912,3291.468244087695,0.0
292154.6038362722,4640833.5216966402,-22500.0,-2340.9560359853276,-1446.13490766678,-193.23419177768349,-914.53877794736502,-460.0886868736381,-244.57853229991301,1967.2951437060633,-1889.6986218687689,1173.0650654443252,-1173.0650654443252,1889.6986218687689,3731.3776064165959,0.0
297154.6038362722,4640833.5216966402,-22500.0,-2517.6850119534179,-1717.8635922734129,-335.20430466716391,-1040.1814114699014,-572.59933900921806,-285.03664558201029,2232.5408550107177,-2180.8066370291399,1356.0581781636176,-1356.0581781636176,2180.8066370291399,4237.6805991199153,0.0
302154.6038362722,4640833.5216966402,-22500.0,-2681.2495184094259,-2036.6448080500907,-532.54705228036664,-1178.4629215408729,-712.74643764546443,-329.95996622486848,2536.9210082746499,-2516.7579530417665,1567.7179983555366,-1567.7179983555366,2516.7579530417665,4819.4788550983312,0.0
307154.6038362722,4640833.5216966402,-22500.0,-2816.7354198624239,-2405.78195775314,-803.89759320073256,-1327.544036913449,-886.4800360938375,-378.31708202349506,2885.1277987799931,-2900.6970269139488,1810.5182178606542,-1810.5182178606542,2900.6970269139488,5486.0987957641964,0.0
312154.6038362722,4640833.5216966402,-22500.0,-2903.3049683767376,-2825.081536182674,-1172.719336946632,-1483.6459821117985,-1100.2942497311033,-428.05427810069449,3281.5360971508585,-3332.9537212195446,2085.6137920656101,-2085.6137920656101,3332.9537212195446,6246.356929888766,0.0
317154.6038362722,4640833.5216966402,-22500.0,-2913.0616178507576,-3287.9118720849647,-1667.2703261392383,-1640.2659196212542,-1360.70625647672,-475.735359262521,3729.5496031138637,-3808.6105857272041,2391.632950907644,-2391.632950907644,3808.6105857272041,7107.2660180654721,0.0
322154.6038362722,4640833.5216966402,-22500.0,-2810.5509424318602,-3776.8806431328367,-2319.1723763302671,-1787.2696375474893,-1673.2453860117612,-516.24827444697394,4230.5329454382336,-4313.8368052777187,2722.8389667170845,-2722.8389667170845,4313.8368052777187,8071.8422486499312,0.0
327154.6038362722,4640833.5216966402,-22500.0,-2553.8440857805267,-4258.0136425481342,-3159.2661003376425,-1909.9557613057675,-2040.6840071657755,-542.75921473897836,4782.1238451270674,-4820.7785315455158,3066.5007941188101,-3066.5007941188101,4820.7785315455158,9135.5109572718375,0.0
332154.6038362722,4640833.5216966402,-22500.0,-2098.7595810642038,-4673.9422751779175,-4208.8166665240642,-1988.2953494620697,-2460.159768919666,-547.16967427278041,5375.6701075025112,-5281.2614039571572,3399.4665374056085,-3399.4665374056085,5281.2614039571572,10280.468766078013,0.0
337154.6038362722,4640833.5216966402,-22500.0,-1408.411061526273,-4938.0368292004277,-5463.7943250770613,-1996.7568601987443,-2918.810734264674,-521.31422823096318,5992.5721104153881,-5620.741021578001,3684.40483014962,-3684.40483014962,5620.741021578001,11467.462544960543,0.0
342154.6038362722,4640833.5216966402,-22500.0,-470.335332195756,-4934.0385397229593,-6870.8493298803551,-1905.5279176414965,-3387.7510850179651,-458.88262759628287,6599.5943609479018,-5736.228202767621,3867.2300119258311,-3867.2300119258311,5736.228202767621,12625.288309831518,0.0
347154.6038362722,4640833.5216966402,-22500.0,678.47207009282488,-4529.3506754684759,-8297.6043798498868,-1684.6391204812332,-3815.0852140947054,-357.46024102718468,7144.034011290245,-5505.2360264852759,3879.0182821777585,-3879.0182821777585,5505.2360264852759,13640.681862067577,0.0
352154.6038362722,4640833.5216966402,-22500.0,1924.6009359688733,-3612.4278302213556,-9509.3321634127497,-1313.2335088152658,-4120.8993185758891,-219.36681180297015,7551.4195268332132,-4815.1972667568416,3647.6536285234442,-3647.6536285234442,4815.1972667568416,14355.679184301309,0.0
357154.6038362722,4640833.5216966402,-22500.0,3067.3085508950599,-2159.0469435239329,-10178.386580846887,-795.63327319282746,-4201.0334851126281,-49.981786995356046,7731.0905504500406,-3618.5850614083679,3123.9315344515476,-3123.9315344515476,3618.5850614083679,14584.40455347092,0.0
362154.6038362722,4640833.5216966402,-22500.0,3852.6583123750856,-309.51317424120799,-9960.6879609222651,-181.16046252026877,-3949.4899915695778,145.91783180270016,7596.0229891473145,-2000.2952286791426,2319.2735953207502,-2319.2735953207502,2000.2952286791426,14160.763983206907,0.0
367154.6038362722,4640833.5216966402,-22500.0,4071.174568078121,1598.0395575442385,-8649.3488377798549,425.17659599575524,-3304.379344622087,366.0163833798311,7097.240385914436,-212.96238180040211,1336.032778185378,-1336.032778185378,212.96238180040211,13014.17099691823,0.0
372154.6038362722,4640833.5216966402,-22500.0,3686.194374044459,3107.1186197182374,-6343.4443984181516,881.18871856682392,-2302.5762703019877,605.83426366594711,6259.4238189852313,1377.0417746538433,358.52586335521744,-358.52586335521744,-1377.0417746538433,11242.107657612878,0.0
377154.6038362722,4640833.5216966402,-22500.0,2897.2023623346022,3841.2429308334758,-3498.6744349982528,1063.2047461410134,-1103.6513923988896,848.74928903843772,5194.2720257727669,2441.5529103451599,-412.40327204074617,412.40327204074617,-2441.5529103451599,9127.5703483322468,0.0
382154.6038362722,4640833.5216966402,-22500.0,2054.4949861433115,3704.9791516078349,-764.73070633262762,932.25491669509177,53.673757094978839,1060.8982254115774,4077.3299983355937,2852.2078861918053,-851.186760334474,851.186760334474,-2852.2078861918053,7066.1620671685723,0.0
387154.6038362722,4640833.5216966402,-22500.0,1465.52184823427,2923.8973619655708,1311.8532182716908,559.55313691550134,950.17308679510097,1200.9606550231292,3106.2627248944659,2723.8395355921548,-959.40950840212361,959.40950840212361,-2723.8395355921548,5417.4039068836901,0.0
392154.6038362722,4640833.5216966402,-22500.0,1246.6954914786204,1888.1755663752122,2502.8544933177404,86.626786385660424,1473.590910682135,1240.4899646161966,2466.1531489489585,2308.4604080633399,-839.68408042282408,839.68408042282408,-2308.4604080633399,4338.0079644644575,0.0
397154.6038362722,4640833.5216966402,-22500.0,1324.3445161933646,940.8823016546196,2897.0391389541892,-347.06341389861291,1637.6100385394557,1178.4021073589877,2136.1175891298958,1842.7786625375038,-622.88373907537073,622.88373907537073,-1842.7786625375038,3713.0348606282869,0.0
402154.6038362722,4640833.5216966402,-22500.0,1539.1568085991585,263.82973389259581,2749.132597685626,-655.78645801467849,1537.8596736276784,1039.1373025835137,1906.8447553901558,1462.8630450833268,-408.5130305923326,408.5130305923326,-1462.8630450833268,3303.4974740774323,0.0
407154.6038362722,4640833.5216966402,-22500.0,1747.8151394137842,-114.24181237306888,2325.2443008219352,-816.83085526955892,1291.3012069447152,858.95210734422949,1695.974888519637,1205.6399896085813,-245.70848257063716,245.70848257063716,-1205.6399896085813,2946.1712944181827,0.0
412154.6038362722,4640833.5216966402,-22500.0,1868.304588158069,-252.25107446481488,1821.7456702245508,-851.16595903062512,994.86544006010092,671.54008242137922,1490.6049683455674,1051.014340081854,-143.87037684333768,143.87037684333768,-1051.014340081854,2590.8120289290482,0.0
417154.6038362722,4640833.5216966402,-22500.0,1877.5852512098268,-235.00657266047133,1351.5025073393454,-797.94236129014075,710.85288121355495,500.1086433895714,1294.4829922798517,961.522295546789,-91.771860698436853,91.771860698436853,-961.522295546789,2245.2825979427112,0.0
422154.6038362722,4640833.5216966402,-22500.0,1789.6601245386987,-137.58658633062069,962.94725890124778,-696.09704108985795,470.0812089635333,356.30845260912508,1114.4834267865231,904.24799511473805,-72.462260241893205,72.462260241893205,-904.24799511473805,1930.3764960714311,0.0
427154.6038362722,4640833.5216966402,-22500.0,1633.8159966761959,-12.896679069308197,665.48968555581212,-575.68201520260823,281.70622174989035,242.98266835761672,955.11514862182617,857.71037274894979,-71.041897691148336,71.041897691148336,-857.71037274894979,1660.7516950976706,0.0
432154.6038362722,4640833.5216966402,-22500.0,1440.401318652622,107.71275506967703,449.53940673464984,-456.17925081530512,142.84574499452776,157.77937329862405,817.47216828818273,810.91745701188779,-77.126120696774251,77.126120696774251,-810.91745701188779,1440.9526398110625,0.0
437154.6038362722,4640833.5216966402,-22500.0,1234.0947513421277,208.97492402128353,298.91943547274934,-348.23694743647718,45.450982239709845,96.066546424343358,700.32942107533813,759.97607361339635,-84.59266828676266,84.59266828676266,-759.97607361339635,1267.4466565682076,0.0
442154.6038362722,4640833.5216966402,-22500.0,1032.1228990918119,285.84002788350205,197.26470898070997,-256.34708723661049,-19.67102422552772,52.762074104344293,601.41141044647691,704.88164708196427,-90.420946664465191,90.420946664465191,-704.88164708196427,1132.2209664675074,0.0
447154.6038362722,4640833.5216966402,-22500.0,844.97419780128973,338.90419956193881,130.66536133099106,-181.25339134745255,-60.904674225550337,23.26163904239116,518.57911026926888,647.29055284277933,-93.518482792570921,93.518482792570921,-647.29055284277933,1026.0344947496274,0.0
452154.6038362722,4640833.5216966402,-22500.0,677.98745818163991,371.38254003094238,88.31769664173936,-121.70924712158659,-85.115697028221987,3.7842712814996156,489.97684984818227,589.23828957321064,-93.838436664496953,93.838436664496953,-589.23828957321064,940.55918140114738,0.0
457154.6038362722,4640833.5216966402,-22500.0,532.97829284166005,387.32848162305703,62.282375851070029,-75.607149842353678,-97.579788763266379,-8.5956418642997026,469.33680738320203,532.52493705306358,-91.811563860855017,91.811563860855017,-532.52493705306358,869.32454243870063,0.0
462154.6038362722,4640833.5216966402,-22500.0,409.57007382530628,390.70127924901584,46.940567462435588,-40.63237171076652,-102.18394193456028,-16.054786361029837,446.97909514416438,478.49608289831588,-88.020593618233789,88.020593618233789,-478.49608289831588,807.79493637266353,0.0
467154.6038362722,4640833.5216966402,-22500.0,306.16157798957505,384.95094774120349,38.425026069150718,-14.600917751605202,-101.70653414836332,-20.168802947737912,423.62628503067504,428.02683458424912,-83.034370552197458,83.034370552197458,-428.02683458424912,753.01907143274389,0.0
472154.6038362722,4640833.5216966402,-22500.0,220.57547286304495,372.89119683082049,34.133539422023496,4.3936652595355881,-98.086734860260151,-22.055336212141874,399.92228582429101,381.59264021180309,-77.336828279650859,77.336828279650859,-381.59264021180309,703.1772297742682,0.0
277154.6038362722,4645833.5216966402,-22500.0,-1952.4960797685017,-773.06300759371447,142.24420081755173,-651.26752840538836,-211.63970377288896,-158.80554234582073,1405.7132800622007,-1183.5803366156156,755.92346311630479,-755.92346311630479,1183.5803366156156,2654.7407184014419,0.0
282154.6038362722,4645833.5216966402,-22500.0,-2157.0453009857274,-931.39882573645639,116.94931601486135,-750.40548963698529,-266.08728121943335,-187.68649321558931,1594.0517442969372,-1370.4142772277501,876.91020967644533,-876.91020967644533,1370.4142772277501,3012.5335088824236,0.0
287154.6038362722,4645833.5216966402,-22500.0,-2379.1495854234017,-1124.6201112115564,74.193701313569292,-865.25156559798586,-335.43834493762967,-221.60821524419745,1813.0318744675712,-1592.4039962837476,1020.7160615895302,-1020.7160615895302,1592.4039962837476,3429.0723321217588,0.0
292154.6038362722,4645833.5216966402,-22500.0,-2616.7856020972708,-1360.2794019009787,6.1681721444528206,-997.71717323510643,-423.91101865159789,-261.04551596664987,2068.0768428827487,-1856.5220360889359,1191.8820654394815,-1191.8820654394815,1856.5220360889359,3914.9586188590147,0.0
297154.6038362722,4645833.5216966402,-22500.0,-2865.6085106388923,-1647.0902655010391,-98.144403764490747,-1149.5333274632765,-536.87265697112775,-306.22135906781477,2365.500444319182,-2170.8283356091551,1395.7126522810013,-1395.7126522810013,2170.8283356091551,4482.6336552609018,0.0
302154.6038362722,4645833.5216966402,-22500.0,-3117.7832371418463,-1994.6650385979319,-254.16992324758775,-1321.9635339759404,-681.08837693032376,-356.88324774574289,2712.5717206815079,-2544.3092308656292,1638.2510716485099,-1638.2510716485099,2544.3092308656292,5146.569025153025,0.0
307154.6038362722,4645833.5216966402,-22500.0,-3360.3786518212569,-2412.7949384337026,-483.26521991495446,-1515.3691276019028,-864.96900625950286,-411.98665940355886,3117.5184971225353,-2986.3559251279389,1926.0985795899628,-1926.0985795899628,2986.3559251279389,5923.3623902246527,0.0
312154.6038362722,4645833.5216966402,-22500.0,-3573.2501896636581,-2909.9122697553171,-814.49466958799314,-1728.5767824834168,-1098.7647135638631,-469.29220699510307,3589.402294863622,-3505.5676962638572,2265.9298763479919,-2265.9298763479919,3505.5676962638572,6831.6014943868786,0.0
317154.6038362722,4645833.5216966402,-22500.0,-3726.428810300547,-3490.1725287856361,-1286.3707733722547,-1957.9855026582079,-1394.5969775287842,-524.93597541778661,4137.7388457716434,-4107.3634558884442,2663.4503581405966,-2663.4503581405966,4107.3634558884442,7891.2196769945685,0.0
322154.6038362722,4645833.5216966402,-22500.0,-3777.2776189649767,-4148.3473996455696,-1947.796900508205,-2196.3266327256983,-1766.118328457861,-573.13258706311035,4771.6287306704353,-4789.6153615383955,3121.3750366551585,-3121.3750366551585,4789.6153615383955,9121.7901673578526,0.0
327154.6038362722,4645833.5216966402,-22500.0,-3668.2281004065508,-4861.5392602565289,-2856.566244032791,-2430.950525414079,-2227.39678039109,-606.31911033722247,5497.9877922583564,-5535.2709633466484,3635.800600096688,-3635.800600096688,5535.2709633466484,10538.737564699182,0.0
332154.6038362722,4645833.5216966402,-22500.0,-3326.9911325295407,-5576.9227010862369,-4072.312761506209,-2641.4680283227976,-2790.2705571461101,-616.19123378634356,6318.2263880331921,-6300.9878905724281,4190.1837316019855,-4190.1837316019855,6300.9878905724281,12145.758438231209,0.0
337154.6038362722,4645833.5216966402,-22500.0,-2672.9865507653726,-6196.0249380602327,-5638.8636469354897,-2796.6342906690024,-3458.8533497955991,-596.03777629625733,7222.5095664692581,-7001.8805456971622,4746.3554912469535,-4746.3554912469535,7001.8805456971622,13921.091286751853,0.0
342154.6038362722,4645833.5216966402,-22500.0,-1636.1903010511196,-6559.8539401319431,-7549.4751160371825,-2850.9120371177669,-4219.2169778284642,-544.18794897987937,8180.7354532168329,-7495.9170553234862,5233.355376889097,-5233.355376889097,7495.9170553234862,15795.576993647181,0.0
347154.6038362722,4645833.5216966402,-22500.0,-195.90647185213487,-6447.2480540459701,-9690.6606852529658,-2743.0317985351062,-5022.3494699398798,-466.87422712522664,9129.8350970312349,-7578.9981408887234,5538.6401519703159,-5538.6401519703159,7578.9981408887234,17623.75340869118,0.0
352154.6038362722,4645833.5216966402,-22500.0,1558.6424694610137,-5610.8874254194307,-11773.406286834655,-2402.9441762872702,-5761.6974626076681,-376.74610310362641,9959.224861537914,-7012.9169008039062,5513.2636532501419,-5513.2636532501419,7012.9169008039062,19158.460959908967,0.0
357154.6038362722,4645833.5216966402,-22500.0,3367.1072216087732,-3881.277579257478,-13293.407981251596,-1778.0236655862761,-6256.8732996022491,-283.07054971516857,10505.238492254357,-5613.8111274011972,5009.4839520930436,-5009.4839520930436,5613.8111274011972,20055.053333373242,0.0
362154.6038362722,4645833.5216966402,-22500.0,4800.0473689626097,-1338.823481442656,-13606.297558807699,-884.84539053395417,-6272.0389708698758,-175.62676452534274,10577.926014195989,-3402.4489283876474,3962.1447300252794,-3962.1447300252794,3402.4489283876474,19942.630466634004,0.0
367154.6038362722,4645833.5216966402,-22500.0,5407.0736411540947,1540.2673627124145,-12197.375986897596,134.43373282338828,-5602.3201255630202,-16.686050575108215,10032.865517927175,-737.37569539354968,2485.7054915234421,-2485.7054915234421,737.37569539354968,18579.046582423736,0.0
372154.6038362722,4645833.5216966402,-22500.0,4999.6271289630076,3954.4755034883387,-9073.6757437182023,1011.9674648268675,-4218.1803801022634,238.99976910957537,8861.2272638186732,1728.0842702386819,901.99544293245276,-901.99544293245276,-1728.0842702386819,16033.985064116883,0.0
377154.6038362722,4645833.5216966402,-22500.0,3858.9346570456287,5163.476948908884,-4966.8099468278815,1464.3319831065012,-2368.827732742554,597.59075479400872,7237.4635792324116,3350.191314467741,-380.90891152348581,380.90891152348581,-3350.191314467741,12767.053891681513,0.0
382154.6038362722,4645833.5216966402,-22500.0,2607.3414798463932,4956.7457432250067,-1038.2476623039709,1366.242215906861,-514.35217353416294,993.73948040474829,5476.0425266580241,3876.3499066434933,-1091.1337501059213,1091.1337501059213,-3876.3499066434933,9492.7875051969822,0.0
387154.6038362722,4645833.5216966402,-22500.0,1788.3039730570165,3761.9924333224976,1770.7682819276497,835.50389323344075,909.52883440014091,1316.2793483997173,3929.4437478448235,3552.3188455606423,-1231.6882547565049,1231.6882547565049,-3552.3188455606423,6873.7563997053639,0.0
392154.6038362722,4645833.5216966402,-22500.0,1555.4791254135098,2280.3696463716283,3175.1902222011413,140.21942626613185,1702.044695924636,1475.9308236040079,2944.4696009019704,2860.6280419193886,-1013.3538410804908,1013.3538410804908,-2860.6280419193886,5206.6061222365561,0.0
397154.6038362722,4645833.5216966402,-22500.0,1726.3601186447943,1044.7563529463937,3451.2572283943418,-471.40851594292315,1919.1838309277409,1452.0163636096179,2481.0577146437336,2189.7114490038193,-678.96871570892495,678.96871570892495,-2189.7114490038193,4302.8797907618427,0.0
402154.6038362722,4645833.5216966402,-22500.0,2024.7391499458081,261.02368321119502,3072.6551814930267,-870.0311267665985,1752.5163393018536,1286.5760207227927,2159.4794566771234,1707.8373492434498,-385.97035928540038,385.97035928540038,-1707.8373492434498,3755.762096340427,0.0
407154.6038362722,4645833.5216966402,-22500.0,2251.8735267351872,-103.89726056181057,2440.4097282026273,-1042.0894293773365,1402.3944950172913,1047.6923852719551,1888.0208734907974,1419.376086483067,-191.79395023934183,191.79395023934183,-1419.376086483067,3301.9684851147172,0.0
412154.6038362722,4645833.5216966402,-22500.0,2325.2847641530743,-179.35722959875395,1798.5720137303222,-1039.1401940566134,1013.563886819673,796.08023785078444,1646.2871786845931,1262.7121319368175,-91.133925671146699,91.133925671146699,-1262.7121319368175,2868.5049445397144,0.0
417154.6038362722,4645833.5216966402,-22500.0,2246.3413814811825,-96.849238547733421,1257.8353309447989,-929.74937234096546,665.67621753184778,570.19096956806993,1422.9050378809889,1173.603968858185,-55.212686189810029,55.212686189810029,-1173.603968858185,2465.8781564400092,0.0
422154.6038362722,4645833.5216966402,-22500.0,2055.7124390872759,47.346153400531691,846.89465718240376,-772.26132671238963,389.46188291729703,386.72665533953051,1219.0564984071145,1108.3822233269657,-54.919031399116079,54.919031399116079,-1108.3822233269657,2116.6444204753552,0.0
427154.6038362722,4645833.5216966402,-22500.0,1801.8102943812905,195.83039977726617,554.87489767467844,-606.10715659698189,187.17883245112986,247.6869043246526,1038.8202953095424,1044.6442558655012,-69.329876340774263,69.329876340774263,-1044.6442558655012,1831.5321365971238,0.0
432154.6038362722,4645833.5216966402,-22500.0,1525.1895661682129,320.76594580678722,357.2384850965297,-453.32594105647428,48.190693941189124,147.5863905255907,883.66476270649639,974.48654550869014,-86.239110829878427,86.239110829878427,-974.48654550869014,1607.8183201025388,0.0
437154.6038362722,4645833.5216966402,-22500.0,1253.9503217851131,412.80776146197104,228.627221680817,-323.5487767400864,-41.771973238521809,78.427041267712468,752.71757334787583,897.70398328785632,-99.854173892383642,99.854173892383642,-897.70398328785632,1434.7014108257761,0.0
442154.6038362722,4645833.5216966402,-22500.0,1004.6811918319462,472.48499863623215,147.84678196700656,-218.89891531251084,-96.130025380531734,32.371529622869318,661.07039101498299,817.17017035466824,-108.26451528701631,108.26451528701631,-817.17017035466824,1299.0928689095499,0.0
447154.6038362722,4645833.5216966402,-22500.0,785.3139469266024,504.66060232136653,98.920349645925327,-137.60422378765782,-125.82088096687244,2.8435060678137196,632.32795471021154,736.31895131681506,-111.55787788314854,111.55787788314854,-736.31895131681506,1189.3939131420423,0.0
452154.6038362722,4645833.5216966402,-22500.0,598.06375977386972,515.42212424973559,70.522768549436947,-76.271677334463064,-139.08382875619819,-15.233260103363678,602.02107474908394,658.04049922939703,-110.65595317225001,110.65595317225001,-658.04049922939703,1096.97691556584,0.0
457154.6038362722,4645833.5216966402,-22500.0,441.76953995343297,510.5569373794583,54.951070487463646,-31.15417218292794,-141.82274241574879,-25.580665601715999,569.40451808878356,584.35710395592253,-106.68608496227773,106.68608496227773,-584.35710395592253,1016.1314033067001,0.0
462154.6038362722,4645833.5216966402,-22500.0,313.52854281724711,494.94301405287274,47.124822687332042,1.2303087648533091,-138.12081884931135,-30.835374554427514,535.70025247100853,516.46318786471579,-100.68804631219626,100.68804631219626,-516.46318786471579,943.37691580688431,0.0
467154.6038362722,4645833.5216966402,-22500.0,209.73758027061447,472.41469731969221,43.778261471616965,23.854121871279904,-130.72393863647713,-32.819788484399652,501.92636963157508,454.89615427561125,-93.506699692508619,93.506699692508619,-454.89615427561125,876.71098856176195,0.0
472154.6038362722,4645833.5216966402,-22500.0,126.70414096656593,445.84579760355234,42.862946057913085,39.131918670919404,-121.43251654143786,-32.769637616647408,468.83572887699449,399.72636468770406,-85.776964554998671,85.776964554998671,-399.72636468770406,815.02004575710237,0.0
272154.6038362722,4650833.5216966402,-22500.0,-1848.4677730702274,-536.83983785027078,246.78852780824909,-586.63172548899081,-137.53571910741667,-138.54039783217289,1267.0822122318987,-946.66882069552059,627.84015889426144,-627.84015889426144,946.66882069552059,2384.3162727705394,0.0
277154.6038362722,4650833.5216966402,-22500.0,-2061.8434255522243,-655.26150930218546,254.37660552304081,-679.70903070957036,-175.41211626582123,-164.42582497378643,1438.4483789753176,-1098.3793221700384,730.07378807276757,-730.07378807276757,1098.3793221700384,2708.626293375763,0.0
282154.6038362722,4650833.5216966402,-22500.0,-2301.50510828705,-802.50605095629294,255.08824887709011,-789.33022646298059,-224.38882399900234,-195.24178458126889,1638.9976799162084,-1280.7250555726714,852.95849647452042,-852.95849647452042,1280.7250555726714,3088.6698591068175,0.0
287154.6038362722,4650833.5216966402,-22500.0,-2569.3865485539495,-986.10250708582544,244.52608793577426,-918.39676079463391,-287.9466277310807,-231.69413101842957,1874.5130833900362,-1500.9381625906867,1001.3386017278854,-1001.3386017278854,1500.9381625906867,3535.6951234930266,0.0
292154.6038362722,4650833.5216966402,-22500.0,-2866.5944677947837,-1215.5270516732508,216.06160327555386,-1070.1716183979347,-370.70968425985797,-274.39520524110253,2152.0338400092101,-1768.0842609167883,1181.3010631780874,-1181.3010631780874,1768.0842609167883,4063.4964751663538,0.0
297154.6038362722,4650833.5216966402,-22500.0,-3192.6813918490138,-1502.5841525400533,159.75431136942873,-1248.2312382679597,-478.82641556606512,-323.70190405133701,2480.138674056519,-2093.4675846253767,1400.4876835290099,-1400.4876835290099,2093.4675846253767,4689.0451551048473,0.0
302154.6038362722,4650833.5216966402,-22500.0,-3544.4996284862032,-1861.7215705995061,60.775468938249894,-1456.3552685723905,-620.47352868026508,-379.46246425249865,2869.2870129896019,-2491.0194804273606,1668.449949652005,-1668.449949652005,2491.0194804273606,5433.2803104603136,0.0
307154.6038362722,4650833.5216966402,-22500.0,-3914.4243753159626,-2310.0974890300854,-102.84606096164421,-1698.3234745751856,-806.51776430781194,-440.65646106750108,3332.2150822120734,-2977.5194191966962,1996.9987668736926,-1996.9987668736926,2977.5194191966962,6322.0745115230839,0.0
312154.6038362722,4650833.5216966402,-22500.0,-4287.6497845315016,-2867.0288306125926,-363.33846530653295,-1977.5703906888746,-1051.3708788559545,-504.94938977952717,3884.3546664889873,-3572.3141023951521,2400.4175997966231,-2400.4175997966231,3572.3141023951521,7387.3274397504965,0.0
317154.6038362722,4650833.5216966402,-22500.0,-4638.1822113046292,-3552.1053831809577,-767.22725173416075,-2296.6026047683499,-1374.054014469529,-568.27435367126668,4544.1655526304967,-4295.8502286000466,2895.2300718814104,-2895.2300718814104,4295.8502286000466,8667.9636650451848,0.0
322154.6038362722,4650833.5216966402,-22500.0,-4923.1594869722949,-4380.6800807377358,-1379.9585103935267,-2655.9660707250182,-1799.4032799406627,-624.73731791642388,5333.0967420809347,-5165.7327580401243,3498.8636414072726,-3498.8636414072726,5165.7327580401243,10210.172887083814,0.0
327154.6038362722,4650833.5216966402,-22500.0,-5075.4497004315999,-5354.5988812235573,-2289.704169441467,-3052.2829739851823,-2359.0888067910182,-667.43464494133411,6274.5495109167523,-6188.1115947729622,4225.9375645239115,-4225.9375645239115,6188.1115947729622,12065.311775611623,0.0
332154.6038362722,4650833.5216966402,-22500.0,-4995.6315645403301,-6445.093475159968,-3606.670877610336,-3474.3547463113291,-3091.4434380983676,-691.08954898274135,7390.6630722513037,-7341.1726583239169,5079.9901577085775,-5079.9901577085775,7341.1726583239169,14282.21390863024,0.0
337154.6038362722,4650833.5216966402,-22500.0,-4547.4341615168432,-7564.566432422298,-5450.0199855645933,-3895.5712989999474,-4037.5754287790801,-697.37741817108054,8695.1631233968892,-8547.2739162531179,6037.552436023936,-6037.552436023936,8547.2739162531179,16888.252542305454,0.0
342154.6038362722,4650833.5216966402,-22500.0,-3566.9362643683717,-8526.9854887646179,-7908.2441418987009,-4260.5295354840664,-5228.4015122225437,-702.51296190268374,10180.334357210802,-9633.3760944868118,7021.8668442708577,-7021.8668442708577,9633.3760944868118,19851.462058368073,0.0
347154.6038362722,4650833.5216966402,-22500.0,-1905.752981625192,-9008.202700991802,-10953.339239167919,-4466.2587994056512,-6653.5338813865255,-742.76479364873956,11793.985617709515,-10291.152259532895,7868.664218929719,-7868.664218929719,10291.152259532895,23017.986110622645,0.0
352154.6038362722,4650833.5216966402,-22500.0,464.5657195068838,-8546.1314945325103,-14296.546674860896,-4348.9891960691912,-8202.9651510523836,-866.99477264140444,13392.4130793729,-10075.485301394961,8302.2921475432122,-8302.2921475432122,10075.485301394961,26033.138532169865,0.0
357154.6038362722,4650833.5216966402,-22500.0,3284.0688192872958,-6664.8958788423924,-17225.225206126281,-3709.5398571122255,-9590.3910282324559,-1102.1219895152267,14687.424403825391,-8518.4269926388497,7969.5377216274292,-7969.5377216274292,8518.4269926388497,28291.04988486537,0.0
362154.6038362722,4650833.5216966402,-22500.0,5874.3928386340585,-3208.2552142316094,-18589.983637132675,-2425.15227366519,-10321.362378987216,-1393.5563560139153,15277.287581669279,-5429.9008191569455,6594.8846111533194,-6594.8846111533194,5429.9008191569455,29010.98612293039,0.0
367154.6038362722,4650833.5216966402,-22500.0,7299.4204277617,1220.6144235943668,-17225.891037768775,-640.02500999159884,-9832.3615495583927,-1567.9705905728176,14793.689526232984,-1286.7247755060923,4247.5303218421122,-4247.5303218421122,1286.7247755060923,27538.52928206632,0.0
372154.6038362722,4650833.5216966402,-22500.0,6966.8820415101782,5186.8898783792811,-12840.622589302198,1128.0835465729176,-7859.6131188321515,-1398.7023226822462,13117.792173019032,2696.7519976100161,1514.5325058981057,-1514.5325058981057,-2696.7519976100161,23800.601732928582,0.0
377154.6038362722,4650833.5216966402,-22500.0,5250.2156607950819,7179.3648028115067,-6668.337585063714,2198.9139439318228,-4804.1110069186389,-784.66196748937989,10528.457001850973,5194.1748653200348,-717.74740701449991,717.74740701449991,-5194.1748653200348,18571.984313265482,0.0
382154.6038362722,4650833.5216966402,-22500.0,3328.5476824845055,6756.8193086631745,-916.83243858666219,2212.8027402818288,-1641.4780312443629,112.17915551940058,7623.9519395760153,5719.6662339955183,-1840.3155011139811,1840.3155011139811,-5719.6662339955183,13207.960919852914,0.0
387154.6038362722,4650833.5216966402,-22500.0,2199.7386091855838,4828.956919220419,2767.9310088616608,1404.2105755950861,706.19304088973433,958.10235042393936,5046.4632980875322,4883.1908002290129,-1906.7300806800074,1906.7300806800074,-4883.1908002290129,8940.8061227953458,0.0
392154.6038362722,4650833.5216966402,-22500.0,2003.2865840514721,2706.0687152789278,4190.7241550625531,333.50463520609293,1909.0980207396531,1488.3206131527363,3469.8069381714727,3663.4397615101825,-1412.4182653870284,1412.4182653870284,-3663.4397615101825,6277.945081769406,0.0
397154.6038362722,4650833.5216966402,-22500.0,2308.0534373182145,1160.2930229480751,4103.9296465894695,-548.92611353126745,2176.9556545251612,1638.1847653304092,2830.0054865713173,2673.2879008333111,-829.49650585795075,829.49650585795075,-2673.2879008333111,4902.7649041187997,0.0
402154.6038362722,4650833.5216966402,-22500.0,2667.6299802549452,328.07134579759736,3346.1250397636991,-1065.8349294357247,1904.2939592084456,1499.1517489863356,2351.5094873269131,2060.3129973941163,-394.36517290215897,394.36517290215897,-2060.3129973941163,4150.7125645164988,0.0
407154.6038362722,4650833.5216966402,-22500.0,2848.6553514555094,33.387176573822479,2458.0379570556252,-1241.8702632548357,1424.3827370514352,1212.6207228753265,2023.8587070841531,1736.4422843378181,-149.85923472529771,149.85923472529771,-1736.4422843378181,3592.6028974458491,0.0
412154.6038362722,4650833.5216966402,-22500.0,2802.8423174982022,46.752345407795758,1688.4244378393921,-1185.0753858950188,938.73869494871769,894.62006644460973,1779.0538572279961,1570.2394316183586,-50.50382818720027,50.50382818720027,-1570.2394316183586,3101.6353337119608,0.0
417154.6038362722,4650833.5216966402,-22500.0,2577.4134210667139,191.88604732852701,1108.1950340906253,-1006.9092251807688,537.56957270006683,611.74625980618634,1543.5083584749418,1465.6640375469001,-34.928796426674239,34.928796426674239,-1465.6640375469001,2674.5949575041982,0.0
422154.6038362722,4650833.5216966402,-22500.0,2246.5450628732178,362.97073835107909,705.76354322325903,-788.86442718385626,242.81204944498029,389.12155744760383,1320.0618130942676,1372.1865161851301,-56.033118349694519,56.033118349694519,-1372.1865161851301,2324.0446546208868,0.0
427154.6038362722,4650833.5216966402,-22500.0,1876.0112367496085,508.82278703226888,442.32130119837547,-578.62159200479164,43.890145526576148,227.36829466345313,1120.4207640654504,1271.1667429472122,-85.963592007712919,85.963592007712919,-1271.1667429472122,2048.5939932158999,0.0
432154.6038362722,4650833.5216966402,-22500.0,1511.5761769010885,611.92906541748357,277.48889009820488,-398.24711920828236,-80.461239161014376,116.51763898003014,952.67020502756611,1160.6367342929489,-111.53559136818717,111.53559136818717,-1160.6367342929489,1834.702054799078,0.0
437154.6038362722,4650833.5216966402,-22500.0,1179.59529136726,672.17492915332889,178.42597612584723,-254.08347957801601,-151.5647150659552,44.160905789521387,868.04556072602691,1045.0672819135621,-128.33232391062245,128.33232391062245,-1045.0672819135621,1665.1838979260442,0.0
442154.6038362722,4650833.5216966402,-22500.0,891.92431393639595,696.69621143665336,121.29898740723237,-144.35411734897508,-186.8649692608592,-0.85590583448829882,827.58918025402249,930.04226527336652,-136.29570709299253,136.29570709299253,-930.04226527336652,1525.2368941284367,0.0
447154.6038362722,4650833.5216966402,-22500.0,651.13733149947825,694.44284840914179,89.923113572116208,-63.928112696396553,-199.26337244138978,-27.285091732791894,782.82269246911426,820.09258454356245,-137.09028297475538,137.09028297475538,-820.09258454356245,1404.4959123323238,0.0
452154.6038362722,4650833.5216966402,-22500.0,454.61407624764314,673.69127567963903,73.786462027937077,-6.9050086057682298,-197.73481416751088,-41.50160885687658,734.77107330378624,718.16902605682321,-132.75562472913037,132.75562472913037,-718.16902605682321,1296.6286686778783,0.0
457154.6038362722,4650833.5216966402,-22500.0,297.28710909958602,641.16340613521959,66.288028787948107,32.176354747793084,-188.26239662512506,-47.938301832778187,685.60865408385052,625.80188026611461,-125.12350058078175,125.12350058078175,-625.80188026611461,1198.1235706291247,0.0
462154.6038362722,4650833.5216966402,-22500.0,173.30424505782142,601.92121484498114,63.403082275794198,57.893138640567393,-174.70084557306765,-49.581065515025429,636.98037808471702,543.46590658426442,-115.63247588582513,115.63247588582513,-543.46590658426442,1107.1604318838274,0.0
467154.6038362722,4650833.5216966402,-22500.0,76.938446655652839,559.57791768927166,62.750806888417962,73.873327594227291,-159.45455938893079,-48.393199069193933,589.99867286990775,470.94053539093193,-105.32350446352459,105.32350446352459,-470.94053539093193,1022.8208852565313,0.0
472154.6038362722,4650833.5216966402,-22500.0,3.0243098876019521,516.59830160786771,62.973548591126118,82.893796650089499,-143.96892442275976,-45.639034594992332,545.35883537141615,407.59590529822481,-94.903588364753119,94.903588364753119,-407.59590529822481,944.61424751683762,0.0
477154.6038362722,4650833.5216966402,-22500.0,-52.881171684126976,474.58703635311116,63.336185207854598,87.030469071362631,-129.0700307485719,-42.115878089737414,503.45020128800331,352.59564131390198,-84.824001068351464,84.824001068351464,-352.59564131390198,872.22126951672624,0.0
272154.6038362722,4655833.5216966402,-22500.0,-1900.5764873410542,-410.1281948322561,329.14246464982455,-598.75310015810328,-101.46980764839334,-140.93493736282122,1279.4165398620169,-844.57641231289631,587.86625544443541,-587.86625544443541,844.57641231289631,2399.0619991172684,0.0
277154.6038362722,4655833.5216966402,-22500.0,-2136.2953598510289,-510.70145946084347,357.48196878405008,-697.81959872367236,-132.61197904424142,-167.8429354607714,1457.6348030890956,-984.20770652652266,686.79162991491683,-686.79162991491683,984.20770652652266,2735.1253378216525,0.0
282154.6038362722,4655833.5216966402,-22500.0,-2406.2904491663789,-638.33805039788126,384.7285318574709,-815.90115964041138,-173.68431557006102,-200.04251870648318,1667.8063521807912,-1154.0782692447426,807.09636962981654,-807.09636962981654,1154.0782692447426,3132.035482465988,0.0
287154.6038362722,4655833.5216966402,-22500.0,-2715.3561730978377,-801.10155592511353,408.13066251800836,-956.92770451931881,-228.11309007420672,-238.34206056537198,1916.8567357169882,-1362.2725023772166,954.43710364688263,-954.43710364688263,1362.2725023772166,3603.2454403158572,0.0
292154.6038362722,4655833.5216966402,-22500.0,-3068.4868399551851,-1009.6368182088848,423.09432427061324,-1125.6432964455175,-300.61064993645402,-283.46800630185476,2213.4799693451032,-1619.4068946420664,1136.2502933029575,-1136.2502933029575,1619.4068946420664,4165.7853909790892,0.0
297154.6038362722,4655833.5216966402,-22500.0,-3470.4845099884601,-1277.9947756487934,422.0868525848573,-1327.7738399171783,-397.70464306297492,-335.89104328095073,2568.6753883981669,-1939.4824898445331,1362.3919361009384,-1362.3919361009384,1939.4824898445331,4841.4283276157048,0.0
302154.6038362722,4655833.5216966402,-22500.0,-3925.2001323886675,-1624.65730082391,392.90407556172534,-1570.2447589330163,-528.5118049272395,-395.55334671847464,2996.4783952591397,-2340.9748386034498,1646.0106172765054,-1646.0106172765054,2340.9748386034498,5658.3179278477519,0.0
307154.6038362722,4655833.5216966402,-22500.0,-4434.1243119750434,-2073.7116513304441,315.94886263931659,-1861.47811762587,-705.88582877499073,-461.49151098616198,3514.9555626595256,-2848.1245344781273,2004.7027363708685,-2004.7027363708685,2848.1245344781273,6653.2455862308407,0.0
312154.6038362722,4655833.5216966402,-22500.0,-4993.8279682005768,-2655.9531833929432,160.02322769604783,-2211.802439964486,-948.14033540692492,-531.41658884932065,4147.5330384963918,-3492.2039044984763,2461.9355008826928,-2461.9355008826928,3492.2039044984763,7874.7746360297288,0.0
317154.6038362722,4655833.5216966402,-22500.0,-5591.3994874762011,-3409.2987941696333,-123.99125278593154,-2633.9681634916165,-1281.6435954959693,-601.48441381917326,4924.6658228593524,-4312.090559699448,3048.520636949559,-3048.520636949559,4312.090559699448,9387.2814522214176,0.0
322154.6038362722,4655833.5216966402,-22500.0,-6196.5252646463377,-4377.0471509096842,-612.10749389678278,-3143.5729455011815,-1744.6570844264238,-666.84770115674326,5885.642962571218,-5352.5289848555858,3803.4041462297369,-3803.4041462297369,5352.5289848555858,11275.472896690231,0.0
327154.6038362722,4655833.5216966402,-22500.0,-6748.3496640642124,-5600.8839074398584,-1418.6372716061178,-3758.6173331877253,-2392.6795811263423,-724.20516659087173,7079.7797502111307,-6656.6556237274735,4771.8897358915319,-4771.8897358915319,6656.6556237274735,13647.536578822888,0.0
332154.6038362722,4655833.5216966402,-22500.0,-7135.3934044397993,-7102.7825554612509,-2707.2812559740314,-4495.9874488644964,-3304.7760859825707,-778.35978370965893,8565.2248844608002,-8246.4630214650642,5997.2253999378745,-5997.2253999378745,8246.4630214650642,16632.056406148491,0.0
337154.6038362722,4655833.5216966402,-22500.0,-7169.4261138432585,-8846.351839871948,-4692.9593214069318,-5359.8484131710402,-4587.7864969625434,-855.07135387215567,10402.633579986466,-10081.463975973322,7498.0744657745126,-7498.0744657745126,10081.463975973322,20358.481682486734,0.0
342154.6038362722,4655833.5216966402,-22500.0,-6563.3192439061786,-10666.158615784048,-7612.9705231056605,-6312.9109747981156,-6368.8311554220827,-1020.1295307523746,12644.651109450815,-11985.124662489612,9220.9849040469817,-9220.9849040469817,11985.124662489612,24903.664806899269,0.0
347154.6038362722,4655833.5216966402,-22500.0,-4945.6078921326007,-12161.451255768279,-11625.909640768641,-7220.1285559892758,-8753.7457927466512,-1395.3474498903206,15321.441037250406,-13540.134709926268,10959.170015076928,-10959.170015076928,13540.134709926268,30181.538180606563,0.0
352154.6038362722,4655833.5216966402,-22500.0,-1986.0973719553754,-12591.290817360126,-16576.991342890073,-7769.8224963942666,-11712.583542193224,-2142.2586057558515,18284.493059890781,-13998.491177304759,12252.369319361069,-12252.369319361069,13998.491177304759,35762.076549247678,0.0
357154.6038362722,4655833.5216966402,-22500.0,2265.2882193928631,-10924.466039455789,-21601.489130830516,-7438.9838732488915,-14861.485101599785,-3363.7176343880451,21032.296111017458,-12359.964388691602,12355.596427924396,-12355.596427924396,12359.964388691602,40664.494030886461,0.0
362154.6038362722,4655833.5216966402,-22500.0,6879.39420757876,-6365.2597617106594,-24787.605021246138,-5677.5669489786906,-17230.688218157229,-4903.8270936909585,22773.34214238698,-7893.7706483599659,10480.889489569632,-10480.889489569632,7893.7706483599659,43329.523754933005,0.0
367154.6038362722,4655833.5216966402,-22500.0,9983.1577604112263,524.12445654930548,-23661.890463437805,-2450.584972924567,-17394.471300990896,-6181.2252873625494,22641.649019055178,-1144.8796165267149,6465.3142608836524,-6465.3142608836524,1144.8796165267149,42142.237922760847,0.0
372154.6038362722,4655833.5216966402,-22500.0,9964.2205615109506,7137.0564355964852,-17142.96588998018,1227.3796634541811,-14382.144216541177,-6369.2440441191593,20202.590759800587,5519.8606748241973,1439.1863015834642,-1439.1863015834642,-5519.8606748241973,36560.876300784235,0.0
377154.6038362722,4655833.5216966402,-22500.0,7252.5078505736565,10286.155353602526,-7482.7619791856241,3650.7503740655293,-8887.3599218110248,-5043.2243095527429,15909.925560368552,9237.0595005493342,-2536.5876106603359,2536.5876106603359,-9237.0595005493342,27955.083349392171,0.0
382154.6038362722,4655833.5216966402,-22500.0,4253.3722765695265,9137.2234477594466,846.39449221557493,3843.4293176335027,-3220.8575312774669,-2726.6839101751766,10989.579234776698,9164.7942092579033,-4074.9573232465659,4074.9573232465659,-9164.7942092579033,19038.171107109065,0.0
387154.6038362722,4655833.5216966402,-22500.0,2818.978102171267,5883.9977621769813,5074.0233179944189,2447.2803260347528,588.38014090393347,-484.62288841976215,6687.3675015015851,7022.4996321480976,-3572.7368030900579,3572.7368030900579,-7022.4996321480976,12096.246673592337,0.0
392154.6038362722,4655833.5216966402,-22500.0,2779.5983785120866,2979.1027353015043,5794.5537469725668,742.12069437629896,2219.9528099002146,983.69318872721465,4166.2623614506538,4825.6960728316353,-2318.2974234030485,2318.2974234030485,-4825.6960728316353,7796.9074285739571,0.0
397154.6038362722,4655833.5216966402,-22500.0,3195.7439918635559,1266.3268097368339,4850.5910092406075,-515.74446215228284,2410.9402924978544,1593.3620384231635,3214.0120730399212,3367.3733358048239,-1202.7003668279524,1202.7003668279524,-3367.3733358048239,5568.1658265400829,0.0
402154.6038362722,4655833.5216966402,-22500.0,3483.1940752484834,543.01988905324743,3525.2973887880521,-1166.3136736927672,1941.6073359928828,1596.1779972680499,2411.1224450210721,2586.843533632491,-501.62564686214023,501.62564686214023,-2586.843533632491,4462.8515205804915,0.0
407154.6038362722,4655833.5216966402,-22500.0,3472.459883069831,394.28118576034393,2366.3774245685454,-1334.5663026375694,1304.1611259418053,1300.0375717537775,2109.8356317255607,2205.5922196771721,-165.09408484497806,165.09408484497806,-2205.5922196771721,3801.5841735648564,0.0
412154.6038362722,4655833.5216966402,-22500.0,3199.8360697509288,500.6987504934657,1513.2580207412705,-1214.4601818768608,734.00900462112918,928.5301598139597,1909.9412196935154,1998.8061493928017,-55.792673457118212,55.792673457118212,-1998.8061493928017,3311.4630202608651,0.0
417154.6038362722,4655833.5216966402,-22500.0,2766.8397414327542,674.76965804537849,941.48587339723213,-968.55599799933395,307.79205611749217,597.21969555195165,1665.2635411539334,1842.4870364979961,-56.140398140412799,56.140398140412799,-1842.4870364979961,2922.8916900201266,0.0
422154.6038362722,4655833.5216966402,-22500.0,2271.8554856569854,827.08766612491422,581.34896046079871,-700.02402628892912,24.08335277351571,344.6545550567443,1424.4809309019138,1686.8564453261638,-93.638711780488961,93.638711780488961,-1686.8564453261638,2614.9632785660783,0.0
427154.6038362722,4655833.5216966402,-22500.0,1785.0973780613376,926.82207694724036,364.93445918983969,-460.62676478354416,-146.81971096840053,169.73726757625857,1233.6238531322576,1521.4530320339209,-132.76627136933621,132.76627136933621,-1521.4530320339209,2368.6226149369359,0.0
432154.6038362722,4655833.5216966402,-22500.0,1346.6122614685687,972.45534693780303,240.01497335620147,-268.80312144002033,-238.2751360814203,56.888367034680122,1158.5113274222779,1351.2648015562863,-160.35404886643516,160.35404886643516,-1351.2648015562863,2164.4488903673423,0.0
437154.6038362722,4655833.5216966402,-22500.0,973.43229739289347,974.11762560027785,170.64711981647551,-125.33915192734923,-277.97144510823762,-11.359069824069168,1100.1112476811377,1184.5188165356176,-174.26896367117251,174.26896367117251,-1184.5188165356176,1987.2975854396143,0.0
442154.6038362722,4655833.5216966402,-22500.0,668.08251184581411,944.50947573235078,133.67344109758488,-23.509810595483746,-286.05045007243979,-49.606365018321789,1033.0870215366185,1027.902271039834,-176.75242456669241,176.75242456669241,-1027.902271039834,1827.7193701135941,0.0
447154.6038362722,4655833.5216966402,-22500.0,425.33067772457821,895.00297000466708,114.83313899924407,45.434296721488074,-276.08975881029647,-68.620706270344996,961.28492304174245,885.45124829636688,-171.12952684650753,171.12952684650753,-885.45124829636688,1680.7695981280808,0.0
452154.6038362722,4655833.5216966402,-22500.0,236.63802430628814,834.43940889548344,105.65085701119746,89.746241499255106,-256.77581107826938,-75.809670216169465,888.62322221212946,758.88033915046913,-160.44631134026162,160.44631134026162,-758.88033915046913,1544.2430371489386,0.0
457154.6038362722,4655833.5216966402,-22500.0,92.733525766384034,769.13345906070128,101.25292007400897,116.27695086623039,-233.43180147693403,-76.048224766123695,817.76343046975978,648.27722832225254,-147.05518448052246,147.05518448052246,-648.27722832225254,1417.2963052754658,0.0
462154.6038362722,4655833.5216966402,-22500.0,-15.074732512740123,703.31216841122784,98.937699997462545,130.34015726806982,-209.1803207973131,-72.442284458523545,750.33273195019433,552.74691004447902,-132.60485942569673,132.60485942569673,-552.74691004447902,1299.618941555618,0.0
467154.6038362722,4655833.5216966402,-22500.0,-94.347715620071597,639.6322651499795,97.27909600904718,135.89026189625909,-185.75378156879586,-66.916352779679613,687.22455879184395,470.88960041975213,-118.1685102133755,118.1685102133755,-470.88960041975213,1191.0150821049183,0.0
472154.6038362722,4655833.5216966402,-22500.0,-151.37898396291951,579.63655648003498,95.580508496144972,135.78956996834535,-164.03171588945568,-60.628992731139398,628.83784069751664,401.115573391157,-104.39442989950047,104.39442989950047,-401.115573391157,1091.2306017806334,0.0
477154.6038362722,4655833.5216966402,-22500.0,-191.2624707728227,524.1110996555376,93.549514247636111,132.06798105108439,-144.385505619497,-54.25291657213215,575.25008194121756,341.83425766688816,-91.63652770879672,91.63652770879672,-341.83425766688816,999.90611237107203,0.0
272154.6038362722,4660833.5216966402,-22500.0,-1915.9881264086271,-267.20219674655669,397.71711887532393,-600.77484254573847,-61.792246544324477,-141.30802762857485,1279.0653408830726,-722.06832878692921,534.33244749728237,-534.33244749728237,722.06832878692921,2388.5292301240738,0.0
277154.6038362722,4660833.5216966402,-22500.0,-2167.0300327566042,-343.94799926020175,444.93389360434651,-703.43054116138944,-84.650826216661883,-168.68435192587927,1461.3843976563037,-843.44438461021593,626.12710396964292,-626.12710396964292,843.44438461021593,2730.7463680128271,0.0
282154.6038362722,4660833.5216966402,-22500.0,-2459.1759181971279,-443.75791355763624,496.96173702856674,-827.01002992393319,-115.60807536896372,-201.55610521826452,1677.792466686212,-992.61497513430447,738.8509375020468,-738.8509375020468,992.61497513430447,3137.5878989852304,0.0
287154.6038362722,4660833.5216966402,-22500.0,-2800.1268605944601,-574.37805879251175,553.0561581118468,-976.38600067894868,-157.74839564046187,-240.79255313881745,1936.2340100186836,-1177.8093228653543,878.60755903379186,-878.60755903379186,1177.8093228653543,3624.4289363320049,0.0
292154.6038362722,4660833.5216966402,-22500.0,-3199.0646559931715,-746.46529377913691,611.31757372709671,-1157.7389557585475,-215.46205681215719,-287.185935959451,2246.9429554748212,-1410.2631289197866,1053.7291224995383,-1053.7291224995383,1410.2631289197866,4211.2540832994518,0.0
297154.6038362722,4660833.5216966402,-22500.0,-3666.8356336610586,-974.78255056791545,667.78593114329203,-1379.0130660446591,-295.07756409624972,-341.27012791065636,2623.2765082720275,-1705.4835195177857,1275.7571220704945,-1275.7571220704945,1705.4835195177857,4924.4399239759614,0.0
302154.6038362722,4660833.5216966402,-22500.0,-4216.0036084890271,-1279.8942253880375,714.88044435942402,-1650.611868552757,-405.85586179308103,-403.04287786746505,3082.929952176346,-2085.0517158866469,1560.9006200982456,-1560.9006200982456,2085.0517158866469,5799.4071303160035,0.0
307154.6038362722,4660833.5216966402,-22500.0,-4860.5310108970516,-1690.5235155419232,738.71961102897069,-1986.4986598279515,-561.59227656845485,-471.61250444984518,3649.7264039007296,-2579.1137521146456,1932.1827765579667,-1932.1827765579667,2579.1137521146456,6884.6100984853138,0.0
312154.6038362722,4660833.5216966402,-22500.0,-5614.5371233658143,-2246.6817237776331,714.5484501051526,-2405.9592819440586,-783.25659838257582,-544.91624931109686,4356.2433698117902,-3229.5958544297182,2422.5050515701923,-2422.5050515701923,3229.5958544297182,8247.5114347141007,0.0
317154.6038362722,4660833.5216966402,-22500.0,-6488.9488871280319,-3003.4059851267448,599.0554962283386,-2936.3652896715857,-1103.4108979236471,-619.98006069480596,5247.5664863952024,-4093.7553121710771,3078.7299352929349,-3078.7299352929349,4093.7553121710771,9983.2828850635779,0.0
322154.6038362722,4660833.5216966402,-22500.0,-7483.6485127047599,-4034.0838659743217,317.85651014579054,-3617.1700601450311,-1573.5980180402555,-694.90049455552696,6386.29493088237,-5246.5016941574704,3966.3096962369873,-3966.3096962369873,5246.5016941574704,12226.61099100408,0.0
327154.6038362722,4660833.5216966402,-22500.0,-8570.7073741103213,-5430.1671429024782,-253.7018500611419,-4504.594983417911,-2276.3626964309869,-775.072092865223,7858.2409856755212,-6777.1945410810931,5172.3401258936628,-5172.3401258936628,6777.1945410810931,15165.352732404621,0.0
332154.6038362722,4660833.5216966402,-22500.0,-9661.7806110553083,-7289.3595795982083,-1316.6251873157569,-5673.8998114592659,-3343.3848381424664,-888.20858037334472,9776.5295381353662,-8771.2183097431152,6801.0576436920128,-6801.0576436920128,8771.2183097431152,19050.426136644681,0.0
337154.6038362722,4660833.5216966402,-22500.0,-10551.825809174676,-9675.8551387415919,-3174.7808979459865,-7209.7747797546399,-4978.3487204179019,-1114.3919932937017,12278.889937992721,-11257.969237249994,8948.3120198813394,-8948.3120198813394,11257.969237249994,24187.321443542911,0.0
342154.6038362722,4660833.5216966402,-22500.0,-10838.493425525476,-12524.675513075004,-6237.901181498215,-9163.0654588106045,-7472.9089695910052,-1634.5503833130686,15528.723178040591,-14097.861425048253,11630.360697346947,-11630.360697346947,14097.861425048253,30879.691204411512,0.0
347154.6038362722,4660833.5216966402,-22500.0,-9846.6793345934002,-15454.720694137077,-10941.474753817785,-11435.414564360326,-11177.641221168669,-2782.6832151153426,19855.72996177401,-16783.682207175021,14633.225871377252,-14633.225871377252,16783.682207175021,39274.706014993972,0.0
352154.6038362722,4660833.5216966402,-22500.0,-6673.765304616697,-17477.305215207882,-17461.149070606443,-13552.798517649206,-16335.394050859126,-5035.5746543770829,25057.169987628338,-18178.846055446742,17264.758905314611,-17264.758905314611,18178.846055446742,49037.353522334124,0.0
357154.6038362722,4660833.5216966402,-22500.0,-659.40427234824733,-16744.450877893505,-25018.334319007787,-14388.130024957052,-22613.685019261895,-8784.2037626754209,30424.051898836438,-16398.194197617544,18106.02291462024,-18106.02291462024,16398.194197617544,58802.886240821616,0.0
362154.6038362722,4660833.5216966402,-22500.0,7343.281377010263,-11048.944168592639,-30766.314864545446,-12269.456152774261,-28287.007713373965,-13718.380206228227,34559.268372665865,-9509.3949849629662,15225.094073252627,-15225.094073252627,9509.3949849629662,65662.805879232488,0.0
367154.6038362722,4660833.5216966402,-22500.0,13779.803591664073,-300.03882901211682,-29757.630521652449,-6319.74211719914,-29925.933028118143,-18108.105521149948,35488.2719473998,2093.2580367370265,7698.3923314005769,-7698.3923314005769,-2093.2580367370265,65808.822119367687,0.0
372154.6038362722,4660833.5216966402,-22500.0,14540.018078103549,10648.084597791974,-19104.599449551373,1455.5059346557744,-24570.099820891493,-19195.311218966453,31913.560785291087,13460.838624965389,-2097.2188377301691,2097.2188377301691,-13460.838624965389,57381.098847990819,0.0
377154.6038362722,4660833.5216966402,-22500.0,10013.921731879054,14897.058261188151,-3574.2845471131618,6588.3167813952696,-13706.709404249104,-15519.369210365487,24615.121156578927,18125.862070262963,-8987.934670116425,8987.934670116425,-18125.862070262963,43002.82675060261,0.0
382154.6038362722,4660833.5216966402,-22500.0,5522.8688345173241,11382.331073107018,7279.2056462086393,6578.7616814267039,-3519.1614990235989,-9179.4446632401505,16320.199210233663,15258.080859817805,-9921.6283423353525,9921.6283423353525,-15258.080859817805,28297.19325870835,0.0
387154.6038362722,4660833.5216966402,-22500.0,4214.4617681357131,5990.4851573344004,9865.7776189697779,3833.5382926523885,1702.5934527260704,-3682.0421979699136,9814.9206307582008,10140.440289129236,-7176.2596610455312,7176.2596610455312,-10140.440289129236,17302.02421517963,0.0
392154.6038362722,4660833.5216966402,-22500.0,4424.1314799982683,2713.1758376682569,8084.2674712828657,1278.2180253471186,3017.3886374776584,-339.44227565958874,5924.6328158700426,6425.1252316458013,-4102.4614561452963,4102.4614561452963,-6425.1252316458013,10383.783224746963,0.0
397154.6038362722,4660833.5216966402,-22500.0,4587.5369806591316,1390.3172498392419,5573.7485002547974,-306.83474112073014,2646.8146243646593,1151.2162956169605,3773.9867570370993,4381.2251444406802,-1972.1576872878857,1972.1576872878857,-4381.2251444406802,6577.8510065502924,0.0
402154.6038362722,4660833.5216966402,-22500.0,4405.0508128833762,1046.7733234230782,3569.5707393574544,-1036.4787040782867,1805.9032216128364,1469.7192589681479,2577.929832265439,3370.7181197361733,-812.2756818218279,812.2756818218279,-3370.7181197361733,4812.0384540847217,0.0
407154.6038362722,4660833.5216966402,-22500.0,3948.5427215367572,1090.1937766977067,2207.9920434409855,-1183.5055549341689,994.63438014911378,1234.4203141471164,2321.4820429942165,2861.0570349127474,-309.76029087907295,309.76029087907295,-2861.0570349127474,4050.6080737529246,0.0
412154.6038362722,4660833.5216966402,-22500.0,3331.316669408533,1236.0033865063651,1350.5763520086753,-1016.6141923065589,379.7089532783138,845.51123080624643,2080.5027377734295,2542.8349149710257,-157.74749045448857,157.74749045448857,-2542.8349149710257,3646.2294031051724,0.0
417154.6038362722,4660833.5216966402,-22500.0,2660.038156852444,1360.3636679991394,836.23974022703032,-734.73116122330839,-23.231544193256639,492.19410501573265,1820.5518883126388,2275.7471876881182,-152.94159816394335,152.94159816394335,-2275.7471876881182,3353.3497622122941,0.0
422154.6038362722,4660833.5216966402,-22500.0,2016.3910177570742,1422.4467488285372,538.62405751845847,-452.05246699124297,-256.00930977705252,231.96190312195154,1652.2578214494458,2015.2844205146857,-189.2358513058565,189.2358513058565,-2015.2844205146857,3100.1214369778372,0.0
427154.6038362722,4660833.5216966402,-22500.0,1448.9446442291942,1421.3553700711377,371.08329188952189,-217.97378157951465,-370.79462219394856,62.240287759613338,1575.9887176837281,1758.2504455598691,-222.39106553080069,222.39106553080069,-1758.2504455598691,2864.5795436960484,0.0
432154.6038362722,4660833.5216966402,-22500.0,977.35219567489537,1371.4667818288565,278.53223022153327,-44.24013956404707,-411.35794482802095,-38.302125251652711,1488.5354462873217,1513.2413204246955,-239.58021696180015,239.58021696180015,-1513.2413204246955,2639.3985249325083,0.0
437154.6038362722,4660833.5216966402,-22500.0,601.9703289920601,1289.8492472303321,227.71082557996493,74.744041618839091,-408.94519133669024,-91.819774279786515,1385.5423663300744,1288.532372025021,-241.03165120267909,241.03165120267909,-1288.532372025021,2423.0887539122887,0.0
442154.6038362722,4660833.5216966402,-22500.0,312.91522851435758,1191.0608623071812,199.30449347232553,150.27571333988237,-383.89973796697257,-115.67610702360626,1276.0787847197616,1088.8105270755173,-230.98567781397634,230.98567781397634,-1088.8105270755173,2216.6796532211038,0.0
447154.6038362722,4660833.5216966402,-22500.0,96.35742990689603,1085.7862530496843,182.46069948322511,193.86069244858305,-348.64270007326161,-121.92535188095731,1166.9515526318496,915.36359657760511,-213.94698592193379,213.94698592193379,-915.36359657760511,2021.8932885216768,0.0
452154.6038362722,4660833.5216966402,-22500.0,-61.853787312584693,981.11918206957068,171.27550392363389,215.15721046343629,-310.34718809173404,-118.37974841680906,1062.315018146066,767.1749649592573,-193.47284134007975,193.47284134007975,-767.1749649592573,1840.1985934531306,0.0
457154.6038362722,4660833.5216966402,-22500.0,-174.44894615257812,881.36123887929182,162.6565241682006,221.55573057338356,-272.90459368655002,-109.86921674817462,964.43220331804014,641.9668515913088,-172.00956242789417,172.00956242789417,-641.9668515913088,1672.4607429557138,0.0
462154.6038362722,4660833.5216966402,-22500.0,-252.11582852056333,788.83700615732744,155.06636640686861,218.41268351726154,-238.23872277931343,-99.263461651394152,874.33393427939916,536.94209284490387,-151.08136404316622,151.08136404316622,-536.94209284490387,1518.9138417269564,0.0
467154.6038362722,4660833.5216966402,-22500.0,-303.46102040620951,704.5603018748003,147.80320866998065,209.47177517816607,-207.13811089175837,-88.196762992800743,792.28512612204042,449.2395254058207,-131.54566284233044,131.54566284233044,-449.2395254058207,1379.277552731204,0.0
472154.6038362722,4660833.5216966402,-22500.0,-335.23160482518512,628.72310920169764,140.5974779644699,197.27763759244937,-179.76402589134941,-77.548042451191691,718.09539438146544,376.17949426616008,-113.81480225746034,113.81480225746034,-376.17949426616008,1252.9085199010851,0.0
477154.6038362722,4660833.5216966402,-22500.0,-352.62205521936704,561.03293851201749,133.39067041532198,183.51727305589316,-155.95200938253424,-67.746541482560104,651.32059789550976,315.37516875644707,-98.021709043286421,98.021709043286421,-315.37516875644707,1138.9389945976525,0.0
267154.6038362722,4665833.5216966402,-22500.0,-1670.4596791021265,-78.222436845754146,394.47234571757184,-505.99448731134953,-10.686697624087939,-116.93374661218611,1110.5445976475194,-503.45405732351497,402.43398391621594,-402.43398391621594,503.45405732351497,2063.0685324592046,0.0
272154.6038362722,4665833.5216966402,-22500.0,-1889.8945669646141,-114.00528382458285,448.20529001559123,-591.6081129485442,-20.118464179402419,-139.48311664330907,1265.1199291922876,-583.2079266635028,468.54502580081447,-468.54502580081447,583.2079266635028,2351.2168710938222,0.0
277154.6038362722,4665833.5216966402,-22500.0,-2147.0224998642966,-162.18791284642154,510.71691957774703,-694.89498742125727,-33.566407010834048,-166.68676350394298,1448.3298957279703,-680.83548188106374,549.45071291968998,-549.45071291968998,680.83548188106374,2693.1439061060578,0.0
282154.6038362722,4665833.5216966402,-22500.0,-2449.9031800137604,-227.34718247203074,583.35769804969368,-820.16769475935018,-52.713258090455788,-199.39148426873814,1666.9025085944418,-801.74565824763374,649.52477674267118,-649.52477674267118,801.74565824763374,3101.6941812818745,0.0
287154.6038362722,4665833.5216966402,-22500.0,-2808.7159457487382,-315.95891345427958,667.4581869372721,-973.00721368674931,-80.011063442376496,-238.46752654737691,1929.5591016097824,-953.45910371343075,774.81874676052735,-774.81874676052735,953.45910371343075,3593.6411892689102,0.0
292154.6038362722,4665833.5216966402,-22500.0,-3236.4391815461199,-437.29148064427983,764.073351064029,-1160.7580943660259,-119.08362687059339,-284.69941081400657,2247.7756141449581,-1146.6066499884007,933.8676544577213,-933.8676544577213,1146.6066499884007,4191.2633609070454,0.0
297154.6038362722,4665833.5216966402,-22500.0,-3749.7687898874347,-604.76815308039818,873.4585985647293,-1393.3048569270411,-175.37878623759698,-338.60034764892214,2636.9205685234856,-1396.4523309602152,1138.9481504629277,-1138.9481504629277,1396.4523309602152,4924.7432667920984,0.0
302154.6038362722,4665833.5216966402,-22500.0,-4370.322116089159,-838.05943171958904,994.034196310727,-1684.342180885481,-257.2577799247864,-400.14513605127189,3117.9948277074191,-1725.2103914053405,1408.0584777978729,-1408.0584777978729,1725.2103914053405,5835.9044912682084,0.0
307154.6038362722,4665833.5216966402,-22500.0,-5126.0908770146998,-1166.2943324249222,1120.3800176895591,-2053.5210221243915,-377.87098353485976,-468.49081829523732,3720.3355391743899,-2165.5135560433032,1768.0285038001862,-1768.0285038001862,2165.5135560433032,6984.1253106212007,0.0
312154.6038362722,4665833.5216966402,-22500.0,-6052.8233781766194,-1632.924848275271,1239.4046808051471,-2530.1336562736087,-558.48299684451172,-541.97890503093515,4485.8405311384413,-2765.4081256713089,2259.3262059532144,-2259.3262059532144,2765.4081256713089,8455.7336514998387,0.0
317154.6038362722,4665833.5216966402,-22500.0,-7194.2448332944805,-2302.8155005648609,1323.1328302394782,-3159.3929816466302,-834.49728261070982,-619.29482330388737,5475.4864160914394,-3594.9630565855987,2943.180192167516,-2943.180192167516,3594.9630565855987,10378.713042261519,0.0
322154.6038362722,4665833.5216966402,-22500.0,-8598.1681134298797,-3271.6661027370037,1315.4294153256144,-4012.6970671501185,-1266.4667024466951,-704.00080206991629,6778.9900205277636,-4753.3817857399827,3911.1989812768206,-3911.1989812768206,4753.3817857399827,12944.733299653939,0.0
327154.6038362722,4665833.5216966402,-22500.0,-10301.622115653632,-4675.8298083896425,1108.5665204210036,-5202.8285696263838,-1959.9527141825688,-817.40623887388199,8527.9511549654944,-6372.0286607339176,5295.7083911935233,-5295.7083911935233,6372.0286607339176,16439.243771542184,0.0
332154.6038362722,4665833.5216966402,-22500.0,-12291.178004833149,-6694.5417118757914,505.1029755589455,-6901.7346037236803,-3099.6633735253249,-1029.4947137097149,10910.795413838481,-8600.4844434441475,7273.302797544482,-7273.302797544482,8600.4844434441475,21275.311529509483,0.0
337154.6038362722,4665833.5216966402,-22500.0,-14415.925290179744,-9522.579065635091,-834.38786623562532,-9347.7359167014001,-5002.0681940144777,-1523.4882809987694,14183.523403535704,-11546.555153501738,10040.861675616261,-10040.861675616261,11546.555153501738,28014.55104493659,0.0
342154.6038362722,4665833.5216966402,-22500.0,-16228.702914269958,-13266.982184647677,-3436.0396885980922,-12803.372804125558,-8178.4664705870664,-2709.9208784093789,18736.269347288802,-15118.302942366403,13719.359634554874,-13719.359634554874,15118.302942366403,37335.61208968766,0.0
347154.6038362722,4665833.5216966402,-22500.0,-16757.127058567472,-17694.72346650183,-7977.9823405474153,-17378.762850698757,-13360.368569857468,-5379.60990115607,25296.913642740077,-18704.376384615949,18111.666731305413,-18111.666731305413,18704.376384615949,49874.930218378875,0.0
352154.6038362722,4665833.5216966402,-22500.0,-14296.733626488156,-21743.910162022079,-15022.990987981269,-22574.836095299728,-21340.435415189953,-10782.559619028831,33726.793308499902,-20668.626470936098,22230.40250157415,-22230.40250157415,20668.626470936098,65794.636378455587,0.0
357154.6038362722,4665833.5216966402,-22500.0,-6652.276585852519,-22732.040628652314,-24176.989155539497,-26404.976901033468,-32239.466484385292,-20248.583614140574,43430.701966396125,-17810.824888738636,23590.314632496142,-23590.314632496142,17810.824888738636,83748.186662348089,0.0
362154.6038362722,4665833.5216966402,-22500.0,6658.6185442298602,-15970.238230939534,-31852.780449950984,-24635.563196405721,-43414.831108965685,-33519.963768211252,52239.990029631197,-5863.4321053564527,17899.081552362102,-17899.081552362102,5863.4321053564527,98947.12752173694,0.0
367154.6038362722,4665833.5216966402,-22500.0,19443.261583874631,936.53745831312017,-28876.862511405991,-13375.548935049688,-46849.137335124578,-45691.045593273964,55813.982422022425,15428.994520632517,2088.8678979501847,-2088.8678979501847,-15428.994520632517,102732.11182819527,0.0
372154.6038362722,4665833.5216966402,-22500.0,21363.443357780641,18191.635645706901,-8899.3884013590614,3079.2904153009999,-34136.79268260856,-47566.50203632981,50637.50463733873,34270.969847840548,-17808.02347601272,17808.02347601272,-34270.969847840548,89990.976060037981,0.0
377154.6038362722,4665833.5216966402,-22500.0,13310.184484812033,20466.800390954944,15041.373005484329,12133.225141530729,-10726.93133574768,-34885.080810380212,38428.226178683704,35462.032675414339,-27286.334908651002,27286.334908651002,-35462.032675414339,66728.794983711501,0.0
382154.6038362722,4665833.5216966402,-22500.0,8230.5596941886051,10118.693624295531,22853.995114257334,8763.2383849001908,4598.4571773383923,-18183.876593767691,25158.275196376162,23315.856565292404,-21757.343299468903,21757.343299468903,-23315.856565292404,43575.468549450561,0.0
387154.6038362722,4665833.5216966402,-22500.0,8556.8322047925121,3197.8050312827932,17071.614193592945,3798.1248312288603,6707.7090317898346,-7871.77418380583,15109.661027938186,13625.463296545311,-12969.052042584315,12969.052042584315,-13625.463296545311,26291.097943744626,0.0
392154.6038362722,4665833.5216966402,-22500.0,8047.4693115898772,1716.0778074162943,10307.275217009859,1416.2758884185753,4773.1387213041044,-2386.6468513159475,8424.4575104815649,8555.4115516360853,-6862.9964549524821,6862.9964549524821,-8555.4115516360853,14857.907699675006,0.0
397154.6038362722,4665833.5216966402,-22500.0,6569.1358430627579,1803.027684858984,5987.6226692011523,172.74018128178298,2855.4942351328759,211.0557503682642,4818.0074200057879,5877.5042305709439,-3279.1749889985031,3279.1749889985031,-5877.5042305709439,8448.0659733779648,0.0
402154.6038362722,4665833.5216966402,-22500.0,5131.5406723067945,2030.9194284306416,3520.1815855315208,-450.39493553653818,1446.2137054050386,1004.6209502278479,3276.649645576947,4456.2808344250952,-1453.2081938412971,1453.2081938412971,-4456.2808344250952,5677.5932504679777,0.0
407154.6038362722,4665833.5216966402,-22500.0,3937.7107912313227,2173.6631047415808,2128.6103869242461,-594.63647040677824,491.20697520487471,927.01928764825993,2674.3847300892371,3659.0209497468904,-677.05859309439256,677.05859309439256,-3659.0209497468904,4780.118067397807,0.0
412154.6038362722,4665833.5216966402,-22500.0,2930.9727432497148,2219.6445753506755,1344.0221159160546,-457.404107695226,-97.88979494660218,586.85500043941022,2401.4437457417912,3121.4170157526469,-417.78261008530535,417.78261008530535,-3121.4170157526469,4441.8656074875244,0.0
417154.6038362722,4665833.5216966402,-22500.0,2075.0682053217438,2179.9892908235793,902.00389338366267,-221.80059237319676,-418.30509415304442,261.69500215921988,2302.6715978482412,2679.248824650464,-362.40103815099883,362.40103815099883,-2679.248824650464,4179.328026497421,0.0
422154.6038362722,4665833.5216966402,-22500.0,1365.4384349217983,2073.7661010346883,651.78202737453978,3.5550984807748618,-561.03259883820169,31.96326283326415,2199.7280453764679,2280.8036358158893,-363.35402836715878,363.35402836715878,-2280.8036358158893,3896.3632497751737,0.0
427154.6038362722,4665833.5216966402,-22500.0,799.67500663088924,1923.9800163476561,507.41814722595086,175.59653763170689,-597.20847444066419,-104.64606843050912,2056.8127628223456,1919.2225247031993,-365.12823087811057,365.12823087811057,-1919.2225247031993,3592.5604057843839,0.0
432154.6038362722,4665833.5216966402,-22500.0,366.28467684903859,1751.9519745103039,420.65856419337905,288.47055718710186,-575.52169435542851,-173.27398805775994,1891.3718567381916,1598.4347766789267,-353.64841294799726,353.64841294799726,-1598.4347766789267,3282.4909118909454,0.0
437154.6038362722,4665833.5216966402,-22500.0,46.441060698032231,1574.0916766576836,364.94416699279083,351.72354236534721,-526.29408237015105,-198.69691662540151,1719.8973329668111,1321.098526261711,-329.95382502146026,329.95382502146026,-1321.098526261711,2979.0925829249686,0.0
442154.6038362722,4665833.5216966402,-22500.0,-181.25750032101769,1401.3669594170951,325.94456764361985,378.55950751426241,-467.05823466961283,-199.22599611084226,1552.9056573181938,1086.3486524491873,-298.83274857353638,298.83274857353638,-1086.3486524491873,2691.1950158908062,0.0
447154.6038362722,4665833.5216966402,-22500.0,-337.19811386198779,1240.1890095316487,296.07177829025505,380.90999200775474,-407.24787790535652,-186.79880329574803,1396.2083412087684,890.6769665581694,-264.75977758528757,264.75977758528757,-890.6769665581694,2423.9314058037676,0.0
452154.6038362722,4665833.5216966402,-22500.0,-438.95365066014881,1093.6749678144452,271.38023574249837,367.99986366639968,-351.48521078682501,-168.62641115341438,1252.5287300738346,729.26404364117025,-230.87986015751352,230.87986015751352,-729.26404364117025,2179.6560537857181,0.0
457154.6038362722,4665833.5216966402,-22500.0,-500.76954855239904,962.78889893929272,249.85491397604073,346.38892832610304,-301.6774605037325,-148.80518870968734,1122.7090057735029,596.98032779475966,-199.06835570159282,199.06835570159282,-596.98032779475966,1958.8246647416834,0.0
462154.6038362722,4665833.5216966402,-22500.0,-533.7422722380104,847.2014322354147,230.48278626858118,320.48833707702005,-258.27725167268136,-129.50977120179328,1006.5072488638283,488.96885393568516,-170.26461503583235,170.26461503583235,-488.96885393568516,1760.6901451805506,0.0
467154.6038362722,4665833.5216966402,-22500.0,-546.28573013252958,745.88141149820603,212.75834956892399,293.13237709483087,-221.0109447698498,-111.78289846749526,903.10298183114571,400.92023623297712,-144.79973269699667,144.79973269699667,-400.92023623297712,1583.8144930355797,0.0
472154.6038362722,4665833.5216966402,-22500.0,-544.65923727062682,657.47427407736905,196.42486027024384,266.05917976466259,-189.2840915292266,-96.027378122257744,811.40513932580825,329.15721540960715,-122.64430457984984,122.64430457984984,-329.15721540960715,1426.4176719165375,0.0
477154.6038362722,4665833.5216966402,-22500.0,-533.45329548609743,580.53096060546227,181.34184617068451,240.27264302530276,-162.39867739387225,-82.301159161214628,730.23437486651278,270.61753505962838,-103.57562246223424,103.57562246223424,-270.61753505962838,1286.6042119995464,0.0
267154.6038362722,4670833.5216966402,-22500.0,-1605.8096764697502,52.477421131929525,416.3389540975719,-487.6766625285527,23.222709145603329,-113.53849345031456,1085.255789161522,-376.71310508850058,338.39527996359641,-338.39527996359641,376.71310508850058,2005.4249778959111,0.0
272154.6038362722,4670833.5216966402,-22500.0,-1819.8300227424158,42.002569174080861,477.51619346399895,-570.76821122778313,21.60324521038595,-135.39504901353274,1237.2182556679993,-433.6182283441355,392.81595319293427,-392.81595319293427,433.6182283441355,2286.7908311439796,0.0
277154.6038362722,4670833.5216966402,-22500.0,-2072.2091623419269,25.129982275517822,550.29572542520316,-671.36057921993631,18.089740223197836,-161.73860975486761,1417.8141210921283,-503.36595172174731,459.5398063863492,-459.5398063863492,503.36595172174731,2621.5000672693436,0.0
282154.6038362722,4670833.5216966402,-22500.0,-2371.9153863684601,-1.071927112825104,637.23492202946852,-793.92321300437789,11.651885410157988,-193.36445476114605,1634.003381225627,-590.11405672758008,542.39812461332588,-542.39812461332588,590.11405672758008,3022.7198817054368,0.0
287154.6038362722,4670833.5216966402,-22500.0,-2730.6709398343573,-40.949104342794342,741.44990145521922,-944.36551917145607,0.70667842192514296,-231.07037079674302,1894.9309809384717,-699.82506432125922,646.82799420560684,-646.82799420560684,699.82506432125922,3507.8799291906121,0.0
292154.6038362722,4670833.5216966402,-22500.0,-3164.0563695410474,-101.02650606261847,866.66683764050072,-1130.6821940303942,-17.213103493293445,-275.53969285242306,2212.8328100973245,-841.22437868503698,780.72812257291139,-780.72812257291139,841.22437868503698,4100.5221095160387,0.0
297154.6038362722,4670833.5216966402,-22500.0,-3693.1484670283298,-191.23885739318274,1017.1805565040883,-1364.0165479421146,-46.024981798279775,-327.15220588309535,2604.4345323846546,-1027.3244771796096,955.84867513616462,-955.84867513616462,1027.3244771796096,4833.2055290211983,0.0
302154.6038362722,4670833.5216966402,-22500.0,-4346.9467955130594,-326.9390886984736,1197.5791848683821,-1660.4878987356851,-92.09592951297671,-385.73949550221795,3093.1688118000598,-1277.8494521953314,1190.0704933371674,-1190.0704933371674,1277.8494521953314,5752.1898005538505,0.0
307154.6038362722,4670833.5216966402,-22500.0,-5165.8936056017355,-532.20608969771945,1411.9283174122934,-2044.4375959180957,-166.06766329158782,-450.42431390998701,3712.7634052045441,-1623.0478448766667,1511.1488770365327,-1511.1488770365327,1623.0478448766667,6925.1364773916121,0.0
312154.6038362722,4670833.5216966402,-22500.0,-6206.6909737346959,-845.29715346531532,1661.7624423323327,-2554.3054967198659,-286.30116488448863,-520.04730614045184,4513.1147950104096,-2109.5099506483539,1962.7952287364603,-1962.7952287364603,2109.5099506483539,8453.8926647137559,0.0
317154.6038362722,4670833.5216966402,-22500.0,-7547.9886910391406,-1327.4992916443116,1941.5192477742721,-3253.2746859399849,-485.55187765508811,-595.64455316560486,5569.8757454522747,-2808.4654060553648,2614.2405032793513,-2614.2405032793513,2808.4654060553648,10495.568520793844,0.0
322154.6038362722,4670833.5216966402,-22500.0,-9294.4157823960268,-2076.8538900582657,2228.664567431118,-4248.0870305105991,-824.10259059056375,-688.75364303165213,6999.7669198709154,-3825.903044614764,3574.2140531241635,-3574.2140531241635,3825.903044614764,13296.285084484412,0.0
327154.6038362722,4670833.5216966402,-22500.0,-11570.77931159457,-3247.1151621199515,2463.3244129174032,-5720.2793671826321,-1415.5148727208375,-844.41686129790207,8983.9164862519938,-5309.7861077218358,5008.1443902903748,-5008.1443902903748,5309.7861077218358,17241.900746729094,0.0
332154.6038362722,4670833.5216966402,-22500.0,-14485.534731855343,-5066.3596395264221,2509.1746845002172,-7971.4131254132717,-2475.4973658207246,-1197.5969678641222,11801.155080541414,-7438.2090365266176,7149.6077746448245,-7149.6077746448245,7438.2090365266176,22925.604471596285,0.0
337154.6038362722,4670833.5216966402,-22500.0,-18020.097754431441,-7830.3562108364549,2088.3042048221096,-11468.874473022508,-4407.1755584251787,-2096.9070140639915,15878.527905753392,-10345.442243663199,10275.565970891954,-10275.565970891954,10345.442243663199,31217.369880177292,0.0
342154.6038362722,4670833.5216966402,-22500.0,-21778.301974448095,-11800.286018512248,707.10243377189931,-16833.718265306336,-7923.5748696616138,-4341.5310669225792,21937.174158583781,-13893.508417481098,14567.991996950812,-14567.991996950812,13893.508417481098,43287.1011279589,0.0
347154.6038362722,4670833.5216966402,-22500.0,-24555.518648081368,-16872.803980170338,-2317.9394913501505,-24618.643791094408,-14144.519619724626,-9550.0843765424106,30914.723449885296,-17151.050131172906,19713.999267212272,-19713.999267212272,17151.050131172906,60485.520305700709,0.0
352154.6038362722,4670833.5216966402,-22500.0,-23799.804063550393,-21911.348860392925,-7476.6424957116151,-34588.971228000417,-24450.334713138422,-20526.649595442435,43360.900280957547,-17519.04924203358,24063.825736496336,-24063.825736496336,17519.04924203358,83944.624221898805,0.0
357154.6038362722,4670833.5216966402,-22500.0,-15123.667685443368,-23642.672929954111,-14120.612818048046,-43938.798165444299,-39567.250136502917,-40973.347256209148,59245.777861555907,-9708.7238622187651,23213.43401889065,-23213.43401889065,9708.7238622187651,113404.69325594687,0.0
362154.6038362722,4670833.5216966402,-22500.0,6005.9809261123391,-14508.927295685773,-18018.671501090234,-43574.457755725038,-55760.809911816199,-71842.55469314463,76126.945214256251,14344.852375744063,8274.6835109250205,-8274.6835109250205,-14344.852375744063,142908.45040825009,0.0
367154.6038362722,4670833.5216966402,-22500.0,30373.261491489626,12844.16882226087,-4748.7600442082276,-19982.173353673366,-54578.722938090446,-98509.479533109523,85618.636550315277,54780.455365406058,-28492.909738465474,28492.909738465474,-54780.455365406058,154748.13631056654,0.0
372154.6038362722,4670833.5216966402,-22500.0,30922.60723276703,34942.609534628064,33801.470941589214,14240.196677460775,-14304.417714558649,-87115.847510175736,79512.01083794322,76448.403425313649,-64706.973076734437,64706.973076734437,-76448.403425313649,138442.54354758555,0.0
377154.6038362722,4670833.5216966402,-22500.0,16155.058900911725,20150.942013419841,55570.984311831169,17948.840089611225,31796.904546371145,-36363.202199701744,62092.140173367865,49803.273683520063,-56837.25066801456,56837.25066801456,-49803.273683520063,107701.58855490205,0.0
382154.6038362722,4670833.5216966402,-22500.0,18719.662665235228,-1080.8187493628857,39737.22114134056,-1578.2846364749425,32818.137692630837,-10271.295400710685,41305.210383547303,23635.844604007725,-28793.851408047813,28793.851408047813,-23635.844604007725,71649.148702778155,0.0
387154.6038362722,4670833.5216966402,-22500.0,20647.385711709176,-2042.4290276071697,20565.269769403036,-2461.8271485699102,16133.114914265976,-8131.7566622110589,22125.495136197889,16679.379615156275,-16905.445420351938,16905.445420351938,-16679.379615156275,40464.936310947436,0.0
392154.6038362722,4670833.5216966402,-22500.0,14282.105006401071,1401.669446013645,10624.743464095796,650.04349584072634,6896.0276582387805,-4391.1643358009005,11245.762869645918,11713.766248533886,-9915.9913743891757,9915.9913743891757,-11713.766248533886,21061.806141757603,0.0
397154.6038362722,4670833.5216966402,-22500.0,8461.3240997182565,3095.0258898095221,5968.6372047533632,1267.6620964659369,2835.9936045130744,-1218.2144112872154,6669.1918638517591,7932.4883146251359,-5156.139068383789,5156.139068383789,-7932.4883146251359,11552.745624716952,0.0
402154.6038362722,4670833.5216966402,-22500.0,4968.446338221097,3537.4439620348835,3635.2781960350962,917.44746951523462,891.78539067107954,106.70134243284829,4106.9638463528909,5672.0893652057548,-2539.0330547871417,2539.0330547871417,-5672.0893652057548,7834.7865724733474,0.0
407154.6038362722,4670833.5216966402,-22500.0,2977.0876130200386,3482.4191560235836,2375.7963734222999,634.84295451069931,-105.89774787882327,300.03974758495082,3608.0355501249442,4376.693323229154,-1354.8561120392737,1354.8561120392737,-4376.693323229154,6598.7044382659515,0.0
412154.6038362722,4670833.5216966402,-22500.0,1731.8984174810998,3250.740837692118,1660.0575803679569,573.11268347604039,-594.65458969009217,105.95250728620141,3421.3043462925275,3536.3800606055233,-888.90981778719333,888.90981778719333,-3536.3800606055233,6023.3061155803071,0.0
417154.6038362722,4670833.5216966402,-22500.0,871.88751510370469,2954.3744696934741,1235.5830878986071,623.44089790136968,-791.14069277659792,-117.29121474117706,3185.2269329008277,2897.8595734603869,-712.00345274655251,712.00345274655251,-2897.8595734603869,5540.6895710150284,0.0
422154.6038362722,4670833.5216966402,-22500.0,253.46711232927532,2638.4872310468859,971.32445350159207,688.43155372875162,-826.02058012669795,-264.43296731004472,2914.7541664825899,2369.2201545346866,-627.96584198782318,627.96584198782318,-2369.2201545346866,5050.6342812568901,0.0
427154.6038362722,4670833.5216966402,-22500.0,-187.01096341904594,2327.3022523607769,796.87302489137642,725.47791849295663,-779.51280178204365,-332.97691945467011,2631.5066797380669,1923.1809788521664,-564.6480286436323,564.6480286436323,-1923.1809788521664,4558.9285919365338,0.0
432154.6038362722,4670833.5216966402,-22500.0,-489.39686671131693,2035.2409342032265,674.07655916678971,727.15008734802643,-698.29435473202091,-347.02524357223569,2353.7169802007334,1550.3106896485076,-502.30925301093362,502.30925301093362,-1550.3106896485076,4084.6050284685002,0.0
437154.6038362722,4670833.5216966402,-22500.0,-685.68379296208616,1770.0427800711177,582.17933377808413,700.44584954040727,-607.67242588169813,-329.9554176965666,2092.973535975816,1243.3347074558674,-439.24736031000464,439.24736031000464,-1243.3347074558674,3641.6794917693851,0.0
442154.6038362722,4670833.5216966402,-22500.0,-802.81179459370173,1534.6837153328661,509.77897400685464,655.4921260352844,-520.23323111134937,-298.10766675521887,1855.1390373442432,993.96209615891757,-378.13899263988179,378.13899263988179,-993.96209615891757,3237.5686475905513,0.0
447154.6038362722,4670833.5216966402,-22500.0,-862.75237103897257,1329.0362838721071,450.48182802070795,601.06471161863465,-441.44309219188659,-261.33817013005989,1642.1786655791852,793.32326916901422,-321.55892109880131,321.55892109880131,-793.32326916901422,2874.7087002578564,0.0
452154.6038362722,4670833.5216966402,-22500.0,-882.66963073512079,1151.1878087019616,400.57912007225286,543.47674931441759,-373.01107729061658,-224.98984219973522,1453.7244810499274,632.875084793214,-270.98351829580321,270.98351829580321,-632.875084793214,2552.3550162193401,0.0
457154.6038362722,4670833.5216966402,-22500.0,-875.48777889251983,998.3667625417055,357.81326514005542,486.77899082064164,-314.7992423070649,-191.62745647068388,1288.1635757353085,504.98798893509803,-226.89829105728967,226.89829105728967,-504.98798893509803,2267.9630465260771,0.0
462154.6038362722,4670833.5216966402,-22500.0,-850.65927027344787,867.52819034047809,320.72498455902019,433.31441406943344,-265.85903326447652,-162.23390889628001,1143.3213606013621,403.17710385413847,-189.13483640544206,189.13483640544206,-403.17710385413847,2018.1185856743857,0.0
467154.6038362722,4670833.5216966402,-22500.0,-814.9386657768855,755.69170831943643,288.30750077809552,384.26080714889338,-224.96928023115638,-136.95259652671322,1016.8649746054198,322.10386302255108,-157.16861043657457,157.16861043657457,-322.10386302255108,1799.1231728764999,0.0
472154.6038362722,4670833.5216966402,-22500.0,-773.05550780106194,660.11336569225887,259.8211359019287,340.05296737835732,-190.89890770065506,-115.51932451421695,906.52308138534522,257.461790431309,-130.32300500911396,130.32300500911396,-257.461790431309,1607.3327081786977,0.0
477154.6038362722,4670833.5216966402,-22500.0,-728.25778264935423,578.35781956439939,234.69325171383795,300.68068188754125,-162.52339163159957,-97.501961097043804,810.19675744674021,205.82098509105151,-107.8925692833576,107.8925692833576,-205.82098509105151,1439.340859013636,0.0
267154.6038362722,4675833.5216966402,-22500.0,-1506.4565963245593,177.80469073298445,420.22712442537102,-460.49308974741638,55.293524548576642,-108.45714062828232,1049.0282522855887,-247.46564157548775,269.348976891924,-269.348976891924,247.46564157548775,1926.9631931744148,0.0
272154.6038362722,4675833.5216966402,-22500.0,-1706.2852558495035,192.46375877308347,484.28594292376584,-538.50798626169251,61.249581381393355,-129.1092338602366,1195.6338278025262,-280.08170110104675,310.35538763846102,-310.35538763846102,280.08170110104675,2196.2522612058037,0.0
277154.6038362722,4675833.5216966402,-22500.0,-1942.4596404653932,207.09580455469398,561.40388883854848,-632.98711391821416,67.46525598035231,-153.91096551519021,1370.0339214093838,-319.76355586088948,360.47103879067686,-360.47103879067686,319.76355586088948,2516.8027131059143,0.0
282154.6038362722,4675833.5216966402,-22500.0,-2223.9003869660087,220.73281206489372,654.88556091060116,-748.22018208894917,73.627782707344977,-183.54732167345131,1579.1162500625551,-369.00677504001419,422.64946128854831,-422.64946128854831,369.00677504001419,2901.4895878583598,0.0
287154.6038362722,4675833.5216966402,-22500.0,-2562.5295633213336,231.70757717565772,769.01194184620419,-889.95960718707909,79.14787660708933,-218.66563417464081,1832.0153856993163,-431.5547683978985,501.19256668621182,-501.19256668621182,431.5547683978985,3367.5108948511961,0.0
292154.6038362722,4675833.5216966402,-22500.0,-2974.6312200978118,237.18761890384988,909.35094270364993,-1066.1427500474788,82.950835160907801,-259.74646470519184,2141.0997136530837,-513.14867920430868,602.53940334483752,-602.53940334483752,513.14867920430868,3938.3689803392645,0.0
297154.6038362722,4675833.5216966402,-22500.0,-3482.969816908676,232.37734937793977,1083.1542771550519,-1288.1304175622179,83.095684047816917,-306.90803825717558,2523.5325850716304,-622.76179154129488,736.58769052691662,-736.58769052691662,622.76179154129488,4647.0547388690893,0.0
302154.6038362722,4675833.5216966402,-22500.0,-4120.1132813283448,209.13382302519796,1299.8337595412777,-1572.9233500629398,76.060059076978362,-359.68673858284382,3003.8140735307807,-774.62143039782325,918.92549443572,-918.92549443572,774.62143039782325,5541.3130986738761,0.0
307154.6038362722,4675833.5216966402,-22500.0,-4933.6167872840642,153.53460112531803,1571.4531413667182,-1947.2648971564574,55.352701343966778,-417.01476748573651,3618.021165960331,-991.46640772819319,1174.6006846625714,-1174.6006846625714,991.46640772819319,6692.551735188089,0.0
312154.6038362722,4675833.5216966402,-22500.0,-5993.8851278054572,41.579935128419713,1913.0110857500915,-2455.3946670871128,8.7354451896537206,-478.14249874619264,4420.9943922127213,-1309.5960426070064,1544.4037274583557,-1544.4037274583557,1309.5960426070064,8211.1098204693571,0.0
317154.6038362722,4675833.5216966402,-22500.0,-7405.2741146935214,-168.3635287642588,2341.883762413479,-3173.778001541772,-87.495441472077076,-546.66597188129765,5498.5764828477404,-1786.0743109803138,2094.9772030602744,-2094.9772030602744,1786.0743109803138,10272.402910331995,0.0
322154.6038362722,4675833.5216966402,-22500.0,-9319.1477835438054,-548.48686027843019,2874.8011599949496,-4238.6684410280477,-280.50823150251932,-643.3603629723591,6988.2780977126895,-2507.1045513726467,2933.844787573963,-2933.844787573963,2507.1045513726467,13160.815625315512,0.0
327154.6038362722,4675833.5216966402,-22500.0,-11941.051938340783,-1222.0279624710577,3518.4592952437397,-5895.4245177428547,-666.23477366189468,-841.7750850140892,9113.4476922096765,-3591.6848853901929,4227.8178882256407,-4227.8178882256407,3591.6848853901929,17340.149743492813,0.0
332154.6038362722,4675833.5216966402,-22500.0,-15505.584178098165,-2389.4698300158111,4245.3270814565376,-8578.4431262921935,-1441.7083041664705,-1358.0147459292189,12238.445457879357,-5169.9259685148427,6212.7591406246083,-6212.7591406246083,5169.9259685148427,23557.549833319936,0.0
337154.6038362722,4675833.5216966402,-22500.0,-20148.615653022502,-4337.7704718634732,4940.5093087182095,-13013.166888417658,-3006.5624271427309,-2757.5581627048446,16959.296533523371,-7275.8978568728289,9150.0921227542731,-9150.0921227542731,7275.8978568728289,32972.430994211492,0.0
342154.6038362722,4675833.5216966402,-22500.0,-25529.451497592119,-7335.5728231575677,5318.0759729483852,-20255.571341042465,-6127.0723367203991,-6379.7387536135002,24244.885745292326,-9501.1701558168734,13098.109199574634,-13098.109199574634,9501.1701558168734,47249.12277011868,0.0
347154.6038362722,4675833.5216966402,-22500.0,-30025.264857455066,-11131.227600857583,4941.8901031983723,-31370.134568413825,-12057.261823031704,-15055.514511430569,35403.272518253383,-10093.512777773751,17176.794979977931,-17176.794979977931,10093.512777773751,68435.715614200948,0.0
352154.6038362722,4675833.5216966402,-22500.0,-29691.928475854955,-13668.039201230995,4013.0112550848057,-46110.178007641072,-22035.829986344241,-33870.724975268487,51686.634960738316,-4230.1132588861838,17810.058372378651,-17810.058372378651,4230.1132588861838,98437.575298662225,0.0
357154.6038362722,4675833.5216966402,-22500.0,-17654.846462652436,-9781.3065554589739,5789.7401407254647,-59808.613083179138,-34915.076715735144,-69731.281207443622,74046.898827235622,17490.042029971781,5912.2441933824903,-5912.2441933824903,-17490.042029971781,138412.19020698324,0.0
362154.6038362722,4675833.5216966402,-22500.0,16356.873467122417,9533.1650104543605,17848.025952190408,-54706.520591407585,-41036.236734339633,-123581.42863362275,101476.26541877506,66627.653911587608,-35601.619432271706,35601.619432271706,-66627.653911587608,184652.62885878739,0.0
367154.6038362722,4675833.5216966402,-22500.0,56243.936760968441,51082.489526837686,53099.422088148218,4916.1021883862923,-608.33953313263999,-141955.92823662175,123957.19667589417,124302.66955681398,-110499.73579667057,110499.73579667057,-124302.66955681398,215804.79303267525,0.0
372154.6038362722,4675833.5216966402,-22500.0,35014.887067550437,47569.52270843611,91202.432286088238,48916.885644768059,100338.87495350676,-19191.689770142049,131171.92515462919,80516.412583933008,-108119.56523635323,108119.56523635323,-80516.412583933008,230893.83004713999,0.0
377154.6038362722,4675833.5216966402,-22500.0,27250.729740574759,-3516.7778541685238,61734.585365296087,-12320.449569884493,103311.83304363168,82678.309235603796,104554.97094203671,3501.5942143230404,-9654.9097847158773,9654.9097847158773,-3501.5942143230404,186714.98164645149,0.0
382154.6038362722,4675833.5216966402,-22500.0,48928.778723577285,-7848.8357850322172,27633.571329776492,-38953.152534649256,48898.838811527014,35286.43016264675,63822.030222156027,16303.858228290685,2007.7516340752754,-2007.7516340752754,-16303.858228290685,110721.40329814567,0.0
387154.6038362722,4675833.5216966402,-22500.0,38854.96938645123,374.16850448931945,14629.308694415393,-13407.499587706798,19168.09967357845,-2930.4296348834941,30763.407243399102,23457.167034938208,-14220.676675072169,14220.676675072169,-23457.167034938208,54429.537806660366,0.0
392154.6038362722,4675833.5216966402,-22500.0,19762.607945067826,4399.5595238218975,9158.5493001432769,783.5292488906573,7291.0984301452409,-6208.7148723090831,15455.455651093531,16246.943975165515,-12750.641133687652,12750.641133687652,-16246.943975165515,27035.989229255632,0.0
397154.6038362722,4675833.5216966402,-22500.0,8360.9318101037989,5287.5838278225719,6159.1229863347071,3725.938965906204,2510.5692632934997,-3122.9056903159717,9084.9863782454304,9911.2016056435878,-7581.6621169246546,7581.6621169246546,-9911.2016056435878,15996.050666099713,0.0
402154.6038362722,4675833.5216966402,-22500.0,3080.7361642841056,5040.0224272993073,4313.7515932223487,3322.7136223663465,403.31809762077648,-1248.8964169066589,6591.6219919605019,6403.4578012596967,-4106.2280134108632,4106.2280134108632,-6403.4578012596967,11636.979901407925,0.0
407154.6038362722,4675833.5216966402,-22500.0,751.74863172698883,4507.7123216255841,3135.6861460407786,2575.3520308765801,-546.9198409713191,-666.29186003816915,5555.1703386986574,4572.5328376743337,-2372.8976979342588,2372.8976979342588,-4572.5328376743337,9634.7084098763971,0.0
412154.6038362722,4675833.5216966402,-22500.0,-353.59208986366173,3943.7621376625857,2365.5537986172076,2076.4394115844707,-926.17819661290514,-601.80868356068447,4838.1348480928755,3492.3465432642379,-1584.4205044875969,1584.4205044875969,-3492.3465432642379,8384.4082922650596,0.0
417154.6038362722,4675833.5216966402,-22500.0,-943.4393620608804,3412.4927151224033,1845.9986681461587,1778.1135089605996,-1016.1679622836818,-639.21201135734168,4250.4822263245878,2738.6653879307182,-1202.8632361145696,1202.8632361145696,-2738.6653879307182,7385.3280218721484,0.0
422154.6038362722,4675833.5216966402,-22500.0,-1278.7513074671147,2931.4921249751796,1481.6279199704409,1573.6886818061373,-968.38549961525462,-647.79175105192337,3731.6130009011022,2156.0720276956272,-978.10627015350224,978.10627015350224,-2156.0720276956272,6503.8337658586124,0.0
427154.6038362722,4675833.5216966402,-22500.0,-1461.504566940017,2506.278489176666,1215.6776654179807,1404.3239223962678,-864.23053803252992,-613.18614069872308,3266.1387483239596,1690.4709769758572,-814.10850487484572,814.10850487484572,-1690.4709769758572,5711.1471475540739,0.0
432154.6038362722,4675833.5216966402,-22500.0,-1542.1096941374051,2137.0973325395412,1014.4448818666837,1248.6258485246897,-745.23124635959618,-551.40711188630542,2851.7031663691077,1318.1752060281938,-678.98720697069621,678.98720697069621,-1318.1752060281938,5002.9532351562348,0.0
437154.6038362722,4675833.5216966402,-22500.0,-1552.8302636233154,1820.848163998912,857.57567291394162,1102.3330525409879,-630.87332911004728,-479.20526538500462,2487.0833065569886,1023.1102068135453,-563.42105161094173,563.42105161094173,-1023.1102068135453,4377.2979569253248,0.0
442154.6038362722,4675833.5216966402,-22500.0,-1517.0626807964227,1552.4605208301361,732.38553849739162,966.62135453245958,-529.03847048724822,-407.52343482847868,2169.5119145533977,791.35943754127948,-464.64134916578513,464.64134916578513,-791.35943754127948,3829.9295285471685,0.0
447154.6038362722,4675833.5216966402,-22500.0,-1452.0798552958845,1326.0252978733656,630.6497667908211,843.2645882788928,-441.84106247958505,-342.02319032756515,1894.8539447708692,610.54321682545935,-381.17375665318235,381.17375665318235,-610.54321682545935,3354.4039593717616,0.0
452154.6038362722,4675833.5216966402,-22500.0,-1370.3420283528037,1135.5824720246285,546.80659715010222,733.19192350782703,-368.7464455179927,-284.91608569736655,1658.3122584799166,470.03617273422435,-311.48915666674236,311.48915666674236,-470.03617273422435,2943.1209864456041,0.0
457154.6038362722,4675833.5216966402,-22500.0,-1280.5367864669854,975.5787830557,476.94163444165451,636.37103181503596,-308.16547587096346,-236.49076934096715,1455.0073453815191,361.06028677439701,-253.86952335624122,253.86952335624122,-361.06028677439701,2588.2307041883455,0.0
462154.6038362722,4675833.5216966402,-22500.0,-1188.5020082687884,841.08412685831263,418.20220537137436,552.07926269653296,-258.23118333562695,-196.10237233528215,1280.3352776441675,276.57009920731127,-206.55089617650029,206.55089617650029,-276.57009920731127,2282.2258620169714,0.0
467154.6038362722,4675833.5216966402,-22500.0,-1097.9990533706639,727.85122046010588,368.44745265998637,479.20436453309031,-217.14902434982289,-162.73915061200336,1130.1418080804685,211.01957601464119,-167.86314318977918,167.86314318977918,-211.01957601464119,2018.2521118020322,0.0
472154.6038362722,4675833.5216966402,-22500.0,-1011.32470837115,632.29213215814593,326.03272595758364,416.47490375157241,-183.33443943422594,-135.3196180067246,1000.783506263626,160.09731877324322,-136.31199415425777,136.31199415425777,-160.09731877324322,1790.2364405211827,0.0
477154.6038362722,4675833.5216966402,-22500.0,-929.77067434639571,551.41301348045715,289.67093957702173,362.60885681129446,-155.44763682781411,-112.83278085786554,889.12167132401623,120.47613815325896,-110.6099468443927,110.6099468443927,-120.47613815325896,1592.9010311634579,0.0
482154.6038362722,4675833.5216966402,-22500.0,-853.95644293304713,482.7345027069253,258.33985930737492,316.39828877983842,-132.38255041254672,-94.39340235557583,792.48279463221058,89.597948615057618,-89.675130553517846,89.675130553517846,-89.597948615057618,1421.7161340917976,0.0
267154.6038362722,4680833.5216966402,-22500.0,-1375.5807758313069,291.37848110924324,406.83858758635461,-425.29318636897807,83.978223553388503,-101.84438004929736,1002.6507507135765,-121.33659532150349,198.26817117615732,-198.26817117615732,121.33659532150349,1829.637927094883,0.0
272154.6038362722,4680833.5216966402,-22500.0,-1553.0058302035593,328.9708918430693,469.18772892496827,-495.87488189119921,96.728244258097632,-120.82773210837868,1141.3102776252067,-129.92226379393156,225.0240622161088,-225.0240622161088,129.92226379393156,2081.9869999534299,0.0
277154.6038362722,4680833.5216966402,-22500.0,-1762.1164150187933,372.51722315049318,544.56532914993454,-581.05585879570106,111.70182527256266,-143.4692406474251,1306.107943063518,-139.65588722425443,257.29704495491984,-257.29704495491984,139.65588722425443,2381.9555679462883,0.0
282154.6038362722,4680833.5216966402,-22500.0,-2010.7519193273852,423.0053333805601,636.45335209426969,-684.60108594692178,129.26713183166396,-170.29052952931497,1503.544337998595,-151.2053631587857,296.94156007076793,-296.94156007076793,151.2053631587857,2741.5107576697242,0.0
287154.6038362722,4680833.5216966402,-22500.0,-2309.5194787285982,481.5133520846768,749.47633092386707,-811.59019285954253,149.79982894475583,-201.71796935036284,1742.2813137842886,-165.78906288633686,346.75993382790909,-346.75993382790909,165.78906288633686,3176.703920109931,0.0
292154.6038362722,4680833.5216966402,-22500.0,-2673.1486531514965,549.13150050543175,889.84753041401757,-969.11571182809303,173.61991069723706,-237.93668314747694,2034.1262052048676,-185.59969182210756,411.11825566966314,-411.11825566966314,185.59969182210756,3709.6053443871479,0.0
297154.6038362722,4680833.5216966402,-22500.0,-3122.6655057065886,626.77955160585032,1066.0159014136707,-1167.5236444659517,200.8514740111867,-278.68267827995408,2395.6143014700151,-214.52665919272516,497.00432008154445,-497.00432008154445,214.52665919272516,4371.4606718548393,0.0
302154.6038362722,4680833.5216966402,-22500.0,-3688.9165409160105,714.81605787592343,1289.611689297843,-1422.7150439092054,231.12021791985066,-323.0389555694187,2850.6329863124761,-259.3528607732768,615.8458658767662,-615.8458658767662,259.3528607732768,5207.9985238251884,0.0
307154.6038362722,4680833.5216966402,-22500.0,-4418.2708429010963,812.23678988636414,1576.8348787022646,-1760.5565281439194,262.90353349488146,-369.52994760902595,3434.8891700341219,-331.64190412003876,786.60340533671979,-786.60340533671979,331.64190412003876,6288.575691079368,0.0
312154.6038362722,4680833.5216966402,-22500.0,-5381.654448843633,915.07379544917399,1950.4815674367687,-2225.5017016071515,292.12127404752647,-417.4781385196822,4203.6572728272004,-450.43873325662742,1040.8847212981382,-1040.8847212981382,450.43873325662742,7722.1698522048337,0.0
317154.6038362722,4680833.5216966402,-22500.0,-6688.0830989546739,1013.2790529840453,2442.8266648040671,-2897.5393547595245,309.03437223070739,-472.40603105027145,5245.3493346161131,-645.30788961988719,1430.8939570671605,-1430.8939570671605,645.30788961988719,9685.4158962394231,0.0
322154.6038362722,4680833.5216966402,-22500.0,-8502.3086370108304,1084.8958294443869,3099.4299805500355,-3925.1107671371715,291.32178064044973,-562.93992428506351,6705.3062234395584,-957.05498522460221,2040.137798641189,-2040.137798641189,957.05498522460221,12471.107390207135,0.0
327154.6038362722,4680833.5216966402,-22500.0,-11059.289153423533,1086.0222563330426,3983.1477547582272,-5586.7008277605173,188.50437350963782,-788.00935520957842,8827.2916391696799,-1426.8324880452083,2992.4693460392982,-2992.4693460392982,1426.8324880452083,16569.478918658264,0.0
332154.6038362722,4680833.5216966402,-22500.0,-14645.377754640451,937.08826358447391,5174.8360062381016,-8396.8915389146459,-112.86701398192822,-1438.7090493039534,12024.969326024027,-2045.7582809261144,4440.0368210131019,-4440.0368210131019,2045.7582809261144,22796.797092776611,0.0
337154.6038362722,4680833.5216966402,-22500.0,-19450.246004545046,520.49122727852944,6759.1448524932421,-13255.492330176909,-863.99705483034973,-3290.7414106701408,16999.04302906094,-2587.5563652144438,6464.9415031148264,-6464.9415031148264,2587.5563652144438,32476.259370360327,0.0
342154.6038362722,4680833.5216966402,-22500.0,-25024.621184657899,-222.75351545546806,8769.1958982274136,-21526.929327676982,-2592.2843273764056,-8243.2868998955091,24887.1273069788,-2116.4936411679519,8695.8761957538409,-8695.8761957538409,2116.4936411679519,47613.702255828284,0.0
347154.6038362722,4680833.5216966402,-22500.0,-28763.831010355541,-704.4638054360729,11108.187941375438,-34463.223417703826,-6195.4100486054585,-20469.106315639845,37299.156437414611,2345.3244646025632,9065.2627306631039,-9065.2627306631039,-2345.3244646025632,70764.626492390482,0.0
352154.6038362722,4680833.5216966402,-22500.0,-23134.231158480248,2554.8652984019523,14116.512453592924,-49939.614522482436,-11808.207192627815,-47205.236832926377,55949.381323268513,18663.989509274001,426.77837627410554,-426.77837627410554,-18663.989509274001,103843.50076942041,0.0
357154.6038362722,4680833.5216966402,-22500.0,4026.1906164353136,18760.618376219463,22392.439700280444,-53817.08611370586,-11693.93255791497,-92810.019478029019,82073.785102746886,59880.509499579319,-34048.92871159238,34048.92871159238,-59880.509499579319,147132.76827644915,0.0
362154.6038362722,4680833.5216966402,-22500.0,61672.876769713272,50871.826377507525,42085.626391621183,-8815.3059615297334,19394.44716918447,-128209.11307476723,117687.22045773485,119948.03350261223,-108223.35710738567,108223.35710738567,-119948.03350261223,204560.39481001717,0.0
367154.6038362722,4680833.5216966402,-22500.0,90650.860394840565,73643.806702605551,47742.664221685554,122534.22096774282,107423.54036453681,30439.73074884223,173187.7630465166,82829.63698173243,-123859.4710955223,123859.4710955223,-82829.63698173243,314350.96669844078,0.0
372154.6038362722,4680833.5216966402,-22500.0,13070.771688586028,24364.071588320588,19615.490361535682,34075.201596375926,144254.70308413298,367344.63977560436,229337.35406162887,-94992.343081702013,119975.36978831055,-119975.36978831055,94992.343081702013,436951.51250716188,0.0
377154.6038362722,4680833.5216966402,-22500.0,67634.003913770881,4415.8142959399665,12389.70815837193,-106451.73143079612,61994.258176335323,231393.44177991804,158497.79428778373,-28998.29278238953,135942.74156084843,-135942.74156084843,28998.29278238953,290689.0714904776,0.0
382154.6038362722,4680833.5216966402,-22500.0,79350.162347446836,13810.84531057865,13050.559085021909,-63579.058740682631,22172.779449424012,50565.063184591898,75310.677416347753,37434.217884975762,27388.37833238066,-27388.37833238066,-37434.217884975762,132248.94552839964,0.0
387154.6038362722,4680833.5216966402,-22500.0,46246.745911829872,12242.249195819148,11117.601740153574,-13362.135722889909,12130.309263316976,-4463.0380147397009,33914.324732014109,34499.644627934547,-14778.377837494736,14778.377837494736,-34499.644627934547,58743.841068339359,0.0
392154.6038362722,4680833.5216966402,-22500.0,18562.437884113027,8753.5338372075967,9192.4044854825534,5032.9534213232691,6308.0410702773261,-9032.3818489977002,18335.852214664963,19414.151396551169,-16364.869077124007,16364.869077124007,-19414.151396551169,31873.912377363606,0.0
397154.6038362722,4680833.5216966402,-22500.0,4848.8733752528169,6647.8910633330106,7230.3574041132024,7817.6995200686006,2550.5929105860196,-5401.6181460147764,12484.91560408511,10121.336643291203,-10411.866334149212,10411.866334149212,-10121.336643291203,21693.423915275103,0.0
402154.6038362722,4680833.5216966402,-22500.0,-604.46343588990953,5408.8469919554336,5543.2030082766514,6538.5657341057868,478.13692124492951,-2923.2783482194181,9548.9633229120991,5767.2155340641893,-6003.6172972401509,6003.6172972401509,-5767.2155340641893,16557.090734918689,0.0
407154.6038362722,4680833.5216966402,-22500.0,-2495.2744450036853,4554.2771506298568,4248.7064770346669,4990.256017426892,-509.5975099864844,-1878.8531661213801,7659.1617984977602,3778.4023334097355,-3642.502540366665,3642.502540366665,-3778.4023334097355,13394.606222071336,0.0
412154.6038362722,4680833.5216966402,-22500.0,-3056.3536172738568,3872.9285015884275,3295.5911676559681,3873.1190924923139,-892.36905378956567,-1471.872848673398,6352.7107458843566,2730.729287679771,-2449.1444167477202,2449.1444167477202,-2730.729287679771,11188.569843172359,0.0
417154.6038362722,4680833.5216966402,-22500.0,-3144.0739464679714,3291.8543575869471,2596.1911217735001,3113.9216107730331,-971.57876575698413,-1257.9308143897094,5369.2041934541257,2055.1876882392421,-1797.2055727558813,1797.2055727558813,-2055.1876882392421,9492.7104694395384,0.0
422154.6038362722,4680833.5216966402,-22500.0,-3054.3962842295609,2789.6067487750752,2076.6921066617565,2568.8621838422682,-914.62520624456124,-1085.4298799765666,4574.6382655939597,1557.8469117417037,-1387.0430568320005,1387.0430568320005,-1557.8469117417037,8108.9117715111279,0.0
427154.6038362722,4680833.5216966402,-22500.0,-2889.897057818614,2358.611665325137,1684.287464342658,2148.5743810209847,-807.07182891102343,-922.54455559689325,3911.1282324359372,1173.7967828982732,-1094.6940527716129,1094.6940527716129,-1173.7967828982732,6948.8822073991023,0.0
432154.6038362722,4680833.5216966402,-22500.0,-2691.5653637827527,1992.8345488030691,1382.8415862112431,1808.2356121140422,-689.54745445085541,-770.83558208657564,3351.336680556054,875.70825328022522,-870.64979214566699,870.64979214566699,-875.70825328022522,5967.7385914709212,0.0
437154.6038362722,4680833.5216966402,-22500.0,-2480.1241354291737,1685.2442787404705,1147.6738209266155,1525.9186483415065,-579.5864722029919,-635.8390146562632,2878.3394677785182,646.23095189897208,-693.58680576526854,693.58680576526854,-646.23095189897208,5136.6137935608849,0.0
442154.6038362722,4680833.5216966402,-22500.0,-2268.0470696165621,1428.1447069777828,961.6881006005076,1289.6722249893669,-483.45495198947884,-520.26294985055245,2478.9490407739263,471.30625811441911,-552.35260329217567,552.35260329217567,-471.30625811441911,4432.9222963222201,0.0
447154.6038362722,4680833.5216966402,-22500.0,-2063.1996634346024,1213.9254693550974,812.81402338454052,1091.6407695378068,-402.2285353918183,-423.93823580569,2141.8574957097953,339.04741885290383,-439.61013260036799,439.61013260036799,-339.04741885290383,3837.3612914861405,0.0
452154.6038362722,4680833.5216966402,-22500.0,-1870.3141733389452,1035.589994144847,692.36321087308932,925.75464621006165,-334.80085276055985,-345.0339358289437,1857.209851964451,239.64876792363955,-349.75414523859467,349.75414523859467,-239.64876792363955,3333.1177214618265,0.0
457154.6038362722,4680833.5216966402,-22500.0,-1691.8983955464539,887.00474968526737,593.96904173273458,786.92123115731658,-279.3179742228815,-281.06520177790253,1616.5011329040994,165.27426876678945,-278.24844522979197,278.24844522979197,-165.27426876678945,2905.6471786139837,0.0
462154.6038362722,4680833.5216966402,-22500.0,-1528.9232779350068,762.9547530781083,512.89110367653939,670.76383660348654,-233.82740596450552,-229.4902715452285,1412.4940397289256,109.81677155980873,-221.38681618091454,221.38681618091454,-109.81677155980873,2542.5241617774909,0.0
467154.6038362722,4680833.5216966402,-22500.0,-1381.3523831379503,659.09142001185035,445.55021718077938,573.52904614631848,-196.54509700316356,-187.99847476580237,1239.1037450059539,68.597763494577549,-176.16212559565471,176.16212559565471,-68.597763494577549,2233.2546717651799,0.0
472154.6038362722,4680833.5216966402,-22500.0,-1248.5304218213603,571.83165829004952,389.20983717335054,492.02934170869582,-165.94217250257284,-154.61473978344767,1091.2572632802874,38.072365769283934,-140.15873267119895,140.15873267119895,-38.072365769283934,1969.0500989921829,0.0
477154.6038362722,4680833.5216966402,-22500.0,-1129.4569291436721,498.24392109257099,341.75434337060585,423.5858456009646,-140.75141015813182,-127.70937606219826,964.74830760859709,15.57202501012366,-111.45283155669821,111.45283155669821,-15.57202501012366,1742.5921137927839,0.0
482154.6038362722,4680833.5216966402,-22500.0,-1022.9705191569841,435.93860098720933,301.53179546037563,365.96644374053335,-119.94137071044531,-105.96556913956333,856.10001877756144,-0.90558908288364393,-88.521815293112752,88.521815293112752,0.90558908288364393,1547.8077346742984,0.0
267154.6038362722,4685833.5216966402,-22500.0,-1218.6230200451046,387.55088901235212,378.35752969586468,-383.4575281775634,107.92809575358362,-93.944162542237379,947.37504932609545,-3.7408123023620448,128.30372299037685,-128.30372299037685,3.7408123023620448,1716.3364101066738,0.0
272154.6038362722,4685833.5216966402,-22500.0,-1366.866505719215,444.02050911065766,434.94987865503759,-444.66949153507073,126.20313433409821,-110.87952831941482,1075.8290978131258,9.7492468949369737,140.96843001765933,-140.96843001765933,-9.7492468949369737,1947.6716501874293,0.0
277154.6038362722,4685833.5216966402,-22500.0,-1539.9115219484756,511.29944812853677,503.1891313898127,-517.93030279468178,148.26887918312772,-130.8607953175536,1228.0456360565565,27.507314040725589,155.53378357387959,-155.53378357387959,-27.507314040725589,2221.6749366087106,0.0
282154.6038362722,4685833.5216966402,-22500.0,-1743.6091088482897,591.97758645047873,586.18618808585848,-606.18569295450163,175.03539627856756,-154.20733931125966,1409.8533692752917,50.568890167576882,172.69719648285758,-172.69719648285758,-50.568890167576882,2548.8764553183651,0.0
287154.6038362722,4685833.5216966402,-22500.0,-1985.8898171375497,689.40784166227991,688.09404200414144,-713.39251777640902,207.65316823334632,-181.07436914039346,1629.0162445895517,80.10345746544408,193.64233072615241,-193.64233072615241,-80.10345746544408,2943.3818624385035,0.0
292154.6038362722,4685833.5216966402,-22500.0,-2277.8357710346249,807.98410955182885,814.53605711236867,-845.08956355702605,247.57974694141257,-211.28691894680773,1896.1278568957555,117.34100657569115,220.42158533206361,-220.42158533206361,-117.34100657569115,3424.5848651109973,0.0
297154.6038362722,4685833.5216966402,-22500.0,-2635.43593811651,953.54647272645695,973.24619446604618,-1009.4523204436417,296.66552310333498,-244.11349358477591,2226.062589281963,163.42404157413554,256.62972355345164,-256.62972355345164,-163.42404157413554,4019.9817257551545,0.0
302154.6038362722,4685833.5216966402,-22500.0,-3082.4764864986319,1133.9866953455914,1175.0445888703007,-1219.3214681977827,357.26515075494416,-278.05925596540919,2640.4044381381009,219.18180002707834,308.56295844489762,-308.56295844489762,-219.18180002707834,4769.937464466132,0.0
307154.6038362722,4685833.5216966402,-22500.0,-3655.2599512612119,1360.1793082011745,1435.3534870238561,-1496.2114678696835,432.3857632434806,-311.01447770621536,3171.6200854283916,284.93735317380725,387.12997385867465,-387.12997385867465,-284.93735317380725,5735.9518724214904,0.0
312154.6038362722,4685833.5216966402,-22500.0,-4410.0673096743349,1647.4570389641447,1776.596395355768,-1878.3405780862543,525.89107192626409,-341.83620728905606,3870.3639636891326,360.85238080533463,510.74841618019161,-510.74841618019161,-360.85238080533463,7015.201545422563,0.0
317154.6038362722,4685833.5216966402,-22500.0,-5434.0585655050581,2018.0328506269127,2232.0514937553521,-2436.7041226801634,642.79685777441125,-376.45590950978129,4818.4070817017246,449.5157114133367,708.93373791340969,-708.93373791340969,-449.5157114133367,8766.1829534831268,0.0
322154.6038362722,4685833.5216966402,-22500.0,-6858.2228415197878,2505.1433892436448,2852.0768765224543,-3306.650413532826,789.71924216215325,-446.80209402328211,6151.6406121664422,565.84150540890448,1024.0599367560744,-1024.0599367560744,-565.84150540890448,11253.418594243343,0.0
327154.6038362722,4685833.5216966402,-22500.0,-8862.6851101180655,3160.5436187433929,3714.0348622946444,-4747.1375206144767,975.57098321677881,-663.53842277807291,8101.1228759495134,768.23137228785663,1501.3833218900381,-1501.3833218900381,-768.23137228785663,14923.464336818446,0.0
332154.6038362722,4685833.5216966402,-22500.0,-11637.719083994889,4069.3009727191902,4937.1886951898623,-7241.4628566920228,1212.6383972668332,-1352.7649311763807,11065.835720442679,1247.3758976380916,2135.521008671155,-2135.521008671155,-1247.3758976380916,20529.031711208296,0.0
337154.6038362722,4685833.5216966402,-22500.0,-15183.317638537177,5383.8482358545525,6700.9600351027048,-11629.376517375138,1518.5562619749282,-3387.6310624389434,15734.604919590607,2563.8359028191044,2680.3811076343554,-2680.3811076343554,-2563.8359028191044,29317.613308505792,0.0
342154.6038362722,4685833.5216966402,-22500.0,-18596.695952373295,7425.3990846626266,9250.6966091357717,-19110.931609374922,1926.982402213619,-8928.1465991261266,23255.341246969761,6257.9879972320377,2058.906509620911,-2058.906509620911,-6257.9879972320377,43266.000380208912,0.0
347154.6038362722,4685833.5216966402,-22500.0,-17881.698810816029,11089.968245734764,12836.317299796685,-30208.519099360539,2616.7478371752268,-22760.924411630716,35387.288743335244,16335.372890574436,-3374.6369628829862,3374.6369628829862,-16335.372890574436,65149.456330672794,0.0
352154.6038362722,4685833.5216966402,-22500.0,-1040.5546950231137,19536.090172293982,17652.229743508677,-38407.135480587371,5384.5456721335886,-52038.474444558211,54499.837888646143,41644.184668373447,-24199.520224717038,24199.520224717038,-41644.184668373447,97779.2501042808,0.0
357154.6038362722,4685833.5216966402,-22500.0,46632.066460465983,38589.305220544309,25343.405040811434,-11675.803867091367,23346.051740715146,-82409.646130670109,83181.137495210918,84504.872777194862,-75603.617983885488,75603.617983885488,-84504.872777194862,144462.23167600165,0.0
362154.6038362722,4685833.5216966402,-22500.0,97687.48615119436,36779.309362862594,32028.765749656723,74353.114967012792,65084.870037406945,-16282.682240131431,119152.86992563547,74159.078225347097,-101485.20313674276,101485.20313674276,-74159.078225347097,207770.45569154341,0.0
367154.6038362722,4685833.5216966402,-22500.0,76314.874959492969,-5201.9586875024761,20105.009188090673,155761.53558598325,6667.693951379415,251885.43768814905,179657.00783108149,-68370.142340873033,74954.811588154102,-74954.811588154102,68370.142340873033,341837.52387068496,0.0
372154.6038362722,4685833.5216966402,-22500.0,10529.377480904654,33010.266015701891,25951.988436008109,-19898.08163056909,-83662.584865730227,424654.31652063277,231210.03485594995,-101907.60266081797,303232.87560968933,-303232.87560968933,101907.60266081797,436812.94910519163,0.0
377154.6038362722,4685833.5216966402,-22500.0,75428.423238173957,58357.656266695056,25896.026209471656,-109718.0362703362,-41788.939841187705,184377.92974296954,144802.17659835031,33586.853897394612,153663.97445192427,-153663.97445192427,-33586.853897394612,267001.72396139498,0.0
382154.6038362722,4685833.5216966402,-22500.0,73524.138255384314,37472.725598427554,19372.35948532055,-45890.49998979464,-1373.2933021072763,23050.41938483257,64448.741889914949,61475.734542318583,12376.620289653853,-12376.620289653853,-61475.734542318583,115251.27784693291,0.0
387154.6038362722,4685833.5216966402,-22500.0,36767.852927068729,18380.724254037883,13752.992551255849,-1106.6740629569558,8650.3291520179046,-12850.851486877551,31720.102122623255,37375.255671525563,-22759.296692543561,22759.296692543561,-37375.255671525563,55600.754579318222,0.0
392154.6038362722,4685833.5216966402,-22500.0,11205.69274078626,8888.6162320910989,10444.717951001832,11855.872877118381,7110.4073722136745,-12214.947805949472,21135.109287017785,17209.813920126806,-20397.405978351606,20397.405978351606,-17209.813920126806,36628.736107450757,0.0
397154.6038362722,4685833.5216966402,-22500.0,-601.79867516544221,5180.8457611044814,8246.3746959375439,12187.547073365513,3806.6219046281453,-7512.1046265013601,15792.415080731906,7363.9865568044224,-13013.440346703053,13013.440346703053,-7363.9865568044224,27509.809083723176,0.0
402154.6038362722,4685833.5216966402,-22500.0,-4839.2857540352152,3834.2775120700803,6526.127433644564,9680.5863992349114,1452.8917982588764,-4575.6201939162311,12081.637953148158,3401.5280732173092,-7845.9205506839589,7845.9205506839589,-3401.5280732173092,21396.83302197696,0.0
407154.6038362722,4685833.5216966402,-22500.0,-5876.6840195350387,3238.6509268868185,5148.8357884450097,7334.5518085946005,183.41673469662712,-3128.1864805668565,9517.7148803020445,1879.8124514287026,-4949.8982290618515,4949.8982290618515,-1879.8124514287026,17081.193370869805,0.0
412154.6038362722,4685833.5216966402,-22500.0,-5771.7506793713046,2835.7550661621385,4066.5040751365909,5625.4517678592902,-391.92725263333284,-2373.3478135968921,7728.0869960548625,1217.4019446203758,-3359.8769939736494,3359.8769939736494,-1217.4019446203758,13943.762389619213,0.0
417154.6038362722,4685833.5216966402,-22500.0,-5319.5975682294111,2479.6395922919201,3228.2956170205102,4417.7207793279176,-599.65943331087806,-1891.0377421192836,6398.8327948404913,843.4309194140335,-2420.9670764043603,2420.9670764043603,-843.4309194140335,11558.024039515061,0.0
422154.6038362722,4685833.5216966402,-22500.0,-4792.6897342676903,2148.7229357667625,2582.5194862060594,3536.9988379556062,-632.43443566614337,-1525.3634130471021,5354.2007325809827,582.61032591198023,-1809.2210337987824,1809.2210337987824,-582.61032591198023,9672.3290976866938,0.0
427154.6038362722,4685833.5216966402,-22500.0,-4277.9628519720982,1847.7864703209716,2084.2668735217185,2868.8383459665361,-590.24943832040265,-1228.1685049660925,4508.0109310592024,385.50357995039673,-1378.1151258848195,1378.1151258848195,-385.50357995039673,8145.8301278447225,0.0
432154.6038362722,4685833.5216966402,-22500.0,-3801.8128047197365,1581.8174083801075,1697.7711332035037,2346.7841401008213,-521.5963200552485,-984.38628931812127,3813.3862071846747,235.92086345251556,-1059.6692877061182,1059.6692877061182,-235.92086345251556,6894.4511423248478,0.0
437154.6038362722,4685833.5216966402,-22500.0,-3371.26632582616,1351.7771949942833,1395.7282851687435,1931.4552328867894,-448.67246211399868,-786.42403480313578,3239.8147680851885,124.75926289484346,-818.75177360957673,818.75177360957673,-124.75926289484346,5861.8343254115061,0.0
442154.6038362722,4685833.5216966402,-22500.0,-2986.7458793230849,1155.5859298602932,1157.6876392796974,1597.5900233920256,-380.81731550539786,-627.60774074407425,2764.613886073199,44.312216251926657,-634.42316573844664,634.42316573844664,-44.312216251926657,5006.2615219582667,0.0
447154.6038362722,4685833.5216966402,-22500.0,-2646.0706269372058,989.63401744054647,968.43125848825593,1327.5296118636411,-321.28691587521956,-501.35421795204894,2369.7913042089021,-12.313767398344538,-492.61180156892499,492.61180156892499,12.313767398344538,4295.0154568084481,0.0
452154.6038362722,4685833.5216966402,-22500.0,-2345.8940648201024,849.84025749025193,816.63248035518041,1108.1199823929048,-270.58080666981249,-401.52923960041181,2040.7439125268761,-50.977424224419167,-383.14890113020573,383.14890113020573,50.977424224419167,3701.7752962504969,0.0
457154.6038362722,4685833.5216966402,-22500.0,-2082.3729089720741,732.23980856018488,693.82779874742153,929.19436750890668,-228.04600908168837,-322.77731496033812,1765.5633388655006,-76.398802049995965,-298.42735997691136,298.42735997691136,76.398802049995965,3205.1869472681469,0.0
462154.6038362722,4685833.5216966402,-22500.0,-1851.5477946089386,633.25544885592342,593.6540942993488,782.74934060736223,-192.63258432816312,-260.63823651356688,1534.548185832389,-92.232289581979984,-232.67763433540867,232.67763433540867,92.232289581979984,2787.8951490037425,0.0
467154.6038362722,4685833.5216966402,-22500.0,-1649.5807772626822,549.78984134991117,511.29335069400344,662.43471430166494,-163.23593399280935,-211.5120160994484,1339.8132369023569,-101.23026801144221,-181.50440111807353,181.50440111807353,101.23026801144221,2435.8031427058627,0.0
472154.6038362722,4685833.5216966402,-22500.0,-1472.8923245860883,479.22409909491341,443.06866684046366,563.19527639952753,-138.83927321841961,-172.54997365403182,1174.957736405401,-105.42671561154575,-141.55492643688913,141.55492643688913,105.42671561154575,2137.4645099532477,0.0
477154.6038362722,4685833.5216966402,-22500.0,-1318.2325050459415,419.37505067005833,386.15198466105574,481.00097632323536,-118.56202562552133,-141.52497143199139,1034.7880566179065,-106.30478767472928,-110.27019954403997,110.27019954403997,106.30478767472928,1883.5838229320061,0.0
267154.6038362722,4690833.5216966402,-22500.0,-1042.852290920333,462.01833561013535,338.21624665628349,-336.79327429382272,126.13177261764982,-85.071866726420126,884.84049026763068,100.64866902570436,62.48508671513143,-62.48508671513143,-100.64866902570436,1590.7020038434716,0.0
272154.6038362722,4690833.5216966402,-22500.0,-1157.2915161911285,531.90430244179561,386.046740790554,-387.30081800877127,148.30074450038521,-99.694885989176981,1001.3082643004534,132.80159584375218,62.191405839045153,-62.191405839045153,-132.80159584375218,1798.0339073692057,0.0
277154.6038362722,4690833.5216966402,-22500.0,-1288.1887818947223,615.76526692598895,443.16438393952558,-446.85529439173348,175.27592677766492,-116.67777846755686,1138.6106593312011,173.57608626195531,60.536303346386589,-60.536303346386589,-173.57608626195531,2042.162343487973,0.0
282154.6038362722,4690833.5216966402,-22500.0,-1438.8175506742139,717.16385236575513,511.9134749138351,-517.39306373789429,208.29130364522555,-136.11978019598857,1301.6881695706238,225.32403331795319,57.178785057330629,-57.178785057330629,-225.32403331795319,2331.8178701861966,0.0
287154.6038362722,4690833.5216966402,-22500.0,-1613.539684697058,840.81981839316961,595.38311777780177,-601.45451557677995,248.95478883172962,-157.88518908007441,1497.082034936763,291.05389231596484,51.839519002091606,-51.839519002091606,-291.05389231596484,2678.6103700590629,0.0
292154.6038362722,4690833.5216966402,-22500.0,-1818.4015149458671,993.0983957556889,697.69765291577357,-702.55332813338964,299.39266096076432,-181.41828609744297,1733.6694433792788,374.62973637653465,44.455415855245747,-44.455415855245747,-374.62973637653465,3098.3934027200353,0.0
297154.6038362722,4690833.5216966402,-22500.0,-2062.1271599269517,1182.7672724334907,824.44201328637928,-825.90191521091151,362.47785392830076,-205.49597420110842,2023.8572517921557,481.07498265661127,35.466282631533659,-35.466282631533659,-481.07498265661127,3613.5016772438798,0.0
302154.6038362722,4690833.5216966402,-22500.0,-2357.7520048369183,1422.2076567254242,983.29333674789075,-979.87797277571565,442.21852807364962,-227.99929266591838,2385.5795238013256,617.11627625928486,26.29050560080924,-26.29050560080924,-617.11627625928486,4256.5253755442409,0.0
307154.6038362722,4690833.5216966402,-22500.0,-2725.1990406171358,1729.4112527124339,1184.9687073261193,-1179.0228046118373,544.47377208659407,-246.03482454358937,2845.7172888739865,792.33129643039842,19.982323339290758,-19.982323339290758,-792.33129643039842,5076.8049300371431,0.0
312154.6038362722,4690833.5216966402,-22500.0,-3194.9649787699868,2131.3626269453771,1444.6556223350944,-1450.1508393546974,678.37140762638148,-257.44878494460539,3446.0388839229236,1021.8663278644049,21.746658929243779,-21.746658929243779,-1021.8663278644049,6151.7164820519738,0.0
317154.6038362722,4690833.5216966402,-22500.0,-3812.1530499552964,2669.8792708319284,1784.1547486563161,-1844.5521954478477,859.28318797603231,-266.67138415938206,4253.5789176659682,1333.2324459296256,37.872313411962409,-37.872313411962409,-1333.2324459296256,7606.2133602884933,0.0
322154.6038362722,4690833.5216966402,-22500.0,-4636.5744020887296,3411.7602997703925,2234.98838843883,-2461.3100304337222,1115.3118842325784,-302.58941641388145,5378.7942437041056,1783.518036890237,68.215988443805259,-68.215988443805259,-1783.518036890237,9646.0758395468638,0.0
327154.6038362722,4690833.5216966402,-22500.0,-5723.4717737869032,4466.1564234185689,2842.4912164005045,-3487.947147966087,1501.7047038423361,-467.34813124267254,7007.3276933581683,2502.440373630091,77.646360520341887,-77.646360520341887,-2502.440373630091,12612.736961899247,0.0
332154.6038362722,4690833.5216966402,-22500.0,-7036.960354953193,6012.6965550976647,3669.628603685032,-5256.9746585954199,2132.872893695087,-1058.9031190723265,9455.0078623262471,3796.857550624663,-93.973261669004842,93.973261669004842,-3796.857550624663,17069.738177994514,0.0
337154.6038362722,4690833.5216966402,-22500.0,-8158.1341101570588,8340.5837669510256,4794.0958885891614,-8267.1109654651355,3252.1371971671301,-2852.1176800052999,13257.62095959484,6392.6555408728836,-988.46791411930781,988.46791411930781,-6392.6555408728836,23930.104471797153,0.0
342154.6038362722,4690833.5216966402,-22500.0,-7405.2048213925173,11877.66036982797,6271.3273763440893,-12887.085705417452,5377.3253270733721,-7649.7296074245878,19299.659312420463,11947.611623241248,-4210.1060309293844,4210.1060309293844,-11947.611623241248,34621.75386913331,0.0
347154.6038362722,4690833.5216966402,-22500.0,583.14909224098039,17087.903112929438,7943.0530638824721,-17398.1722975722,9580.5884715400734,-18799.338861829983,29012.57010821861,23829.118070505123,-14036.243248781939,14036.243248781939,-23829.118070505123,51302.473609920482,0.0
352154.6038362722,4690833.5216966402,-22500.0,28794.875941268037,23539.361468424104,8552.7157504259358,-8567.6547833741406,17833.594004089264,-36050.485108711604,45185.502174195935,44908.108425459111,-38646.551774353793,38646.551774353793,-44908.108425459111,78349.765019940722,0.0
357154.6038362722,4690833.5216966402,-22500.0,73759.243730679183,23966.911081182185,3663.9011826331357,52937.543541357729,29714.925360751004,-3654.3549903895873,74987.806594065449,43818.203493909539,-57323.863111332081,57323.863111332081,-43818.203493909539,135126.64056405981,0.0
362154.6038362722,4690833.5216966402,-22500.0,63342.680123774306,-306.18672293614827,3764.3845954991125,83469.788950684582,12491.374848217805,161670.66017851056,104735.90316805284,-36830.090721027671,47572.781980864012,-47572.781980864012,36830.090721027671,201112.35666720706,0.0
367154.6038362722,4690833.5216966402,-22500.0,49806.146508344304,-14515.120765368234,52348.49071626224,46229.320906526111,-66350.528862102161,208904.96385503863,108850.74815676594,-48691.974237473318,138573.42288651789,-138573.42288651789,48691.974237473318,212520.84087495451,0.0
372154.6038362722,4690833.5216966402,-22500.0,24477.30543840921,37438.313122091233,83561.617687077814,-22355.504689755729,-103690.79703341899,180398.28646626649,127367.74927030798,6994.0384919860371,161084.60137745453,-161084.60137745453,-6994.0384919860371,237801.08527040062,0.0
377154.6038362722,4690833.5216966402,-22500.0,50844.355009241903,59180.719718186272,53324.348997675028,-49939.576736770621,-45062.960214004735,66479.220040471424,83637.708438479647,65247.951490376101,62343.961343626768,-62343.961343626768,-65247.951490376101,155861.45413866095,0.0
382154.6038362722,4690833.5216966402,-22500.0,47356.04476971781,34976.103377181513,25002.968629644696,-15029.311637157398,650.03897580398734,-4272.8754736124865,43822.939211423203,56338.865912130743,-13278.207209627104,13278.207209627104,-56338.865912130743,79749.808353447384,0.0
387154.6038362722,4690833.5216966402,-22500.0,22349.477252239019,13737.00387910364,13397.768125627479,10142.516469044618,11821.499234205328,-17583.353349509216,29442.03082485043,28273.193616772976,-28603.516032211704,28603.516032211704,-28273.193616772976,51100.569978594947,0.0
392154.6038362722,4690833.5216966402,-22500.0,3861.7193192489563,4249.6485791290033,9335.6457576002813,16394.615418003734,9886.5645041889693,-13550.149637176468,22761.547086872961,10383.663826008535,-22362.461850462769,22362.461850462769,-10383.663826008535,39776.99834536772,0.0
397154.6038362722,4690833.5216966402,-22500.0,-4896.4923455420121,1253.5735333649673,7552.6436236329428,14845.175925074211,6002.5839559105571,-8773.1267545284318,17608.161941138867,2623.5844368936887,-14514.104723245648,14514.104723245648,-2623.5844368936887,31499.446924879965,0.0
402154.6038362722,4690833.5216966402,-22500.0,-7913.468169414532,722.37655014724794,6314.6068525692026,11743.176492554687,3111.571769134252,-5833.3370869529736,13651.560770831074,-20.88155845340134,-9197.7430569699172,9197.7430569699172,20.88155845340134,24929.631078788378,0.0
407154.6038362722,4690833.5216966402,-22500.0,-8356.5976874254502,845.96150461254138,5233.4964171851498,9024.9001924567092,1407.2558908882047,-4173.3439855448014,10811.871386148083,-704.24176013862188,-6042.8601847503869,6042.8601847503869,704.24176013862188,19944.272067815462,0.0
412154.6038362722,4690833.5216966402,-22500.0,-7836.6705011135782,1014.3636282560801,4283.0212011253452,6974.8553648516636,504.10171420268063,-3152.8656880018361,8763.2653612560644,-784.24466785666982,-4166.0986502524829,4166.0986502524829,784.24466785666982,16181.893046360296,0.0
417154.6038362722,4690833.5216966402,-22500.0,-7032.4689832097956,1091.7368844009372,3480.4308705964863,5464.0006735267807,56.870219744513989,-2443.5241490232065,7210.7683040474885,-725.55614464254882,-2984.4018766869767,2984.4018766869767,725.55614464254882,13284.865131863089,0.0
422154.6038362722,4690833.5216966402,-22500.0,-6199.4031451841156,1084.4176305220844,2824.2916617644923,4334.3575137802663,-149.03450541945261,-1909.4050128184479,5986.6307526082073,-654.96583519822798,-2191.3234923754067,2191.3234923754067,654.96583519822798,11003.363208182001,0.0
427154.6038362722,4690833.5216966402,-22500.0,-5424.8865089707788,1024.5907491663891,2297.8145073663318,3472.337612325271,-231.84919120823696,-1494.3745992932588,5001.352550368827,-595.52480508232702,-1632.7442286041992,1632.7442286041992,595.52480508232702,9176.9751429536645,0.0
432154.6038362722,4690833.5216966402,-22500.0,-4733.9177816255742,939.12354441338243,1878.9456239829435,2803.5733540558376,-253.72503583998886,-1169.9784226398649,4200.4451568631857,-545.80582983317004,-1227.2849262748402,1227.2849262748402,545.80582983317004,7699.5351119457655,0.0
437154.6038362722,4690833.5216966402,-22500.0,-4128.8570629681117,845.23917347571955,1546.3239166110832,2278.6576267559199,-246.71614116769624,-917.11526878021618,3545.815415113475,-501.7720906560013,-927.79053842702626,927.79053842702626,501.7720906560013,6496.0360717753547,0.0
442154.6038362722,4690833.5216966402,-22500.0,-3603.9838978052435,752.64555150374724,1281.6284818264014,1863.2393078327216,-227.17655418449678,-720.74324385955811,3008.55778742139,-460.99830714325594,-704.27122321356205,704.27122321356205,460.99830714325594,5510.4559206900722,0.0
447154.6038362722,4690833.5216966402,-22500.0,-3150.9330446554163,666.22809088353824,1070.0343106796993,1532.3805301560737,-203.33054806316517,-568.56825339206011,2565.9160027547518,-422.54924819247401,-536.31059324043042,536.31059324043042,422.54924819247401,4699.497383407097,0.0
452154.6038362722,4690833.5216966402,-22500.0,-2760.8436067748507,588.0424264013252,899.89195711407137,1267.4212782609818,-179.19493541416932,-450.65235537732912,2199.737574409949,-386.26838782128937,-409.4315585002588,409.4315585002588,386.26838782128937,4029.1132353810899,0.0
457154.6038362722,4690833.5216966402,-22500.0,-2425.2528582555888,518.58211451638681,762.17625163887897,1054.1400835467055,-156.61200247725679,-359.12227633448225,1895.4906242922386,-352.27734625488677,-313.14061531783625,313.14061531783625,352.27734625488677,3472.3123828598709,0.0
462154.6038362722,4690833.5216966402,-22500.0,-2136.4659724120197,457.53347879190545,649.93499156556459,881.5835930979365,-136.30931049441276,-287.84719534205669,1641.5368187126383,-320.72467655167492,-239.7431146983493,239.7431146983493,320.72467655167492,3007.6151356885944,0.0
467154.6038362722,4690833.5216966402,-22500.0,-1887.6800994558309,404.20644900606578,557.81670369259416,741.2623539155428,-118.45499974590346,-232.11033204420119,1428.5541527472371,-291.69048687415091,-183.55900306673232,183.55900306673232,291.69048687415091,2617.88621764357,0.0
472154.6038362722,4690833.5216966402,-22500.0,-1672.9864472234378,357.77223706249282,481.69238400446295,626.56771066851161,-102.94936462061186,-188.30920335465785,1249.0700078355831,-265.16835055314721,-140.37554915636511,140.37554915636511,265.16835055314721,2289.4245302381537,0.0
477154.6038362722,4690833.5216966402,-22500.0,-1487.3137198882544,317.38967662364422,418.36351706340082,532.33700775336513,-89.577257482477933,-153.70245582476022,1097.0857577397298,-241.07854581599597,-107.05571891199335,107.05571891199335,241.07854581599597,2011.2486299142759,0.0
267154.6038362722,4695833.5216966402,-22500.0,-856.6818839822696,512.26845757163926,290.67407273060269,-287.37416033833762,138.01504582506885,-75.588083373870006,816.95965336442885,188.34142521450173,3.4302153156443325,-3.4302153156443325,-188.34142521450173,1456.8780636879333,0.0
272154.6038362722,4695833.5216966402,-22500.0,-935.2895114934928,589.36462653307262,328.10263176639688,-326.55485357865518,162.25963491990919,-87.766768010156738,920.24155081019535,234.72186691985806,-7.8684546283896282,7.8684546283896282,-234.72186691985806,1638.4906794386065,0.0
277154.6038362722,4695833.5216966402,-22500.0,-1021.5237673836939,681.63472653413783,372.00597868806648,-371.61799344767718,191.70052903919279,-101.59977919117465,1041.0921212914091,292.64267211650139,-23.122037076246443,23.122037076246443,-292.64267211650139,1850.586024610413,0.0
282154.6038362722,4695833.5216966402,-22500.0,-1115.927828676221,792.85563435276208,423.80636643766644,-423.43780725974386,227.6417890320202,-116.97239155768582,1183.4422912830719,365.21639086344919,-43.444561412641406,43.444561412641406,-365.21639086344919,2099.9497051101075,0.0
287154.6038362722,4695833.5216966402,-22500.0,-1219.0740639254698,928.00112210770499,485.30572529658235,-483.05877499230473,271.77321221887479,-133.47362382645446,1352.4316401989943,456.4772680246449,-70.191766047134251,70.191766047134251,-456.4772680246449,2395.4834495371551,0.0
292154.6038362722,4695833.5216966402,-22500.0,-1331.6407844600394,1093.7394409146596,558.80032274526332,-551.83987967082726,326.32219111451457,-150.19789935389042,1554.9476131595434,571.70791033456726,-104.96927252907253,104.96927252907253,-571.70791033456726,2749.175302563166,0.0
297154.6038362722,4695833.5216966402,-22500.0,-1454.5669029087226,1299.2025543279497,647.22553962318239,-631.79956996418161,394.3036291947563,-165.48182484532742,1800.4950601022911,717.94807246559299,-149.62400857738891,149.62400857738891,-717.94807246559299,3177.6724992424402,0.0
302154.6038362722,4695833.5216966402,-22500.0,-1589.2917280645711,1557.2086946132031,754.32679060541159,-726.40476822554535,479.96739044006489,-176.64617274053853,2102.6359019320948,904.86835590048031,-206.25811354073954,206.25811354073954,-904.86835590048031,3704.8896673925665,0.0
307154.6038362722,4695833.5216966402,-22500.0,-1737.9525147104041,1886.2481099082486,884.82460685109231,-842.29540753547792,589.66481750056073,-180.02727635621054,2481.4093898559154,1146.4327272585119,-277.45211107315072,277.45211107315072,-1146.4327272585119,4366.3823072981213,0.0
312154.6038362722,4695833.5216966402,-22500.0,-1902.9213136151268,2313.7387668866186,1044.4695658297769,-992.86902816418387,733.63216601489501,-172.17082992244423,2967.4122801788671,1464.3421468174413,-367.34211721788665,367.34211721788665,-1464.3421468174413,5216.6644969067165,0.0
317154.6038362722,4695833.5216966402,-22500.0,-2083.5172896601239,2881.2894936496277,1239.6961279061959,-1205.2427877535968,929.79914772599579,-154.55966861631381,3608.608948470921,1895.5558050374511,-485.50166100560534,485.50166100560534,-1895.5558050374511,6341.2289353551578,0.0
322154.6038362722,4695833.5216966402,-22500.0,-2263.2906770752525,3652.6791632590603,1476.1300340062785,-1532.2943289331868,1212.0145700833091,-147.78272170373251,4481.4896086891458,2509.0105977739504,-659.05991824847956,659.05991824847956,-2509.0105977739504,7875.5811084501884,0.0
327154.6038362722,4695833.5216966402,-22500.0,-2369.3214877361224,4723.701174148935,1754.1739184047694,-2068.4772976048062,1647.4762912178585,-228.53223374732062,5708.973591404716,3442.1327397325776,-967.11316353480561,967.11316353480561,-3442.1327397325776,10033.79519775956,0.0
332154.6038362722,4695833.5216966402,-22500.0,-2154.9187586115131,6225.1661339659104,2057.818938714689,-2951.2907350907553,2371.2579679871405,-615.48539917358039,7488.1962402714398,4975.6054671310858,-1630.6769685158195,1630.6769685158195,-4975.6054671310858,13148.718921497697,0.0
337154.6038362722,4695833.5216966402,-22500.0,-888.26613799462427,8279.1118282198149,2330.0895213268723,-4262.6643128026035,3642.4999598492677,-1837.4483241070893,10130.345890084252,7663.0358103996641,-3225.1872619676783,3225.1872619676783,-7663.0358103996641,17727.351263757879,0.0
342154.6038362722,4695833.5216966402,-22500.0,3392.5067585809347,10752.057046781612,2435.4416229363965,-5500.221351925913,5869.6311393416245,-4932.6705043586599,14121.252770244075,12440.441691828208,-7091.4638816234947,7091.4638816234947,-12440.441691828208,24559.967820314483,0.0
347154.6038362722,4695833.5216966402,-22500.0,15192.565321298949,12242.340739628653,2222.9461752941806,-3480.8739242824918,9146.8838828477019,-10893.27957235495,20389.903542958149,19992.568955089697,-15569.803767450345,15569.803767450345,-19992.568955089697,35317.551949709072,0.0
352154.6038362722,4695833.5216966402,-22500.0,39865.63041344309,7046.8894978132184,2788.856382066017,13525.685829821201,9443.753153404552,-13969.532782428545,32451.948227618348,25299.21694001486,-27262.875102355629,27262.875102355629,-25299.21694001486,56940.668202049208,0.0
357154.6038362722,4695833.5216966402,-22500.0,56638.692716844314,-11487.019357372914,13509.96100181379,56515.588833478505,-15329.019827745715,24472.912506486373,61127.870441707455,3865.07388248089,-6319.3194390832941,6319.3194390832941,-3865.07388248089,110409.61163849653,0.0
362154.6038362722,4695833.5216966402,-22500.0,32665.059130955844,-9585.5632624697901,43513.996419864168,51915.134989063248,-66740.314937845906,104135.01728128141,89058.319765536333,-20812.247737082191,74928.61476952325,-74928.61476952325,20812.247737082191,161784.68088875749,0.0
367154.6038362722,4695833.5216966402,-22500.0,26725.249453169217,11673.764738346792,68218.99482856752,12605.113608057929,-75384.374782303639,97445.64214957213,81601.654765514308,7409.4261946120459,86642.638045366941,-86642.638045366941,-7409.4261946120459,147385.75162372543,0.0
372154.6038362722,4695833.5216966402,-22500.0,23078.400116947101,33944.148071268479,70030.724549407489,-10549.225802741108,-55539.482677871252,57323.270951543964,66750.120838810471,39177.426429287101,56008.897829031492,-56008.897829031492,-39177.426429287101,121711.6762305757,0.0
377154.6038362722,4695833.5216966402,-22500.0,31134.786868140694,38491.627078146237,42591.823167809533,-14161.996927746459,-16925.79073120841,11893.375570278689,42363.00329346439,52566.702885535793,7103.9354864491943,-7103.9354864491943,-52566.702885535793,81411.88395526541,0.0
382154.6038362722,4695833.5216966402,-22500.0,27322.534492450137,21448.177577661889,18089.779908445686,1959.7033431098641,9177.6256038823358,-13106.720537720346,30810.594902619843,36979.264349889301,-23802.07522999122,23802.07522999122,-36979.264349889301,54687.985341921121,0.0
387154.6038362722,4695833.5216966402,-22500.0,12524.871535150924,5888.7521340516078,7950.6822478405975,14016.162805183729,15093.906109950956,-16495.466323593293,26377.283106077797,15932.396398229379,-27810.595610864635,27810.595610864635,-15932.396398229379,45904.546266414611,0.0
392154.6038362722,4695833.5216966402,-22500.0,138.92533531582777,-1199.3829545768638,5358.4023214389026,16788.255348448682,12214.538408612445,-12763.10396378718,21993.932212350839,3263.1813635217404,-21390.839857268489,21390.839857268489,-3263.1813635217404,39477.640532335216,0.0
397154.6038362722,4695833.5216966402,-22500.0,-6448.6067242607169,-2984.4543437853922,4917.8926815900068,15059.142532075539,8054.8503112223589,-9036.047645640172,17675.40858514588,-1919.2764492518636,-14626.478895974238,14626.478895974238,1919.2764492518636,32664.940994336463,0.0
402154.6038362722,4695833.5216966402,-22500.0,-8964.7652471744477,-2678.3144682992834,4695.930050867385,12290.965504460566,4866.1109988802064,-6507.7193317855426,14107.901630634518,-3315.4192471671795,-9835.8105641824786,9835.8105641824786,3315.4192471671795,26548.962844185426,0.0
407154.6038362722,4695833.5216966402,-22500.0,-9370.4441060662593,-1867.1056714740685,4296.9341344965414,9748.2006192416848,2816.4097229688,-4847.8788484355337,11408.057107110755,-3275.4433496509864,-6743.8641074970164,6743.8641074970164,3275.4433496509864,21558.668845122946,0.0
412154.6038362722,4695833.5216966402,-22500.0,-8850.56186517079,-1122.2762077625546,3768.9311977795533,7696.3462530611923,1587.6707812107672,-3691.7871791737348,9349.9812992904644,-2838.3816645029756,-4745.1797600410473,4745.1797600410473,2838.3816645029756,17601.286435728503,0.0
417154.6038362722,4695833.5216966402,-22500.0,-7994.0427532539015,-576.07151323905714,3214.5380678717629,6096.579147462302,870.92961881739257,-2838.5545525408916,7723.8866796434204,-2370.1409863279164,-3410.0221773596463,3410.0221773596463,2370.1409863279164,14463.803051516545,0.0
422154.6038362722,4695833.5216966402,-22500.0,-7067.0848552773923,-213.36772572085241,2699.0961558539339,4854.9931898854275,456.7510263625926,-2189.643659993998,6413.8134414511696,-1968.6276957793798,-2486.613479439693,2486.613479439693,1968.6276957793798,11958.639933212839,0.0
427154.6038362722,4695833.5216966402,-22500.0,-6181.9980935763624,13.324372699601598,2250.0766017174328,3887.8423982398267,218.3969745387264,-1691.5611463749806,5350.2524566631728,-1643.8371220486345,-1831.04798545566,1831.04798545566,1643.8371220486345,9944.3344555247113,0.0
432154.6038362722,4695833.5216966402,-22500.0,-5381.240841326151,147.65938610830855,1872.4421952692621,3130.6698245642988,82.126321106080837,-1309.228964024481,4483.7890654128987,-1383.5814230947919,-1357.4870449368898,1357.4870449368898,1383.5814230947919,8315.590152067678,0.0
437154.6038362722,4695833.5216966402,-22500.0,-4676.0633698898664,221.96247058678082,1560.6534357673736,2535.0486794136141,5.4019813100049268,-1016.3574785655802,3776.0500623658363,-1173.6447473904507,-1011.4890587453763,1011.4890587453763,1173.6447473904507,6992.3414868711479,0.0
442154.6038362722,4695833.5216966402,-22500.0,-4064.0170199856343,258.28226677297016,1305.4689791457822,2064.3919233543315,-36.420990386528523,-792.29402476098335,3196.3078831322523,-1002.4870094830744,-756.66255318596222,756.66255318596222,1002.4870094830744,5912.4725056187108,0.0
447154.6038362722,4695833.5216966402,-22500.0,-3536.9993347755603,271.10442731897035,1097.2213529741523,1690.8007153016063,-57.751694167019544,-620.79467571064504,2719.7925095073251,-861.50257903352463,-567.79691258499906,567.79691258499906,861.50257903352463,5027.209446426039,0.0
452154.6038362722,4695833.5216966402,-22500.0,-3085.038588806513,269.76562628834154,927.17272899747729,1392.8655741138627,-67.096181226873767,-489.2457980810413,2326.5711789332017,-744.34987232487686,-427.04676220143608,427.04676220143608,744.34987232487686,4298.0414553741293,0.0
457154.6038362722,4695833.5216966402,-22500.0,-2698.07451143977,260.21558012221129,787.93077891630639,1154.0955530088634,-69.516618846575412,-387.98289261808975,2000.656237982548,-646.29038942593434,-321.61802770729673,321.61802770729673,646.29038942593434,3694.4834996313375,0.0
462154.6038362722,4695833.5216966402,-22500.0,-2366.763208919841,246.21053005437074,673.4490910795696,961.7587040777313,-68.041478147911036,-309.67521607091834,1729.2571022607822,-563.70922454401591,-242.2634879547503,242.2634879547503,563.70922454401591,3192.3666518012888,0.0
467154.6038362722,4695833.5216966402,-22500.0,-2082.7915870662773,230.09638120067524,578.86883828719658,806.0053854939041,-64.484975870438106,-248.79667137331575,1502.1523671324526,-493.793252057014,-182.25931919324819,182.25931919324819,493.793252057014,2772.4977723851362,0.0
472154.6038362722,4695833.5216966402,-22500.0,-1838.9463037528624,213.3158064509966,500.31981348564034,679.19874002378299,-59.929803719843648,-201.19374971509723,1311.1717777798772,-434.31728651249955,-136.69113205636484,136.69113205636484,434.31728651249955,2419.6030184211754,0.0
477154.6038362722,4695833.5216966402,-22500.0,-1629.0618475226472,196.73426780885995,434.7299122869448,575.40113865408773,-55.01485747844994,-163.74557544576442,1149.7743598753889,-383.49890606854598,-101.94902023169305,101.94902023169305,383.49890606854598,2121.4931035377722,0.0
267154.6038362722,4700833.5216966402,-22500.0,-668.8394332084066,537.7816045507011,240.28276931198741,-237.3484707355652,143.48461067518411,-65.867665389345845,745.77906409310583,257.30513233655472,-46.887693076824391,46.887693076824391,-257.30513233655472,1319.2030408727217,0.0
272154.6038362722,4700833.5216966402,-22500.0,-712.2634676510595,615.88387131643879,267.12105220561546,-265.3128356955973,167.99454226552163,-75.604987380954086,835.2996394753801,313.00817843267771,-66.673753270653748,66.673753270653748,-313.00817843267771,1474.711032071506,0.0
277154.6038362722,4700833.5216966402,-22500.0,-754.98982428991246,708.44931823803358,297.72550801444322,-296.12799405139197,197.48421833608933,-86.325213967139419,939.01616421318215,381.61192516566348,-92.144621389355336,92.144621389355336,-381.61192516566348,1654.4440667803285,0.0
282154.6038362722,4700833.5216966402,-22500.0,-795.12424431467718,818.7580318609505,332.69444989761359,-329.69360005619467,233.08900365742394,-97.728635638950522,1059.8323350184564,466.39667220911321,-124.83941008139635,124.83941008139635,-466.39667220911321,1863.3247280416228,0.0
287154.6038362722,4700833.5216966402,-22500.0,-829.91423640347409,951.00726479621676,372.71022612710294,-365.69856292307702,276.23050483463106,-109.17744701804243,1201.4676637806745,571.55896324694618,-166.67704693171183,166.67704693171183,-571.55896324694618,2107.6887978900131,0.0
292154.6038362722,4700833.5216966402,-22500.0,-855.4189346133312,1110.6439503333809,418.52791340353349,-403.57179952648517,328.71222941109443,-119.49497605269552,1368.8021606604893,702.514957165483,-220.03201808064023,220.03201808064023,-702.514957165483,2395.9032475490385,0.0
297154.6038362722,4700833.5216966402,-22500.0,-866.02562884675524,1304.8565980849085,470.93069398493185,-442.49793651699628,392.8805734345878,-126.699915355442,1568.4255604647651,866.35907590753015,-287.83881294684204,287.83881294684204,-866.35907590753015,2739.3501900294236,0.0
302154.6038362722,4700833.5216966402,-22500.0,-853.66929139963224,1543.3134859590773,530.60960917943044,-481.61420721714489,471.92842299514177,-127.72880553121816,1809.5275442672851,1072.6182142296218,-373.79421850265015,373.79421850265015,-1072.6182142296218,3154.008426883036,0.0
307154.6038362722,4700833.5216966402,-22500.0,-806.39036626684356,1839.2643119306215,597.87910221852553,-520.61507933041128,570.51754285551795,-118.36164011671202,2105.343198097592,1334.6055226231274,-482.87612996041742,482.87612996041742,-1334.6055226231274,3662.9836396816777,0.0
312154.6038362722,4700833.5216966402,-22500.0,-705.27569767678415,2211.0940615955433,672.04441127900384,-561.12658253418431,696.10908417990981,-93.986515463232706,2475.4445640366052,1672.0209081998491,-622.80314957151802,622.80314957151802,-1672.0209081998491,4300.4473962086231,0.0
317154.6038362722,4700833.5216966402,-22500.0,-517.34258553996574,2684.1323081489354,750.07508512392485,-609.19946307739201,861.81444261345212,-52.835936028357452,2949.1978311330931,2116.1124798707542,-808.07661529301743,808.07661529301743,-2116.1124798707542,5117.4830868796489,0.0
322154.6038362722,4700833.5216966402,-22500.0,-178.34653550873381,3291.2757727665135,824.04750119111532,-678.32647410747961,1092.2677840524404,-5.4316401888936738,3570.5794657154374,2719.7653165353054,-1070.5860106521122,1070.5860106521122,-2719.7653165353054,6190.184189163595,0.0
327154.6038362722,4700833.5216966402,-22500.0,448.34616942844099,4066.6466819498096,877.07412437158428,-787.85335021443154,1434.520770504543,2.400876326360506,4404.3003020922624,3575.5954419884565,-1485.387174927009,1485.387174927009,-3575.5954419884565,7630.3602806235176,0.0
332154.6038362722,4700833.5216966402,-22500.0,1664.8736539915335,5012.9362614584816,880.66444147436653,-935.61429940459959,1973.0657059253892,-157.49429175061556,5543.516490722759,4840.9845558496527,-2226.4130469816773,2226.4130469816773,-4840.9845558496527,9602.1127030878979,0.0
337154.6038362722,4700833.5216966402,-22500.0,4123.9929530104455,5984.7062187368192,814.25306022116365,-976.36551138410414,2826.8002058383995,-764.63195866920034,7126.2585531185305,6741.416568946277,-3660.6836563846718,3660.6836563846718,-6741.416568946277,12367.511771344809,0.0
342154.6038362722,4700833.5216966402,-22500.0,9077.6525862253529,6341.3636801624862,809.157876935388,-228.25957215362604,4005.6096332059383,-2243.6709313047349,9432.8850410241976,9411.8758492953766,-6392.7875677605498,6392.7875677605498,-9411.8758492953766,16488.170917638676,0.0
347154.6038362722,4700833.5216966402,-22500.0,18102.328115490771,4173.2909869084915,1838.6941367698976,3444.4582928384552,4630.24235703881,-4573.6204831042542,13495.784957674758,12130.401151413798,-10654.862229219749,10654.862229219749,-12130.401151413798,23708.02588880789,0.0
352154.6038362722,4700833.5216966402,-22500.0,29570.256118591544,-3803.6211808949424,8022.7724692998772,13951.574954632961,344.65784272732253,-4638.5371806198164,22369.402297551547,11636.996454281696,-12888.523848432022,12888.523848432022,-11636.996454281696,39052.790896695864,0.0
357154.6038362722,4700833.5216966402,-22500.0,31107.897484764322,-13922.782387828793,27549.130966327979,28267.707954177335,-17497.520899742452,6301.0217118833798,38136.181277952332,5730.3505445930696,-901.01399994020903,901.01399994020903,-5730.3505445930696,66610.624422321809,0.0
362154.6038362722,4700833.5216966402,-22500.0,19382.692885332061,-6901.213036173147,52345.448725262773,25668.18883291883,-39178.92642268003,23209.496644491755,50100.447067440378,8859.23029396126,21813.545066592615,-21813.545066592615,-8859.23029396126,87746.558374182874,0.0
367154.6038362722,4700833.5216966402,-22500.0,14476.438900756997,10801.695275834274,58205.792028741766,10460.936951120004,-38452.325330772052,23491.27157513265,46660.906166710178,23592.115231977517,24338.387694713518,-24338.387694713518,-23592.115231977517,81935.20714530471,0.0
372154.6038362722,4700833.5216966402,-22500.0,15627.704935334626,22233.106879978815,46101.766405811999,57.861854213905033,-21092.128595332095,10790.635703943597,34895.738996604035,34104.109645871518,8915.5407934892919,-8915.5407934892919,-34104.109645871518,62586.321516672906,0.0
377154.6038362722,4700833.5216966402,-22500.0,19079.950919373157,21284.270884815345,24917.478834968817,-211.21952743858117,102.45147089438757,-4336.6770433365064,23914.785274210419,33054.265117364368,-11457.575524595542,11457.575524595542,-33054.265117364368,45588.773925203634,0.0
382154.6038362722,4700833.5216966402,-22500.0,16349.591405375639,10433.230661663389,8432.5261645131814,6952.0088018562619,13098.478183191461,-12584.369874463036,23488.895676505468,20514.98999571001,-23096.136126703193,23096.136126703193,-20514.98999571001,40706.763021032675,0.0
387154.6038362722,4700833.5216966402,-22500.0,7781.9746982962615,270.08297676800015,1666.2547048631955,12809.594485826272,15624.271245966316,-13319.160803097859,22354.675107913139,6901.9813235524434,-23421.25890245098,23421.25890245098,-6901.9813235524434,39729.596489717827,0.0
392154.6038362722,4700833.5216966402,-22500.0,-503.22351895718333,-4752.2310000471734,671.31168118084281,14462.463908574382,12930.450131581012,-11058.94658509166,19658.61468315632,-1441.3209956879218,-18731.692392816494,18731.692392816494,1441.3209956879218,36359.733192903899,0.0
397154.6038362722,4700833.5216966402,-22500.0,-5757.7338617873093,-5913.1770468604327,1434.8249411880795,13471.0060453927,9258.1355649229754,-8590.2083527955911,16480.573296874634,-4896.6843837584474,-13708.328269892461,13708.328269892461,4896.6843837584474,31409.6923833078,0.0
402154.6038362722,4700833.5216966402,-22500.0,-8256.2548202712096,-5297.2379892708404,2212.3726159522216,11546.271367780579,6215.8413128051507,-6612.2680121593621,13644.14652632419,-5645.3667422417111,-9790.3489395617198,9790.3489395617198,5645.3667422417111,26365.241431430972,0.0
407154.6038362722,4700833.5216966402,-22500.0,-8999.4458244694633,-4167.8961842433373,2592.6294981889832,9541.6566529830907,4057.7033084190944,-5101.653377544535,11364.23372435135,-5266.0480205491913,-6995.6796251306114,6995.6796251306114,5266.0480205491913,21886.618557562851,0.0
412154.6038362722,4700833.5216966402,-22500.0,-8796.1553760550178,-3072.7981469818942,2630.2475913926569,7760.335309539174,2619.9242853662809,-3939.2566729542723,9486.8779947657295,-4548.1769950090047,-5035.8561722272161,5035.8561722272161,4548.1769950090047,18117.448924223827,0.0
417154.6038362722,4700833.5216966402,-22500.0,-8147.1065969595884,-2183.2214527507845,2465.6540677922371,6270.4737204888379,1685.7146485291353,-3038.1413501417896,7917.7472377615541,-3812.7036760593001,-3652.7205459626457,3652.7205459626457,3812.7036760593001,15009.756187678668,0.0
422154.6038362722,4700833.5216966402,-22500.0,-7329.9346219323925,-1514.0609732945306,2210.4049053281101,5057.2527620309365,1083.294237746037,-2340.3302320118296,6613.0739640848496,-3164.7931044584766,-2665.959637573299,2665.959637573299,3164.7931044584766,12467.431487004143,0.0
427154.6038362722,4700833.5216966402,-22500.0,-6488.6090114540639,-1029.5165323361873,1932.1259589357614,4081.9466165038812,694.67096496944407,-1802.8581811761544,5535.085478441345,-2624.4468590310335,-1955.3688477564237,1955.3688477564237,2624.4468590310335,10393.356198345164,0.0
432154.6038362722,4700833.5216966402,-22500.0,-5692.6836007444617,-685.60629255279321,1665.7171054098856,3302.8199596356358,443.05052713753486,-1391.1684894265131,4647.8017600568846,-2182.8854176829454,-1439.9800927618646,1439.9800927618646,2182.8854176829454,8701.8233551268459,0.0
437154.6038362722,4700833.5216966402,-22500.0,-4971.7255854083178,-444.20714619688874,1426.2843636730145,2682.0233793315701,279.41093088434394,-1076.9852312724011,3918.5057444965005,-1824.1870412303256,-1064.0390693906766,1064.0390693906766,1824.1870412303256,7320.5782416938791,0.0
442154.6038362722,4700833.5216966402,-22500.0,-4334.4189450302683,-275.93144481135761,1218.2599398446193,2187.4743851944058,172.58288643229338,-837.53097341099703,3318.7409455704428,-1532.6838752843512,-788.45010328870353,788.45010328870353,1532.6838752843512,6190.0140455598012,0.0
447154.6038362722,4700833.5216966402,-22500.0,-3778.9875882109723,-159.27344791003014,1040.8559965950037,1792.9010323970765,102.68577332720761,-654.87196884977641,2824.511533903476,-1295.0190386991153,-585.47338688826039,585.47338688826039,1295.0190386991153,5261.6025593569948,0.0
452154.6038362722,4700833.5216966402,-22500.0,-3298.8402948985567,-78.884069536861162,891.05596208522661,1477.2252374453924,56.959149829629638,-515.16701943956957,2416.0008387538201,-1100.3758470315011,-435.28446519140823,435.28446519140823,1100.3758470315011,4496.192794047507,0.0
457154.6038362722,4700833.5216966402,-22500.0,-2885.5770949048119,-23.93642178415303,765.14972188706167,1223.7478308339189,27.149943790124052,-407.88703754466957,2077.0601608751449,-940.16183953053951,-323.64623246946576,323.64623246946576,940.16183953053951,3862.3815516725454,0.0
462154.6038362722,4700833.5216966402,-22500.0,-2530.5479774151231,13.16955705728855,659.46799584745281,1019.3412568108567,7.8780400547263687,-325.09718420252005,1794.6384044332362,-807.5947038364701,-240.29354965426535,240.29354965426535,807.5947038364701,3335.0664383358908,0.0
467154.6038362722,4700833.5216966402,-22500.0,-2225.6104993920462,37.763597781333146,570.69446135645069,853.72908485072242,-4.3910694698573609,-260.8480835847239,1558.2345850525439,-697.32335404254593,-177.7958644366696,177.7958644366696,697.32335404254593,2894.2069824819123,0.0
472154.6038362722,4700833.5216966402,-22500.0,-1963.4532591067486,53.587308815849312,495.96608837395252,718.88059458428836,-11.996216158035359,-210.68741535825097,1359.4147046150881,-605.11679117282802,-130.75189923853964,130.75189923853964,605.11679117282802,2523.7986957104322,0.0
477154.6038362722,4700833.5216966402,-22500.0,-1737.6886321398815,63.272999490450744,432.87311119360282,608.51900455695136,-16.495161130996422,-171.28149509880544,1191.404117865972,-527.61823201236234,-95.21753407209701,95.21753407209701,527.61823201236234,2211.0402573419924,0.0
267154.6038362722,4705833.5216966402,-22500.0,-487.52640720631604,539.95709488134423,191.33701484963871,-188.74460112041939,142.90957368880615,-56.268461874856335,673.33306312018522,307.0362580714451,-87.280569163051126,87.280569163051126,-307.0362580714451,1181.8958167751796,0.0
272154.6038362722,4705833.5216966402,-22500.0,-498.80905236690677,613.55961337936685,208.69437662513903,-206.2668077615848,166.06492085396334,-63.690276151653379,749.12155042662573,367.25365304835003,-112.78351750409689,112.78351750409689,-367.25365304835003,1312.1654943403014,0.0
277154.6038362722,4705833.5216966402,-22500.0,-502.41241912782658,699.36083880319791,227.67640268005519,-223.99447640933161,193.478976951134,-71.503161468131424,835.84317018473575,440.29741637364634,-144.78705777446888,144.78705777446888,-440.29741637364634,1460.9072908097746,0.0
282154.6038362722,4705833.5216966402,-22500.0,-494.64271202744845,799.63182932509562,248.34843258641237,-241.05319681973694,225.93902768573525,-79.268661854817964,935.45015596463293,529.11318707642147,-184.90331823432973,184.90331823432973,-529.11318707642147,1631.4566046162367,0.0
287154.6038362722,4705833.5216966402,-22500.0,-470.40113215099535,917.08633739134734,270.72643219624626,-256.08951340360676,264.34581164797982,-86.19437189222397,1050.365898699446,637.3508142525817,-235.10293180768247,235.10293180768247,-637.3508142525817,1828.0214365675511,0.0
292154.6038362722,4705833.5216966402,-22500.0,-422.65643234559781,1054.9641520264142,294.7418033355828,-267.0988940187359,309.71670776980255,-90.944152195283039,1183.6686108756649,769.54382832842975,-297.77096093440832,297.77096093440832,-769.54382832842975,2056.0569840797712,0.0
297154.6038362722,4705833.5216966402,-22500.0,-341.68571180967893,1217.1219069427821,320.18233455906517,-271.23518564190442,363.19767279148527,-91.388949993424944,1339.3808928199924,931.35826289601891,-375.77657118703888,375.77657118703888,-931.35826289601891,2322.8548784756395,0.0
302154.6038362722,4705833.5216966402,-22500.0,-213.9226530160727,1408.1090530617366,346.59221684253947,-264.64009003449513,426.11711442699715,-84.335344056784734,1522.9274985029274,1129.9707391305042,-472.60236709706425,472.60236709706425,-1129.9707391305042,2638.4612958475841,0.0
307154.6038362722,4705833.5216966402,-22500.0,-20.077243840097825,1633.1459482610874,373.10617825412737,-242.36226157408763,500.16708200261371,-65.378976016360653,1741.8391803593677,1374.6994930466929,-592.6776845844563,592.6776845844563,-1374.6994930466929,3017.0638264146019,0.0
312154.6038362722,4705833.5216966402,-22500.0,268.20664077251899,1897.7279423299858,398.20335159431636,-198.42770143327763,587.89931619103186,-29.294263779564922,2006.7501128449408,1678.1207351866033,-742.30387942954849,742.30387942954849,-1678.1207351866033,3478.9641529360451,0.0
317154.6038362722,4705833.5216966402,-22500.0,694.71772475546049,2206.0178855476197,419.48264471775337,-125.90188687369897,693.87682040263849,28.065373861577587,2332.5826350195521,2058.0218190992132,-932.09330912410769,932.09330912410769,-2058.0218190992132,4053.1700319847623,0.0
322154.6038362722,4705833.5216966402,-22500.0,1331.1536697634858,2555.6338574191491,434.11906801614839,-15.792933004069052,826.86596474471469,104.38178886649671,2739.4466139081096,2540.406045633461,-1182.8078813075279,1182.8078813075279,-2540.406045633461,4780.6743205949288,0.0
327154.6038362722,4705833.5216966402,-22500.0,2300.6682463682023,2922.4846220865679,442.85385236192917,149.55115447820663,1002.5478938568403,178.87166200047682,3252.5596092829346,3162.3163892241228,-1537.50323006232,1537.50323006232,-3162.3163892241228,5719.855191634203,0.0
332154.6038362722,4705833.5216966402,-22500.0,3815.787493454196,3220.6039015449674,468.07936225232277,421.0821140514679,1241.1693934606335,191.59373066055511,3903.6798358640881,3967.3200871771178,-2080.8915801425719,2080.8915801425719,-3967.3200871771178,6962.7214891365993,0.0
337154.6038362722,4705833.5216966402,-22500.0,6211.0774667622736,3209.1298690890244,620.84071207648492,952.86410853899179,1535.6921632534081,24.364971465679311,4770.1502066623088,4969.7771486402207,-2949.253840425592,2949.253840425592,-4969.7771486402207,8696.8624072084349,0.0
342154.6038362722,4705833.5216966402,-22500.0,9851.1793756719326,2332.6405836708636,1313.4980085958064,2143.789237054662,1714.0425978043922,-459.29984240390684,6272.1824359512784,6038.5108311163895,-4246.1914362234529,4246.1914362234529,-6038.5108311163895,11405.935199012152,0.0
347154.6038362722,4705833.5216966402,-22500.0,14541.252260797506,-304.93929396653374,3781.2898809448843,4729.746037063991,1053.3891120842786,-1159.1077115312432,9258.2633573181465,6712.4265198246376,-5632.0727941084115,5632.0727941084115,-6712.4265198246376,16249.98933947035,0.0
352154.6038362722,4705833.5216966402,-22500.0,18112.426436809765,-4818.8779519794007,10582.217000040149,9076.2733143730857,-2160.1633604196577,-1193.1035965575741,14303.572593952964,6522.0438121169227,-5501.6437421270912,5501.6437421270912,-6522.0438121169227,24795.821075388511,0.0
357154.6038362722,4705833.5216966402,-22500.0,16781.659026687474,-7364.3677343604841,23085.239347936724,12762.970661130854,-8980.0512554217767,741.97575971289768,20745.085678360781,7076.9404920669467,-1791.816628406149,1791.816628406149,-7076.9404920669467,35936.331953795911,0.0
362154.6038362722,4705833.5216966402,-22500.0,12007.595056084252,-2239.3172447310385,34406.998100427343,11316.829691824641,-14714.948832180407,3268.210422109265,24634.404409877581,11941.108293512701,2668.9443835696266,-2668.9443835696266,-11941.108293512701,42693.228792039547,0.0
367154.6038362722,4705833.5216966402,-22500.0,9906.2732305390055,7023.0863320206345,34806.965962504881,6053.4091959790967,-12581.712138381065,2717.1481816997198,22876.061207644732,18888.312631625275,1551.8636487111817,-1551.8636487111817,-18888.312631625275,39793.757876263036,0.0
372154.6038362722,4705833.5216966402,-22500.0,11243.829683024969,12563.8297139469,24803.555754990717,2209.0056759405047,-3481.7810958953028,-1513.0687781601089,17943.422498770928,22165.454698932441,-5545.0285090329344,5545.0285090329344,-22165.454698932441,32313.180691919872,0.0
377154.6038362722,4705833.5216966402,-22500.0,12904.369210407047,10896.701043587336,11163.280493135988,2742.38273651392,6885.0193305252351,-6782.8625674103077,16793.851597860677,18891.747979030893,-14059.758273895095,14059.758273895095,-18891.747979030893,29619.72335350062,0.0
382154.6038362722,4705833.5216966402,-22500.0,11114.418381449435,4185.6321855998167,1069.6628433258888,6404.2342043033468,13183.095411394759,-9935.662449197911,18359.59612608701,10561.03104471436,-18773.321831367743,18773.321831367743,-10561.03104471436,32086.497351436858,0.0
387154.6038362722,4705833.5216966402,-22500.0,5963.6708278674187,-2406.7023354832736,-3034.0653241069608,9786.3682371694595,14300.159216458971,-10354.576308229178,18338.682359029495,2014.8825021431785,-18566.63287121959,18566.63287121959,-2014.8825021431785,33445.425431970398,0.0
392154.6038362722,4705833.5216966402,-22500.0,272.70811670185122,-6127.2858461008173,-3139.1084740591677,11248.402133383321,12360.583125625233,-9261.0183777047241,16832.720086531808,-3613.5218707297608,-15674.126215615197,15674.126215615197,3613.5218707297608,31946.325295604984,0.0
397154.6038362722,4705833.5216966402,-22500.0,-4030.85902991485,-7187.0333353727483,-1794.1512758562442,11074.135021316515,9542.7716120403329,-7739.0662027660173,14669.970741454792,-6196.2462323212949,-12237.312963564424,12237.312963564424,6196.2462323212949,28689.912020988068,0.0
402154.6038362722,4705833.5216966402,-22500.0,-6573.3499826034267,-6726.4563330911433,-400.6265527266749,10026.125739946479,6950.3623091493764,-6264.9120281518863,12601.283559841606,-6808.7524632794157,-9219.3633402163323,9219.3633402163323,6808.7524632794157,24870.094319751181,0.0
407154.6038362722,4705833.5216966402,-22500.0,-7714.3904371176568,-5663.2257731449781,586.49543001580469,8664.3675656761206,4913.2631221399452,-4980.4781544841289,10858.165623396144,-6439.9015986909926,-6839.1302257915322,6839.1302257915322,6439.9015986909926,21155.040218676437,0.0
412154.6038362722,4705833.5216966402,-22500.0,-7937.1583093944064,-4504.5321726875272,1148.9326881594111,7290.6120044881018,3422.9682142987649,-3911.2324449282105,9250.1159762334464,-5692.5482515545227,-5040.3577527964899,5040.3577527964899,5692.5482515545227,17823.210558164003,0.0
417154.6038362722,4705833.5216966402,-22500.0,-7629.9186636538388,-3469.3655276645886,1398.493521664313,6041.0173832521923,2370.0952756433649,-3046.1219851731958,7823.0487807734562,-4868.9883617009109,-3705.111550335585,3705.111550335585,4868.9883617009109,14952.666391163308,0.0
422154.6038362722,4705833.5216966402,-22500.0,-7054.7737437728711,-2622.9164601161651,1451.9334483496134,4963.1930344257371,1638.5919524970411,-2360.7945198172588,6595.1255363781402,-4099.3853450099823,-2721.8091658283129,2721.8091658283129,4099.3853450099823,12532.401194697864,0.0
427154.6038362722,4705833.5216966402,-22500.0,-6372.861005396795,-1961.7741557851866,1396.1278144625448,4061.2511552020396,1133.8708667404032,-1826.2396326589503,5557.8674187757397,-3428.5415798727195,-2000.2620473321617,2000.2620473321617,3428.5415798727195,10516.189821239424,0.0
432154.6038362722,4705833.5216966402,-22500.0,-5676.4509742346545,-1458.0705318461978,1287.1441712234478,3319.8981970163559,786.11096740962751,-1413.634184964724,4690.9298361337087,-2862.9752213819984,-1471.4107275265578,1471.4107275265578,2862.9752213819984,8847.3570365058222,0.0
437154.6038362722,4705833.5216966402,-22500.0,-5014.3961481315628,-1079.4410119584304,1158.1651643294126,2716.8685213780705,546.08011932034049,-1097.1094897638195,3970.3860450565612,-2393.9156599175121,-1083.6265054532466,1083.6265054532466,2393.9156599175121,7469.9577451994364,0.0
442154.6038362722,4705833.5216966402,-22500.0,-4409.546342579988,-796.75932738498898,1027.4657183510824,2229.0720499734739,379.82695909231512,-854.92982648115355,3372.846202442639,-2007.8018191499632,-798.8225083075954,798.8225083075954,2007.8018191499632,6333.5198983679002,0.0
447154.6038362722,4705833.5216966402,-22500.0,-3869.8541418375357,-586.3145758136759,904.28905706026978,1835.3707960876075,264.17319547992912,-669.61579058324151,2877.2738200837944,-1690.764256536474,-589.13422189170387,589.13422189170387,1690.764256536474,5394.6257778818226,0.0
452154.6038362722,4705833.5216966402,-22500.0,-3395.1651368516191,-429.73018492312974,792.67816729878791,1517.5912456176773,183.34716114488742,-527.51282984342754,2465.5847038823545,-1430.3359260647151,-434.27985457098885,434.27985457098885,1430.3359260647151,4616.9562471177032,0.0
457154.6038362722,4705833.5216966402,-22500.0,-2981.2440555478461,-313.13032733626363,693.81944269083067,1260.6593514689469,126.60906872937134,-418.15210444578037,2122.6402323678039,-1215.9376468556093,-319.5355888911688,319.5355888911688,1215.9376468556093,3970.6465178420194,0.0
462154.6038362722,4705833.5216966402,-22500.0,-2622.091078166869,-226.18238333947644,607.41902119508416,1052.3392512995322,86.622507070929146,-333.59896242468017,1835.9689347049066,-1038.8511541676162,-234.21920018672404,234.21920018672404,1038.8511541676162,3431.3937012335855,0.0
467154.6038362722,4705833.5216966402,-22500.0,-2311.2246899587194,-161.24458208802531,532.48550081310009,882.82707678852444,58.352310898586204,-267.87722340276474,1595.3920863392482,-892.00140032506295,-170.57258557966304,170.57258557966304,892.00140032506295,2979.5358479299998,0.0
472154.6038362722,4705833.5216966402,-22500.0,-2042.3569562917296,-112.67997810608027,467.76110031426089,744.32686362817253,38.323529563725856,-216.4977860999235,1392.6447821304725,-769.6925008468944,-122.94849745957993,122.94849745957993,769.6925008468944,2599.2106775833199,0.0
477154.6038362722,4705833.5216966402,-22500.0,-1809.7157767681924,-76.330140132398711,411.94928514174262,630.66323009344001,24.123438394937153,-176.08868940126138,1221.0306434400516,-667.3548822424226,-87.222886600495599,87.222886600495599,667.3548822424226,2277.6290094725678,0.0
267154.6038362722,4710833.5216966402,-22500.0,-319.70189991390191,521.79139682965604,147.40829842691028,-143.30385859966145,137.04657647311865,-47.104165926536204,601.50959371006888,338.42893561365537,-117.37614648790979,117.37614648790979,-338.42893561365537,1048.7708738484957,0.0
272154.6038362722,4710833.5216966402,-22500.0,-303.71197887340423,586.61163769441839,157.34841191364779,-151.67958028637932,157.55809436814368,-52.435211626931903,664.12551200079611,398.92938555917016,-145.88178287876048,145.88178287876048,-398.92938555917016,1155.7232878912164,0.0
277154.6038362722,4710833.5216966402,-22500.0,-274.94696501269726,660.36518222896325,167.62068574264549,-158.1770167663947,181.26222813944656,-57.676760541907001,734.69733912625816,471.06140282151364,-180.87497596849403,180.87497596849403,-471.06140282151364,1276.2406187410609,0.0
282154.6038362722,4710833.5216966402,-22500.0,-228.72583910469271,744.08250364572416,178.13342375573026,-161.4130090192931,208.50419867521313,-62.306905046607355,814.36978643806742,557.10971944953644,-223.75343057966228,223.75343057966228,-557.10971944953644,1412.4735163124647,0.0
287154.6038362722,4710833.5216966402,-22500.0,-158.81032062983621,838.72901403411458,188.7948205973093,-159.39598312614774,239.54782887584003,-65.461192856457373,904.49328380737211,659.75281016942199,-276.13908429801302,276.13908429801302,-659.75281016942199,1567.1198292842994,0.0
292154.6038362722,4710833.5216966402,-22500.0,-56.89872813615991,945.06086622275006,199.55157420672515,-149.31399085899253,274.48514602871796,-65.766896124180548,1006.6969492196151,782.0924619357495,-339.86279281228332,339.86279281228332,-782.0924619357495,1743.6886358246404,0.0
297154.6038362722,4710833.5216966402,-22500.0,88.051700937989409,1063.3762464082938,210.4707294116657,-127.27991891119687,313.1025254405647,-61.129685743529812,1123.007147910339,927.66834855114644,-416.9196116955718,416.9196116955718,-927.66834855114644,1946.9235673109099,0.0
302154.6038362722,4710833.5216966402,-22500.0,290.75372386030324,1193.0829933956427,221.90747526930883,-88.047284551563664,354.69899227144526,-48.499205557774644,1256.035141154689,1100.4556475529894,-509.40060970451674,509.40060970451674,-1100.4556475529894,2183.4624453480824,0.0
307154.6038362722,4710833.5216966402,-22500.0,570.91019413910021,1331.9225475830065,234.85126387621034,-24.720445578533997,397.86802839881778,-23.710183062717284,1409.2498962815444,1304.8492417881566,-619.44903312661393,619.44903312661393,-1304.8492417881566,2462.8164229907229,0.0
312154.6038362722,4710833.5216966402,-22500.0,955.17266682797981,1474.5046931655691,251.66838676577572,71.539472770500311,440.27952979824994,18.353196606522744,1587.295857396562,1545.6332025771724,-749.38686394636647,749.38686394636647,-1545.6332025771724,2798.727681818697,0.0
317154.6038362722,4710833.5216966402,-22500.0,1480.1108628676236,1609.3966326089526,277.7951947599733,211.95957812302944,478.500998842645,82.742819584912269,1796.1427003470276,1827.8664741383147,-902.33537708557628,902.33537708557628,-1827.8664741383147,3210.9602443391873,0.0
322154.6038362722,4710833.5216966402,-22500.0,2196.450976495973,1713.1626672907712,325.84578151306368,411.39691190213074,507.71050721926855,171.66878453353988,2042.4860893096334,2156.3097938838464,-1083.8250718804065,1083.8250718804065,-2156.3097938838464,3727.8907899747132,0.0
327154.6038362722,4710833.5216966402,-22500.0,3173.3947209436901,1738.3730884703332,425.98356386677136,692.22044956828563,520.2257005102955,278.90138367666287,2331.6904128759011,2533.0993605298549,-1304.5191565351033,1304.5191565351033,-2533.0993605298549,4391.9507319175609,0.0
332154.6038362722,4710833.5216966402,-22500.0,4495.6235028267465,1591.9578091187448,652.0531909988448,1094.4333437469115,498.72374585542275,381.7428230782574,2684.1294663414924,2950.5357318547453,-1581.4185775133978,1581.4185775133978,-2950.5357318547453,5275.1848778869207,0.0
337154.6038362722,4710833.5216966402,-22500.0,6227.2064062850368,1107.8842486037408,1183.0193416318086,1694.2736012318294,393.0215895603647,437.18220838508114,3477.9553785858716,3375.3984322133797,-1925.8247777877373,1925.8247777877373,-3375.3984322133797,6520.7014756384515,0.0
342154.6038362722,4710833.5216966402,-22500.0,8282.8762728216298,59.632196652869702,2420.79953078668,2613.4305287142115,63.179504087713731,402.53303765745659,4728.8647569320347,3736.53032868628,-2290.1751017216147,2290.1751017216147,-3736.53032868628,8413.1609259829329,0.0
347154.6038362722,4710833.5216966402,-22500.0,10160.07965138498,-1627.3222017891071,5098.6505685349084,3932.1702690500833,-790.78988938961936,305.60461991742363,6541.5787456832641,3995.7450329690223,-2459.2777637816084,2459.2777637816084,-3995.7450329690223,11360.346986480756,0.0
352154.6038362722,4710833.5216966402,-22500.0,10806.996376728393,-3252.1531152014172,9947.0735741912267,5357.7291914883454,-2496.3255152069687,307.59996093873997,8912.2171006826884,4464.8096155739604,-2051.7379133411973,2051.7379133411973,-4464.8096155739604,15443.067411856597,0.0
357154.6038362722,4710833.5216966402,-22500.0,9547.1958893247847,-2916.5195454348445,16177.259120775741,5892.9559050414146,-4649.5543540487633,499.35684693529777,11241.074988870216,6105.2299853778686,-1105.3655398864803,1105.3655398864803,-6105.2299853778686,19502.896925734331,0.0
362154.6038362722,4710833.5216966402,-22500.0,7698.244739740815,632.80359871611176,20169.948936463945,4650.811323223591,-5380.0923982554132,423.89636266621238,12273.690974079684,9457.449149874963,-905.54938037550255,905.54938037550255,-9457.449149874963,21262.895211659488,0.0
367154.6038362722,4710833.5216966402,-22500.0,7367.3420306449407,5350.7167033471233,18400.957276089641,2421.3196525940402,-2854.1434535630005,-720.73363803146367,11515.31002747238,12890.982470929161,-3015.843559849447,3015.843559849447,-12890.982470929161,20107.601231128003,0.0
372154.6038362722,4710833.5216966402,-22500.0,8637.9479939665762,7685.9510443570161,11412.155127410064,1148.6708355307212,2434.4282002246032,-3079.817648995836,10817.14867873257,13808.487507729173,-7295.9361262101447,7295.9361262101447,-13808.487507729173,19402.807846738717,0.0
377154.6038362722,4710833.5216966402,-22500.0,9643.4469201178417,5988.9300579912815,2938.1485463111517,2000.0816281432808,8014.6468002286056,-5739.7209257464492,12788.786449556566,11003.984809304004,-11788.308462249659,11788.308462249659,-11003.984809304004,22153.118701176707,0.0
382154.6038362722,4710833.5216966402,-22500.0,8537.7760827526527,1533.0062181484316,-3253.4195694789591,4375.2790542444955,11508.709555738315,-7530.6816574468003,14502.053304620553,5574.6147874593271,-14361.478573755561,14361.478573755561,-5574.6147874593271,25876.476026126111,0.0
387154.6038362722,4710833.5216966402,-22500.0,5297.0774885770861,-3037.886512260302,-5802.9007214007424,6769.0493285959938,12265.080270696386,-8046.0930125651257,14917.535952484428,-51.872847651336997,-14431.229011672851,14431.229011672851,51.872847651336997,27741.372450416551,0.0
392154.6038362722,4710833.5216966402,-22500.0,1295.4550956963492,-6015.453855233558,-5621.5090811502887,8213.5581455057345,11103.344051780919,-7606.4094851435575,14202.229250466573,-4131.3439921765148,-12812.370263563689,12812.370263563689,4131.3439921765148,27318.695483228705,0.0
397154.6038362722,4710833.5216966402,-22500.0,-2197.6320602494902,-7184.4178782686986,-4211.7476897620836,8596.5659459401104,9131.4194949929752,-6686.0020321362845,12851.188667395103,-6306.7001298360556,-10550.559338226318,10550.559338226318,6306.7001298360556,25334.974157875826,0.0
402154.6038362722,4710833.5216966402,-22500.0,-4642.121765565611,-7080.0230868036251,-2616.1581424265769,8220.6880681973525,7091.5470833157269,-5618.7082915753344,11441.610490979774,-7016.9768881531709,-8309.1022184883186,8309.1022184883186,7016.9768881531709,22605.888976085098,0.0
407154.6038362722,4710833.5216966402,-22500.0,-6043.9733198406711,-6311.2172560134768,-1299.2567362198324,7430.4471502769147,5322.3259252886801,-4585.1559642861776,10088.63596421406,-6845.0776158239114,-6371.8224018665551,6371.8224018665551,6845.0776158239114,19693.381952279353,0.0
412154.6038362722,4710833.5216966402,-22500.0,-6634.9159769861417,-5307.8152143920943,-368.62629780511719,6479.4220347860519,3915.3669111100908,-3668.5705117993357,8745.2297704201919,-6238.9659737134343,-4807.3882019455132,4807.3882019455132,6238.9659737134343,16909.622784075236,0.0
417154.6038362722,4710833.5216966402,-22500.0,-6677.8298517553894,-4309.6223833881468,222.24564860269123,5521.7998175463936,2848.6474033139839,-2897.3565255525414,7499.746416037282,-5475.546561980902,-3590.7517553474609,3590.7517553474609,5475.546561980902,14399.694445559351,0.0
422154.6038362722,4710833.5216966402,-22500.0,-6389.5956417923571,-3424.9809243245468,561.28293517824034,4638.2515109792002,2061.6116063311406,-2270.3937511040049,6393.9440735318867,-4703.8622264455626,-2665.5096595116661,2665.5096595116661,4703.8622264455626,12211.994370747903,0.0
427154.6038362722,4710833.5216966402,-22500.0,-5925.3993645871815,-2687.3234301752682,730.62201300604443,3862.7415691195729,1489.7109198595003,-1772.2439593756326,5437.5788604555237,-3993.8879229463323,-1971.3794740045009,1971.3794740045009,3993.8879229463323,10343.7412987771,0.0
432154.6038362722,4710833.5216966402,-22500.0,-5386.853599670364,-2093.3002741464425,792.99604027281782,3202.4485736322381,1077.3541022604393,-1382.2719492746046,4623.5560081683607,-3371.6703509720619,-1454.8302125455975,1454.8302125455975,3371.6703509720619,8767.8006133320214,0.0
437154.6038362722,4710833.5216966402,-22500.0,-4835.8958446767983,-1624.6053050949995,791.83193084821687,2650.7619647913889,780.9077638118863,-1079.7003391219484,3937.1815001622317,-2840.8627941111695,-1072.1160517011622,1072.1160517011622,2840.8627941111695,7447.7227254497466,0.0
442154.6038362722,4710833.5216966402,-22500.0,-4307.5258038934908,-1259.1033093924443,755.45692218400961,2195.0837758621724,567.74713079331525,-846.01146247894064,3361.3559033290294,-2394.8362888752558,-789.0852693313077,789.0852693313077,2394.8362888752558,6345.7466461896747,0.0
447154.6038362722,4710833.5216966402,-22500.0,-3819.4924789713073,-975.84589714079505,701.57692709126582,1821.1627318466294,414.12835581301357,-665.76929556681921,2879.2740748935312,-2023.079517334322,-579.79744750884151,579.79744750884151,2023.079517334322,5426.6997991471426,0.0
452154.6038362722,4710833.5216966402,-22500.0,-3379.0208207630249,-756.91642887334547,640.85272582959954,1515.2943726531721,303.02743367896517,-526.61463268174032,2475.6780868809333,-1714.3801412355458,-424.8802181067565,424.8802181067565,1714.3801412355458,4659.6016608460122,0.0
457154.6038362722,4710833.5216966402,-22500.0,-2987.2312678211874,-587.76984110056242,579.44469079433475,1265.2870147617709,222.33085826652987,-418.89634808293744,2137.3104097262803,-1458.2740791486099,-310.01364773660475,310.01364773660475,1458.2740791486099,4018.0430710631622,0.0
462154.6038362722,4710833.5216966402,-22500.0,-2641.9234064356178,-456.93824456348636,520.71590258958713,1060.7556815787698,163.44377089687214,-335.19261171852901,1852.9463032054196,-1245.5963106914755,-224.67230340555705,224.67230340555705,1245.5963106914755,3479.9517232787166,0.0
467154.6038362722,4710833.5216966402,-22500.0,-2339.2754524425432,-355.53143648574155,466.33241891851242,893.08223571524195,120.26659633951994,-269.84704638788531,1613.231987427323,-1068.5933651824998,-161.13927338842404,161.13927338842404,1068.5933651824998,3027.102977965641,0.0
472154.6038362722,4710833.5216966402,-22500.0,-2074.8448593648345,-276.72248487495108,416.95749044282456,755.22829790715184,88.460664231672638,-218.56854924096135,1410.4468570479717,-920.8353504500119,-113.75838101597378,113.75838101597378,920.8353504500119,2644.55633948482,0.0
267154.6038362722,4715833.5216966402,-22500.0,-170.59141935843368,487.38393911839989,111.03538978919644,-102.36290345626003,126.92505226096425,-38.624628032892737,531.9434977425301,353.48521349968229,-137.5451111964249,137.5451111964249,-353.48521349968229,923.01528606356612,0.0
272154.6038362722,4715833.5216966402,-22500.0,-133.29626392244086,540.64543697109332,116.132468103251,-103.22395826687126,143.91453572070463,-42.157198891447294,582.36324235272218,410.93953202276333,-166.65219511899255,166.65219511899255,-410.93953202276333,1009.3465822575187,0.0
277154.6038362722,4715833.5216966402,-22500.0,-80.214267228725959,599.18939462833259,121.18735471749316,-100.76506313053771,162.86713751257702,-45.246318279389286,638.16614638752003,478.1234433895454,-201.58926266573198,201.58926266573198,-478.1234433895454,1105.3797846598652,0.0
282154.6038362722,4715833.5216966402,-22500.0,-6.4795563659372215,662.85302949885761,126.29861331716343,-93.370209987567307,183.68052049944026,-47.342013843293515,699.86895721335668,556.53706913148039,-243.35840333373227,243.35840333373227,-556.53706913148039,1212.5252287716426,0.0
287154.6038362722,4715833.5216966402,-22500.0,94.144948022346711,731.00642881108706,131.74985727510276,-78.815862894378256,206.00161285133646,-47.586753312056125,768.01773097953856,647.77344325402385,-293.00356010450071,293.00356010450071,-647.77344325402385,1332.6247871185649,0.0
292154.6038362722,4715833.5216966402,-22500.0,229.5984706386908,802.27714655260729,138.17263600073863,-54.088360063659593,229.07005634621751,-44.683256616054706,843.20099745577727,753.43538361538435,-351.5161370473752,351.5161370473752,-753.43538361538435,1468.2147312887093,0.0
297154.6038362722,4715833.5216966402,-22500.0,409.8950371363569,874.13906209788593,146.83088246984741,-15.177256212348563,251.49003650781523,-36.730826081188759,926.08202563875329,874.99499187463925,-419.67386235938284,419.67386235938284,-874.99499187463925,1622.9529316552373,0.0
302154.6038362722,4715833.5216966402,-22500.0,647.51224058788625,942.30049481752962,160.11819791136105,43.133125818387903,270.91115526521492,-21.052179438718202,1017.4627390787284,1013.5771738997878,-497.79268590273904,497.79268590273904,-1013.5771738997878,1802.2840093796817,0.0
307154.6038362722,4715833.5216966402,-22500.0,957.73656479950557,999.78906635776923,182.43404912454463,127.43332387679381,283.60263108067051,5.923061148096826,1118.3858322787405,1169.6485695807537,-585.3831024678077,585.3831024678077,-1169.6485695807537,2014.408890346466,0.0
312154.6038362722,4715833.5216966402,-22500.0,1358.8239449605414,1035.5717790499732,221.75500584339073,245.76463007516162,283.9128143057136,48.567909612061136,1230.2594275070564,1342.5955993935793,-680.73345369125468,680.73345369125468,-1342.5955993935793,2271.5836233010837,0.0
317154.6038362722,4715833.5216966402,-22500.0,1871.6165271078369,1032.4781976932361,292.52045232942578,407.5621088806829,263.60110232198821,111.47826935490544,1355.0260763797987,1530.1767628638695,-780.49107570601927,780.49107570601927,-1530.1767628638695,2591.7203964275677,0.0
322154.6038362722,4715833.5216966402,-22500.0,2517.6605073535802,964.21261923434542,421.05301988048029,623.50347335725451,210.9438940302127,197.98910191461485,1514.5755600953994,1727.8383530734334,-879.31317054561828,879.31317054561828,-1727.8383530734334,3000.3462461927138,0.0
327154.6038362722,4715833.5216966402,-22500.0,3313.3419799735343,791.8387379076521,655.76334080497486,905.37827714237937,109.20750756974975,307.44246577680877,1868.2747724829258,1928.0107596970297,-969.40691574552375,969.40691574552375,-1928.0107596970297,3533.5075840081349,0.0
332154.6038362722,4715833.5216966402,-22500.0,4254.3381894519689,462.93044251470991,1085.3649892430294,1265.60681557213,-66.543775618278744,431.64445695802334,2336.2274318899749,2120.3933933650892,-1038.8968102319004,1038.8968102319004,-2120.3933933650892,4242.9758856397084,0.0
337154.6038362722,4715833.5216966402,-22500.0,5280.7583030512769,-74.520812575051963,1865.5912744939976,1713.0843139873853,-355.29836477490346,553.02037381757555,2949.3632054618815,2297.9906676630562,-1066.7014774316067,1066.7014774316067,-2297.9906676630562,5202.7109763973758,0.0
342154.6038362722,4715833.5216966402,-22500.0,6219.5508956177164,-812.93432068612344,3235.0013412469193,2233.6200922323274,-813.58919089756546,649.12358042120525,3742.0279319115207,2483.565362775294,-1014.3399269904589,1014.3399269904589,-2483.565362775294,6499.8096163129139,0.0
347154.6038362722,4715833.5216966402,-22500.0,6750.8673881702753,-1542.958063437979,5437.9650293775985,2735.0869987783249,-1487.1978847506502,702.81571075934949,4709.6669910470673,2799.1509385385043,-835.40860774091652,835.40860774091652,-2799.1509385385043,8159.7594607591036,0.0
352154.6038362722,4715833.5216966402,-22500.0,6556.3979513918366,-1695.6749418227753,8396.3192809089942,2973.1170565368448,-2285.0072302297049,693.66586187622988,5734.3046428130365,3547.310187240058,-564.26686081160688,564.26686081160688,-3547.310187240058,9967.5420049371587,1.0
357154.6038362722,4715833.5216966402,-22500.0,5761.1483184623958,-539.36110110158268,11168.093604955266,2608.7479443496277,-2759.4188729376278,532.95438605946777,6537.0783290329409,5082.8122880134506,-504.55169950793197,504.55169950793197,-5082.8122880134506,11356.506237315316,0.0
362154.6038362722,4715833.5216966402,-22500.0,5175.0759359774447,1959.7617283767725,11978.188863679368,1574.5101167819541,-2120.1110411236264,1.3190288574924884,6842.3482112339416,7261.6441452384024,-1259.8862675469613,1259.8862675469613,-7261.6441452384024,11861.349646659573,0.0
367154.6038362722,4715833.5216966402,-22500.0,5574.1617002493886,4524.4010619158898,9562.5764833540597,423.05264189572102,156.13543556835853,-1125.4185017109753,6838.2655698059234,9051.556282256568,-3270.0911480782233,3270.0911480782233,-9051.556282256568,12228.376933430016,0.0
372154.6038362722,4715833.5216966402,-22500.0,6730.7572554203598,5420.6005368952056,4507.7773893111262,33.79796291105712,3650.4019805218531,-2780.7466172573545,8151.917528683708,9143.0896197121419,-6227.4229166427722,6227.4229166427722,-9143.0896197121419,14226.557036281054,1.0
377154.6038362722,4715833.5216966402,-22500.0,7516.4427033689253,3906.604636360089,-1107.5484559199842,868.24417099927905,7140.4276786553282,-4505.9665826244072,10177.224930863085,6999.1825954898259,-9107.4813834920024,9107.4813834920024,-6999.1825954898259,17782.962144645833,0.0
382154.6038362722,4715833.5216966402,-22500.0,6918.5266305317746,723.14559121115929,-5232.2939488038492,2589.4082661466668,9452.4126891721971,-5755.343652670429,11644.707052669441,3281.4398041534446,-10878.296591441087,10878.296591441087,-3281.4398041534446,21071.301476975255,0.0
387154.6038362722,4715833.5216966402,-22500.0,4857.4809830542881,-2668.7826789055516,-7033.2372001550402,4424.158403472481,10165.098451036725,-6271.7473843851412,12220.641368872672,-686.66665824754909,-11179.577522822892,11179.577522822892,686.66665824754909,22868.948382246552,0.0
392154.6038362722,4715833.5216966402,-22500.0,2039.789518694475,-5168.8172121713988,-6901.0013866752024,5767.0503369609223,9586.0905459675632,-6135.5579250479532,11992.969080353685,-3834.9216421731153,-10323.348425455748,10323.348425455748,3834.9216421731153,23006.216432049529,0.0
397154.6038362722,4715833.5216966402,-22500.0,-716.04650272819981,-6443.952608338911,-5708.272522692565,6417.8357358860712,8293.5273621942069,-5578.8570757356929,11243.469357605636,-5768.4791490297966,-8857.5284655947107,8857.5284655947107,5768.4791490297966,21881.046784992519,0.0
402154.6038362722,4715833.5216966402,-22500.0,-2907.8213653292373,-6691.7713256979805,-4200.4548232172137,6465.2901921450348,6778.4165608878729,-4825.3093433165568,10254.320565273994,-6607.8810081942129,-7232.3382656915664,7232.3382656915664,6607.8810081942129,20011.226542561839,0.0
407154.6038362722,4715833.5216966402,-22500.0,-4383.8198996482488,-6281.474575116702,-2805.9889171512054,6102.4896413133874,5336.6146070856157,-4031.9347424568746,9170.6374093096656,-6673.7386494714528,-5711.2683715034827,5711.2683715034827,6673.7386494714528,17821.010993882614,0.0
412154.6038362722,4715833.5216966402,-22500.0,-5207.9969459242238,-5543.1366451762724,-1693.288536601545,5514.7566355820327,4100.7702049222662,-3289.7582422975797,8068.7159293793047,-6281.6505584929282,-4409.0046279493954,4409.0046279493954,6281.6505584929282,15593.473887977665,0.0
417154.6038362722,4715833.5216966402,-22500.0,-5529.3559723507333,-4702.7469108360201,-881.93190562636914,4839.7256893928643,3103.5411431856182,-2641.5276529220646,7015.8542216479655,-5666.9338198069836,-3351.448331064581,3351.448331064581,5666.9338198069836,13491.825772532082,0.0
422154.6038362722,4715833.5216966402,-22500.0,-5504.3121636935384,-3889.7579733275379,-327.48271578768538,4164.9750535312623,2328.0104556592746,-2099.5242934300513,6054.5801141942866,-4980.1426811510901,-2520.7357960887516,2520.7357960887516,4980.1426811510901,11595.548213488295,0.0
427154.6038362722,4715833.5216966402,-22500.0,-5263.3184858352506,-3165.5884625973063,30.949568165720901,3538.9012917722034,1738.4894650054107,-1659.1453105913374,5203.2380736669165,-4306.8124589295585,-1882.1115446630611,1882.1115446630611,4306.8124589295585,9931.7286745105339,0.0
432154.6038362722,4715833.5216966402,-22500.0,-4902.8440287884032,-2550.5757657050845,249.48290812882814,2983.3894773064781,1296.4677013254993,-1307.9795414390287,4464.1071792780858,-3689.4649028870481,-1397.9507895079905,1397.9507895079905,3689.4649028870481,8497.543200596705,0.0
437154.6038362722,4715833.5216966402,-22500.0,-4488.6957796430461,-2043.2291496021703,372.64632839197185,2504.1868044579851,967.55361884233855,-1031.2383080798579,3830.4974339190849,-3144.7795885238856,-1034.1085623734273,1034.1085623734273,3144.7795885238856,7274.9203713850529,0.0
442154.6038362722,4715833.5216966402,-22500.0,-4062.8804792134169,-1632.1457239304148,433.09748441432407,2098.1911391768076,723.64187324399711,-814.62874982186111,3291.5323551443344,-2675.1493957062521,-762.12069633019087,762.12069633019087,2675.1493957062521,6239.4534051782812,0.0
447154.6038362722,4715833.5216966402,-22500.0,-3650.4413800824332,-1302.6625050158848,453.6642458880408,1758.0977324113767,542.86269267465127,-645.62496007582297,2835.0256575161552,-2275.8107931623776,-559.37569363759167,559.37569363759167,2275.8107931623776,5365.4573111760974,0.0
452154.6038362722,4715833.5216966402,-22500.0,-3265.0163970386038,-1040.2104036439746,449.79421170545078,1475.1369719174029,408.68157187479949,-513.83736495206347,2449.0597090225347,-1938.9680036859986,-408.43179239216806,408.43179239216806,1938.9680036859986,4628.6020634043844,0.0
457154.6038362722,4715833.5216966402,-22500.0,-2912.9278295014624,-831.78147068394082,431.68865962742007,1240.5600287164991,308.80963219472375,-410.93160646767319,2122.7554004656931,-1656.0373811869711,-296.07949388046382,296.07949388046382,1656.0373811869711,4007.1019081633735,0.0
462154.6038362722,4715833.5216966402,-22500.0,-2596.0101596370064,-666.39388523590037,405.9439175060819,1046.3580162089104,234.20160513067577,-330.35926523343994,1846.5665855699649,-1418.7750622908998,-212.42695408557859,212.42695408557859,1418.7750622908998,3482.0843208315196,0.0
467154.6038362722,4715833.5216966402,-22500.0,-2313.4885354218422,-535.07292846216114,376.73503055817719,885.54224412013639,178.23217200220682,-267.04047495246687,1612.3184391257985,-1219.7769839761845,-150.11538670091011,150.11538670091011,1219.7769839761845,3037.534219793642,0.0
472154.6038362722,4715833.5216966402,-22500.0,-2063.1828476770611,-430.62620995205998,346.63756410077093,752.18770390798738,136.05618986984135,-217.06368732290002,1413.1159844496683,-1052.638498375481,-103.68870622093243,103.68870622093243,1052.638498375481,2660.034665240672,0.0
272154.6038362722,4720833.5216966402,-22500.0,8.8147556158220759,481.83389955272719,86.496709497730421,-61.916526580241822,126.73151520658621,-33.065966579398633,505.43184952276277,407.05961006620646,-176.54153096183688,176.54153096183688,-407.05961006620646,875.90934296086482,0.0
277154.6038362722,4720833.5216966402,-22500.0,77.929656751033846,524.0951697547024,89.773418137070038,-52.906466324125034,140.4884082759408,-34.45531979561347,548.18985700554356,466.7217467141611,-209.09354801834604,209.09354801834604,-466.7217467141611,951.7022751259052,0.0
282154.6038362722,4720833.5216966402,-22500.0,168.28007918063366,567.056382792916,93.958237698785766,-38.158606997932168,154.50187302854897,-34.643379653013689,594.29437489961788,534.68775894906378,-246.94584492453342,246.94584492453342,-534.68775894906378,1035.4996712198883,0.0
287154.6038362722,4720833.5216966402,-22500.0,285.24093841416334,608.93277521631762,99.998833590812083,-15.554564446260933,167.92527436801274,-32.843775486562819,643.75301581622989,611.60018538604959,-290.50954185142416,290.50954185142416,-611.60018538604959,1128.8444275627987,0.0
292154.6038362722,4720833.5216966402,-22500.0,435.25762007599974,646.96475373782687,109.54364714671149,17.647070575282136,179.36682930957775,-27.919267476530489,696.50103589076105,697.84898867426432,-339.91836144120316,339.91836144120316,-697.84898867426432,1234.0587710951993,0.0
297154.6038362722,4720833.5216966402,-22500.0,625.86057067859917,677.03584216025683,125.38807332739977,64.910404693297892,186.63690440206335,-18.272879360342106,752.40986693789273,793.3918389271189,-394.8009716346441,394.8009716346441,-793.3918389271189,1354.7258853994131,0.0
302154.6038362722,4720833.5216966402,-22500.0,865.50406443381166,693.18939851921834,152.18754625295313,130.46948396082837,186.41154349384638,-1.7456094370276154,811.32294491941082,897.52404759180467,-453.9519219970075,453.9519219970075,-897.52404759180467,1496.3850474447754,0.0
307154.6038362722,4720833.5216966402,-22500.0,1163.0695903172132,687.05963656846541,197.59060895610278,219.25472898674028,173.8101427507751,24.429022984691631,873.12936748056586,1008.6202439866979,-514.88838998032884,514.88838998032884,-1008.6202439866979,1667.4288915164655,0.0
312154.6038362722,4720833.5216966402,-22500.0,1526.7610340028109,647.29702195588447,274.02491631638281,336.59042934852675,141.91017718523673,63.514259391028148,942.49928112223768,1123.9192431353665,-573.30765636401088,573.30765636401088,-1123.9192431353665,1880.0670123098469,0.0
317154.6038362722,4720833.5216966402,-22500.0,1961.9207572260541,559.23565457384154,401.46842906262901,487.50474264560978,81.26886797321437,118.83764550538189,1133.8626980011109,1239.5282726962278,-622.51614905860674,622.51614905860674,-1239.5282726962278,2151.0354607835097,0.0
322154.6038362722,4720833.5216966402,-22500.0,2466.9740533796917,405.46233455006148,611.58603246422297,675.42371427118621,-20.402561991335066,192.8183096831315,1371.8530582986107,1351.0395050796085,-652.98782675603184,652.98782675603184,-1351.0395050796085,2501.5689515616823,0.0
327154.6038362722,4720833.5216966402,-22500.0,3026.3103717978261,168.93735061771255,953.30523546946665,899.87097133850546,-178.11785130036918,285.28355399044284,1666.5930936133211,1455.6246269289718,-652.33982857223191,652.33982857223191,-1455.6246269289718,2956.0981591253758,0.0
332154.6038362722,4720833.5216966402,-22500.0,3598.999060863569,-157.62460729025804,1498.2242223980174,1152.3917630391941,-408.33137058544958,391.18559037225657,2028.0250756183561,1557.4357862639795,-606.29778824093728,606.29778824093728,-1557.4357862639795,3538.8117722960351,0.0
337154.6038362722,4720833.5216966402,-22500.0,4105.0426476516377,-549.41526498804922,2338.6414079800184,1409.1010715999637,-724.37460432154114,498.31992631269014,2461.1631581961215,1679.5871157590918,-502.21187492303852,502.21187492303852,-1679.5871157590918,4265.4574472531394,0.0
342154.6038362722,4720833.5216966402,-22500.0,4421.5120118394652,-908.07403381452036,3557.8663440591999,1618.0457202564407,-1122.8073325561993,585.6032474823445,2956.2810091146666,1885.6464364711208,-339.66253274275527,339.66253274275527,-1885.6464364711208,5124.1891095978299,0.0
347154.6038362722,4720833.5216966402,-22500.0,4421.8238041094737,-1015.0123246271439,5136.6113889767457,1685.3208867256585,-1549.8008512313611,620.25663010670939,3474.6000563995008,2302.072041213642,-157.44835420955133,157.44835420955133,-2302.072041213642,6041.3131731040521,0.0
352154.6038362722,4720833.5216966402,-22500.0,4095.02648953775,-552.7187748097017,6782.1263433421327,1484.6137162266182,-1843.8256924554164,548.87372868256625,3944.7808437104918,3096.7979382510302,-81.414308616145036,81.414308616145036,-3096.7979382510302,6859.4736632398053,0.0
357154.6038362722,4720833.5216966402,-22500.0,3689.6714536920658,686.9482929074245,7804.7424377823245,936.70475889118336,-1699.6603481516304,284.2289423206401,4291.8064508154648,4338.1522433971377,-356.63140721213244,356.63140721213244,-4338.1522433971377,7433.6372492542059,0.0
362154.6038362722,4720833.5216966402,-22500.0,3657.7536750277495,2451.2612090919661,7334.7641310206454,154.76328698049917,-765.77817276841051,-282.7582457202484,4504.8597422155271,5761.8830504879843,-1268.8261351389024,1268.8261351389024,-5761.8830504879843,7962.0658014014707,0.0
367154.6038362722,4720833.5216966402,-22500.0,4271.1300756421488,3928.6933938603443,4947.3445708683876,-493.30455093457329,1086.961694466117,-1207.7750615087111,5153.6089430665788,6714.7512177555791,-2919.5782628547831,2919.5782628547831,-6714.7512177555791,9206.4642117197764,0.0
372154.6038362722,4720833.5216966402,-22500.0,5258.3151911761806,4211.6020856665655,1149.275925918482,-566.21342338862462,3540.2036644931491,-2390.7596825894143,6726.2201484981215,6495.2977500255329,-5029.8780855107652,5029.8780855107652,-6495.2977500255329,11650.574937462281,0.0
377154.6038362722,4720833.5216966402,-22500.0,5921.6623470753539,2955.0618501005415,-2839.6697152213151,130.83000955780562,5924.3574780953431,-3568.2153944333445,8324.2314933896359,4852.0370080456214,-7012.3514468697122,7012.3514468697122,-4852.0370080456214,14670.286452670525,0.0
382154.6038362722,4720833.5216966402,-22500.0,5656.7304618135613,598.80563651849445,-5829.8371475652775,1397.9253623492916,7598.4801599721795,-4450.1959045173771,9502.9119008756443,2178.9251361206257,-8304.7751983539183,8304.7751983539183,-2178.9251361206257,17266.913324069897,0.0
387154.6038362722,4720833.5216966402,-22500.0,4361.6237019677028,-2000.0291328880742,-7267.4848665640257,2801.7858286722044,8277.1111063691078,-4877.9941586713176,10087.674566708163,-753.8691554876832,-8671.8003578276912,8671.8003578276912,753.8691554876832,18821.271236667475,0.0
392154.6038362722,4720833.5216966402,-22500.0,2402.9202945715665,-4110.6448228282261,-7294.1539626803869,3954.9121507718328,8061.9801077722977,-4864.3883143616376,10102.356064665437,-3254.2643191171373,-8233.2215423957387,8233.2215423957387,3254.2643191171373,19208.804102561713,0.0
397154.6038362722,4720833.5216966402,-22500.0,298.07442431039669,-5404.0652707835179,-6413.0773890301243,4668.0485785261881,7257.7680267183387,-4527.4823987648597,9686.4618595185239,-4971.7813224561696,-7286.578338411452,7286.578338411452,4971.7813224561696,18626.591207919522,0.0
402154.6038362722,4720833.5216966402,-22500.0,-1552.7514030321001,-5904.2566714640534,-5141.684061129823,4935.9730902470883,6180.5524224525243,-4008.2784555470362,9001.8208664686535,-5882.7027124202141,-6127.7074567471118,6127.7074567471118,5882.7027124202141,17388.710297458649,0.0
407154.6038362722,4720833.5216966402,-22500.0,-2952.8543065598656,-5811.2745005543729,-3842.2831996067221,4853.2832297333416,5061.9883078150015,-3422.8571070202252,8176.1919938147003,-6145.2679070599415,-4966.5038041246999,4966.5038041246999,6145.2679070599415,15793.699297171164,0.0
412154.6038362722,4720833.5216966402,-22500.0,-3871.2324170928659,-5355.6089913793994,-2705.2291229887851,4540.5355767460242,4035.4966298595946,-2848.6637797080211,7299.3712321240873,-5967.2465686051264,-3919.5548111652633,3919.5548111652633,5967.2465686051264,14070.025729398347,0.0
417154.6038362722,4720833.5216966402,-22500.0,-4370.4144586469001,-4725.7940227148447,-1796.9278547937788,4103.9352612219591,3159.0531982752404,-2328.6116484762338,6434.7550515017256,-5532.8042369600744,-3034.2291554462527,3034.2291554462527,5532.8042369600744,12369.411161612852,0.0
422154.6038362722,4720833.5216966402,-22500.0,-4547.5218158457174,-4049.9560139738765,-1114.1511260111536,3621.5649421789562,2443.9488457805423,-1880.7665938546959,5623.3713879106654,-4977.8605855788219,-2316.0732602295075,2316.0732602295075,4977.8605855788219,10780.349966985714,0.0
427154.6038362722,4720833.5216966402,-22500.0,-4499.4344431141471,-3403.2723355626413,-623.27695724123726,3143.832654944571,1877.3919948051218,-1507.7539066411462,4887.3094826146098,-4391.1839788269372,-1749.5283847570054,1749.5283847570054,4391.1839788269372,9346.1310468123884,0.0
432154.6038362722,4720833.5216966402,-22500.0,-4307.2431465920399,-2822.9659175322636,-282.92015424840139,2699.3542503555132,1436.9746699296204,-1203.9101930165327,4234.8416830235228,-3824.8349827305406,-1310.9494673875565,1310.9494673875565,3824.8349827305406,8080.7595705430567,0.0
437154.6038362722,4720833.5216966402,-22500.0,-4032.2786218138831,-2322.3254717310974,-54.705455351489775,2301.6325287262034,1098.6660972541185,-960.00085992586037,3665.4218767159296,-3305.6203172276728,-975.74213912328719,975.74213912328719,3305.6203172276728,6980.9092972721073,0.0
442154.6038362722,4720833.5216966402,-22500.0,-3717.7316271158993,-1901.1214757977109,92.856849502760838,1954.6497496996922,840.58945814645529,-765.98865890104412,3173.5441209057394,-2844.4266313776316,-721.71824652694272,721.71824652694272,2844.4266313776316,6034.0716592187491,0.0
447154.6038362722,4720833.5216966402,-22500.0,-3392.2614338357525,-1552.4293771777316,183.91659607580209,1656.9288471183381,644.38677027479923,-612.46482425586817,2751.3628742493188,-2442.8606621753529,-530.28809722731739,530.28809722731739,2442.8606621753529,5223.7270588325418,0.0
452154.6038362722,4720833.5216966402,-22500.0,-3073.7802762881074,-1266.7053231090763,236.23437094374103,1404.2230387081863,495.35597610798692,-491.25671834008688,2390.3165171547898,-2097.5901455690364,-386.54371809461691,386.54371809461691,2097.5901455690364,4532.4078448336377,0.0
457154.6038362722,4720833.5216966402,-22500.0,-2772.6777419623581,-1034.0208983289122,262.51244961852495,1191.1716112309953,382.05345081206747,-395.57615667897852,2082.0511911488798,-1803.0082422021273,-278.85321531186207,278.85321531186207,1803.0082422021273,3943.3738884824284,0.0
462154.6038362722,4720833.5216966402,-22500.0,-2494.3008528302516,-845.16279831335089,271.65782911452112,1012.2481139508661,295.72717810744899,-319.93982810963172,1818.8899927351563,-1552.7747265535961,-198.29885807525739,198.29885807525739,1552.7747265535961,3441.421716849803,0.0
467154.6038362722,4720833.5216966402,-22500.0,-2240.7502937594541,-692.08106482043911,269.82332207090701,862.25747393966901,229.7546816317367,-259.99610524292541,1594.0278353021588,-1340.6505867436276,-138.11980736546695,138.11980736546695,1340.6505867436276,3013.1863412063935,0.0
472154.6038362722,4720833.5216966402,-22500.0,-2012.1251038882115,-567.98703535366906,261.20594459391589,736.55941591933686,179.15476774808778,-212.32936992503593,1401.567509327921,-1160.9055456360618,-93.225448139255832,93.225448139255832,1160.9055456360618,2647.1576541621389,0.0
272154.6038362722,4725833.5216966402,-22500.0,121.55598576983468,416.16996758897574,68.428343737114631,-28.140887059689312,107.58012269121757,-25.265107565471727,434.44626202528252,391.3736600034515,-177.47031742137631,177.47031742137631,-391.3736600034515,757.14412369368551,0.0
277154.6038362722,4725833.5216966402,-22500.0,199.06393060821105,442.83550263584408,72.823678236433025,-14.871298549658391,116.21922273229394,-25.397774055569986,466.0436073821819,442.30944951178157,-206.09991839562593,206.09991839562593,-442.30944951178157,816.9930188675313,0.0
282154.6038362722,4725833.5216966402,-22500.0,296.35481959309823,466.71772748251755,79.628049036534776,4.2093269076741393,123.76062432240793,-24.270129126639358,499.07151239446307,498.84456635966478,-238.34617819195148,238.34617819195148,-498.84456635966478,883.04155296221415,0.0
287154.6038362722,4725833.5216966402,-22500.0,417.45278099361718,485.43375733374046,90.513546171655392,30.885166557128684,129.0420326167104,-21.21021710479663,533.23568869772021,560.9477952478702,-274.06752317901146,274.06752317901146,-560.9477952478702,956.89778011366275,0.0
292154.6038362722,4725833.5216966402,-22500.0,566.77488404796111,495.67879817249616,108.12349239633419,67.333989240692176,130.32444132715315,-15.290267332704429,568.16168146283587,628.24835244133328,-312.70926492936309,312.70926492936309,-628.24835244133328,1041.0779697117819,0.0
297154.6038362722,4725833.5216966402,-22500.0,748.86595217804711,493.00273753831914,136.57751159240783,116.11313319934088,125.07463165537216,-5.2688493608146105,603.49251664712563,699.91046794532622,-353.0737156621247,353.0737156621247,-699.91046794532622,1139.4741238647666,0.0
302154.6038362722,4725833.5216966402,-22500.0,967.87303572965857,471.62400142202614,182.20803760328516,180.04986377290248,109.70347979711158,10.445807086743542,640.40018483803067,774.52443279160843,-393.01753132962699,393.01753132962699,-774.52443279160843,1257.9210398727621,0.0
307154.6038362722,4725833.5216966402,-22500.0,1226.6108895574612,424.39246828257109,254.60296462083653,261.95861659572648,79.287079755732748,33.770513319358152,730.41650261615644,850.08414639636476,-429.08930469859069,429.08930469859069,-850.08414639636476,1404.7314495359522,0.0
312154.6038362722,4725833.5216966402,-22500.0,1525.0171677169792,343.12749777707512,368.01066637372941,364.06948452291084,27.342636338287694,66.788352577130141,862.71403881861124,924.19333335657109,-456.16456817460096,456.16456817460096,-924.19333335657109,1590.9139414349963,0.0
317154.6038362722,4725833.5216966402,-22500.0,1857.7645210837056,219.76611481369096,543.06318489172668,487.00940331101344,-54.185285417598919,111.34824175976917,1023.7549701044578,994.76916692705822,-467.22299945014737,467.22299945014737,-994.76916692705822,1829.6523319927076,0.0
322154.6038362722,4725833.5216966402,-22500.0,2210.8620958957522,49.102413473063336,808.45784958662068,628.13680332419062,-174.42709267408063,168.28793688661636,1218.1673246509297,1061.7051805070687,-453.5647069641617,453.5647069641617,-1061.7051805070687,2134.5976893072575,0.0
327154.6038362722,4725833.5216966402,-22500.0,2557.4701519811961,-165.60618782946949,1201.4122469990498,779.01473874245494,-342.02413959363986,236.16255178326114,1449.8958685516284,1130.2057840454552,-406.01885864222362,406.01885864222362,-1130.2057840454552,2516.6136273429383,0.0
332154.6038362722,4725833.5216966402,-22500.0,2854.3935303244652,-402.53106435063211,1763.8528452825856,921.8893028712929,-561.50465231102089,309.45457571429625,1719.6538635015427,1216.62490952332,-318.10809557433436,318.10809557433436,-1216.62490952332,2978.6288212400086,0.0
337154.6038362722,4725833.5216966402,-22500.0,3043.6468370401349,-606.02911435669569,2527.9603803354266,1025.5043478232994,-825.92578450733845,376.3747216689074,2021.3659658797326,1356.8936897646911,-192.71164559351359,192.71164559351359,-1356.8936897646911,3508.2828451996352,0.0
342154.6038362722,4725833.5216966402,-22500.0,3068.1201671483482,-671.17463710783124,3481.2927629831538,1042.2685724090645,-1103.6055137117448,416.36760684187561,2338.8768055003143,1614.0835730649305,-54.104016838286157,54.104016838286157,-1614.0835730649305,4069.6888855494203,0.0
347154.6038362722,4725833.5216966402,-22500.0,2911.6850440197691,-446.98583117527727,4506.0717027058554,912.95758068998634,-1318.6729758854015,397.29265098955875,2647.3673232951423,2072.8055195951483,34.682433454637135,-34.682433454637135,-2072.8055195951483,4603.2282687150309,0.0
352154.6038362722,4725833.5216966402,-22500.0,2657.1241369631207,206.43263735904881,5315.8006528946071,590.41257794099295,-1334.5395452353337,273.11413585123063,2921.343475511841,2797.66132496722,-42.217130616724944,42.217130616724944,-2797.66132496722,5060.3327594866423,0.0
357154.6038362722,4725833.5216966402,-22500.0,2509.8483685046194,1288.2942590337025,5466.9868728990132,89.092408653687656,-967.4499283003579,-12.807427016712111,3146.3213531621877,3743.8776504080633,-440.02887878918523,440.02887878918523,-3743.8776504080633,5511.7238446642896,0.0
362154.6038362722,4725833.5216966402,-22500.0,2707.6594294777096,2525.9673915789913,4536.0560442741362,-463.10896586533602,-62.324616533654577,-508.20781314768789,3461.2323949278534,4668.8987058391804,-1285.1662651738395,1285.1662651738395,-4668.8987058391804,6273.8595528968426,0.0
367154.6038362722,4725833.5216966402,-22500.0,3323.2911537173563,3403.7273419701637,2417.2983714890288,-832.64558027881003,1383.9828045180086,-1212.5664882822834,4415.7449957534336,5158.6676773766148,-2567.6364950011548,2567.6364950011548,-5158.6676773766148,7737.4138985305253,0.0
372154.6038362722,4725833.5216966402,-22500.0,4127.4593915781343,3422.4635529266757,-496.68048870552303,-787.10506566761069,3145.9270971056267,-2042.170992723363,5694.5035702470077,4823.8850709388207,-4076.6819147511146,4076.6819147511146,-4823.8850709388207,9879.6113370977982,0.0
377154.6038362722,4725833.5216966402,-22500.0,4681.5827077049544,2414.5898811105985,-3456.7459042811151,-240.52185758244059,4834.1252567890979,-2841.7030256360881,6904.5740820009751,3545.0182334291658,-5462.3180417342483,5462.3180417342483,-3545.0182334291658,12221.94073996256,1.0
382154.6038362722,4725833.5216966402,-22500.0,4608.1627247121878,646.64952133823454,-5735.6077241371013,686.20420649560515,6076.6743722989304,-3450.1240183121458,7827.0152106795931,1563.3799764322098,-6400.6924185135376,6400.6924185135376,-1563.3799764322098,14213.427235564332,0.0
387154.6038362722,4725833.5216966402,-22500.0,3807.7232530914189,-1360.4217688671044,-6949.4158439533785,1740.6880530184453,6680.0443935981784,-3771.9033084334405,8349.9216080618789,-653.71817259081899,-6738.6840823059611,6738.6840823059611,653.71817259081899,15496.544431003893,0.0
392154.6038362722,4725833.5216966402,-22500.0,2465.6731754903735,-3116.0683667695757,-7122.6766859166255,2675.2089036812681,6664.0629942167307,-3801.5330159669743,8467.1570241036625,-2649.5536079257436,-6519.4614257169342,6519.4614257169342,2649.5536079257436,15967.192674372509,0.0
397154.6038362722,4725833.5216966402,-22500.0,901.36575451542535,-4339.6806231281507,-6539.4627664075178,3338.9741251933378,6187.490034873812,-3599.0839170854856,8246.6936983235682,-4142.2793809201976,-5906.7826473801524,5906.7826473801524,4142.2793809201976,15714.093330649039,0.0
402154.6038362722,4725833.5216966402,-22500.0,-591.96749267967868,-4975.9615829266068,-5547.9345727276132,3692.0453958961425,5447.5067040607701,-3249.2915693853433,7786.0919483348807,-5052.6814039026558,-5089.4899072241169,5089.4899072241169,5052.6814039026558,14921.579568353547,0.0
407154.6038362722,4725833.5216966402,-22500.0,-1828.5205981342901,-5115.5142682062424,-4433.6709496649664,3771.0440154009316,4612.1546346712912,-2830.7575193078032,7179.132797455004,-5443.4249079557567,-4221.2061104839531,4221.2061104839531,5443.4249079557567,13789.996303046271,0.0
412154.6038362722,4725833.5216966402,-22500.0,-2734.8724062967476,-4904.8632185637489,-3378.6303731735179,3646.470305264038,3795.6411234435564,-2401.9978494822622,6501.7076628835957,-5440.8931167945248,-3401.4677230570414,3401.4677230570414,5440.8931167945248,12490.935981435299,0.0
417154.6038362722,4725833.5216966402,-22500.0,-3317.6782055719905,-4486.5007115504795,-2472.5580942131783,3392.1226180744488,3061.1907163864653,-1999.6762267891156,5809.9168692915418,-5178.5599769240416,-2681.5927002724648,2681.5927002724648,5178.5599769240416,11151.488982116976,0.0
422154.6038362722,4725833.5216966402,-22500.0,-3626.1635239728198,-3972.099995038081,-1742.2233862039093,3069.6384234427796,2434.606464798821,-1642.6299787076907,5141.9093781527108,-4768.4012985872778,-2078.9691821382344,2078.9691821382344,4768.4012985872778,9855.428883942428,0.0
427154.6038362722,4725833.5216966402,-22500.0,-3723.8759804016372,-3437.5713135782376,-1179.0990372981757,2723.8696162470947,1918.5165171264894,-1337.3643174737761,4520.8195070697029,-4292.4527807716549,-1590.8338860940385,1590.8338860940385,4292.4527807716549,8651.5542707300374,0.0
432154.6038362722,4725833.5216966402,-22500.0,-3672.091839268056,-2928.4283600227259,-758.98512796026853,2384.0353610935963,1503.378706262419,-1082.9263938521067,3958.3141270881806,-3804.9555961991782,-1204.4531853706621,1204.4531853706621,3804.9555961991782,7563.4547378162506,0.0
437154.6038362722,4725833.5216966402,-22500.0,-3522.2642372812547,-2468.0842684672511,-453.64652035583219,2067.0827568641953,1174.6773203721282,-874.49082513432597,3458.0956730778589,-3338.4101380638076,-903.56218661924981,903.56218661924981,3338.4101380638076,6598.0700202949492,0.0
442154.6038362722,4725833.5216966402,-22500.0,-3314.0459521999219,-2065.527987770487,-236.66904337539464,1781.3075337350465,917.05845693077185,-705.69056790048194,3018.8374092148147,-2909.9939622724105,-671.93908371193879,671.93908371193879,2909.9939622724105,5752.2386645911247,0.0
447154.6038362722,4725833.5216966402,-22500.0,-3076.1416948934725,-1721.1876107875066,-85.783013848945387,1529.3994548660444,716.39261966165441,-569.97405786909962,2636.3635893550158,-2526.8934282209348,-495.09749876916317,495.09749876916317,2526.8934282209348,5017.27861747521,0.0
452154.6038362722,4725833.5216966402,-22500.0,-2828.2649400963555,-1430.9414390319503,16.696889022378805,1310.7045796091745,560.59242392524288,-461.30191106043674,2305.1372140988428,-2190.2305187146662,-360.87597974455957,360.87597974455957,2190.2305187146662,4381.9874040841396,0.0
457154.6038362722,4725833.5216966402,-22500.0,-2583.2680897308605,-1188.6464431893742,84.293882356553951,1122.7715660106562,439.7559658139719,-374.43620968877912,2019.2022723904215,-1897.7371206614923,-259.44703839919407,259.44703839919407,1897.7371206614923,3834.4848703229732,0.0
462154.6038362722,4725833.5216966402,-22500.0,-2349.0283730570086,-987.6187164265408,127.09045463509236,962.34176005189181,345.98951238490946,-305.00061187592451,1772.7371019979923,-1645.4711593080256,-183.06326748520871,183.06326748520871,1645.4711593080256,3363.2665249891834,0.0
467154.6038362722,4725833.5216966402,-22500.0,-2129.9570265248476,-821.43029894752272,152.47267073627197,825.9447151671211,273.10883218709176,-249.42507436483385,1560.3488752522876,-1428.8607926234768,-125.7159856074876,125.7159856074876,1428.8607926234768,2957.7468282556101,0.0
272154.6038362722,4730833.5216966402,-22500.0,205.99631061079481,348.89852021506641,60.76918943879862,-1.7395289603217143,87.861564394491793,-18.764752137388502,370.06727449650174,367.80173602573569,-171.54732259575241,171.54732259575241,-367.80173602573569,653.70147893244393,0.0
277154.6038362722,4730833.5216966402,-22500.0,285.49170031391122,361.91706307481616,68.351566056477665,13.78755871611224,91.85737501726075,-18.041495857489505,392.40461385127912,409.91919139638907,-195.46132486745165,195.46132486745165,-409.91919139638907,701.57572941946398,0.0
282154.6038362722,4730833.5216966402,-22500.0,381.98623195702646,369.83618557003126,80.072317843516643,34.665628415755329,93.749531305898884,-16.112647337781908,414.85586705147932,455.43498798872361,-221.41106027352203,221.41106027352203,-455.43498798872361,754.81891344255644,0.0
287154.6038362722,4730833.5216966402,-22500.0,498.01792849023508,370.19745922716686,98.199032639903265,62.229679689943389,92.245220455076577,-12.441841134120622,437.09596066997221,503.95528183278304,-248.85870792711682,248.85870792711682,-503.95528183278304,815.24013766791995,0.0
292154.6038362722,4730833.5216966402,-22500.0,635.9559568715232,359.86906754745803,126.08885770120811,97.980043750436167,85.530373303969782,-6.3259380193903976,459.36510195916071,554.7994246330037,-276.81699234330938,276.81699234330938,-554.7994246330037,885.59354291252782,0.0
297154.6038362722,4730833.5216966402,-22500.0,797.59093138793992,335.02368485674543,168.64311550838903,143.48190326022268,71.122191408330508,3.1217869896284451,496.91237126583763,606.97274870856256,-303.66713220166059,303.66713220166059,-606.97274870856256,969.91536724309208,0.0
302154.6038362722,4730833.5216966402,-22500.0,983.48320259691866,291.26414479345294,232.89738065946153,200.15311385266193,45.725323577217303,16.95830181277578,572.34812864529533,659.21859426293122,-326.95224427589858,326.95224427589858,-659.21859426293122,1073.8017515265551,0.0
307154.6038362722,4730833.5216966402,-22500.0,1191.9908850066008,224.04414268709584,328.72848942329625,268.87518008877157,5.1419007823084808,36.334199893586742,665.15169505902736,710.2397696367608,-343.18701646258512,343.18701646258512,-710.2397696367608,1204.4407903519234,0.0
312154.6038362722,4730833.5216966402,-22500.0,1417.9225153809339,129.62573437349153,469.57316845755429,349.34307518960759,-55.663582495805414,62.301846559358026,775.85182432657291,759.23920426822519,-347.77685322848134,347.77685322848134,-759.23920426822519,1370.1450486815904,0.0
317154.6038362722,4730833.5216966402,-22500.0,1650.8590178577053,6.9391211675459195,672.86027908487051,439.06324046342263,-142.1608448895376,95.436599983466508,906.97057457713561,807.00588049673104,-335.22923914780824,335.22923914780824,-807.00588049673104,1579.1524394980302,0.0
322154.6038362722,4730833.5216966402,-22500.0,1873.4428658780787,-139.1802661606786,959.469990822662,531.93728934988053,-259.2045562702171,135.18816524235066,1060.7308638681588,857.82895336982926,-299.97338524078452,299.97338524078452,-857.82895336982926,1837.5811435533199,0.0
327154.6038362722,4730833.5216966402,-22500.0,2060.4868156247303,-292.95425827473957,1350.8429443303285,616.4855325987063,-408.86917986377875,178.89442213724936,1237.9576383719416,922.46417701945552,-238.27765385765224,238.27765385765224,-922.46417701945552,2146.5963047916057,0.0
332154.6038362722,4730833.5216966402,-22500.0,2180.7305962514233,-421.0135168195394,1861.3631088739412,674.0638722284391,-586.54425877154608,220.4489846853626,1436.6594853489689,1021.9362334419384,-151.90047811441354,151.90047811441354,-1021.9362334419384,2499.1189115082857,0.0
337154.6038362722,4730833.5216966402,-22500.0,2204.3091441351203,-466.27906394860474,2482.8533530053687,678.08078454623262,-774.71166590061557,248.72585552369168,1650.8233326807213,1190.6452286421668,-54.016171775962448,54.016171775962448,-1190.6452286421668,2877.2856859178883,0.0
342154.6038362722,4730833.5216966402,-22500.0,2119.1985488430914,-348.6353291801521,3159.3797637977946,596.38799129441361,-934.60970022476897,246.04185273804214,1870.5999589186979,1474.526254661175,22.918794656340197,-22.918794656340197,-1474.526254661175,3254.4242099123812,0.0
347154.6038362722,4730833.5216966402,-22500.0,1955.7126068581942,16.147445242773536,3757.9535742927033,400.3509590792076,-998.53359104163928,187.30610533049889,2083.8796353953526,1916.6080034303341,20.257864626497167,-20.257864626497167,-1916.6080034303341,3610.4378670822607,0.0
352154.6038362722,4730833.5216966402,-22500.0,1805.8681783287839,668.55776313714728,4056.7143848147002,83.573091403524373,-870.45645470368072,41.378006274443059,2279.6956601310712,2522.9295353362177,-145.33702316668791,145.33702316668791,-2522.9295353362177,3973.1946056111506,0.0
357154.6038362722,4730833.5216966402,-22500.0,1809.4115049313361,1537.3888190053171,3786.8799841411978,-313.16830756924776,-446.96048921409141,-222.5352674269794,2485.6685224812159,3215.2453217340726,-561.2732792055001,561.2732792055001,-3215.2453217340726,4476.7775588583008,0.0
362154.6038362722,4730833.5216966402,-22500.0,2084.3168162609013,2398.5818092324548,2748.4418344375385,-687.32616187801682,335.34314140625276,-620.88874207283243,2981.4637296370292,3803.826419452992,-1275.1706726511402,1275.1706726511402,-3803.826419452992,5345.0907153967755,0.0
367154.6038362722,4730833.5216966402,-22500.0,2627.3899442784523,2924.317624349665,954.19035163573926,-894.45252859413608,1442.9306029499439,-1137.2144251213895,3861.9326546824732,4026.6391478309442,-2245.168927349293,2245.168927349293,-4026.6391478309442,6706.2725335571722,0.0
372154.6038362722,4730833.5216966402,-22500.0,3265.0373533096376,2830.3504154187394,-1305.8395231349234,-808.74905382814507,2720.9717064143892,-1711.4811376223083,4845.7346904057895,3662.9061272323142,-3322.5385723693716,3322.5385723693716,-3662.9061272323142,8433.1213091306417,0.0
377154.6038362722,4730833.5216966402,-22500.0,3717.2430183498036,2032.6881899327445,-3555.532267768544,-391.60234052562282,3934.6920183841494,-2251.6719857591265,5759.6164982389928,2656.9910233564651,-4294.3305095035375,4294.3305095035375,-2656.9910233564651,10218.197199713142,0.0
382154.6038362722,4730833.5216966402,-22500.0,3742.0858741497113,696.54765001395276,-5333.5022728169988,282.80666973519175,4860.4985997074937,-2666.5145724704803,6475.7295202194109,1161.5400397937622,-4968.4555799341933,4968.4555799341933,-1161.5400397937622,11740.675290741448,0.0
387154.6038362722,4730833.5216966402,-22500.0,3254.7032387319796,-854.11899060750011,-6369.6918817470087,1064.2469449490568,5368.4683398858569,-2899.0689820288057,6918.6962070426216,-531.88363880928955,-5246.3128960915255,5246.3128960915255,531.88363880928955,12779.645457718976,0.0
392154.6038362722,4730833.5216966402,-22500.0,2344.4542132661181,-2289.5188172606354,-6638.5415830943521,1795.0147063206414,5448.7111686161597,-2940.4777158973816,7072.8839757004298,-2119.608253227374,-5140.6089210730224,5140.6089210730224,2119.608253227374,13251.697268580196,0.0
397154.6038362722,4730833.5216966402,-22500.0,1204.059158147287,-3387.7332222105783,-6294.8701392523317,2364.0594085950866,5181.9801733172626,-2820.9410140544824,6970.563702143666,-3387.0109754571376,-4742.1339615710576,4742.1339615710576,3387.0109754571376,13191.158806068888,0.0
402154.6038362722,4730833.5216966402,-22500.0,37.313504364702311,-4066.0675548274348,-5565.8835621164435,2724.6459915193395,4687.9514560652451,-2589.84920580474,6670.0095846876657,-4242.5372329577285,-4169.242666943027,4169.242666943027,4242.5372329577285,12703.454682194873,0.0
407154.6038362722,4730833.5216966402,-22500.0,-1002.5108426668963,-4350.6293771609817,-4664.6374774909618,2882.9620480078888,4082.2514165309681,-2297.7933134426421,6235.3822931433187,-4696.6277462853477,-3529.0064308088668,3529.0064308088668,4696.6277462853477,11918.813198429421,0.0
412154.6038362722,4730833.5216966402,-22500.0,-1831.7667424520628,-4325.4196277467581,-3747.8762941731015,2875.7269938876689,3453.9855894234838,-1986.0887331296135,5724.308185793825,-4818.9831366726667,-2899.1835394563122,2899.1835394563122,4818.9831366726667,10960.238350732807,0.0
417154.6038362722,4730833.5216966402,-22500.0,-2426.804506584931,-4089.4670009912202,-2909.7775960644472,2750.0573248458213,2860.6883958388985,-1683.3700262435129,5182.7201765321488,-4699.7517071833181,-2326.3455143306364,2326.3455143306364,4699.7517071833181,9927.5020977173717,0.0
422154.6038362722,4730833.5216966402,-22500.0,-2803.5328689336543,-3731.3750809999838,-2194.0770439321809,2550.5603050606574,2332.8953186584408,-1406.5258482380746,4644.0380172147197,-4424.5912394613024,-1832.0440756186522,1832.0440756186522,4424.5912394613024,8892.9413722458394,0.0
427154.6038362722,4730833.5216966402,-22500.0,-2997.8338530259334,-3319.0544947185795,-1610.9571769616934,2313.3009772674413,1881.8960170280482,-1163.437713112326,4130.4277934237816,-4063.0451984175015,-1420.9725989506951,1420.9725989506951,4063.0451984175015,7903.8854495346095,0.0
432154.6038362722,4730833.5216966402,-22500.0,-3051.478122827074,-2898.8842469191891,-1151.7343023111011,2064.3959598962406,1507.0799712255623,-955.94364718661632,3654.9410347236562,-3665.8557869340784,-1088.0750316039057,1088.0750316039057,3665.8557869340784,6987.7724948108007,0.0
437154.6038362722,4730833.5216966402,-22500.0,-3003.879381331702,-2499.2561394848808,-799.2085234002152,1821.0347510421727,1201.5242626599975,-782.30359914745679,3223.8534691185268,-3266.9126172741358,-823.65980625205066,823.65980625205066,3266.9126172741358,6157.6340642475834,0.0
442154.6038362722,4730833.5216966402,-22500.0,-2888.2868926394849,-2135.3076110072102,-533.95973453047816,1593.4047246947512,955.69723698707492,-638.97272714803273,2838.781780510305,-2886.8900084680658,-616.62055840935727,616.62055840935727,2886.8900084680658,5416.8397071376558,0.0
447154.6038362722,4730833.5216966402,-22500.0,-2730.7675274184539,-1813.266529691293,-337.66921699925376,1386.6785849148775,759.64933958551194,-521.74759348870555,2498.3887216454955,-2536.9738065890788,-456.22824429232514,456.22824429232514,2536.9738065890788,4762.764648220551,0.0
452154.6038362722,4730833.5216966402,-22500.0,-2550.6646565025007,-1533.8449599887911,-194.55055169963131,1202.6925464855753,604.15439582770421,-426.43531789716621,2199.6408418692154,-2221.9907077401867,-332.97780881780386,332.97780881780386,2221.9907077401867,4189.4097461667943,0.0
457154.6038362722,4730833.5216966402,-22500.0,-2361.6802986100643,-1294.6446923150913,-91.710818983461195,1041.2186104682451,481.19599210033726,-349.19882587413287,1938.676703781164,-1942.7724303662226,-238.87145100484474,238.87145100484474,1942.7724303662226,3689.1657005253301,0.0
462154.6038362722,4730833.5216966402,-22500.0,-2173.0902474725458,-1091.7422758000405,-18.979277824360501,900.8591152149063,384.08086401391176,-286.69957955588302,1711.3681182901114,-1697.8180623367211,-167.39886377164328,167.39886377164328,1697.8180623367211,3253.9312143574871,0.0
277154.6038362722,4735833.5216966402,-22500.0,341.35858732354336,286.21781238657417,73.544282658698322,34.025246071147734,68.795534265934805,-12.260278155662608,327.52848605594846,373.75831991583095,-179.85102518171482,179.85102518171482,-373.75831991583095,604.5660843354608,0.0
282154.6038362722,4735833.5216966402,-22500.0,431.51655646514115,282.00026275812706,91.208102151181336,54.756669437179227,66.139437674026894,-9.9445409269173659,342.05781346187808,409.55921440657175,-199.59009519403591,199.59009519403591,-409.55921440657175,648.96486782640727,0.0
287154.6038362722,4735833.5216966402,-22500.0,536.4159118459288,269.38229786901769,117.23153926652779,80.915356602760383,59.481681416175796,-6.1554046920298049,358.85000800764584,446.68258312882637,-219.29029724733658,219.29029724733658,-446.68258312882637,700.44151656815325,0.0
292154.6038362722,4735833.5216966402,-22500.0,656.69900591142823,245.88282104263837,155.28457367470642,113.34725528566607,47.144992835069921,-0.40233843437865546,398.17632498656246,484.48358612309204,-237.78853617175065,237.78853617175065,-484.48358612309204,761.77709931547429,0.0
297154.6038362722,4735833.5216966402,-22500.0,792.04412653038275,208.83158982879951,210.4128196766265,152.7301765315178,26.971629585080091,7.8855511176953783,453.8881127415483,522.22981150301666,-253.4056496883432,253.4056496883432,-522.22981150301666,836.72115852089257,0.0
302154.6038362722,4735833.5216966402,-22500.0,940.57569375664457,155.72029008546042,289.3891097002612,199.32412793888759,-3.7036479728606966,19.315153744004281,519.94308754219958,559.28211182496023,-263.85671454487976,263.85671454487976,-559.28211182496023,929.9625513730366,0.0
307154.6038362722,4735833.5216966402,-22500.0,1098.1091584567521,84.8814411632667,401.00221346347234,252.57778309773343,-47.979881534546649,34.427106624474924,597.2115882104107,595.46726764698428,-266.2372016635336,266.2372016635336,-595.46726764698428,1046.7974246972374,0.0
312154.6038362722,4735833.5216966402,-22500.0,1257.2960946234791,-3.3331979321184311,556.09007412132155,310.55117124080033,-109.11464576352039,53.500130858677771,687.1304217453586,631.74975985565607,-257.18581585775371,257.18581585775371,-631.74975985565607,1192.3854521838066,0.0
317154.6038362722,4735833.5216966402,-22500.0,1406.8757342231434,-104.68746416099103,766.94265078880323,369.13864825207463,-189.88892885748709,76.218506981067648,791.14335696903265,671.31862767514212,-233.3887665803633,233.3887665803633,-671.31862767514212,1370.5740627662396,0.0
322154.6038362722,4735833.5216966402,-22500.0,1531.4871796998998,-208.40193848137696,1045.4190286465382,421.14468097972753,-291.38841147525795,101.16045817752486,910.38724449386677,721.14605986709034,-192.66261459491466,192.66261459491466,-721.14605986709034,1582.3921014413402,0.0
327154.6038362722,4735833.5216966402,-22500.0,1612.8718628326922,-293.9143612803087,1398.7830400906773,455.41747727559618,-410.93581941265467,125.08819300684199,1045.2407471810814,793.85243997793123,-135.89784148011415,135.89784148011415,-793.85243997793123,1824.4981096206743,0.0
332154.6038362722,4735833.5216966402,-22500.0,1633.6850018027194,-328.0569046631914,1822.0657967120833,456.52164287262548,-538.97113572474882,142.07907317450793,1194.6151345029007,909.17313563595349,-70.068267340617751,70.068267340617751,-909.17313563595349,2088.2852212986218,0.0
337154.6038362722,4735833.5216966402,-22500.0,1585.134669539271,-265.09670068990476,2286.298801269364,405.84823998798845,-655.01303316721817,142.65008747805712,1355.0059595748776,1093.3385115139222,-12.132553255965263,12.132553255965263,-1093.3385115139222,2361.3353729055393,0.0
342154.6038362722,4735833.5216966402,-22500.0,1478.3461057238187,-53.907746685812029,2724.3020979713538,285.48282639020755,-723.70884519196693,113.21438172530713,1519.8214233757824,1373.4498915987513,7.2758465175998026,-7.2758465175998026,-1373.4498915987513,2634.6475961662431,0.0
347154.6038362722,4735833.5216966402,-22500.0,1355.5815693335412,342.96388645032118,3020.8281491152434,86.072021788536048,-693.57265367617219,36.496488978751991,1680.8661464377019,1763.6305104274052,-56.957836640153005,56.957836640153005,-1763.6305104274052,2920.2500711420234,0.0
352154.6038362722,4735833.5216966402,-22500.0,1291.7001626415645,918.01070721803478,3020.301469647814,-181.67784407532613,-502.78952406066145,-106.1189296990852,1841.0237818440685,2242.8596586733865,-258.17177089113397,258.17177089113397,-2242.8596586733865,3277.7852298120397,0.0
357154.6038362722,4735833.5216966402,-22500.0,1373.651689405661,1586.9714010949219,2566.1670232757092,-476.18718033873319,-96.296106068677688,-329.28021423957824,2100.077147765438,2732.9607656644375,-641.13558343187242,641.13558343187242,-2732.9607656644375,3823.1346423543359,0.0
362154.6038362722,4735833.5216966402,-22500.0,1655.3804551610856,2182.121981489975,1570.8349581699663,-723.84519650252605,546.94960470137516,-635.48387139974545,2650.9988036850455,3095.3474235832164,-1216.8587026541227,1216.8587026541227,-3095.3474235832164,4670.7399074231998,0.0
367154.6038362722,4735833.5216966402,-22500.0,2108.6271760114728,2494.3015541402319,85.530863915226462,-836.17340213485215,1387.9754778915992,-1006.9247670201325,3368.0777837844234,3164.2688592536824,-1940.6813142474246,1940.6813142474246,-3164.2688592536824,5834.2203710188733,0.0
372154.6038362722,4735833.5216966402,-22500.0,2607.5396173864351,2357.1751958877849,-1679.6992411508363,-743.59816338186602,2321.8478808259752,-1403.1696420281144,4122.1185395986486,2812.5833392516092,-2710.7030145143194,2710.7030145143194,-2812.5833392516092,7195.2699288919657,0.0
377154.6038362722,4735833.5216966402,-22500.0,2970.4398039544612,1727.9405889558489,-3414.1237797767649,-428.82101200994475,3203.2970931551713,-1769.3144240975337,4817.4654666603628,2015.9903237257436,-3395.1670473465415,3395.1670473465415,-2015.9903237257436,8559.1468777993759,0.0
382154.6038362722,4735833.5216966402,-22500.0,3039.3017467796581,711.3964139684665,-4816.9820586237438,61.964448627794496,3894.4302991622144,-2052.6451471010514,5374.4250964900011,873.77364477400488,-3877.6011387464573,3877.6011387464573,-873.77364477400488,9730.1014330775051,0.0
387154.6038362722,4735833.5216966402,-22500.0,2746.7408715121524,-487.1319141642976,-5697.2699569031311,637.6904430333982,4308.4260606848547,-2219.0456704121225,5741.5434219188719,-428.11756707418317,-4094.6280629911371,4094.6280629911371,428.11756707418317,10566.39222671149,0.0
392154.6038362722,4735833.5216966402,-22500.0,2132.4683484309435,-1645.6271853735282,-6012.5346493182205,1197.899749349911,4427.1779223613876,-2260.5443398095113,5902.2770661628347,-1686.6445741382354,-4047.3537709867619,4047.3537709867619,1686.6445741382354,11003.972182555126,0.0
397154.6038362722,4735833.5216966402,-22500.0,1310.7289713718294,-2596.0990694101083,-5843.0083814510672,1664.069874518631,4290.3051442785318,-2192.0851854348844,5870.9262643453403,-2743.4211494727956,-3786.4964132937207,3786.4964132937207,2743.4211494727956,11051.43357787758,0.0
402154.6038362722,4735833.5216966402,-22500.0,418.37836001104853,-3254.4767171083881,-5333.0070221280721,1994.0990276855721,3968.9204016831668,-2041.9655785418354,5681.7624861667955,-3513.5933829329256,-3385.6302869841297,3385.6302869841297,3513.5933829329256,10767.658813064792,0.0
407154.6038362722,4735833.5216966402,-22500.0,-427.31847227606823,-3612.8862027777263,-4635.0316398345813,2180.3869484095299,3539.791046304837,-1841.8095194832781,5377.1821240886002,-3982.1118318199606,-2917.3574338360577,2917.3574338360577,3982.1118318199606,10235.493454147469,0.0
412154.6038362722,4735833.5216966402,-22500.0,-1149.0007507174562,-3713.1578564488418,-3875.0332934575317,2239.0925217311697,3068.4896003471927,-1619.6079935607836,4998.7405982672863,-4182.1254143860278,-2439.4212238068712,2439.4212238068712,4182.1254143860278,9540.4375679479053,0.0
417154.6038362722,4735833.5216966402,-22500.0,-1710.4546777779883,-3618.9743869826402,-3139.8578788160435,2198.0360241278217,2602.492100155453,-1396.4983386634372,4582.0685538158332,-4170.4803865304002,-1990.4378254144726,1990.4378254144726,4170.4803865304002,8757.5362754166927,0.0
422154.6038362722,4735833.5216966402,-22500.0,-2107.4248086385651,-3395.5946855372749,-2479.4046374524,2087.3702850631666,2171.2464750547074,-1186.3486548762894,4154.9114168327451,-4008.7792990841131,-1591.6955680802907,1591.6955680802907,4008.7792990841131,7945.6805697579093,0.0
427154.6038362722,4735833.5216966402,-22500.0,-2355.6445977068133,-3098.7595284912159,-1915.32255207143,1934.0509183631746,1789.6661106923552,-996.86114668755704,3737.1212255888368,-3752.1650715947835,-1251.476050171419,1251.476050171419,3752.1650715947835,7146.9698989081908,0.0
432154.6038362722,4735833.5216966402,-22500.0,-2480.4570417527493,-2770.7279563481379,-1450.7140546615483,1759.4672322158758,1462.4931320236381,-831.19268563662479,3341.6666056430295,-3444.5396533705307,-969.60157266551323,969.60157266551323,3444.5396533705307,6388.7994696100059,0.0
437154.6038362722,4735833.5216966402,-22500.0,-2509.5524615800578,-2440.5855400078053,-1078.1895728550771,1579.1146224283166,1188.1819796103453,-689.51141623415651,2976.0439917989443,-3117.9206366883905,-741.14794534899329,741.14794534899329,3117.9206366883905,5686.978237543839,0.0
442154.6038362722,4735833.5216966402,-22500.0,-2468.713571181454,-2126.5070720210338,-785.54665563851665,1403.31832683789,961.82352503843185,-570.24137070844415,2643.7109404680582,-2793.9102524181953,-559.05831616275464,559.05831616275464,2793.9102524181953,5048.8730826758501,0.0
447154.6038362722,4735833.5216966402,-22500.0,-2379.8217024941368,-1838.519627345421,-559.30738702746851,1238.33716756012,777.10761204401729,-470.94802725546776,2345.3412297305408,-2485.9146589426286,-415.78179734379091,415.78179734379091,2485.9146589426286,4476.106347354199,0.0
452154.6038362722,4735833.5216966402,-22500.0,-2260.3077343136811,-1581.0265703008431,-386.6633471418279,1087.469664607444,627.51320179008189,-388.91153960360191,2079.8225842977245,-2201.3566431610211,-304.18477477505633,304.18477477505633,2201.3566431610211,3966.6560663033524,0.0
457154.6038362722,4735833.5216966402,-22500.0,-2123.4023988944159,-1354.8195121786523,-256.37458548871956,951.99516624052308,506.95344521332976,-321.46531644473043,1844.9990827864369,-1943.5517979596043,-217.97924823966775,217.97924823966775,1943.5517979596043,3516.3903313503224,0.0
462154.6038362722,4735833.5216966402,-22500.0,-1978.7409301405953,-1158.546120887411,-159.0464203123974,831.89914679919946,410.06771985482459,-266.17243884397942,1638.1881099893408,-1713.1524939156466,-151.85793842641544,151.85793842641544,1713.1524939156466,3120.1201873918189,0.0
277154.6038362722,4740833.5216966402,-22500.0,371.78584433020313,218.92358238119607,85.321671199871489,47.091387957896629,47.990421388608283,-7.8681377669912003,272.15536479872901,337.03221812016807,-161.55513898971566,161.55513898971566,-337.03221812016807,524.20057937283093,0.0
282154.6038362722,4740833.5216966402,-22500.0,452.16281887904552,206.4591371918217,108.87670437908497,66.328252272685873,41.974593127624004,-5.4743152749235016,289.49072237025803,364.85587391038155,-175.69011235157913,175.69011235157913,-364.85587391038155,562.61591327817462,0.0
287154.6038362722,4740833.5216966402,-22500.0,542.66174425110285,185.9612062934693,142.09879080980605,89.629121994118933,31.807768680850149,-1.9056929978148109,323.15002708111598,393.0981711450267,-188.74162431965334,188.74162431965334,-393.0981711450267,608.07144652674174,0.0
292154.6038362722,4740833.5216966402,-22500.0,642.67515920825076,155.82029389984868,188.5749497775914,117.29201352246129,16.082629245236802,3.1451775687037276,364.37821095723518,421.35435260149484,-199.5755120033111,199.5755120033111,-421.35435260149484,663.08596214444844,0.0
297154.6038362722,4740833.5216966402,-22500.0,750.52992969612171,114.67065741318839,252.94526129554049,149.30936269215945,-6.8901232864499908,9.9928248081847499,412.10665422755608,449.34707989379524,-206.70489233608271,206.70489233608271,-449.34707989379524,730.73671999097974,0.0
302154.6038362722,4740833.5216966402,-22500.0,863.06047499350643,61.84691647110666,341.00622568650425,185.13228606281609,-39.019381276818187,18.90080999589031,466.89227436705374,477.17309199971339,-208.30174288212967,208.30174288212967,-477.17309199971339,814.44065997957591,0.0
307154.6038362722,4740833.5216966402,-22500.0,975.16091766929321,-1.8824411126619629,459.63024799344873,223.33930042773352,-82.254200049295278,29.975991269271308,529.53444147159712,505.71355851250581,-202.31291030885353,202.31291030885353,-505.71355851250581,917.50957421339615,0.0
312154.6038362722,4740833.5216966402,-22500.0,1079.4405966336763,-73.227682767485121,616.29800560463036,261.2069671624543,-138.20648640699648,42.993685060678153,600.97582845959744,537.25649949515559,-186.7649113769294,186.7649113769294,-537.25649949515559,1042.486340607082,0.0
317154.6038362722,4740833.5216966402,-22500.0,1166.2236224734327,-144.9157917341652,817.91985181285213,294.21643363550083,-207.46778578662887,57.131858658028555,682.38448182664467,576.34149616265154,-160.37275337909202,160.37275337909202,-576.34149616265154,1190.3442988635934,0.0
322154.6038362722,4740833.5216966402,-22500.0,1224.288052481842,-203.99370823071303,1068.4929905163226,315.6023465664511,-288.49876334576049,70.601447250311423,775.22196638277092,630.72676123472274,-123.58291632538672,123.58291632538672,-630.72676123472274,1359.7336651332348,0.0
327154.6038362722,4740833.5216966402,-22500.0,1242.8856171703183,-230.37884800635362,1365.0905816497695,316.17343248506609,-376.00529547270867,80.186095000262327,880.75869976579145,712.14453885821331,-80.140803434991994,80.140803434991994,-712.14453885821331,1546.6583306373436,0.0
332154.6038362722,4740833.5216966402,-22500.0,1215.5635748746138,-196.71562416884331,1691.9089211805974,284.80405541910034,-458.85985606886248,80.757731693321219,998.47115665579395,836.1136584130129,-39.110352131566628,39.110352131566628,-836.1136584130129,1745.375872380084,0.0
337154.6038362722,4740833.5216966402,-22500.0,1145.830431410247,-71.311682393731118,2012.9537540854394,210.16073031445836,-517.96452271389671,64.921520073930864,1124.5573538793624,1019.5860092701409,-16.905813422637664,16.905813422637664,-1019.5860092701409,1951.9653337720406,0.0
342154.6038362722,4740833.5216966402,-22500.0,1053.3938265010815,173.70799138686581,2265.7781464370864,84.230030713941375,-525.0435449452641,23.065621716485197,1252.9759719716662,1274.9604330614118,-38.288148855641793,38.288148855641793,-1274.9604330614118,2172.4238476810315,0.0
347154.6038362722,4740833.5216966402,-22500.0,977.50832080571286,547.95925362285254,2361.2799229992306,-92.253457565774809,-444.07508310524241,-55.780901436774684,1381.1136868881863,1599.7621276581608,-134.61198984311795,134.61198984311795,-1599.7621276581608,2435.2135259413135,0.0
352154.6038362722,4740833.5216966402,-22500.0,972.05703535383986,1024.734514153213,2196.2623476025551,-303.63636587201665,-237.39650145332195,-181.83867653848577,1538.6076180073278,1963.96166004018,-337.48188304188488,337.48188304188488,-1963.96166004018,2799.7603681347914,0.0
357154.6038362722,4740833.5216966402,-22500.0,1088.1485162322733,1528.0060123074231,1682.8285395241535,-515.49473878702338,122.57066616489854,-361.03482129682544,1859.4963871746779,2301.2806698885643,-667.34763728181179,667.34763728181179,-2301.2806698885643,3340.996761371814,0.0
362154.6038362722,4740833.5216966402,-22500.0,1346.8828241198626,1937.2518045655684,789.1239304329132,-677.42271488353833,638.29782517526723,-590.64428327508006,2353.2544638372665,2513.9098578593712,-1119.9123674189586,1119.9123674189586,-2513.9098578593712,4103.9302999852034,0.0
367154.6038362722,4740833.5216966402,-22500.0,1715.3659131803875,2118.0540465504191,-426.95553662060854,-735.17152101707768,1275.5036533372179,-855.94686287420382,2922.9944101494812,2496.7335866254934,-1657.0725802953493,1657.0725802953493,-2496.7335866254934,5064.901885484971,0.0
372154.6038362722,4740833.5216966402,-22500.0,2103.8650930416443,1970.8049161858312,-1814.290492124238,-649.4570175763256,1963.265319820089,-1130.4245942371672,3504.5737941718353,2175.5883091558321,-2209.8133878994281,2209.8133878994281,-2175.5883091558321,6133.5922771731202,1.0
377154.6038362722,4740833.5216966402,-22500.0,2392.5167903453857,1473.6088377035155,-3165.5758983087289,-412.71008033570564,2609.7198004616143,-1380.9247472934869,4039.1224547772017,1541.3844026578536,-2695.2620210632249,2695.2620210632249,-1541.3844026578536,7184.3989111062374,0.0
382154.6038362722,4740833.5216966402,-22500.0,2476.3006366634459,694.45040777286158,-4280.3760097197255,-54.139698798181435,3127.9307842793996,-1576.3503915177125,4475.0868799422142,660.22301482872808,-3041.3238562333058,3041.3238562333058,-660.22301482872808,8093.3081927725307,0.0
387154.6038362722,4740833.5216966402,-22500.0,2303.7007501038843,-234.14746715975471,-5023.0008157675938,370.04058206616133,3459.736075858727,-1695.9557261661939,4776.9955776613733,-346.9413423508006,-3207.0095105404171,3207.0095105404171,346.9413423508006,8766.8754266232918,0.0
392154.6038362722,4740833.5216966402,-22500.0,1889.5979339995865,-1162.0832785965285,-5349.3386250721733,795.46461064556456,3587.0277724200132,-1733.506320312355,4930.3243544249945,-1343.3548357268037,-3189.4933060495241,3189.4933060495241,1343.3548357268037,9157.050524044229,0.0
397154.6038362722,4740833.5216966402,-22500.0,1300.7740398675953,-1965.3261741855629,-5297.7676254355438,1167.7205115794916,3528.1298415005299,-1696.220372894441,4940.425923744282,-2214.0902525530732,-3017.3588814857935,3017.3588814857935,2214.0902525530732,9261.1160311996919,0.0
402154.6038362722,4740833.5216966402,-22500.0,627.15006909988779,-2569.5294900117542,-4957.8373841413386,1452.7140946617048,3324.6164545406109,-1600.1669104855262,4827.1366258735543,-2887.6663026337405,-2736.3181513275454,2736.3181513275454,2887.6663026337405,9111.0532995394587,0.0
407154.6038362722,4740833.5216966402,-22500.0,-45.569257406775087,-2951.6300905435023,-4435.4391643931303,1638.0789448534319,3026.2624379755293,-1464.7975733631042,4617.9225412966443,-3338.9297606541927,-2394.9181453889464,2394.9181453889464,3338.9297606541927,8758.76707254758,0.0
412154.6038362722,4740833.5216966402,-22500.0,-652.77103044311843,-3127.3607031421493,-3827.0448377778066,1728.5522638976611,2679.5158786605289,-1308.6005082287272,4341.885889965768,-3579.1681967327213,-2034.7855884216942,2034.7855884216942,3579.1681967327213,8262.4810980832517,0.0
417154.6038362722,4740833.5216966402,-22500.0,-1156.2386769211628,-3134.4204874539037,-3206.6470515528526,1739.1916200505207,2321.2552686638887,-1146.6121087756046,4025.6957181738553,-3641.6041615657609,-1686.2950797608269,1686.2950797608269,3641.6041615657609,7677.0320753981705,0.0
422154.6038362722,4740833.5216966402,-22500.0,-1541.3967432545739,-3017.9150295290401,-2623.0510741399457,1689.2078647485293,1977.0514004563718,-989.59063747782386,3691.4624149326582,-3568.1986080237048,-1368.3354166837316,1368.3354166837316,3568.1986080237048,7048.4912755506921,0.0
427154.6038362722,4740833.5216966402,-22500.0,-1810.8795215408761,-2820.6701554909937,-2103.2114818193099,1597.6315626511207,1662.2254084862611,-844.27800234340566,3356.0834593638601,-3400.3895385126425,-1090.2921667380799,1090.2921667380799,3400.3895385126425,6412.2652099591205,0.0
432154.6038362722,4740833.5216966402,-22500.0,-1977.6667415807931,-2578.2899669629032,-1657.8763997413696,1480.9024598531926,1384.1266405890954,-714.18303849762788,3031.5070799664591,-3173.9626104550757,-854.73793385186718,854.73793385186718,3173.9626104550757,5793.4428852764913,0.0
437154.6038362722,4740833.5216966402,-22500.0,-2059.4690963886178,-2317.6604399535977,-1287.2131597774328,1351.9399471191562,1144.5853642630457,-600.48930550660862,2725.4659664388828,-2917.0973328089681,-659.94612301654297,659.94612301654297,2917.0973328089681,5208.3007816188801,0.0
442154.6038362722,4740833.5216966402,-22500.0,-2074.8608794532415,-2057.4683805406298,-985.35455661682568,1220.1430813865827,942.01225736413483,-502.86986300312321,2442.3719152238641,-2650.3959166578925,-501.85801147672169,501.85801147672169,2650.3959166578925,4666.2000319798617,0.0
447154.6038362722,4740833.5216966402,-22500.0,-2041.0042429806724,-1809.6307625577476,-743.61969426844848,1091.8627261559093,772.97251938321745,-420.12423679608884,2184.1843178609965,-2387.9104973283934,-375.44688134700573,375.44688134700573,2387.9104973283934,4171.4262144022714,0.0
452154.6038362722,4740833.5216966402,-22500.0,-1972.5647058257437,-1580.9406193761413,-552.5651666197034,971.03870422706882,633.25565873765311,-350.63022370642773,1951.1581936946709,-2138.5118032667456,-275.57017021917864,275.57017021917864,2138.5118032667456,3724.7590992804066,0.0
457154.6038362722,4740833.5216966402,-22500.0,-1881.4015403279918,-1374.568972134904,-403.1557787938163,859.82681402744549,518.53998754402596,-292.63851715889513,1742.4386933456167,-1907.2291730254879,-197.44297832593963,197.44297832593963,1907.2291730254879,3324.7065214959161,0.0
282154.6038362722,4745833.5216966402,-22500.0,451.06506669010497,144.48923023689468,129.38472210868292,71.269929374546749,21.749749621022019,-2.389273521461992,265.20087248479314,323.61184599266358,-151.79613428272955,151.79613428272955,-323.61184599266358,492.46371503266408,0.0
287154.6038362722,4745833.5216966402,-22500.0,526.10030120889769,120.41655167078032,168.24146518106815,90.965194239515483,9.550688351772914,0.75390436871738042,296.05859784230825,345.37847396461734,-159.54297294365495,159.54297294365495,-345.37847396461734,533.52602325794146,0.0
292154.6038362722,4745833.5216966402,-22500.0,605.88037496346817,88.752912815190811,220.53252650388441,113.32118906797521,-7.683235088727594,4.9410671826852468,331.07820481875621,367.16073304890767,-164.64283821049321,164.64283821049321,-367.16073304890767,583.42416578294751,0.0
297154.6038362722,4745833.5216966402,-22500.0,688.06644670993023,49.312765125119085,290.12291277693055,137.86978184698756,-31.13904336904082,10.295446955903278,370.552254600222,389.1519267803717,-165.93561136523886,165.93561136523886,-389.1519267803717,644.39614693565477,0.0
302154.6038362722,4745833.5216966402,-22500.0,769.10872964463726,2.9081643684941816,381.4498595293025,163.59116338866045,-61.996461088767028,16.842495245152584,414.88941122780506,412.0793049472544,-162.1535172054453,162.1535172054453,-412.0793049472544,718.61218371427458,0.0
307154.6038362722,4745833.5216966402,-22500.0,844.08199816599586,-48.006083121900673,499.18893613591132,188.67241833737185,-101.20248215722009,24.415276743709395,464.66688814496956,437.56632700969783,-152.10629431405496,152.10629431405496,-437.56632700969783,807.798747589051,0.0
312154.6038362722,4745833.5216966402,-22500.0,906.72616549587008,-98.500894106960317,647.51939568269086,210.2368029929593,-149.08264436976498,32.513567258451644,520.88996710313268,468.60386528617266,-135.02870712997432,135.02870712997432,-468.60386528617266,912.80705282630811,0.0
317154.6038362722,4745833.5216966402,-22500.0,949.88971381155454,-140.23790150322588,828.77003301941932,224.09856668654243,-204.73107825420394,40.109551975326539,585.37829240584836,510.07342761088432,-111.15252791288455,111.15252791288455,-510.07342761088432,1033.2388834096796,0.0
322154.6038362722,4745833.5216966402,-22500.0,966.63264388952382,-160.6711534321343,1041.213239943557,224.65383534862301,-265.13850570274394,45.404361042429208,660.51836651184897,569.15812456998219,-82.545617333416772,82.545617333416772,-569.15812456998219,1167.3382313309107,0.0
327154.6038362722,4745833.5216966402,-22500.0,952.23604770065867,-142.87614351321056,1275.8789487760434,205.09346662823546,-324.08092903640608,45.563167594322287,747.27266581555466,655.30520759814658,-54.190104480911543,54.190104480911543,-655.30520759814658,1312.5375397269529,0.0
332154.6038362722,4745833.5216966402,-22500.0,907.17539863104957,-66.804118429834361,1512.6052812742539,158.19652651569893,-370.9314196048108,36.496004145224518,843.28502452995963,779.19087597573218,-35.117807333358883,35.117807333358883,-779.19087597573218,1467.3106086563801,0.0
337154.6038362722,4745833.5216966402,-22500.0,840.60922252045964,87.036293490807751,1716.258770809658,77.978751571448782,-389.79616457907389,12.805338696147345,943.99910021105961,949.99684472884587,-39.169396090263717,39.169396090263717,-949.99684472884587,1635.1387263599202,0.0
342154.6038362722,4745833.5216966402,-22500.0,773.06081540720913,330.72380198340636,1835.138519809934,-37.674243329498424,-359.68574088886146,-31.919847714301383,1045.9766465913863,1170.4946513636623,-84.643033479044107,84.643033479044107,-1170.4946513636623,1830.7018258002377,0.0
347154.6038362722,4745833.5216966402,-22500.0,735.99066021621502,659.34907974688144,1804.5810368060665,-183.68897151215276,-256.6592936818646,-104.2562585188648,1156.8474087417883,1430.2935264085252,-191.93254817529646,191.93254817529646,-1430.2935264085252,2085.3897883749196,0.0
352154.6038362722,4745833.5216966402,-22500.0,765.71878970499063,1041.5105116613424,1558.6490486477765,-344.84094373479792,-58.709022888747072,-209.40214829518482,1339.7935535821537,1699.3045369941092,-378.5552706583768,378.5552706583768,-1699.3045369941092,2444.2014344932827,0.0
357154.6038362722,4745833.5216966402,-22500.0,890.85149978221159,1415.2835306168604,1050.1488978172092,-494.95937152779931,246.79632379007316,-349.03603241317074,1665.4150421223032,1925.3992223134958,-652.05085900443441,652.05085900443441,-1925.3992223134958,2947.3665605169435,0.0
362154.6038362722,4745833.5216966402,-22500.0,1116.4185023773468,1695.6349098875405,273.88768703912422,-600.21839163012112,655.04061188985042,-519.11717825899848,2077.5120175829352,2040.7170869891897,-1002.9590711500269,1002.9590711500269,-2040.7170869891897,3605.6067634205501,0.0
367154.6038362722,4745833.5216966402,-22500.0,1412.3917831725616,1795.3300992380462,-717.29248154108961,-627.10177833146474,1138.712154287912,-708.62810907184121,2528.8238411465768,1978.2249079430756,-1401.4745490613016,1401.4745490613016,-1978.2249079430756,4388.2313394836683,0.0
372154.6038362722,4745833.5216966402,-22500.0,1715.0372357183724,1653.4662798226154,-1814.6156228413315,-552.95810861486007,1649.7171032930596,-900.32714953014386,2981.3030304586509,1694.1586907627507,-1800.9287256703692,1800.9287256703692,-1694.1586907627507,5229.8271079329552,0.0
377154.6038362722,4745833.5216966402,-22500.0,1943.9238881208512,1258.9558046399723,-2877.0829775389079,-374.66386359711385,2128.7980575152264,-1073.8859874713078,3396.7166894406682,1186.5882607338874,-2148.3107130476674,2148.3107130476674,-1186.5882607338874,6047.4600626777883,0.0
382154.6038362722,4745833.5216966402,-22500.0,2028.0852329412648,656.84344842295172,-3768.4985797408367,-110.97635557682383,2519.9996318009607,-1210.5397073555591,3740.7755343909212,500.41758151369845,-2398.0798051391939,2398.0798051391939,-500.41758151369845,6760.0729383356838,0.0
387154.6038362722,4745833.5216966402,-22500.0,1928.8710685209007,-65.792281018755403,-4391.8801156045747,202.76504579975298,2784.0597356970134,-1297.4253303144339,3988.7418399381313,-284.1880778908228,-2523.4289678601463,2523.4289678601463,284.1880778908228,7304.6259248089309,0.0
392154.6038362722,4745833.5216966402,-22500.0,1649.2832097963208,-806.7321545990053,-4707.5835678333005,524.92107836710193,2905.5139037953427,-1329.9132749588591,4128.752264156502,-1074.2361677225276,-2520.6332925535198,2520.6332925535198,1074.2361677225276,7645.3987223764834,0.0
397154.6038362722,4745833.5216966402,-22500.0,1227.8662748598124,-1475.5780276938731,-4731.2303225415399,818.09227385969996,2891.9018696518206,-1311.3421857928724,4161.8352658629219,-1786.9461678347402,-2405.9551793597379,2405.9551793597379,1786.9461678347402,7775.353952715921,0.0
402154.6038362722,4745833.5216966402,-22500.0,722.91936264135279,-2010.9643587433884,-4517.1957927036492,1056.1061439272048,2767.1884387554524,-1250.7947514128086,4099.2537253209111,-2365.0273384132502,-2207.9274641791731,2207.9274641791731,2365.0273384132502,7711.1525784927808,0.0
407154.6038362722,4745833.5216966402,-22500.0,195.32136894395762,-2385.1774062907025,-4137.3984747869308,1226.1989493623987,2563.1489487721951,-1160.1388102723809,3958.5789244088719,-2781.3634667728056,-1958.8444567132192,1958.8444567132192,2781.3634667728056,7484.9186565580176,0.0
412154.6038362722,4745833.5216966402,-22500.0,-304.04957318322806,-2599.1335544957128,-3663.3036266534587,1327.3705822116121,2311.8696143895036,-1051.4017109578606,3759.833205312983,-3035.206662370193,-1688.2163797650028,1688.2163797650028,3035.206662370193,7135.7567466313485,0.0
417154.6038362722,4745833.5216966402,-22500.0,-740.30970969043631,-2672.8359599992505,-3154.7398925063053,1366.807564180202,2040.8874813012355,-935.02180182427901,3522.5102580460284,-3144.0703507977669,-1419.1754689001891,1419.1754689001891,3144.0703507977669,6702.9528752633005,0.0
422154.6038362722,4745833.5216966402,-22500.0,-1095.0032782995609,-2635.6399314102996,-2655.4243016531741,1356.0542833574664,1771.0384268244197,-819.03058846507645,3263.7152579172925,-3135.0803706049082,-1167.4822392784911,1167.4822392784911,3135.0803706049082,6221.5659454018178,0.0
427154.6038362722,4745833.5216966402,-22500.0,-1363.2148875091095,-2518.7105600783889,-2193.23329615481,1307.9164719332975,1516.3070257667325,-708.94568947941093,2997.2983500556429,-3037.9985374875041,-942.21505904620676,942.21505904620676,3037.9985374875041,5720.250025911354,0.0
432154.6038362722,4745833.5216966402,-22500.0,-1549.4587835384659,-2350.3195310388851,-1782.971899850864,1234.42113803999,1284.8055870659675,-608.08233473443966,2733.7061180335563,-2880.6471686113046,-747.23571655735805,747.23571655735805,2880.6471686113046,5220.7384787759929,0.0
437154.6038362722,4745833.5216966402,-22500.0,-1663.7375832914518,-2153.6054260622673,-1429.9207040858662,1145.745890758513,1080.1794607084855,-518.03966100226285,2480.2705500143429,-2686.5302175363804,-582.79277095612019,582.79277095612019,2686.5302175363804,4738.3566226605653,0.0
442154.6038362722,4745833.5216966402,-22500.0,-1718.4317253367949,-1946.0485254184375,-1133.1460086314034,1049.8587941903222,902.99704940257686,-439.20057860762432,2241.7105611811385,-2474.0578088225802,-446.91695118579787,446.91695118579787,2474.0578088225802,4283.037712319554,0.0
447154.6038362722,4745833.5216966402,-22500.0,-1726.174698694261,-1739.9333251673286,-888.13593950510483,952.59637322507228,751.91171631757084,-371.16316596043902,2020.6935488903148,-2256.7530667428878,-336.48298383688552,336.48298383688552,2256.7530667428878,3860.4857464444553,0.0
452154.6038362722,4745833.5216966402,-22500.0,-1698.5927649183195,-1543.2517333019014,-688.68114516549429,857.96136204117636,624.53271982829062,-313.07356355481971,1818.3644558857634,-2043.9461571263278,-247.93824742870709,247.93824742870709,2043.9461571263278,3473.2732665173448,0.0
287154.6038362722,4750833.5216966402,-22500.0,494.71492801426024,71.53478577157729,192.32278932158812,87.211021165005178,-7.4890946803960921,2.2308453977333489,269.42745972068661,304.34470711679592,-133.10297429117898,133.10297429117898,-304.34470711679592,472.64731580824764,0.0
292154.6038362722,4750833.5216966402,-22500.0,555.96986851086206,41.932344283602923,247.5868334518361,104.35760432432846,-24.792247114715206,5.5225364499521534,298.3359061181398,322.06641862306316,-134.25050233361998,134.25050233361998,-322.06641862306316,517.81676543676099,0.0
297154.6038362722,4750833.5216966402,-22500.0,615.93825901941238,7.8140218687902099,318.5070956037369,122.04848374512426,-47.104773072725756,9.4793171034022894,330.22904573254692,340.74775317971768,-131.95615031878259,131.95615031878259,-340.74775317971768,572.19333222977934,0.0
302154.6038362722,4750833.5216966402,-22500.0,671.28297516644307,-29.010931236499626,408.07306188167462,139.06421448598087,-74.992071445198093,13.978353520256023,365.41420950044966,361.54069640544702,-125.4889209065272,125.4889209065272,-361.54069640544702,636.97145431173169,0.0
307154.6038362722,4750833.5216966402,-22500.0,717.85751983318642,-65.163914724658014,518.88655890288487,153.5409144078946,-108.63380361851637,18.705187815326592,404.64687581127714,386.44545657155572,-114.38521498098987,114.38521498098987,-386.44545657155572,712.85325960223258,0.0
312154.6038362722,4750833.5216966402,-22500.0,750.97247083890272,-95.161043527628635,652.35803305929926,162.83238335183475,-147.48008785977882,23.049452454104376,449.71403310771223,418.60357665926097,-98.770799805183401,98.770799805183401,-418.60357665926097,799.85884104226568,0.0
317154.6038362722,4750833.5216966402,-22500.0,766.01557582833414,-110.95213955712681,807.44728409864103,163.44177434859824,-189.76935262617741,25.974137420970237,503.5146326766079,462.53046660782218,-79.823168545818959,79.823168545818959,-462.53046660782218,897.29988978396193,0.0
322154.6038362722,4750833.5216966402,-22500.0,759.54979448919858,-101.7737395926482,978.88305543710237,151.11222098779336,-231.9156813070604,25.870193903765319,567.84858863301042,524.12483019514968,-60.363525185523798,60.363525185523798,-524.12483019514968,1004.1146432935643,0.0
327154.6038362722,4750833.5216966402,-22500.0,730.93518264763168,-54.697068016410327,1154.9457199004034,121.20091070252506,-267.834517230323,20.425567275961566,641.09026684514242,610.19486817325469,-45.500722532202701,45.500722532202701,-610.19486817325469,1119.8761935357525,0.0
332154.6038362722,4750833.5216966402,-22500.0,684.31199070970104,43.638972532088566,1315.1994426433555,69.474383818378783,-288.37777549825643,6.5627088821889386,719.6055682437393,727.16496141864718,-43.139597308736768,43.139597308736768,-727.16496141864718,1246.8460039166189,0.0
337154.6038362722,4750833.5216966402,-22500.0,630.41292992739943,203.66998160414698,1429.0282922687506,-6.5823067998120939,-281.18730830560736,-19.474044752265069,800.26717129850329,878.66345654785141,-64.027978820683359,64.027978820683359,-878.66345654785141,1393.1699717390545,0.0
342154.6038362722,4750833.5216966402,-22500.0,587.20617918751498,427.88390199138342,1456.3473139693583,-106.00393967969357,-231.40220903274968,-61.780841380254543,884.18352419267285,1061.9801677331475,-120.90889474155392,120.90889474155392,-1061.9801677331475,1576.1526366500589,0.0
347154.6038362722,4750833.5216966402,-22500.0,578.06143986030065,704.99085235881068,1352.0758387483497,-222.48321369143767,-123.66486295943817,-124.11959572357058,994.83861126969532,1264.0289260695677,-226.38560745975781,226.38560745975781,-1264.0289260695677,1822.3793157386997,0.0
352154.6038362722,4750833.5216966402,-22500.0,626.44183496676055,1005.4015212663583,1075.3378942191903,-343.13441943491176,54.38806862349464,-208.89443349582373,1199.1101801467034,1458.3733993996866,-389.44130244963264,389.44130244963264,-1458.3733993996866,2160.7563594277685,0.0
357154.6038362722,4750833.5216966402,-22500.0,747.46135623501027,1281.0880264962659,602.46988801043324,-448.86024222779116,307.59217116502293,-315.92584813684442,1489.7223732918503,1605.5893995322731,-611.23538509881735,611.23538509881735,-1605.5893995322731,2609.4937780280898,0.0
362154.6038362722,4750833.5216966402,-22500.0,938.8289587151022,1472.4524668497586,-59.865394162355308,-517.1056587043139,628.99060683781306,-441.38135582821457,1826.9006290851351,1658.9269388184653,-881.61297159799267,881.61297159799267,-1658.9269388184653,3165.0266688579341,0.0
367154.6038362722,4750833.5216966402,-22500.0,1175.5093504542274,1522.2276839758647,-867.27547153064995,-526.92248524707804,997.77542150460715,-577.37626530822183,2185.5491341424854,1575.3040776148496,-1178.180965045663,1178.180965045663,-1575.3040776148496,3799.4671123151033,1.0
372154.6038362722,4750833.5216966402,-22500.0,1412.103742001832,1392.4517939445043,-1741.1105072891255,-464.97225339990877,1381.1029889559168,-712.68690231342634,2540.8546495517094,1328.6259186680002,-1469.2458598092505,1469.2458598092505,-1328.6259186680002,4466.0133486889927,0.0
377154.6038362722,4750833.5216966402,-22500.0,1593.7328643101334,1077.6800834611624,-2583.7741051751614,-330.13957354366198,1740.0245894754541,-834.63300297397097,2867.1270717324892,920.12423856187434,-1720.3164383412786,1720.3164383412786,-920.12423856187434,5108.6422998006174,0.0
382154.6038362722,4750833.5216966402,-22500.0,1671.6577438723796,608.34884501738895,-3301.0625682890786,-134.65676548437145,2037.8079747604645,-931.63035651731775,3141.0209649382919,380.85588521415775,-1902.0497757431303,1902.0497757431303,-380.85588521415775,5672.9427048546713,0.0
387154.6038362722,4750833.5216966402,-22500.0,1617.1039808039563,42.687025759028806,-3823.1135807449959,98.853928073149419,2247.6646602159453,-995.5352927612953,3345.060351197058,-235.08237860552561,-1996.6737259363799,1996.6737259363799,235.08237860552561,6115.4964762364898,0.0
392154.6038362722,4750833.5216966402,-22500.0,1427.7938323399196,-549.03359230765807,-4116.5535820121495,343.13438789489243,2357.2232156925811,-1022.9799797738889,3469.8622152210805,-863.74164465613353,-2000.6809751132671,2000.6809751132671,863.74164465613353,6409.7722445914851,0.0
397154.6038362722,4750833.5216966402,-22500.0,1125.6481785714109,-1101.2610343479728,-4185.1112977392886,572.49863625479111,2368.7292683792652,-1015.3786147772935,3514.4886157393607,-1445.5610063130855,-1923.4103547850752,1923.4103547850752,1445.5610063130855,6547.6644932937106,0.0
402154.6038362722,4750833.5216966402,-22500.0,748.16806379322645,-1565.2259863533518,-4061.0429144953064,767.41819997474443,2295.787715542162,-977.84735258798628,3485.1585645186542,-1935.8655692954519,-1782.8150811864632,1782.8150811864632,1935.8655692954519,6537.230308980138,0.0
407154.6038362722,4750833.5216966402,-22500.0,337.84357324829364,-1913.8909773931248,-3792.3965191809966,916.54528815951096,2158.4735649779054,-917.60325733440345,3393.0092863082964,-2309.4228146732239,-1600.3908213794618,1600.3908213794618,2309.4228146732239,6398.1137329569547,0.0
412154.6038362722,4750833.5216966402,-22500.0,-66.695421006081375,-2140.620980271608,-3430.8871283771459,1016.4029567825872,1978.590388404577,-842.40445338343943,3251.6629925359193,-2559.5684961514148,-1396.8844509435671,1396.8844509435671,2559.5684961514148,6156.3248519929748,0.0
417154.6038362722,4750833.5216966402,-22500.0,-435.97148178725547,-2254.1218445302907,-3023.1860908949238,1069.6224047303285,1776.1643254445635,-759.38344905095096,3075.146020980932,-2693.9497856004555,-1189.5684040294502,1189.5684040294502,2693.9497856004555,5839.6309675098173,0.0
422154.6038362722,4750833.5216966402,-22500.0,-751.37925428412325,-2272.2789729717115,-2606.305010799274,1082.6800118753399,1567.4822568331481,-674.38093507256281,2876.4155477356207,-2729.1216473932682,-991.10201948733857,991.10201948733857,2729.1216473932682,5474.1985315377542,0.0
427154.6038362722,4750833.5216966402,-22500.0,-1004.3318878158221,-2216.7030366497247,-2206.3722302453612,1063.8177446517739,1364.4548917149193,-591.71712450743621,2666.5143352791474,-2685.6071463263479,-809.57504265409148,809.57504265409148,2685.6071463263479,5082.5962473194195,0.0
432154.6038362722,4750833.5216966402,-22500.0,-1194.0635804552799,-2108.7989973116987,-1839.5830963778383,1021.4824042147344,1174.8685695054612,-514.2629373776698,2454.2397052723518,-2584.2092410010882,-649.22344903480439,649.22344903480439,2584.2092410010882,4682.9452215666361,0.0
437154.6038362722,4750833.5216966402,-22500.0,-1325.0824585977159,-1967.4400799741566,-1514.1862945436937,963.34721266409019,1003.0963194468671,-443.67280995589653,2246.1706417670116,-2443.7187112706943,-511.39485563589619,511.39485563589619,2443.7187112706943,4288.8813010689682,0.0
442154.6038362722,4750833.5216966402,-22500.0,-1404.8800873016282,-1807.9400890041702,-1232.6964814600672,895.82708292406096,850.94904731764984,-380.67212568683254,2046.9052338081078,-2279.7980464649722,-395.4912564356074,395.4912564356074,2279.7980464649722,3910.0000959042991,0.0
447154.6038362722,4750833.5216966402,-22500.0,-1442.1647276105582,-1641.9055955955241,-993.87789546701049,823.94476865395211,718.47494628348261,-325.3334340661865,1859.3947070313616,-2104.6969538259973,-299.75329485196266,299.75329485196266,2104.6969538259973,3552.5270026733065,0.0
292154.6038362722,4755833.5216966402,-22500.0,500.16200486422252,11.780810341656831,267.8256659307952,92.668898607738285,-36.211172917248994,5.3206299977827332,266.76320527574262,285.29408702086948,-108.78711887684941,108.78711887684941,-285.29408702086948,462.59184082299305,0.0
297154.6038362722,4755833.5216966402,-22500.0,541.96248144988317,-15.205500217554084,336.80549958603274,104.48111458020473,-56.372370996966289,8.0577383258567252,292.00816602238029,302.39556228146705,-104.63951147730856,104.63951147730856,-302.39556228146705,510.47570019886348,0.0
302154.6038362722,4755833.5216966402,-22500.0,577.4543115760722,-41.479303335629353,420.82042940030897,114.45239635338214,-80.424335300982406,10.880676880320458,319.6619720960914,322.5718523460485,-97.376170189227125,97.376170189227125,-322.5718523460485,566.26769347325012,0.0
307154.6038362722,4755833.5216966402,-22500.0,603.48787448725341,-63.358712256347474,520.74917982612499,120.87333478472323,-108.0230288187187,13.416645683436869,351.26056080000018,347.88890800501599,-87.068315382030818,87.068315382030818,-347.88890800501599,630.14999495021345,0.0
312154.6038362722,4755833.5216966402,-22500.0,616.92771868787031,-75.552554589878469,635.94726615125103,121.51205856669149,-138.10677264297075,15.050548281617115,389.89096317033409,381.25486359371513,-74.407114455584804,74.407114455584804,-381.25486359371513,701.93009014267477,0.0
317154.6038362722,4755833.5216966402,-22500.0,615.27293396312496,-71.047800502520161,763.21633213782843,113.65198105531429,-168.54910210860174,14.84408641903682,437.96073041840998,426.44023238588983,-61.03776031998467,61.03776031998467,-426.44023238588983,781.2500379656766,0.0
322154.6038362722,4755833.5216966402,-22500.0,597.57060066013287,-41.350555923499236,895.51772003565623,94.27243067150799,-195.7685220854359,11.458512013578007,494.20175644736344,487.85345697847083,-49.930952508217871,49.930952508217871,-487.85345697847083,868.15764498358806,0.0
327154.6038362722,4755833.5216966402,-22500.0,565.56425102195249,22.670208269378616,1020.5998024264259,60.443485809851587,-214.37141919236916,3.105451864084976,555.49102053844047,569.90286732751383,-45.707471643929807,45.707471643929807,-569.90286732751383,964.22164447200703,0.0
332154.6038362722,4755833.5216966402,-22500.0,524.85448962020143,129.08793684706333,1119.9192229560917,9.9923797567431514,-216.9672934480854,-12.436555007664628,619.19941746545533,675.77620403958417,-54.766410134833279,54.766410134833279,-675.77620403958417,1074.2540222168716,0.0
337154.6038362722,4755833.5216966402,-22500.0,485.62768299148803,282.26044255865122,1168.4941814988217,-57.557665315033717,-194.3620688707031,-37.690973590071806,684.62357106527497,805.56713323578697,-85.007051340664191,85.007051340664191,-805.56713323578697,1208.2248209626691,0.0
342154.6038362722,4755833.5216966402,-22500.0,462.3076807027291,479.44527573809813,1136.5134169945995,-139.89239681569262,-136.36693526923099,-75.188904212058247,759.28425987243327,953.92947276167843,-144.92196593538398,144.92196593538398,-953.92947276167843,1382.0057969770571,0.0
347154.6038362722,4755833.5216966402,-22500.0,471.47566693774161,707.48947692258787,993.4280034754546,-230.94114999259534,-33.398445216970089,-126.98542770488174,882.25681531755856,1107.8490069704371,-241.93538529302884,241.93538529302884,-1107.8490069704371,1614.9086607826127,0.0
352154.6038362722,4755833.5216966402,-22500.0,527.79499645316503,941.00096903444228,714.64684521311585,-320.49254133693302,121.1683441381939,-194.01764601533387,1081.8156654979191,1245.5697831154687,-380.11450947156959,380.11450947156959,-1245.5697831154687,1923.3926567678748,0.0
357154.6038362722,4755833.5216966402,-22500.0,638.55688273039414,1143.6525768658714,289.77183725581654,-394.88601906713279,328.30289292760608,-275.42504609531863,1328.8521314081436,1337.8952461006716,-557.76405804954152,557.76405804954152,-1337.8952461006716,2313.6999952353513,0.0
362154.6038362722,4755833.5216966402,-22500.0,798.57521482796119,1273.6745770389755,-270.07408991375326,-439.06189267297708,581.09604441167698,-368.04712868197271,1603.476658956833,1352.6493198428034,-765.76974763152418,765.76974763152418,-1352.6493198428034,2777.4797087440961,0.0
367154.6038362722,4755833.5216966402,-22500.0,987.83277198531653,1293.0031340178755,-929.02826913941885,-439.74610421343101,864.02541824405841,-466.35410484664641,1890.0756997108451,1261.8883754467979,-987.62305285090645,987.62305285090645,-1261.8883754467979,3291.9390251622726,0.0
372154.6038362722,4755833.5216966402,-22500.0,1173.7790521628947,1177.5464533896591,-1629.8328579302956,-388.92008966072586,1154.4520318787881,-562.99029201852591,2171.6621839241834,1049.9153946244214,-1201.6326057138099,1201.6326057138099,-1049.9153946244214,3823.5169959994937,0.0
377154.6038362722,4755833.5216966402,-22500.0,1318.3590737011466,924.81209061342963,-2303.8297425853893,-286.34796158581412,1426.3150681179686,-649.90410123479592,2430.5299126564278,719.1710052209969,-1384.9755997624193,1384.9755997624193,-719.1710052209969,4333.5704196017259,0.0
382154.6038362722,4755833.5216966402,-22500.0,1387.5713281122805,555.74158860242392,-2884.7757338478627,-140.12875382613922,1655.0453482818757,-719.78495001323847,2650.4551892005484,291.49010713947052,-1518.3822227576647,1518.3822227576647,-291.49010713947052,4784.717562709814,0.0
387154.6038362722,4755833.5216966402,-22500.0,1360.0194020806046,109.93746938296432,-3321.8859099470724,34.998996537603141,1822.1407598402134,-767.3700496239336,2818.926545386309,-195.98622138522853,-1589.8978943661741,1589.8978943661741,195.98622138522853,5146.4853669413742,0.0
392154.6038362722,4755833.5216966402,-22500.0,1231.4188692915493,-363.76706164389969,-3587.9824282683412,220.9578065784151,1918.0032853645189,-790.22677194971288,2928.6278790425104,-698.74125658303853,-1596.5706040894338,1596.5706040894338,698.74125658303853,5399.0938711370409,0.0
397154.6038362722,4755833.5216966402,-22500.0,1013.9747298958491,-817.83463496508682,-3680.9417397588927,400.04110199403766,1942.4129698779134,-788.83584685244512,2977.8423717160567,-1173.7912310170846,-1543.8093329262938,1543.8093329262938,1173.7912310170846,5534.7886247964861,0.0
402154.6038362722,4755833.5216966402,-22500.0,731.69707687790537,-1214.3211894208623,-3619.3338538152639,557.89058722081802,1902.9358736042955,-766.06565908060202,2969.8474442753604,-1586.811235436651,-1443.0254674408586,1443.0254674408586,1586.811235436651,5556.8785999325364,0.0
407154.6038362722,4755833.5216966402,-22500.0,413.93238254128556,-1529.1771461812523,-3434.8428622359706,685.10841719186101,1812.1595125620408,-726.3024837167502,2911.6418535632019,-1915.9345879089367,-1308.5905327595744,1308.5905327595744,1915.9345879089367,5477.2012806352714,0.0
412154.6038362722,4755833.5216966402,-22500.0,89.343262567934175,-1752.5734638341269,-3164.2774363802873,777.47651373524445,1684.7427355645498,-674.53036149960462,2812.4262682852864,-2152.1540621182917,-1155.0517587209429,1155.0517587209429,2152.1540621182917,5312.9295321199779,0.0
417154.6038362722,4755833.5216966402,-22500.0,-218.29017570791007,-1886.4458865502377,-2843.1444069707745,835.16823341945815,1534.9935942467123,-615.57538482902237,2682.1886088681622,-2297.268822733141,-995.15942803475809,995.15942803475809,2297.268822733141,5083.5074207388016,0.0
422154.6038362722,4755833.5216966402,-22500.0,-492.08419435046642,-1940.7758558630119,-2501.6011743626659,861.4685175458568,1375.2904297813434,-553.61010049164474,2530.6002269242704,-2360.6466923938192,-838.83920959798661,838.83920959798661,2360.6466923938192,4808.2007720141373,0.0
427154.6038362722,4755833.5216966402,-22500.0,-722.23729702707999,-1929.8501852182956,-2162.6858725465659,861.43959838714045,1215.3342181092025,-491.91674534546775,2366.2901064232851,-2355.8821490521404,-692.95623995806068,692.95623995806068,2355.8821490521404,4504.4440398473662,0.0
432154.6038362722,4755833.5216966402,-22500.0,-905.04410592718864,-1869.2256849885021,-1842.2396922552405,840.8016891182549,1062.0401904078026,-432.85105126816654,2196.4669973609048,-2298.0115373644176,-561.60140840081453,561.60140840081453,2298.0115373644176,4186.9420366516979,0.0
437154.6038362722,4755833.5216966402,-22500.0,-1041.3820800168228,-1773.6537902947075,-1549.8323876465615,805.13594080922758,919.82702342751406,-377.93351100674948,2026.8116283215581,-2201.5466941699424,-446.63691897157969,446.63691897157969,2201.5466941699424,3867.3681697209995,0.0
442154.6038362722,4755833.5216966402,-22500.0,-1135.1424178844964,-1655.9082114918751,-1290.1124132117436,759.40523266688365,791.0930847674623,-328.0022478852149,1861.5503188599182,-2079.3081114490369,-348.30535832072985,348.30535832072985,2079.3081114490369,3554.4680621741868,0.0
297154.6038362722,4760833.5216966402,-22500.0,471.09905851104338,-24.769481680674552,345.2258837513445,86.937198517889385,-60.514130937399024,6.3892735422061184,256.58745104633141,272.11328651654338,-83.305712416552311,83.305712416552311,-272.11328651654338,456.95233411141999,0.0
302154.6038362722,4760833.5216966402,-22500.0,491.96287927883861,-40.941906729982911,421.2045738397623,91.499250094739423,-80.470726208254433,7.9054964007355091,278.75932564737315,292.31847539275685,-76.44139866914503,76.44139866914503,-292.31847539275685,504.61755654444852,0.0
307154.6038362722,4760833.5216966402,-22500.0,503.90199721036385,-50.370916243311733,508.15456107448904,92.133555914862725,-102.23008447673662,8.8352183804773325,306.43684893875673,318.15014097829913,-67.902983310555385,67.902983310555385,-318.15014097829913,558.25167926024619,0.0
312154.6038362722,4760833.5216966402,-22500.0,505.09224469257674,-48.385401044245341,604.07640954817589,87.07146365415764,-124.4962546053621,8.6168445881211397,342.62377458131112,352.07195866478128,-58.67711225787113,58.67711225787113,-352.07195866478128,617.81437611574529,0.0
317154.6038362722,4760833.5216966402,-22500.0,494.58760135718819,-29.303042615970124,704.61578581440449,74.320498978532584,-145.1046667837343,6.4561155965585302,386.23439388685495,396.98625073952155,-50.538060638855569,50.538060638855569,-396.98625073952155,683.533658995775,0.0
322154.6038362722,4760833.5216966402,-22500.0,472.99814673805645,13.147236102784111,802.22019870026179,51.865686523072014,-160.79854077259839,1.2920203318680854,434.36062739539977,455.90791045103731,-46.251678220823464,46.251678220823464,-455.90791045103731,756.53625025947792,0.0
327154.6038362722,4760833.5216966402,-22500.0,443.2209707069315,84.945604476598362,885.39794581557749,18.01688647767914,-167.07711946873482,-8.2080137177591421,484.81677621043815,531.32799199733324,-49.694004475053163,49.694004475053163,-531.32799199733324,839.81277163952484,0.0
332154.6038362722,4760833.5216966402,-22500.0,411.02073334575448,190.35122995481834,938.38420733393741,-28.085178936846162,-158.21479583846025,-23.59980528981669,536.54038537274005,624.20601055884003,-65.781254846242518,65.781254846242518,-624.20601055884003,939.34717349472339,0.0
337154.6038362722,4760833.5216966402,-22500.0,385.14336905295681,329.96693383893387,941.63712682824564,-85.839417245615962,-127.57486927702297,-46.534608239939551,591.58814063029001,732.62987850399304,-100.09075483620921,100.09075483620921,-732.62987850399304,1064.8112832838783,0.0
342154.6038362722,4760833.5216966402,-22500.0,376.58881216607176,498.59284163958682,873.60946189822653,-152.54276781402183,-68.333361875570475,-78.53176769553933,666.7041617676266,850.36176246008085,-158.07616529615598,158.07616529615598,-850.36176246008085,1228.8080782036266,0.0
347154.6038362722,4760833.5216966402,-22500.0,396.76096060724507,683.48243774519665,714.06361569313674,-222.93687439025913,25.341258502550939,-120.65181584927991,797.91640749677128,965.7204855241414,-243.87135624047596,243.87135624047596,-965.7204855241414,1443.9692586978947,0.0
352154.6038362722,4760833.5216966402,-22500.0,454.53406063010311,863.87100003589887,448.73899955331706,-289.20546304379201,156.75380281496584,-173.1068019494592,976.46697017980102,1061.440174914695,-358.8425697305438,358.8425697305438,-1061.440174914695,1718.6574399055262,0.0
357154.6038362722,4760833.5216966402,-22500.0,552.80474637079976,1012.6222149555157,74.487699481029537,-341.65947949078145,325.09993182284563,-234.89128448284811,1183.1012019045759,1116.1274427047877,-500.24887294888208,500.24887294888208,-1116.1274427047877,2053.2799474253061,0.0
362154.6038362722,4760833.5216966402,-22500.0,685.64288886626434,1100.3478724329846,-396.6682333791062,-370.18538837319448,524.32471195430969,-303.5563304334359,1407.0132748391966,1107.5739481720398,-660.51131736432592,660.51131736432592,-1107.5739481720398,2438.7390882853792,0.0
367154.6038362722,4760833.5216966402,-22500.0,837.36544213677803,1101.4223114923486,-936.3147808366856,-366.24671629052023,742.95147995322736,-375.2522269854415,1637.5467835518341,1017.4757177886113,-827.552027186028,827.552027186028,-1017.4757177886113,2857.1526329754633,0.0
372154.6038362722,4760833.5216966402,-22500.0,984.43434770339275,1000.297416508365,-1502.4245307410024,-324.92581875847668,965.20873302149562,-445.11032372836326,1862.7261931193627,836.32800435325214,-986.37963442884995,986.37963442884995,-836.32800435325214,3284.2636942005906,0.0
377154.6038362722,4760833.5216966402,-22500.0,1100.0502272973883,796.01381623940676,-2045.961513949645,-246.34602058495503,1173.3614821551225,-507.92663792237289,2070.0920437475788,566.85570632628719,-1121.6426715952143,1121.6426715952143,-566.85570632628719,3692.9080618711851,0.0
382154.6038362722,4760833.5216966402,-22500.0,1160.135131222914,503.22411811334899,-2519.620724014409,-135.94981371410199,1350.6830205996971,-558.99062812396869,2248.1613718867802,224.6451243469279,-1220.4558015411276,1220.4558015411276,-224.6451243469279,4056.8729229378014,0.0
387154.6038362722,4760833.5216966402,-22500.0,1148.7356620244234,149.30234501911923,-2886.123042007604,-3.5031431028717863,1484.2304612786484,-594.83459989538017,2387.8581333169313,-164.38145400500935,-1274.6597189463268,1274.6597189463268,164.38145400500935,4354.3992634618708,0.0
392154.6038362722,4760833.5216966402,-22500.0,1061.1226704529422,-231.42393611305468,-3123.7139262546348,138.84256259013586,1566.6638522309636,-613.70256656644972,2483.5076985526066,-568.83975946724127,-1281.8924116586827,1281.8924116586827,568.83975946724127,4570.6494871704381,0.0
397154.6038362722,4760833.5216966402,-22500.0,903.8586472789209,-604.36549532434083,-3227.696694238336,278.80269237548998,1596.7296509624612,-615.64145863006559,2533.1961929162385,-957.53461161191797,-1245.3094223226067,1245.3094223226067,957.53461161191797,4698.758756023165,0.0
402154.6038362722,4760833.5216966402,-22500.0,692.26728034100506,-940.33577460460538,-3208.2908045869399,405.88956137872304,1578.5024244298029,-602.24626392477853,2538.5048484523732,-1304.2801854480722,-1172.2478143076096,1172.2478143076096,1304.2801854480722,4739.4869180064579,0.0
407154.6038362722,4760833.5216966402,-22500.0,446.49941979866389,-1218.9754034800183,-3086.1468655906019,512.61347114206069,1519.8229022845871,-576.18446250411193,2503.787339115951,-1590.8562973771297,-1072.3832637450084,1072.3832637450084,1590.8562973771297,4699.8188753435061,0.0
412154.6038362722,4760833.5216966402,-22500.0,187.51614939401495,-1429.6994093394269,-2887.153592528,594.86104329847308,1430.4782889994183,-540.65433891709984,2435.2261184561817,-1807.8626251031149,-955.92852660219273,955.92852660219273,1807.8626251031149,4591.0180903762875,0.0
417154.6038362722,4760833.5216966402,-22500.0,-66.054959081359272,-1570.6799566049674,-2637.8510584660348,651.60396126311821,1320.5712959349157,-498.90322695517796,2339.8852289593406,-1953.8681666372654,-832.24183763873043,832.24183763873043,1953.8681666372654,4426.6116501284687,0.0
422154.6038362722,4760833.5216966402,-22500.0,-299.78078996160639,-1646.7067557015012,-2362.1624657234806,684.20832623879005,1199.3302181307081,-453.87710500481376,2224.9103492301106,-2033.5527729545252,-708.98834863084585,708.98834863084585,2033.5527729545252,4220.6504083668688,0.0
427154.6038362722,4760833.5216966402,-22500.0,-504.05421434947044,-1666.7268162630999,-2079.5856220466476,695.60951816678369,1074.4204615887807,-408.0184386190399,2096.9472472995108,-2055.5260041335714,-591.81637184250928,591.81637184250928,2055.5260041335714,3986.4169498526435,0.0
432154.6038362722,4760833.5216966402,-22500.0,-673.81202827708455,-1641.6243596164936,-1804.6136534061627,689.54531773631766,951.69017002011128,-363.19246234507534,1961.7858577895611,-2030.3191824389651,-484.41492380037744,484.41492380037744,2030.3191824389651,3735.6121759520111,0.0
437154.6038362722,4760833.5216966402,-22500.0,-807.72628385324003,-1582.523375974368,-1547.0010741365552,669.95048064805781,835.22445981984038,-320.70572361501451,1824.1973320020638,-1968.8145856746762,-388.79662940752701,388.79662940752701,1968.8145856746762,3477.9591149262569,0.0
302154.6038362722,4765833.5216966402,-22500.0,416.70856652852211,-32.461177138582244,411.49350759976841,71.107756789342957,-76.93350558291921,5.2482470973280693,244.27013741020428,268.36664564316402,-61.228734482368523,61.228734482368523,-268.36664564316402,450.85187992034429,0.0
307154.6038362722,4765833.5216966402,-22500.0,419.50742849261746,-31.8127844994608,484.82819733174631,67.820902038191349,-93.440288238050769,5.0566948187318692,271.66226938889099,294.36340658582526,-54.828899320762517,54.828899320762517,-294.36340658582526,496.12186051892081,0.0
312154.6038362722,4765833.5216966402,-22500.0,413.7186114083637,-19.333091625836701,562.11828852321764,59.308161145400902,-109.11518292258138,3.6495198237149875,305.88239572968655,327.96072695251564,-48.920647395899465,48.920647395899465,-327.96072695251564,546.28316237118804,0.0
317154.6038362722,4765833.5216966402,-22500.0,399.43210798405295,9.3237552280936686,638.58654113083242,44.181030582433941,-121.94567319622836,0.38373936678010417,344.00082928271343,371.23011676731358,-45.198625173363212,45.198625173363212,-371.23011676731358,602.16074186479284,0.0
322154.6038362722,4765833.5216966402,-22500.0,378.11517755361513,58.512159593609894,706.94930976622686,21.181640722599923,-129.1375561523684,-5.5533115166919451,384.18326453435543,426.02928727856829,-46.055403741026566,46.055403741026566,-426.02928727856829,665.69003302837473,0.0
327154.6038362722,4765833.5216966402,-22500.0,353.02810976669349,131.81059549061737,757.1002298708022,-10.540209592080176,-127.08337184709578,-15.128108634979922,425.446687979236,493.44884457444982,-54.582196280907283,54.582196280907283,-493.44884457444982,740.59495042696278,0.0
332154.6038362722,4765833.5216966402,-22500.0,329.43899842184857,230.91329839496072,776.19228534424121,-51.066644378046931,-111.47379157110049,-29.406049302114962,468.10183592380793,573.04555907217446,-74.41560313756105,74.41560313756105,-573.04555907217446,832.90992998715797,0.0
337154.6038362722,4765833.5216966402,-22500.0,314.43387968580839,354.30019746656001,749.37427580261703,-99.310391154193923,-77.620340638623688,-49.444760820687343,518.05788679396198,661.93972749731938,-109.36886536707624,109.36886536707624,-661.93972749731938,950.83891181531794,0.0
342154.6038362722,4765833.5216966402,-22500.0,316.12578487087234,495.94629804692329,661.396492627459,-152.66003810268236,-21.037052667089423,-76.129812755744553,599.98802042403281,753.96886620108091,-162.81762751422048,162.81762751422048,-753.96886620108091,1103.4680826434476,0.0
347154.6038362722,4765833.5216966402,-22500.0,342.17248187284116,644.49657643429805,499.13119158562318,-206.801661952264,61.727618207965016,-109.96146300153512,726.45498974948896,839.20927190208454,-236.87826834884839,236.87826834884839,-839.20927190208454,1298.4169942977994,0.0
352154.6038362722,4765833.5216966402,-22500.0,397.7396405611338,783.41904053063331,254.74559832468816,-255.8623501234735,172.10972449717704,-150.82277197986389,880.50062122253246,904.24123783492792,-331.5160910251916,331.5160910251916,-904.24123783492792,1539.2936488562279,0.0
357154.6038362722,4765833.5216966402,-22500.0,483.34879101076626,892.54758270125308,-71.125041972173221,-292.98206360220473,308.60940250531524,-197.78241323192566,1052.5594896400858,933.45695402455442,-443.81938506218842,443.81938506218842,-933.45695402455442,1823.9708989330377,0.0
362154.6038362722,4765833.5216966402,-22500.0,593.30506555814361,951.07701892015973,-467.15854225940859,-311.31185820358883,466.21762544360939,-249.00018597462557,1235.7720933866303,911.44892248548149,-567.72183411760602,567.72183411760602,-911.44892248548149,2144.129535287575,0.0
367154.6038362722,4765833.5216966402,-22500.0,715.43414450708872,941.5333720060637,-911.04690673393327,-305.27851224469805,636.46642545764962,-301.79634650319451,1422.5084172542252,826.10734670167096,-694.39736366637237,694.39736366637237,-826.10734670167096,2485.9607956758164,0.0
372154.6038362722,4765833.5216966402,-22500.0,832.55233300835198,853.72477255885781,-1371.6655158701396,-271.80823450469012,808.2441422143927,-352.91084747035376,1604.1483115940332,671.65642766193821,-813.37256699241118,813.37256699241118,-671.65642766193821,2831.7544150461063,0.0
377154.6038362722,4765833.5216966402,-22500.0,925.50795626776335,687.47060681535299,-1813.4940130664293,-211.14756207872085,969.28693683703546,-398.92169994685293,1771.766369254035,450.69352293585399,-914.15740108597993,914.15740108597993,-450.69352293585399,3162.0846206340293,0.0
382154.6038362722,4765833.5216966402,-22500.0,977.00662117722516,453.18419612517687,-2202.2613357122564,-127.00687454402626,1108.0169218882684,-436.7341063812753,1917.0995645961736,174.50341925511322,-987.98802642075702,987.98802642075702,-174.50341925511322,3458.232420609545,0.0
387154.6038362722,4765833.5216966402,-22500.0,975.09336505719068,170.0802343368801,-2510.3265301219117,-25.962388117626862,1215.2639865082726,-464.02164805017475,2033.4798398351381,-138.53795515775022,-1029.2161157857456,1029.2161157857456,138.53795515775022,3704.414587268072,0.0
392154.6038362722,4765833.5216966402,-22500.0,915.29029339476074,-137.42553727411578,-2720.4215372034032,83.70708068880225,1285.4473157455029,-479.51332813654216,2116.5071227191956,-466.0219837141243,-1035.9989753507703,1035.9989753507703,466.0219837141243,3889.4184649193098,0.0
397154.6038362722,4765833.5216966402,-22500.0,800.90940586322904,-444.02735819098501,-2827.004060388354,193.40980255255073,1316.985621885045,-483.07151460018758,2164.3410180043365,-785.14462818103971,-1010.1876861948883,1010.1876861948883,785.14462818103971,4007.3991285316952,0.0
402154.6038362722,4765833.5216966402,-22500.0,641.70006300326395,-727.39311570518112,-2835.2712283543342,295.49685911069963,1311.9534098675088,-475.56998517440007,2177.6007896435449,-1075.9736683914534,-956.55774810833736,956.55774810833736,1075.9736683914534,4057.8108018758207,0.0
407154.6038362722,4765833.5216966402,-22500.0,451.45963690647335,-970.77352315836549,-2758.5190180797272,384.12764679885004,1275.1992573597608,-458.63229504282958,2158.9570103177766,-1323.6690612304253,-881.68010693596875,881.68010693596875,1323.6690612304253,4044.640886314638,0.0
412154.6038362722,4765833.5216966402,-22500.0,245.38245908244176,-1164.0796742051764,-2614.7936202527681,455.65083146229915,1213.2273327906191,-434.31215194058331,2112.5462424863617,-1519.4089933837699,-792.75270101094191,792.75270101094191,1519.4089933837699,3975.2238790757983,0.0
417154.6038362722,4765833.5216966402,-22500.0,37.784019158937973,-1303.6165521263097,-2423.6855463388174,508.55150642845598,1133.1159117176696,-404.78902799340534,2043.3424786633589,-1660.1620464354528,-696.63215060949676,696.63215060949676,1660.1620464354528,3858.9247848371747,0.0
422154.6038362722,4765833.5216966402,-22500.0,-159.44853081390929,-1390.9215458785225,-2203.8147445914915,543.10047675873079,1041.6545720545612,-372.12744989959481,1956.5890805309612,-1747.6740675924661,-599.18461982020392,599.18461982020392,1747.6740675924661,3705.9232734202305,0.0
427154.6038362722,4765833.5216966402,-22500.0,-337.61162000953652,-1431.2040085623969,-1971.2169040539663,560.86074021899049,944.77427815431338,-338.11937988066455,1857.3518602007966,-1787.0890147675168,-504.96511805392845,504.96511805392845,1787.0890147675168,3526.2389829374415,0.0
432154.6038362722,4765833.5216966402,-22500.0,-491.27407827556908,-1431.7859255220235,-1738.5803160521461,564.18003676452724,847.26040926557607,-304.20612352386439,1750.2136036088073,-1785.5507159055758,-417.16457272750063,417.16457272750063,1785.5507159055758,3329.0507734018724,0.0
307154.6038362722,4770833.5216966402,-22500.0,349.31097292556234,-11.464441527473349,454.25190108243288,47.854895678097407,-83.224275169441896,2.0625393613079419,245.32796738660593,274.4824450020173,-46.1304164766197,46.1304164766197,-274.4824450020173,442.80702258053515,0.0
312154.6038362722,4770833.5216966402,-22500.0,340.09261117327043,8.2193478001534839,514.54007236510415,37.5175418465371,-93.570571265470264,-0.04478573599216007,275.82681115942501,306.92750310071403,-43.115685573175313,43.115685573175313,-306.92750310071403,485.95596213437329,0.0
317154.6038362722,4770833.5216966402,-22500.0,325.09161989020618,42.443028733050504,570.29653193546801,21.684333852814024,-100.48379414450824,-3.8322816550999104,308.05581798590703,347.5260835256463,-42.860259664697395,42.860259664697395,-347.5260835256463,534.86071081353896,0.0
322154.6038362722,4770833.5216966402,-22500.0,306.14710170407324,94.034403277198138,614.93056837189101,-0.36441225858038567,-101.65835691788273,-9.9072202834138814,341.22626963477563,397.25017480408587,-47.334356491388945,47.334356491388945,-397.25017480408587,591.91298593181625,0.0
327154.6038362722,4770833.5216966402,-22500.0,286.42750081239643,164.85223888513246,639.92183746319336,-28.941969058515838,-94.282759043636332,-18.956684035822889,375.14615696632785,456.2413152244942,-58.915034006782776,58.915034006782776,-456.2413152244942,660.96803018003834,0.0
332154.6038362722,4770833.5216966402,-22500.0,270.43717541714727,254.97490949560921,635.10219091577255,-63.710113489118946,-75.179911479731643,-31.697565225356954,411.67726821899475,523.25980381650311,-80.213937986349947,80.213937986349947,-523.25980381650311,747.40454325644157,0.0
337154.6038362722,4770833.5216966402,-22500.0,263.70774081208856,361.82710503253753,589.41804360176127,-103.43418595191594,-41.090960464331012,-48.794390222043376,462.36262756038747,595.10694878692334,-113.76380791051139,113.76380791051139,-595.10694878692334,857.58253383606791,0.0
342154.6038362722,4770833.5216966402,-22500.0,272.08321358337378,479.44679245177542,492.25830778555894,-145.80059466772406,10.883950382727024,-70.745208959899799,548.31009456277377,666.16823933349929,-161.5646215610779,161.5646215610779,-666.16823933349929,997.61073638978883,0.0
347154.6038362722,4770833.5216966402,-22500.0,300.59719021353101,598.17154368468448,335.30155343186181,-187.37659718493529,82.714371339128263,-97.745476262110259,662.19048390172543,728.28061290469896,-224.53617329620619,224.53617329620619,-728.28061290469896,1171.7457307634184,0.0
352154.6038362722,4770833.5216966402,-22500.0,352.08852909938116,705.03557856590726,114.64033538952934,-223.79023602332191,174.81948904749456,-129.55177413915416,793.35318747497922,771.13574206211001,-301.98009636303573,301.98009636303573,-771.13574206211001,1380.996624898055,0.0
357154.6038362722,4770833.5216966402,-22500.0,425.86877443474151,785.06355064176012,-167.27065610725489,-250.17326466641072,285.53622543108969,-165.37817359611256,936.6540948617278,783.35132258576914,-391.19984067935707,391.19984067935707,-783.35132258576914,1622.3509454971086,0.0
362154.6038362722,4770833.5216966402,-22500.0,516.86873835473489,823.41514944733649,-500.42473800551761,-261.84185941220835,410.84191611563284,-203.86234016086516,1087.2800958799651,754.16842980947331,-487.43553887715103,487.43553887715103,-754.16842980947331,1888.7134571849535,0.0
367154.6038362722,4770833.5216966402,-22500.0,615.66614506582926,808.02472688121554,-867.36433460783985,-255.10259554446188,544.47604751684344,-243.13128457928144,1239.6171271281028,675.49719549084352,-584.22020200345128,584.22020200345128,-675.49719549084352,2169.4690696690527,0.0
372154.6038362722,4770833.5216966402,-22500.0,709.5909723196612,732.1145991994307,-1244.8253732081046,-227.99944071170071,678.51968084388886,-280.97489476142937,1387.3567666673057,543.82974688720151,-674.15399599717284,674.15399599717284,-543.82974688720151,2451.5463145945068,1.0
377154.6038362722,4770833.5216966402,-22500.0,784.76618732760278,595.88119833694884,-1606.7348519829989,-180.79900450088363,804.36335054562016,-315.10541338333394,1524.0033923357935,361.47601100488652,-749.9603384199213,749.9603384199213,-361.47601100488652,2720.8344179035598,0.0
382154.6038362722,4770833.5216966402,-22500.0,828.60209737053231,406.83321621291435,-1927.9280197601649,-116.06626652169429,913.86784757487453,-343.452513098444,1643.5208267995718,136.71556702911749,-805.58288248250096,805.58288248250096,-136.71556702911749,2963.7448818174657,0.0
387154.6038362722,4770833.5216966402,-22500.0,832.08274504333986,178.65561061566777,-2187.703982100395,-38.29782676509825,1000.4548785034659,-364.42929887504141,1740.9506235337553,-117.23267858937879,-837.05825040349146,837.05825040349146,117.23267858937879,3168.6630151477425,0.0
392154.6038362722,4770833.5216966402,-22500.0,791.24895512036858,-71.081537974910106,-2372.3994069549358,46.790781969688886,1059.884915798681,-377.11160557993134,1812.8725697838613,-384.1679242515184,-842.96716088506014,842.96716088506014,384.1679242515184,3327.0481474809098,0.0
397154.6038362722,4770833.5216966402,-22500.0,707.56347090425459,-323.73863986849028,-2476.49516298351,133.13653324922737,1090.5803729104175,-381.29874044829478,1857.6316316230291,-647.2833857333153,-824.39900987897931,824.39900987897931,647.2833857333153,3434.0270752858669,0.0
402154.6038362722,4770833.5216966402,-22500.0,587.20212115237098,-562.25065579646821,-2502.2214862737865,215.15137857909684,1093.4854286449013,-377.45684587299405,1875.3165020519591,-891.39270024418761,-784.50171430654632,784.50171430654632,891.39270024418761,3488.4443320571004,0.0
407154.6038362722,4770833.5216966402,-22500.0,439.60223110547213,-773.06913823239017,-2458.0124307588026,288.33550196997402,1071.5692948453725,-366.5742074019937,1867.5306994561108,-1104.5670188498409,-727.78149200868415,727.78149200868415,1104.5670188498409,3492.4496465810089,0.0
412154.6038362722,4770833.5216966402,-22500.0,275.72295333393276,-947.16041198661071,-2356.3561670478252,349.6051495606053,1029.1392102865557,-349.97176731642912,1837.0294575775611,-1278.9754746365006,-659.34085123058037,659.34085123058037,1278.9754746365006,3450.7750914529261,0.0
417154.6038362722,4770833.5216966402,-22500.0,106.43094193917216,-1080.1014429215431,-2211.5836780225764,397.343236301643,971.12963964794392,-329.11157739497725,1787.3046648570516,-1410.9565054771633,-584.20898069583563,584.20898069583563,1410.9565054771633,3369.8777116371202,0.0
422154.6038362722,4770833.5216966402,-22500.0,-58.718810000771391,-1171.5015380924121,-2037.9911728510779,431.23796009148424,902.4913477779395,-305.4343197681157,1722.1864063610542,-1500.5058650806156,-506.85414437333111,506.85414437333111,1500.5058650806156,3257.0981614784268,0.0
427154.6038362722,4770833.5216966402,-22500.0,-212.20477658091892,-1224.0477364980386,-1848.499742627803,451.99775263062423,827.74630933860249,-280.24230086423199,1645.5085039375044,-1550.4313845247511,-430.90278276031904,430.90278276031904,1550.4313845247511,3119.9418598480743,0.0
312154.6038362722,4775833.5216966402,-22500.0,281.2810782936653,32.486337584151833,464.77776679294408,20.803346790106026,-78.829597934710222,-2.6887970414621698,249.85200782916837,287.77056350257118,-39.803517018207856,39.803517018207856,-287.77056350257118,435.34376896786387,0.0
317154.6038362722,4775833.5216966402,-22500.0,267.27514580820167,69.267017137907814,503.31424344988096,5.3084045620377491,-81.393983771075327,-6.6161651995238584,276.7082552686511,325.04834821305224,-42.106168464228091,42.106168464228091,-325.04834821305224,479.30491548918985,0.0
322154.6038362722,4775833.5216966402,-22500.0,251.55015335391627,120.33074937672872,529.26945123991527,-14.994587907567162,-78.489732806106787,-12.453921935364432,304.08552395490739,369.29820861958825,-48.938806085499721,48.938806085499721,-369.29820861958825,531.73309265099579,0.0
327154.6038362722,4775833.5216966402,-22500.0,236.95469483383781,186.36913543034933,535.66801271861095,-40.096027486327721,-67.969376623587081,-20.683126917211801,332.47431493399785,420.06595364814677,-62.078706854613955,62.078706854613955,-420.06595364814677,596.1960153219195,0.0
332154.6038362722,4775833.5216966402,-22500.0,227.18182694804031,266.51661735813724,514.62932713104431,-69.461018495239429,-47.526009428051459,-31.779199115170119,366.13145417752651,475.72807074797549,-83.35477130603806,83.35477130603806,-475.72807074797549,677.10306744216518,0.0
337154.6038362722,4775833.5216966402,-22500.0,226.44082352556305,357.80045482454415,458.05614439034849,-101.88632766457481,-14.924035399383584,-46.151481170847568,421.19765196529573,533.14029424239698,-114.39960419101155,114.39960419101155,-533.14029424239698,779.07825265964516,0.0
342154.6038362722,4775833.5216966402,-22500.0,238.86515983181417,454.75503200449594,358.67766916149662,-135.41674418561391,31.678365572536865,-64.065975301534309,503.91750040632434,587.41823124632811,-156.32625217521479,156.32625217521479,-587.41823124632811,906.00624017345342,0.0
347154.6038362722,4775833.5216966402,-22500.0,267.6896885394421,549.37641711946549,211.37288243072547,-167.36823324996979,93.343229761492012,-85.559612521507276,603.47358530481415,631.97748547491665,-209.37133400829816,209.37133400829816,-631.97748547491665,1060.0383833362259,0.0
352154.6038362722,4775833.5216966402,-22500.0,314.32190195686997,631.57680035070643,14.579492567650128,-194.49786496618859,169.96358443521277,-110.36085487202244,714.69895108618448,658.94780325054921,-272.57670244049984,272.57670244049984,-658.94780325054921,1240.8563196161822,0.0
357154.6038362722,4775833.5216966402,-22500.0,377.52165193212937,690.2125026211578,-228.51625138464655,-213.3342300298381,259.95808150252014,-137.83629111945984,834.34245637535048,660.01094332238131,-343.60076665328438,343.60076665328438,-660.01094332238131,1445.3367401075427,0.0
362154.6038362722,4775833.5216966402,-22500.0,452.95000240842819,714.61006083814345,-509.36307912087216,-220.64027005389551,360.14606717476056,-166.98358852267998,958.84230958760918,627.59960503268837,-418.74589037070621,418.74589037070621,-627.59960503268837,1667.6206080463,0.0
367154.6038362722,4775833.5216966402,-22500.0,533.30980202466094,696.33678475978274,-814.29519046339772,-213.93245113350122,465.87850652849295,-196.48499586642797,1083.993090363238,556.25982060491742,-493.25012954346221,493.25012954346221,-556.25982060491742,1899.5391368924693,0.0
372154.6038362722,4775833.5216966402,-22500.0,609.16512288382467,630.82538112223438,-1125.7615677356596,-191.94494699055917,571.44706429021585,-224.8231054100057,1205.1125083759052,443.8744788714601,-561.82565077482354,561.82565077482354,-443.8744788714601,2131.3386319668962,1.0
377154.6038362722,4775833.5216966402,-22500.0,670.32910522564555,518.43647706883689,-1424.3849740528965,-154.92299351543207,670.72126923421115,-250.4442003378683,1317.4054476731339,292.42603024050254,-619.35258128919611,619.35258128919611,-292.42603024050254,2352.6213792733029,1.0
382154.6038362722,4775833.5216966402,-22500.0,707.52054560254021,364.65821414299387,-1691.4533791148394,-104.66362382836662,757.89586542765892,-271.93985678785987,1416.4013194188954,108.065359199282,-661.5828612670548,661.5828612670548,-108.065359199282,2553.375666853286,0.0
387154.6038362722,4775833.5216966402,-22500.0,713.89134655370401,179.37171991355359,-1911.310578040471,-44.286373975486903,828.19510317849893,-288.21093866694093,1498.3706476647114,-99.566402950339011,-685.69946535194333,685.69946535194333,99.566402950339011,2724.9405799753526,0.0
392154.6038362722,4775833.5216966402,-22500.0,686.06370744546848,-24.633569881022837,-2073.1453089568972,22.211893974081615,878.39196785694946,-298.58168105285557,1560.6440343266279,-318.61400760266963,-690.61569459584803,690.61569459584803,318.61400760266963,2860.7580103824512,0.0
397154.6038362722,4775833.5216966402,-22500.0,624.4701541485814,-233.52444478598514,-2171.8634176293785,90.512130908319193,907.05370533974065,-302.8449937343579,1601.7848985562948,-536.58301756081778,-676.97280680195672,676.97280680195672,536.58301756081778,2956.8107748174366,0.0
402154.6038362722,4775833.5216966402,-22500.0,532.9953675847446,-434.24371401620124,-2207.9870189144922,156.51641068810687,914.49933577175204,-301.23785093000112,1621.6032148153117,-741.8680386068495,-646.8727860219858,646.8727860219858,741.8680386068495,3011.7159598979092,0.0
407154.6038362722,4775833.5216966402,-22500.0,418.093921361833,-615.93829454756178,-2186.7575031805318,216.77916185577803,902.52098625365602,-294.36089130161884,1621.0289403860206,-924.94884667464078,-603.4382786755026,603.4382786755026,924.94884667464078,3026.5088510260812,0.0
412154.6038362722,4775833.5216966402,-22500.0,287.65104912886954,-770.80624149781522,-2116.7594001114185,268.76995657161433,873.96178251341667,-283.06557780605414,1601.886902137009,-1079.0957110616364,-550.31203256759181,550.31203256759181,1079.0957110616364,3004.2031059272508,0.0
417154.6038362722,4775833.5216966402,-22500.0,149.85159855620969,-894.34392347410801,-2008.4068507582624,310.96021236271793,832.25057277378517,-268.33358382114773,1566.6228977227543,-1200.5653624982183,-491.19435546583964,491.19435546583964,1200.5653624982183,2949.2323826011593,0.0
422154.6038362722,4775833.5216966402,-22500.0,12.252674069462833,-985.10283804217704,-1872.5692414700238,342.76322664963925,780.97581981592828,-251.16825410850282,1518.0265505977748,-1288.3766331575123,-429.48316687454735,429.48316687454735,1288.3766331575123,2866.8720039192635,0.0
317154.6038362722,4780833.5216966402,-22500.0,222.34658084858248,89.9283149260432,439.91423414999133,-6.2971179377516995,-64.887763024342561,-8.3287038856204134,249.08607435970251,303.45258937206427,-42.052610755564189,42.052610755564189,-303.45258937206427,433.2964147725329,0.0
322154.6038362722,4780833.5216966402,-22500.0,209.97455917417048,138.61679375568289,451.54893910468019,-24.509163949108697,-59.360645341753198,-13.728253077580888,271.87440703650111,342.22884877429959,-50.26976596532279,50.26976596532279,-342.22884877429959,482.14002109192137,0.0
327154.6038362722,4780833.5216966402,-22500.0,199.84901737953683,198.73632347450365,444.61972641402889,-46.191663236249106,-47.21400339473545,-21.029437462442136,296.53661136153073,385.35475839549542,-63.925997404454279,63.925997404454279,-385.35475839549542,542.53243426406993,0.0
332154.6038362722,4780833.5216966402,-22500.0,194.91298138231906,268.92841680136274,413.11429012194105,-70.745581008554254,-26.792357407695011,-30.543336881289974,330.98865481401589,431.08618014568208,-84.271845284260252,84.271845284260252,-431.08618014568208,617.87782718136361,0.0
337154.6038362722,4780833.5216966402,-22500.0,198.3102823054584,346.20366312432361,351.17774778470175,-97.082669058308397,3.4199771093246634,-42.516229823872884,388.61699960471088,476.52660134085255,-112.32251548899063,112.32251548899063,-476.52660134085255,711.38003991023254,0.0
342154.6038362722,4780833.5216966402,-22500.0,212.91897994252903,425.76396392723939,253.90663503811447,-123.59595598183837,44.568053921612538,-57.078103181396067,463.73144138597428,517.54584339114945,-148.63333320617798,148.63333320617798,-517.54584339114945,825.38271990570513,0.0
347154.6038362722,4780833.5216966402,-22500.0,240.76058300550261,501.08577417662514,118.28334032400394,-148.20723020003317,97.168098919826789,-74.189075904753523,549.7887495763249,548.89573866997466,-193.07099610285832,193.07099610285832,-548.89573866997466,960.78182937443296,0.0
352154.6038362722,4780833.5216966402,-22500.0,282.38196943936998,564.34844949166529,-55.894781049064889,-168.51101862440333,160.86414223207643,-93.593488346033624,644.09595030403534,564.58201276662464,-244.6292114289798,244.6292114289798,-564.58201276662464,1116.6432612735089,0.0
357154.6038362722,4780833.5216966402,-22500.0,336.35321234933161,607.22779119288805,-265.29343949580169,-182.01619444980963,234.25436935774184,-114.79325838159518,744.34799232987962,558.50315103853893,-301.34381094255434,301.34381094255434,-558.50315103853893,1290.06699559711,0.0
362154.6038362722,4780833.5216966402,-22500.0,399.04013211831932,621.98085181274553,-502.74118684652711,-186.46128292553809,314.84297760741788,-137.05161864963736,847.83195619717719,525.29656775141063,-360.35423540051477,360.35423540051477,-525.29656775141063,1476.2888125917918,0.0
367154.6038362722,4780833.5216966402,-22500.0,464.7749841931934,602.64528257985637,-757.51402436886906,-180.15277555402608,399.15724202434063,-159.43400589850904,951.35492430131933,461.25437204240109,-418.13187621092618,418.13187621092618,-461.25437204240109,1668.9973292897673,0.0
372154.6038362722,4780833.5216966402,-22500.0,526.46071373998541,546.1059457929864,-1016.2489662401181,-162.25859149800269,483.03610904899136,-180.88545245632923,1051.3977744218421,365.11771289440458,-470.85569441839141,470.85569441839141,-365.11771289440458,1860.8364488639884,0.0
377154.6038362722,4780833.5216966402,-22500.0,576.5274909477555,452.77667209717634,-1264.3765680416693,-132.98916963356868,562.05570921622927,-200.33490448500501,1144.3744822766607,238.55536633071077,-514.87459190117363,514.87459190117363,-238.55536633071077,2044.0430919396445,0.0
382154.6038362722,4780833.5216966402,-22500.0,608.05145512686101,326.71990306216804,-1487.8184677796912,-93.619706132270622,632.01913846468187,-216.80919758073384,1226.931763620634,86.190522734676989,-547.16716941179084,547.16716941179084,-86.190522734676989,2211.1402951841951,0.0
387154.6038362722,4780833.5216966402,-22500.0,615.79205343453123,175.16290009113075,-1674.6207603793969,-46.344282644500751,689.4195648578401,-229.53620844112729,1296.2342663575114,-84.853577259987048,-565.7067766792693,565.7067766792693,84.853577259987048,2355.5907022788397,0.0
392154.6038362722,4780833.5216966402,-22500.0,596.92377939010964,7.5190732505421654,-1816.2114214320793,6.0073785491108342,731.79133883820498,-238.01865217728962,1350.1879717156939,-265.80026976314139,-569.66277493639154,569.66277493639154,265.80026976314139,2472.3177294146562,0.0
397154.6038362722,4780833.5216966402,-22500.0,551.32599653784189,-165.8634970957601,-1908.0751553828736,60.328899380747586,757.89357207648959,-242.06727349911071,1387.5707832265598,-447.27838658356529,-559.41132355862749,559.41132355862749,447.27838658356529,2558.0292046508011,0.0
402154.6038362722,4780833.5216966402,-22500.0,481.41406381648142,-334.96387165485288,-1949.7901578429755,113.59968705351847,767.71185370799572,-241.79155630487693,1408.0594170307777,-620.38034149539646,-536.37425725339438,536.37425725339438,620.38034149539646,2611.3179245799024,0.0
407154.6038362722,4780833.5216966402,-22500.0,391.60332208862263,-491.13269489586611,-1944.5149038558761,163.18748680366323,762.30350655879647,-237.55500761570309,1412.1613942377523,-777.53315846967473,-502.73893832451051,502.73893832451051,777.53315846967473,2632.5547812476311,0.0
412154.6038362722,4780833.5216966402,-22500.0,287.56320168571199,-627.77872433772984,-1898.1087632096003,207.05136006875847,743.53798114407311,-229.90759006297338,1401.0756063391445,-913.06625530235783,-461.12663069945143,461.12663069945143,913.06625530235783,2623.6219090769873,0.0
327154.6038362722,4785833.5216966402,-22500.0,171.66005950650043,204.10555042302593,366.1669996094339,-48.833861307223742,-31.06714135632372,-20.506782084094596,266.9748503257515,352.47198200619709,-64.54519239325171,64.54519239325171,-352.47198200619709,497.15771751958437,0.0
332154.6038362722,4785833.5216966402,-22500.0,170.34147811019417,264.92748181221236,328.39224476217606,-69.236904077849445,-11.482830551099948,-28.58293717739102,304.56726010659202,389.7102143876964,-83.457557636347275,83.457557636347275,-389.7102143876964,566.85769721167151,0.0
337154.6038362722,4785833.5216966402,-22500.0,176.45560566498844,329.94872822419126,264.81647542227711,-90.578156412578238,15.952583718596651,-38.505079683808042,360.29401503600405,425.36534612914829,-108.40131220812043,108.40131220812043,-425.36534612914829,651.9087393803029,0.0
342154.6038362722,4785833.5216966402,-22500.0,191.97582334870833,395.06716357009185,172.19396793680022,-111.55898473190274,51.930327173988474,-50.325482467829119,426.7535379298215,456.00752979781726,-139.59062802664982,139.59062802664982,-456.00752979781726,753.6370242129442,0.0
347154.6038362722,4785833.5216966402,-22500.0,218.11611119845318,455.01692708997342,48.871411397971876,-130.57806013671404,96.645767989519655,-63.971888804314766,500.86711570520549,477.48269903247069,-176.7090075046797,176.7090075046797,-477.48269903247069,872.22120122798628,0.0
352154.6038362722,4785833.5216966402,-22500.0,254.92176158415424,503.73917302896984,-104.60183510715721,-145.84690720990361,149.64670929191769,-79.221174111303554,580.97329399675641,485.22532918337686,-218.80550119123413,218.80550119123413,-485.22532918337686,1006.4950497485445,0.0
357154.6038362722,4785833.5216966402,-22500.0,300.96408146542251,534.98503081470699,-285.039390738365,-155.56486474824592,209.7359766766287,-95.686766168841032,665.32979176712206,474.7389373126083,-264.26450004392359,264.26450004392359,-474.7389373126083,1153.9016254234923,0.0
362154.6038362722,4785833.5216966402,-22500.0,353.23592471268654,543.08845463723526,-486.48987153402857,-158.13487103479679,274.96078838950672,-112.82590430165629,751.83414787475544,442.194610480633,-310.87430063482924,310.87430063482924,-442.194610480633,1310.5931204324233,0.0
367154.6038362722,4785833.5216966402,-22500.0,407.31634043548218,523.78710732981881,-700.50555933215924,-152.38662656573487,342.70958891852263,-129.96995161079332,838.0351288728184,385.05274932392933,-356.00168454976392,356.00168454976392,-385.05274932392933,1471.6663483089458,0.0
372154.6038362722,4785833.5216966402,-22500.0,457.81599383320412,474.93280626248469,-916.82081144174981,-137.76514674254059,409.91624035161141,-146.37637019831357,921.25752780437165,302.58595892526421,-396.85539049354315,396.85539049354315,-302.58595892526421,1631.5161319407102,0.0
377154.6038362722,4785833.5216966402,-22500.0,499.04484915847019,396.93667481734269,-1124.3609979023606,-114.44479148263846,473.34814925274344,-161.29638540426379,998.78733917476734,196.18422152637783,-430.79859107109309,430.79859107109309,-196.18422152637783,1784.2756745052795,0.0
382154.6038362722,4785833.5216966402,-22500.0,525.77985150812663,292.8417315850952,-1312.416952892014,-83.341610088405076,529.93269259323313,-174.04778156735622,1068.0798246857203,69.360890546141661,-455.65428631399931,455.65428631399931,-69.360890546141661,1924.2914478320718,0.0
387154.6038362722,4785833.5216966402,-22500.0,533.98000277382107,167.99871688359636,-1471.7778156967458,-46.018865066361656,577.06674968422544,-184.08099733540232,1126.9575025117085,-72.556912990455402,-469.94767555634746,469.94767555634746,72.556912990455402,2046.573129978193,0.0
392154.6038362722,4785833.5216966402,-22500.0,521.30754253597365,29.410561532298125,-1595.6245291034993,-4.5038313760836894,612.85731302271836,-191.02764162984204,1173.7685379590432,-222.99916831776443,-473.04336224522297,473.04336224522297,222.99916831776443,2147.159907569745,0.0
397154.6038362722,4785833.5216966402,-22500.0,487.36441733482098,-115.11878340196526,-1680.0472119655637,38.947855371385543,636.25756944131535,-194.7245409712651,1207.4851466885175,-374.874862474336,-465.15999478221175,465.15999478221175,374.874862474336,2223.360040709485,0.0
402154.6038362722,4785833.5216966402,-22500.0,433.62409900583259,-257.86641446326587,-1724.1392182397042,82.09635175720949,647.08676930951094,-195.21163179263712,1227.7334670724574,-521.31127024363832,-447.2718293438034,447.2718293438034,521.31127024363832,2273.8440566967856,0.0
342154.6038362722,4790833.5216966402,-22500.0,174.57332778846069,364.33551541007051,108.78796367541857,-99.985777062890307,55.487875598371105,-44.081992269515766,392.64523440126175,402.07293260092109,-129.96342180285086,129.96342180285086,-402.07293260092109,689.34956771083102,0.0
347154.6038362722,4790833.5216966402,-22500.0,198.66564081458014,412.07362346661608,-2.440929919727143,-114.73984846523287,93.449309756574834,-54.997579650026751,456.45124343305383,416.20888501670134,-160.93292161988751,160.93292161988751,-416.20888501670134,793.02179935362733,0.0
352154.6038362722,4790833.5216966402,-22500.0,231.02402550555476,449.61871410077765,-137.35174638759986,-126.27875783990356,137.63946862841851,-67.042497994406347,524.68558133221427,418.42172806935389,-195.36924266745643,195.36924266745643,-418.42172806935389,908.7836289821912,0.0
357154.6038362722,4790833.5216966402,-22500.0,270.31492764230831,472.25345634682719,-293.04100483267155,-133.29081039585887,187.05742625112924,-79.918622527869061,595.98579692057774,405.38039715873862,-231.95820937004731,231.95820937004731,-405.38039715873862,1034.4409319671347,0.0
362154.6038362722,4790833.5216966402,-22500.0,314.06611506775107,475.7958281748505,-464.59697707973771,-134.63614556730246,240.1751527225004,-93.224462811619603,668.70313571717293,374.33088289584225,-268.98692696159628,268.98692696159628,-374.33088289584225,1166.8923182921274,0.0
367154.6038362722,4790833.5216966402,-22500.0,358.81157792700662,457.16680225668728,-645.33397694422581,-129.49568092784949,295.01451381058723,-106.47722897523363,740.93724077624984,323.52261322787882,-304.47562972509894,304.47562972509894,-323.52261322787882,1302.3044273457531,0.0
372154.6038362722,4790833.5216966402,-22500.0,400.42085562575625,414.87036849234107,-827.29739008528702,-117.49426603413274,349.2926234212913,-119.14805878550686,810.6331438805297,252.5574777322793,-336.36392505370435,336.36392505370435,-252.5574777322793,1436.3644027503988,0.0
377154.6038362722,4790833.5216966402,-22500.0,434.57064029950448,349.28865961403295,-1001.9825361135139,-98.773712443134016,400.61944536429149,-130.70650177453379,875.71400860281096,162.58705388147484,-362.72469546639581,362.72469546639581,-162.58705388147484,1564.5884008389771,0.0
382154.6038362722,4790833.5216966402,-22500.0,457.27944705697792,262.72659433842102,-1161.1588685463398,-73.999754940284376,446.71876502997185,-140.6678025010234,934.22761214481579,56.308996084279954,-381.97020098071704,381.97020098071704,-56.308996084279954,1682.6524898724524,0.0
387154.6038362722,4790833.5216966402,-22500.0,465.40760259108413,159.19110837984894,-1297.6669429476824,-44.299913504167982,485.63839013500944,-148.63602541102813,984.48580352676299,-62.247294271470707,-393.01562772274372,393.01562772274372,62.247294271470707,1786.7074611490659,0.0
392154.6038362722,4790833.5216966402,-22500.0,457.03196044587605,43.945435060730851,-1406.059927502695,-11.143056616013988,515.9170064859959,-154.33637746633951,1025.1779403765286,-188.11147476715971,-395.37377605627205,395.37377605627205,188.11147476715971,1873.6393506470636,0.0
352154.6038362722,4580833.5216966402,-27500.0,424.42362668834386,108.10091489100445,-1059.0079920090313,53.621110662100527,-350.91873295829157,-85.280762834813771,807.61976704938377,-77.252957265401818,84.36286755784343,-84.36286755784343,77.252957265401818,1455.1189950628373,0.0
357154.6038362722,4580833.5216966402,-27500.0,424.24761087352528,201.87622196188892,-951.47228672882432,79.821786564042057,-311.47511791123588,-74.418105017500963,768.93132515846639,20.813919318129965,32.810666010723025,-32.810666010723025,-20.813919318129965,1373.9269312106162,0.0
362154.6038362722,4580833.5216966402,-27500.0,410.19795109531879,283.3208993431482,-821.62620515964693,101.37222061155394,-265.69598954946002,-62.255021299191945,723.38940272479954,111.66800501168123,-15.85280363313435,15.85280363313435,-111.66800501168123,1281.4241424698666,0.0
367154.6038362722,4580833.5216966402,-27500.0,384.38724040287798,348.16986536647016,-674.65660900645776,117.13098366446177,-215.34014473044442,-49.250298451506239,672.26974555446998,191.58344028462415,-59.623474002970639,59.623474002970639,-191.58344028462415,1180.8107904854235,0.0
372154.6038362722,4580833.5216966402,-27500.0,349.91865779602279,393.36213490290237,-517.11600352089795,126.35307884587408,-162.52253045218174,-35.925738425025003,617.1127195711872,257.64622004125863,-96.84636187935179,96.84636187935179,-257.64622004125863,1075.8354262910882,0.0
377154.6038362722,4580833.5216966402,-27500.0,310.52974755731941,417.3957070264338,-356.34714926297448,128.77727285178773,-109.53711777098529,-22.82364273052865,559.62101471328856,308.03832395171469,-126.37206331713256,126.37206331713256,-308.03832395171469,970.53955670020378,0.0
382154.6038362722,4580833.5216966402,-27500.0,270.13710164816115,420.48046616837604,-199.78362102488876,124.65408827838455,-58.650782338223294,-10.460468985783205,501.53887921305829,342.1793977998318,-147.64997943537844,147.64997943537844,-342.1793977998318,868.93555821956943,0.0
387154.6038362722,4580833.5216966402,-27500.0,232.36380419220447,404.46009232713806,-54.239190416908166,114.70886082516184,-11.899996675678977,0.71645045375299599,444.53561489343565,360.70324773436346,-160.74366417357899,160.74366417357899,-360.70324773436346,774.64446335858872,0.0
392154.6038362722,4580833.5216966402,-27500.0,200.13379425840446,372.51941915112735,74.701678323003435,100.04616494877803,29.079340081335317,10.363088681965575,390.12410545748497,365.2794081496852,-166.26898662543704,166.26898662543704,-365.2794081496852,690.52116377100049,0.0
397154.6038362722,4580833.5216966402,-27500.0,175.40008611617381,328.73637281213195,183.10157360789469,82.013106961281125,63.165069772301457,18.259422589650843,339.70646654940896,358.31990485766948,-165.27043818317478,165.27043818317478,-358.31990485766948,618.3150116122921,0.0
402154.6038362722,4580833.5216966402,-27500.0,159.04165669700106,277.5651071180132,268.84820001865734,62.045750067579469,89.792749711699201,24.314758675719126,295.42011929672299,342.63115335055659,-159.06155627472629,159.06155627472629,-342.63115335055659,558.45063707176973,0.0
342154.6038362722,4585833.5216966402,-27500.0,424.7473221610972,-138.59010224163376,-1351.1226484814099,-17.932632339226892,-474.68414017127253,-120.64283415693691,979.4562410236872,-335.90977594390529,228.6566683970739,-228.6566683970739,335.90977594390529,1793.6510419715171,0.0
347154.6038362722,4585833.5216966402,-27500.0,463.22646250506693,-16.560604933120946,-1295.3068991745531,20.235776365688533,-448.25231668579715,-111.64999806048174,955.31095251683735,-219.2547144622942,168.71701445277387,-168.71701445277387,219.2547144622942,1736.9008991272219,0.0
352154.6038362722,4585833.5216966402,-27500.0,483.95287302558484,104.26185233882266,-1205.6746694724106,56.639456101091831,-411.11199409201396,-100.13934254549331,920.7944433437541,-100.09848723890245,106.44595195645944,-106.44595195645944,100.09848723890245,1660.8376062853233,0.0
357154.6038362722,4585833.5216966402,-27500.0,486.2027482720564,217.21583358394184,-1083.6919794200714,89.239678970293483,-364.08860304202898,-86.426741023072026,876.52059643857092,16.206309601230579,44.559631165081534,-44.559631165081534,-16.206309601230579,1567.3630148956026,0.0
362154.6038362722,4585833.5216966402,-27500.0,470.89361792035521,315.74623919606341,-933.36064204460024,116.1229854268056,-308.76669182786043,-70.996631068638479,823.61928854140911,124.25076262642305,-14.113576795417103,14.113576795417103,-124.25076262642305,1459.5117998435128,0.0
367154.6038362722,4585833.5216966402,-27500.0,440.58985010782925,394.15452133806031,-761.08987562888933,135.71782592801475,-247.41860359071438,-54.473933852028999,763.69283155204539,219.13360047328325,-66.912221388593423,66.912221388593423,-219.13360047328325,1341.340166553656,0.0
372154.6038362722,4585833.5216966402,-27500.0,399.24870201357015,448.3049131741875,-575.21432833228005,146.98761291278768,-182.83405074204455,-37.575623575477188,698.71754155836265,297.0008536412721,-111.62102969159889,111.62102969159889,-297.0008536412721,1217.6852482496599,0.0
377154.6038362722,4585833.5216966402,-27500.0,351.73087296699816,476.1506282076358,-385.20410173642301,149.56389652474274,-118.06832867836782,-21.04788414118169,630.90123701517007,355.46158024270244,-146.70157713071967,146.70157713071967,-355.46158024270244,1093.8053689400335,0.0
382154.6038362722,4585833.5216966402,-27500.0,303.15787373249537,477.96956287401161,-200.68316834913549,143.79179539316556,-56.144527090068856,-5.5972175270602875,562.51677907734302,393.79888815456832,-171.43203014400524,171.43203014400524,-393.79888815456832,974.92132465751843,0.0
387154.6038362722,4585833.5216966402,-27500.0,258.23777797539378,456.2563972364843,-30.422064155366449,130.67642588490398,0.24239566876542934,8.1737521949004179,495.74231281254413,412.93616493485354,-185.93095592379348,185.93095592379348,-412.93616493485354,865.6858208466349,0.0
392154.6038362722,4585833.5216966402,-27500.0,220.69191314339898,415.29687175343508,118.51826861317377,111.74058622451292,48.970719116812326,19.815992642353145,432.5721535618631,415.17463386032136,-191.0658920418966,191.0658920418966,-415.17463386032136,769.63180096991118,0.0
397154.6038362722,4585833.5216966402,-27500.0,192.88576404696815,360.5179895949496,241.35263703061401,88.821838586729001,88.648760733361584,29.062330260848682,375.03204719651762,403.76625045744163,-188.27112685002248,188.27112685002248,-403.76625045744163,688.68758709923065,0.0
402154.6038362722,4585833.5216966402,-27500.0,175.71296998029851,297.74911906935716,335.78000865501423,63.847718518307218,118.66582461157176,35.831716351547463,327.60281819792783,382.41522993908859,-179.31558722027526,179.31558722027526,-382.41522993908859,622.90973745258782,0.0
407154.6038362722,4585833.5216966402,-27500.0,168.72006902120859,232.5328916517158,401.84510308003854,38.628394584817052,139.14168104058734,40.211489996796537,303.29553397245195,354.80409800825606,-166.06641459487486,166.06641459487486,-354.80409800825606,570.60723896779473,0.0
412154.6038362722,4585833.5216966402,-27500.0,170.40943394881367,169.59286313362415,441.53170987169415,14.697014355142409,150.79767581945197,42.423397817142707,291.13955424780539,324.21848868529895,-150.28676792270704,150.28676792270704,-324.21848868529895,528.90511513574745,0.0
417154.6038362722,4585833.5216966402,-27500.0,178.63245670350003,112.51321639787291,458.20201390899507,-6.7864391621133455,154.78260069113597,42.78087288658589,279.29208054990761,293.30943292577001,-133.49170840420467,133.49170840420467,-293.30943292577001,494.55389652415255,0.0
332154.6038362722,4590833.5216966402,-27500.0,320.08075777795722,-453.43826439189394,-1526.5333756989262,-122.9084060836382,-575.90798270071878,-155.25813212034836,1131.7920693865267,-645.06852064389682,399.97289724155991,-399.97289724155991,645.06852064389682,2101.2642687787766,0.0
337154.6038362722,4590833.5216966402,-27500.0,403.84448142905319,-331.30069445967592,-1547.288898017001,-79.90936234610497,-572.97055791970536,-151.05397038053871,1131.6817833394821,-534.35941931177206,344.86253796741823,-344.86253796741823,534.35941931177206,2089.3720622304581,0.0
342154.6038362722,4590833.5216966402,-27500.0,473.51634032106574,-194.94938377495399,-1532.2880985141862,-33.84828375158834,-557.27924601665154,-143.41599970265059,1119.2516837835042,-408.50745757653294,280.87912487202539,-280.87912487202539,408.50745757653294,2053.1791720894439,0.0
347154.6038362722,4590833.5216966402,-27500.0,524.63883345883153,-50.426047779029382,-1477.2124259619297,13.103750736762828,-527.88292054237138,-132.27419468204002,1093.8808818640218,-272.11401305494752,210.20881890477185,-210.20881890477185,272.11401305494752,1991.9903704102007,0.0
352154.6038362722,4590833.5216966402,-27500.0,553.97824655898012,94.630260143162587,-1380.1148260963141,58.383948768210381,-484.66331009201173,-117.78518844660236,1055.5362991703296,-131.12952049736478,135.79041624119273,-135.79041624119273,131.12952049736478,1906.4405071939441,0.0
357154.6038362722,4590833.5216966402,-27500.0,560.11662827139969,231.60342677437191,-1242.1111743764868,99.25596758212005,-428.50563784979289,-100.35543757219267,1004.8639521821576,7.597017736773374,61.114718661169569,-61.114718661169569,-7.597017736773374,1798.6812420913232,0.0
362154.6038362722,4590833.5216966402,-27500.0,543.84926098031463,351.80381938733967,-1067.7584640600908,133.09787992498616,-361.36338228972255,-80.636068779508008,943.21960011412341,136.98520127349593,-10.091769706739804,10.091769706739804,-136.98520127349593,1672.4321827767942,0.0
367154.6038362722,4590833.5216966402,-27500.0,508.26350667817724,447.53439625052766,-864.9737916019277,157.72034364809801,-286.18182009864034,-59.484715578427583,872.62277105551243,250.51918759986182,-74.261136622500956,74.261136622500956,-250.51918759986182,1532.8581202369944,0.0
372154.6038362722,4590833.5216966402,-27500.0,458.43041148115094,513.12941868705343,-644.42510164282646,171.65908415662838,-206.66897992710705,-37.895515703407106,795.62937069339796,343.03421559234226,-128.39238039404228,128.39238039404228,-343.03421559234226,1386.2525202865652,0.0
377154.6038362722,4590833.5216966402,-27500.0,400.73034823430157,545.74923151181656,-418.44162091144767,174.38203698302851,-126.9355062544949,-16.905317827168648,715.13476737966744,411.33621161511951,-170.39691870791867,170.39691870791867,-411.33621161511951,1239.5316282556817,0.0
382154.6038362722,4590833.5216966402,-27500.0,341.93296468884068,545.74916330996041,-199.61614066972712,166.36428252945456,-51.0581844895286,2.5099315906709343,634.13965538052753,454.52188977737381,-199.31173842323057,199.31173842323057,-454.52188977737381,1099.5670397365991,0.0
387154.6038362722,4590833.5216966402,-27500.0,288.22128850107708,516.53158339706499,0.64342718874399929,149.01045434224787,17.357216112365567,19.53166001776955,555.53277306346467,473.93172462354073,-215.33798282314095,215.33798282314095,-473.93172462354073,972.39742356653733,0.0
392154.6038362722,4590833.5216966402,-27500.0,244.36999510885994,463.91905333882664,173.33381908627604,124.44037100870433,75.534268122410438,33.571791893487458,482.0220797719802,472.75973417304812,-219.70461092079762,219.70461092079762,-472.75973417304812,862.40528839924525,0.0
397154.6038362722,4590833.5216966402,-27500.0,213.23884550439755,395.19799919756804,312.63233203827735,95.183564815149566,121.7458958240384,44.311505512236664,416.8040658906998,455.42254320356221,-214.39624683665295,214.39624683665295,-455.42254320356221,771.61913328204741,0.0
402154.6038362722,4590833.5216966402,-27500.0,195.65264630166831,318.05013770523539,416.12920771461768,63.846337578207539,155.36954985190033,51.70195645690837,368.81426915265024,426.83770229218698,-201.81153888477519,201.81153888477519,-426.83770229218698,699.4178251676251,0.0
407154.6038362722,4590833.5216966402,-27500.0,190.63630760523668,239.58716402161269,484.54979179720851,32.813711885635342,176.78891500171625,55.931288213551994,347.39512611040084,391.75993495121645,-184.42395458375097,184.42395458375097,-391.75993495121645,642.90077615763244,0.0
412154.6038362722,4590833.5216966402,-27500.0,195.89594862436502,165.64601270337508,521.10306079883969,4.032137264378858,187.18298154449425,57.368018664551848,333.36609707455887,354.28385940579693,-164.50342044721282,164.50342044721282,-354.28385940579693,597.89372462967629,0.0
417154.6038362722,4590833.5216966402,-27500.0,208.40351612638852,100.41315498507448,530.64295354274191,-21.106741310245763,188.2579626815355,56.493689269885536,318.76057649830733,317.56117850902626,-143.93138674823504,143.93138674823504,-317.56117850902626,560.15556577938742,0.0
422154.6038362722,4590833.5216966402,-27500.0,224.9538891817715,46.36295276205697,518.82121746884764,-41.7851632733624,181.97595603922014,53.836911091285565,302.62921322844784,283.72392146883868,-124.11519323304005,124.11519323304005,-283.72392146883868,526.26707241321196,0.0
427154.6038362722,4590833.5216966402,-27500.0,242.60419850677707,4.4360097717672602,491.36423049779489,-57.702714659514221,170.32106734938807,49.917775026616241,285.12831633364254,253.96598927428533,-105.98656348941283,105.98656348941283,-253.96598927428533,493.98171475605238,0.0
322154.6038362722,4595833.5216966402,-27500.0,99.39344123144933,-768.11237534014879,-1532.5488498500517,-244.99865119835846,-630.61435268352943,-182.63756253124495,1241.3550007612259,-945.32412703137538,566.65898566651572,-566.65898566651572,945.32412703137538,2329.2928266359568,0.0
327154.6038362722,4595833.5216966402,-27500.0,216.33524855805086,-680.79630219712146,-1631.5772183193892,-208.40387639158189,-656.1876204685193,-185.52801398527635,1271.3623875967662,-869.74127718823593,531.87211665094355,-531.87211665094355,869.74127718823593,2376.1650524108218,0.0
332154.6038362722,4595833.5216966402,-27500.0,330.86725545412935,-567.01598364871279,-1705.4676230281482,-163.94682029415824,-670.92529604257288,-184.89349298040528,1289.9319063959588,-769.35449699996911,483.42296854943675,-483.42296854943675,769.35449699996911,2399.5805052888522,0.0
337154.6038362722,4595833.5216966402,-27500.0,436.56187483270827,-428.67414064457682,-1745.4420707753111,-112.78139737631462,-672.13618776801979,-180.16881660293762,1295.1098740074895,-645.31109803668039,421.61550610276129,-421.61550610276129,645.31109803668039,2395.9411124637541,0.0
342154.6038362722,4595833.5216966402,-27500.0,526.67434125472255,-270.21210983764541,-1743.2665349765816,-56.85585975098553,-657.50252575983586,-170.95421711219288,1285.2904500410659,-500.79352721551436,347.80748626729667,-347.80748626729667,500.79352721551436,2362.501182938533,0.0
347154.6038362722,4595833.5216966402,-27500.0,594.93353420542883,-98.746446733737841,-1692.3782567411702,1.1073930048635685,-625.43449692131469,-157.09636950146856,1259.4262072037172,-341.14943537256994,264.51046183093018,-264.51046183093018,341.14943537256994,2297.8203868411024,0.0
352154.6038362722,4595833.5216966402,-27500.0,636.47339575841283,76.200793971570945,-1589.1066718373418,57.759205270002781,-575.42440233294292,-138.75748619179069,1217.2258440084761,-173.71471025957791,175.34008756417765,-175.34008756417765,173.71471025957791,2202.1850393966433,0.0
357154.6038362722,4595833.5216966402,-27500.0,648.74371177013052,243.45633280024856,-1433.7723953991842,109.40975814944987,-508.33453800364271,-116.45745663599754,1159.3093760553159,-7.2718319183715394,84.782572215048361,-84.782572215048361,7.2718319183715394,2077.9313889967407,0.0
362154.6038362722,4595833.5216966402,-27500.0,632.18556167855729,391.41388258083555,-1231.3870189769639,152.43481738877188,-426.54027218703959,-91.074030473723383,1087.2809887490675,148.8434320752437,-2.225038695817716,2.225038695817716,-148.8434320752437,1929.5838595045593,0.0
367154.6038362722,4595833.5216966402,-27500.0,590.45930923923402,509.55822332565134,-991.70043332627017,183.74647616179809,-333.86409597987489,-63.792081518603233,1003.6904474761826,285.87191209503771,-80.853345167500123,80.853345167500123,-285.87191209503771,1763.7394582149491,0.0
372154.6038362722,4595833.5216966402,-27500.0,530.08953210846641,590.01195502751671,-728.44912676946751,201.24193990259164,-235.27109133073006,-36.001964729422482,911.87046780483445,396.79223937114625,-146.98406114117699,146.98406114117699,-396.79223937114625,1588.655356284421,0.0
377154.6038362722,4595833.5216966402,-27500.0,459.53258506341081,628.75665895717725,-457.84525982335072,204.1318732585672,-136.3506793314925,-9.158704615631132,815.66364844023406,477.26077189438558,-197.73585535328687,197.73585535328687,-477.26077189438558,1413.5329592615581,0.0
382154.6038362722,4595833.5216966402,-27500.0,387.84211926396318,626.22339910364565,-196.55930225942475,193.06735802519037,-42.668100062829524,15.375643855526725,719.09053250688999,526.10907246012869,-231.79657267590085,231.79657267590085,-526.10907246012869,1247.5336910606511,0.0
387154.6038362722,4595833.5216966402,-27500.0,323.23382234796048,587.09259540347205,40.396690378859731,170.02803965155766,40.89220060244525,36.479018134924182,626.05780569863873,545.28133296677652,-249.48860743741517,249.48860743741517,-545.28133296677652,1098.5893319635545,0.0
392154.6038362722,4595833.5216966402,-27500.0,271.88764720651602,519.35673730019005,241.43676901705092,137.9948790009731,110.66002064099273,53.378416584479659,540.38130003121046,539.24581912388737,-252.5634413167048,252.5634413167048,-539.24581912388737,972.15157461075478,0.0
397154.6038362722,4595833.5216966402,-27500.0,237.24626186381769,432.89195852603422,399.47480897242878,100.48374813292858,164.49200805566355,65.703284394733146,467.50105219045639,514.04928934165605,-243.78949621193129,243.78949621193129,-514.04928934165605,870.18642769582436,0.0
402154.6038362722,4595833.5216966402,-27500.0,219.91260752857897,337.89274768271002,512.1606894388533,61.045661527236078,201.82376070831791,73.477980629886275,421.38005062995467,476.25930984276505,-226.44259726687966,226.44259726687966,-476.25930984276505,790.91087773183142,0.0
407154.6038362722,4595833.5216966402,-27500.0,218.07668802535727,243.509950200004,581.35630336592317,22.834740601946937,223.4864057726557,77.061771103131321,400.33070158929138,432.02828980658302,-203.81457393480645,203.81457393480645,-432.02828980658302,729.64321066066304,0.0
412154.6038362722,4595833.5216966402,-27500.0,228.28012877227931,156.92343919947493,612.09325315877913,-11.686618852047236,231.36126707754258,77.054741988902194,383.4033753190987,386.43848173482894,-178.82920420207398,178.82920420207398,-386.43848173482894,680.50911562544445,0.0
417154.6038362722,4595833.5216966402,-27500.0,246.28560501172495,82.927611194945769,611.31651317842989,-40.880622157070867,227.96575863818899,74.191331121234199,365.16924392988057,343.18216023563264,-153.80906835737383,153.80906835737383,-343.18216023563264,638.14852138451511,0.0
422154.6038362722,4595833.5216966402,-27500.0,267.85338229349946,23.973656157119812,586.6871730810534,-63.92079411630457,216.05590940793724,69.241254266674801,345.02876858177581,304.54141029318737,-130.39255082781381,130.39255082781381,-304.54141029318737,598.70552154022209,0.0
427154.6038362722,4595833.5216966402,-27500.0,289.304883752416,-19.469565665062898,545.62541212839983,-80.674015189690891,198.30396572729234,62.930934446284347,323.31806795559129,271.57751029264972,-109.56903461310442,109.56903461310442,-271.57751029264972,560.00458846303763,0.0
432154.6038362722,4595833.5216966402,-27500.0,307.83683874904511,-48.395091152021465,494.67061643044531,-91.527438958368876,177.07796387926592,55.891252314786854,300.65042686727622,244.42713740714396,-91.787566663359414,91.787566663359414,-244.42713740714396,521.23245424150639,0.0
317154.6038362722,4600833.5216966402,-27500.0,-82.910608182462312,-977.60570889816029,-1522.359867546817,-339.92273046840091,-677.62396360417222,-208.08257700395936,1351.845199037163,-1150.9044452552894,689.65063993371689,-689.65063993371689,1150.9044452552894,2549.2758494678351,0.0
322154.6038362722,4600833.5216966402,-27500.0,50.652838136564029,-921.00172685036921,-1668.7651697875945,-310.17894181947059,-722.90789421612101,-216.0912024253177,1404.371936170264,-1104.4876404581746,671.87556918403254,-671.87556918403254,1104.4876404581746,2640.086949948693,0.0
327154.6038362722,4600833.5216966402,-27500.0,191.35902231235016,-832.18192642962651,-1799.6495524825323,-269.65531741792375,-759.45288035061355,-220.5812074434956,1446.5705946979319,-1028.681711697069,638.1412930216668,-638.1412930216668,1028.681711697069,2709.1809919481898,0.0
332154.6038362722,4600833.5216966402,-27500.0,332.57194264648251,-709.6153151856272,-1904.399446349646,-218.52906088136831,-783.57324368096408,-220.63511459160947,1475.6191800774093,-921.80475185396176,587.21660045196791,-587.21660045196791,921.80475185396176,2751.0831152035626,0.0
337154.6038362722,4600833.5216966402,-27500.0,466.16062162498366,-554.38565334505506,-1971.42265773292,-157.9220467109447,-791.51062450114057,-215.4257892051115,1488.7934908068057,-784.24530874798552,518.90973142803637,-518.90973142803637,784.24530874798552,2760.6637468673398,0.0
342154.6038362722,4600833.5216966402,-27500.0,583.14748895480818,-370.91383380910537,-1989.248120879713,-90.060808369203116,-779.83930008611617,-204.33070700926271,1483.7255648676687,-619.04149202464498,434.39703918272937,-434.39703918272937,619.04149202464498,2733.7058536532477,0.0
347154.6038362722,4600833.5216966402,-27500.0,674.7401725756813,-167.36371163330384,-1948.0480497218484,-18.312389569207337,-745.97303985900407,-187.05459080504465,1458.7047804666324,-432.22297590735258,336.44474121645243,-336.44474121645243,432.22297590735258,2667.5584929144675,0.0
352154.6038362722,4600833.5216966402,-27500.0,733.65411256042967,44.500362057487109,-1841.4188158687989,52.962401681180879,-688.70891237093622,-163.74053609140745,1412.9824848982457,-232.74140960130126,229.43283124284358,-229.43283124284358,232.74140960130126,2561.7917301920097,0.0
357154.6038362722,4600833.5216966402,-27500.0,755.5081813474834,250.17972984609648,-1668.1155549796329,118.77280434789033,-608.70818188506007,-135.0448147684441,1347.0326702155292,-31.858996972755449,119.10832177774392,-119.10832177774392,31.858996972755449,2418.7473731773853,0.0
362154.6038362722,4600833.5216966402,-27500.0,739.96223994643765,434.06354416075703,-1433.3069534417502,174.06732862873815,-508.78631911701615,-102.15048475275127,1262.7042534481243,158.03138062807341,12.04051382949784,-12.04051382949784,-158.03138062807341,2243.8443634618375,0.0
367154.6038362722,4600833.5216966402,-27500.0,691.23633269202287,581.6161670303278,-1148.9107088287244,214.43389515230518,-393.89479350340753,-66.702242540257188,1163.2119558035263,325.01650495339982,-85.169726341667371,85.169726341667371,-325.01650495339982,2045.5147762471825,0.0
372154.6038362722,4600833.5216966402,-27500.0,617.74568689960279,681.70888982394331,-832.70998595531046,236.79750287197808,-270.72647000808297,-30.659543626647544,1052.9350646314356,459.39919220209003,-166.79084607276539,166.79084607276539,-459.39919220209003,1834.678888838183,0.0
377154.6038362722,4600833.5216966402,-27500.0,530.81166197658069,728.53213458767732,-506.25113763006692,239.95146403244905,-146.9668929142407,3.9156779492224647,937.03954871820883,555.15280113363406,-228.77507496642838,228.77507496642838,-555.15280113363406,1623.7301301350556,0.0
382154.6038362722,4600833.5216966402,-27500.0,442.69915277582481,722.56288528616324,-191.88879882621271,224.77867397825875,-30.316271356894646,35.101814094138291,821.00268674117888,610.71449236221849,-269.28868834153991,269.28868834153991,-610.71449236221849,1425.0635262748237,0.0
387154.6038362722,4600833.5216966402,-27500.0,364.46765135002602,670.2997151601769,90.364284788380786,194.09230266728613,72.514760597618064,61.34450409355842,710.22670159384643,628.90782021197595,-288.8275237467027,288.8275237467027,-628.90782021197595,1249.2497687117791,0.0
392154.6038362722,4600833.5216966402,-27500.0,304.19275385167151,582.83804393236119,325.44596701936945,152.12928923214434,156.61598990726819,81.622495847643819,610.30665170293923,616.04046588126266,-289.90395365200294,289.90395365200294,-616.04046588126266,1103.1027944536793,0.0
397154.6038362722,4600833.5216966402,-27500.0,265.98595975893375,473.70260995550268,504.74711325748098,103.82739407068433,219.32897210699392,95.522075395818376,530.56955039211573,580.46558790964195,-276.41379318854825,276.41379318854825,-580.46558790964195,988.23248443042178,0.0
402154.6038362722,4600833.5216966402,-27500.0,249.95715939277088,356.52101635461446,626.30014735281065,54.063617020789735,260.27896483386513,103.21229164511124,486.65932007265707,531.00915495078698,-252.86457879482469,252.86457879482469,-531.00915495078698,900.95518798749515,0.0
407154.6038362722,4600833.5216966402,-27500.0,252.97526709281885,243.08998232289898,693.82220050353476,7.0223847720695032,281.0402218436933,105.33770396363607,463.69573006200432,475.64252964913925,-223.65649884723786,223.65649884723786,-475.64252964913925,834.02962463502865,0.0
412154.6038362722,4600833.5216966402,-27500.0,269.88551805876881,142.17070358166623,715.04462553411884,-34.201251077486177,284.56854539139704,102.86169611304358,442.70089387314948,420.63028477273883,-192.5524690581766,192.5524690581766,-420.63028477273883,779.42301624030097,0.0
417154.6038362722,4600833.5216966402,-27500.0,294.80135965960244,59.085318357871657,699.83010836620031,-67.737636020251287,274.5595362671537,96.897892153905289,419.67038757076614,370.20250575109867,-162.39283243082514,162.39283243082514,-370.20250575109867,730.58734381388831,0.0
422154.6038362722,4600833.5216966402,-27500.0,322.17530164439796,-4.0274008406595225,658.49092837893465,-92.859164855317132,254.86751462300819,88.561548497510884,394.30065309961003,326.65863356380896,-135.03683162628684,135.03683162628684,-326.65863356380896,683.40399885018576,0.0
427154.6038362722,4600833.5216966402,-27500.0,347.49798628426026,-47.548235310386765,600.54726430413655,-109.75578722711569,229.06706780429465,78.859952072694668,367.17203043165352,290.7385841951824,-111.46730955537467,111.46730955537467,-290.7385841951824,636.01545447233445,0.0
432154.6038362722,4600833.5216966402,-27500.0,367.61157165396793,-73.560259662766626,533.99049766749658,-119.25210749980228,200.1840641531638,68.627624628036713,339.15366507237093,262.09685927117721,-91.982969237989636,91.982969237989636,-262.09685927117721,588.16280489258133,0.0
437154.6038362722,4600833.5216966402,-27500.0,380.71368409098841,-85.072291795552999,464.99191071931631,-122.53200438043275,170.58078534982161,58.501918370681004,311.1786860804072,239.75661750284902,-76.413171023734748,76.413171023734748,-239.75661750284902,540.487050209431,0.0
312154.6038362722,4605833.5216966402,-27500.0,-315.13901072447771,-1163.3439353587432,-1437.964020456503,-439.99477497939358,-702.3114207838554,-230.6710459231906,1444.7830710469314,-1334.8935212280091,803.12296606261611,-803.12296606261611,1334.8935212280091,2735.5677875138022,0.0
317154.6038362722,4605833.5216966402,-27500.0,-177.95378959673337,-1149.9895802174178,-1623.428697261701,-422.83425004018659,-767.58869058922448,-244.74006996954679,1522.1965146507857,-1328.4266649516687,808.62963630237959,-808.62963630237959,1328.4266649516687,2875.5333296778854,0.0
322154.6038362722,4605833.5216966402,-27500.0,-22.636524266581898,-1103.0648391295588,-1806.88288276194,-392.97572684863485,-828.05622203610778,-255.77498909059187,1591.9524617877146,-1291.6679325989851,797.93157057897884,-797.93157057897884,1291.6679325989851,2998.7479652187412,0.0
327154.6038362722,4605833.5216966402,-27500.0,145.69421646371606,-1017.1218167058805,-1977.8436666758014,-349.2482511394665,-879.51871076444093,-262.53713907036973,1650.5825517304731,-1219.7358586217545,768.08252575078473,-768.08252575078473,1219.7358586217545,3098.2840594095319,0.0
332154.6038362722,4605833.5216966402,-27500.0,319.35642259122329,-888.5729609877427,-2123.2061267490562,-291.33400354781696,-917.11865435718892,-263.74249875826501,1694.3438115178419,-1109.2053014468017,716.8176461322746,-716.8176461322746,1109.2053014468017,3166.7795433286224,0.0
337154.6038362722,4605833.5216966402,-27500.0,488.25928413035484,-716.91334569173603,-2227.8654358944218,-220.12494252628258,-935.65728372648391,-258.18768742704884,1719.4604266155852,-959.07031322260923,643.07014420017435,-643.07014420017435,959.07031322260923,3196.9823848236661,0.0
342154.6038362722,4605833.5216966402,-27500.0,640.58167599636556,-505.92681573425131,-2276.0022143501105,-138.02456493314844,-930.11594996002771,-244.91280877759746,1722.4631122067426,-771.69726393050632,547.5013699377364,-547.5013699377364,771.69726393050632,3182.5034696027242,0.0
347154.6038362722,4605833.5216966402,-27500.0,764.06431978413877,-264.56974988621482,-2253.0833336751575,-49.100057360997312,-896.3676437279853,-223.38569397053709,1700.6153708187419,-553.53921602417392,432.93185577699728,-432.93185577699728,553.53921602417392,3118.7503528274419,0.0
352154.6038362722,4605833.5216966402,-27500.0,847.85390433774148,-7.1472224141647018,-2148.4231792160413,41.019849918390328,-832.00245454036155,-193.67847489957006,1652.3785736160903,-315.32255204743041,304.52524360815192,-304.52524360815192,315.32255204743041,3003.936058648977,0.0
357154.6038362722,4605833.5216966402,-27500.0,884.62604181234406,247.57154766232395,-1957.9008198960487,125.58155010698229,-737.12425567086211,-156.59836157069668,1577.846327953205,-71.443543045269777,169.58350430479419,-169.58350430479419,71.443543045269777,2840.0074960753318,0.0
362154.6038362722,4605833.5216966402,-27500.0,872.48897528680266,478.46221760239325,-1686.1655605246337,197.4917958194178,-614.91203905277814,-113.73070059384162,1479.0440485022236,161.5502409480965,36.868883568200232,-36.868883568200232,-161.5502409480965,2633.2650060917013,0.0
367154.6038362722,4605833.5216966402,-27500.0,816.05779778357135,665.18652147547368,-1347.5713416814738,250.36109154535214,-471.7329824261239,-67.361530685347375,1359.997061926,367.25624035750468,-84.508827673039463,84.508827673039463,-367.25624035750468,2394.4490671709705,0.0
372154.6038362722,4605833.5216966402,-27500.0,726.18492452514874,791.75098394742508,-965.24129392477096,279.60222303527644,-316.65824151708335,-20.268487076284035,1226.4992500468757,532.04752931586108,-186.44940841698451,186.44940841698451,-532.04752931586108,2138.1073111055912,0.0
377154.6038362722,4605833.5216966402,-27500.0,618.18664280122312,849.56021157755617,-568.13988489879421,283.30839674590771,-160.37993115804682,24.599424120825251,1085.5909254745802,647.3712269449004,-263.14750188486551,263.14750188486551,-647.3712269449004,1881.1544119830721,0.0
382154.6038362722,4605833.5216966402,-27500.0,508.91593014434017,839.04293817474365,-186.67802582987235,262.65138251852147,-13.715117440866228,64.498726162843582,944.87152839180885,711.05016467370513,-311.96184792646113,311.96184792646113,-711.05016467370513,1640.6475543579561,0.0
387154.6038362722,4605833.5216966402,-27500.0,413.47851699850105,769.31417958543125,152.07300593528592,221.66008759879821,113.96402087245509,97.248038321357171,811.98868406992096,727.19938754521559,-333.62769001336272,333.62769001336272,-727.19938754521559,1430.931886975414,0.0
392154.6038362722,4605833.5216966402,-27500.0,342.5403934295814,655.97359043475933,428.30990643507732,166.42664532818759,215.99182782840043,121.48639701205421,695.40717073265239,704.82136454914303,-331.77618948666878,331.77618948666878,-704.82136454914303,1260.6093448206552,0.0
397154.6038362722,4605833.5216966402,-27500.0,300.94163651193395,517.74996368609652,631.62395823583086,103.96440607606731,289.07424469986529,136.77940021928404,609.81757695440342,655.57187089291915,-311.94314679473052,311.94314679473052,-655.57187089291915,1130.4416003896242,0.0
402154.6038362722,4605833.5216966402,-27500.0,287.8271915204557,372.99473383270418,761.02344278127066,41.029084787133122,333.26339883843906,143.56157189655238,566.28926992089544,591.38911393299668,-280.38164228520174,280.38164228520174,-591.38911393299668,1033.7369406269911,0.0
407154.6038362722,4605833.5216966402,-27500.0,297.99035055330216,236.9217098591742,823.21424156124715,-16.814049081286743,351.35310450863807,142.94662263309007,539.39135340376049,522.60173756959477,-242.99820773690104,242.99820773690104,-522.60173756959477,959.64691527584,0.0
412154.6038362722,4605833.5216966402,-27500.0,323.81603852766068,120.07924722184998,829.91352314452968,-65.716273421970257,347.94076810747839,136.46551446361954,512.82655183433189,456.8448242188291,-204.62334109865887,204.62334109865887,-456.8448242188291,897.47078432906869,0.0
417154.6038362722,4605833.5216966402,-27500.0,357.19498670943221,28.076184960918603,795.03013338493258,-103.6489560855249,328.42952108271282,125.7986211847164,483.42225630463406,398.79775716856579,-168.68105859834736,168.68105859834736,-398.79775716856579,839.4935026649664,0.0
422154.6038362722,4605833.5216966402,-27500.0,390.97443213203974,-37.755990194190019,732.32763299728117,-130.18042201815175,298.18248869493749,112.55333058065662,451.20539958053848,350.53231990775998,-137.19897101796789,137.19897101796789,-350.53231990775998,781.62395859073115,0.0
427154.6038362722,4605833.5216966402,-27500.0,419.77785696751187,-79.20963113361384,653.86282499849915,-146.07064501779317,261.93915422735927,98.113998708555911,417.10897101528656,312.18006925315478,-111.03783787549085,111.03783787549085,-312.18006925315478,722.65402683311925,0.0
432154.6038362722,4605833.5216966402,-27500.0,440.24392949671244,-99.954373780124712,569.20872405470539,-152.81992835188464,223.50817152207577,83.567233666022361,382.35948335888332,282.66325972028983,-90.214709105171124,90.214709105171124,-282.66325972028983,663.1372788606393,0.0
437154.6038362722,4605833.5216966402,-27500.0,450.85240804526489,-104.46123389412429,485.29971790534427,-152.26736393255825,185.68843072373349,69.68931413143865,348.18601372107923,260.32435818781516,-74.22413860961251,74.22413860961251,-260.32435818781516,604.42951859809091,0.0
442154.6038362722,4605833.5216966402,-27500.0,451.52816580832081,-97.216605423834864,406.67701302931459,-146.28694617069138,150.34404632721345,56.975232657610498,315.6281310842711,243.38227241981153,-62.302939266213599,62.302939266213599,-243.38227241981153,548.04224549540527,0.0
447154.6038362722,4605833.5216966402,-27500.0,443.18106332869229,-82.236741041668807,335.9326772632449,-136.59096246021448,118.56166894163354,45.689687890027272,285.41523311624002,230.21203077658754,-53.619420790585664,53.619420790585664,-230.21203077658754,495.27954450653061,0.0
307154.6038362722,4610833.5216966402,-27500.0,-583.46694466855388,-1302.4286392614415,-1281.976072712672,-537.23722453494122,-700.28067203767262,-248.4341541828754,1513.316153503134,-1477.2264720550888,895.56472385436552,-895.56472385436552,1477.2264720550888,2874.0558591095228,0.0
312154.6038362722,4610833.5216966402,-27500.0,-459.64533874841271,-1339.8694604531468,-1491.3010497674468,-537.92256610435288,-783.18976879926345,-269.0121770590643,1616.0746027217174,-1517.3552567067184,928.47034829722475,-928.47034829722475,1517.3552567067184,3064.5250063874059,0.0
317154.6038362722,4610833.5216966402,-27500.0,-307.6954241040342,-1348.0202055913981,-1713.6768899588451,-525.72181740873384,-866.67586841972297,-287.56944771409985,1715.39211340054,-1530.9911943052311,947.570605774059,-947.570605774059,1530.9911943052311,3246.458467574977,0.0
322154.6038362722,4610833.5216966402,-27500.0,-129.49303628608618,-1318.174381917308,-1941.0961589418248,-498.0442080482477,-946.80434430601349,-302.66717294536028,1807.6006446092886,-1510.5872310156853,948.51580607993515,-948.51580607993515,1510.5872310156853,3412.3866942389786,0.0
327154.6038362722,4610833.5216966402,-27500.0,70.07599808371441,-1241.9678445856018,-2161.79336233817,-452.7668057670158,-1018.4236413929272,-312.64544444046152,1888.3463547617164,-1448.8385700465335,926.96586294649819,-926.96586294649819,1448.8385700465335,3553.5247495441631,0.0
332154.6038362722,4610833.5216966402,-27500.0,282.5565294306021,-1112.7126729390868,-2360.0188095098092,-388.70920395336248,-1075.2483278505688,-315.72393784710749,1952.7225099675352,-1339.7301668826208,879.13287115616515,-879.13287115616515,1339.7301668826208,3660.094622248514,0.0
337154.6038362722,4610833.5216966402,-27500.0,495.78492069701895,-927.12692455534693,-2516.4529654653429,-306.17945907969181,-1110.1823805103641,-310.16694631841665,1995.5379199587662,-1179.8893551054296,802.49785091630372,-802.49785091630372,1179.8893551054296,3721.9433212652098,0.0
342154.6038362722,4610833.5216966402,-27500.0,694.45495409877981,-687.25286126833896,-2609.5655902147623,-207.5032452155377,-1115.9518854446167,-294.51061584910678,2011.7448239901719,-970.08703654457724,696.63099511861935,-696.63099511861935,970.08703654457724,3729.5053563754827,0.0
347154.6038362722,4610833.5216966402,-27500.0,861.62542615572045,-402.14645151650393,-2618.1294885808484,-97.395962107209542,-1086.0715652119061,-267.83441350689304,1997.0274864706494,-716.57550707652399,563.96603493916928,-563.96603493916928,716.57550707652399,3675.1065192688347,0.0
352154.6038362722,4610833.5216966402,-27500.0,981.21506051693927,-88.726786633451368,-2524.8257391336101,16.999916601734348,-1016.0761936060068,-230.03751366722253,1948.5037929448367,-431.8058600002293,410.30008375615847,-410.30008375615847,431.8058600002293,3554.5000712676169,0.0
357154.6038362722,4610833.5216966402,-27500.0,1041.1908852468312,228.88075970186713,-2320.4536915678868,126.57931853274641,-904.82614621152004,-182.06282960479251,1865.4416391483546,-134.02912645155337,244.75882456471911,-244.75882456471911,134.02912645155337,3368.4146030226766,0.0
362154.6038362722,4610833.5216966402,-27500.0,1036.7355325864387,521.96477707744179,-2007.7569357069003,221.32430918206123,-755.56544225982691,-126.00120127426055,1749.8312822007915,154.56291709207903,79.021041642783231,-79.021041642783231,-154.56291709207903,3123.7606055141532,0.0
367154.6038362722,4610833.5216966402,-27500.0,972.36530607147699,761.71694129607476,-1603.5527398955953,291.85323117327795,-576.34583991978877,-65.015032414745974,1606.6303058956614,411.09645463150213,-74.222570975563315,74.222570975563315,-411.09645463150213,2834.078618346402,0.0
372154.6038362722,4610833.5216966402,-27500.0,862.01353116294763,924.72699591336891,-1137.9896318455621,331.17115272401537,-379.50177617549548,-3.0510925941106426,1443.5408394298011,616.05237627983036,-203.32881645501251,203.32881645501251,-616.05237627983036,2518.8619084941365,0.0
377154.6038362722,4610833.5216966402,-27500.0,726.62596839050389,997.96045400672187,-650.48818421092642,336.15541305916071,-180.09277298389449,55.637996513040306,1270.2942549152444,756.98175675970344,-299.77153474499312,299.77153474499312,-756.98175675970344,2201.5262943048228,0.0
382154.6038362722,4610833.5216966402,-27500.0,589.72947901560838,981.56633241258771,-183.09311582865399,308.29623955167216,6.420582596460461,107.08273063623609,1097.640979874305,830.70828275071801,-359.60953330893255,359.60953330893255,-830.70828275071801,1906.0123595435421,0.0
387154.6038362722,4610833.5216966402,-27500.0,472.30044886364999,888.48036930021146,226.96727655593003,253.40606535550577,166.69134012555625,148.16814882933224,936.65394495761939,843.27125758450393,-383.89326937840991,383.89326937840991,-843.27125758450393,1652.2480801430058,0.0
392154.6038362722,4610833.5216966402,-27500.0,388.59253170290822,740.95022641525452,553.3333392509204,180.35603538422077,291.50503207795799,177.04917331138003,800.26647591678397,807.69004514322626,-377.91834696621538,377.91834696621538,-807.69004514322626,1451.3001459371815,0.0
397154.6038362722,4610833.5216966402,-27500.0,344.15871454590661,565.23121183179808,783.55372331381398,99.234755248977464,376.78433756583757,193.31093354474399,708.64211439592634,740.41918801033307,-349.64094091950477,349.64094091950477,-740.41918801033307,1302.3078278034088,0.0
402154.6038362722,4610833.5216966402,-27500.0,336.36410589549462,386.21762098404605,918.68476821699801,19.489128113696427,423.4289453713078,197.85177298997249,662.46987966737424,657.71684135381679,-307.81628116391727,307.81628116391727,-657.71684135381679,1193.9218816677762,0.0
407154.6038362722,4610833.5216966402,-27500.0,356.75432918457119,223.49063482425257,970.21298050751193,-51.466745122709604,436.22278957083034,192.54854596559258,629.4727973475284,572.93896040050879,-260.4048640102435,260.4048640102435,-572.93896040050879,1110.2658015017632,0.0
412154.6038362722,4610833.5216966402,-27500.0,394.16772154838156,89.471274165517272,955.72089780866156,-108.92900725141872,422.2718270185199,179.81657252816814,595.32895741190873,495.22251137373161,-213.57713916726021,213.57713916726021,-495.22251137373161,1037.405587832963,0.0
417154.6038362722,4610833.5216966402,-27500.0,437.55220653382247,-10.472139892966904,894.67807031730638,-150.89399871762964,389.44734220760131,162.18136751535567,557.43767985083866,429.4487096939618,-171.37076244749193,171.37076244749193,-429.4487096939618,966.60021607442525,0.0
422154.6038362722,4610833.5216966402,-27500.0,477.87349454731935,-76.62270647958043,805.25308377464989,-177.5684201854819,345.16554818823977,141.94659982581103,516.27507662670735,377.04410866150135,-135.8547317196917,135.8547317196917,-377.04410866150135,894.21608059728317,0.0
427154.6038362722,4610833.5216966402,-27500.0,508.98082192680357,-112.99171253060901,702.44963506365457,-190.66318934126161,295.6372562299963,120.99429298642431,473.28870609315641,337.11528696728863,-107.57480711141838,107.57480711141838,-337.11528696728863,820.11579669441437,0.0
432154.6038362722,4610833.5216966402,-27500.0,527.62759654663569,-125.47441250155168,597.42546593760778,-192.69008575315402,245.55974280874494,100.71026824092593,430.18569252386681,307.53466389701663,-86.075862516486367,86.075862516486367,-307.53466389701663,745.95356530177014,0.0
437154.6038362722,4610833.5216966402,-27500.0,532.97609636210723,-120.41530054093661,497.64072602636872,-186.39292004826021,198.13568208171807,82.002977256885927,388.54110308725427,285.77545455969846,-70.367005564484515,70.367005564484515,-285.77545455969846,673.93603677546184,0.0
442154.6038362722,4610833.5216966402,-27500.0,525.89527082405118,-103.67637945063787,407.45916313799978,-174.36035395366511,155.28374520175646,65.377212535235216,349.55605855483344,269.44510162526467,-59.26869836258517,59.26869836258517,-269.44510162526467,606.09580587827031,0.0
447154.6038362722,4610833.5216966402,-27500.0,508.26902112577028,-80.153241586546315,328.90621176151836,-158.8100399073542,117.92741638966703,51.029412915289804,313.94875214615456,256.55744921800027,-51.634690576420596,51.634690576420596,-256.55744921800027,543.95168476981007,0.0
452154.6038362722,4610833.5216966402,-27500.0,482.4303691249487,-53.620394164805823,262.39647746917905,-141.5050676046543,86.285012322488456,38.941624001755017,281.9744243206062,245.61863630453976,-46.469946710583912,46.469946710583912,-245.61863630453976,488.41215031177785,0.0
302154.6038362722,4615833.5216966402,-27500.0,-865.71371224597726,-1376.2735754623016,-1067.7617035707322,-622.84334387117826,-670.2370902070877,-259.71003007505766,1552.1360332389233,-1561.2008033362372,956.8093997160255,-956.8093997160255,1561.2008033362372,2953.7006124775357,0.0
307154.6038362722,4615833.5216966402,-27500.0,-773.07933995611336,-1464.5553666332623,-1281.3407670139627,-644.99088125587059,-765.83126937809141,-286.58139633835737,1678.4172296147699,-1648.3195959031932,1017.8181776665469,-1017.8181776665469,1648.3195959031932,3191.3285074475448,0.0
312154.6038362722,4615833.5216966402,-27500.0,-646.01442473458394,-1533.1957505162904,-1521.4271006575855,-656.2098952450981,-868.00081936903155,-312.90993832817054,1806.66893334413,-1717.2689621462273,1070.016435333142,-1070.016435333142,1717.2689621462273,3431.1933809055499,0.0
317154.6038362722,4615833.5216966402,-27500.0,-482.1575002773298,-1572.0316317354457,-1784.3857617687245,-652.83557644853079,-973.92351530496546,-337.25588836558813,1933.6227569481971,-1759.287934151087,1108.4707164934716,-1108.4707164934716,1759.287934151087,3666.5384438843244,0.0
322154.6038362722,4615833.5216966402,-27500.0,-281.63871051537546,-1569.4382477169895,-2062.7290297006052,-631.0671499540415,-1079.2573888999814,-357.78627417745031,2054.9967837316594,-1764.4116109024753,1127.4717995931032,-1127.4717995931032,1764.4116109024753,3888.5719108702156,0.0
327154.6038362722,4615833.5216966402,-27500.0,-48.241770447584088,-1513.2328949247942,-2344.0239764257844,-587.39891725808855,-1177.905859369466,-372.31214778440403,2165.4515772224681,-1722.1835582277968,1120.8807039690041,-1120.8807039690041,1722.1835582277968,4086.4119993491772,0.0
332154.6038362722,4615833.5216966402,-27500.0,209.4917742091487,-1392.256818258192,-2610.0767071173073,-519.24463024835973,-1261.952210177285,-378.40111898057563,2258.6640947005062,-1622.8899822597975,1082.7525478615964,-1082.7525478615964,1622.8899822597975,4247.2970754489916,0.0
337154.6038362722,4615833.5216966402,-27500.0,477.55679664265415,-1198.6963560911629,-2836.826707806069,-425.73312516585952,-1321.8983202479089,-373.58397009030642,2327.5832145636127,-1459.3629832936069,1008.2736910244837,-1008.2736910244837,1459.3629832936069,4357.1988884218836,0.0
342154.6038362722,4615833.5216966402,-27500.0,736.64705223481712,-930.98717947543992,-2995.4972647805189,-308.58140281621559,-1347.352262940286,-355.66059494988195,2364.9289634104975,-1229.237747821825,894.97041493091285,-894.97041493091285,1229.237747821825,4401.9700832855724,0.0
347154.6038362722,4615833.5216966402,-27500.0,963.68439549068432,-596.79649191628914,-3055.5151943683659,-172.85545792035117,-1328.2696030565933,-323.08720084072218,2363.9706092183465,-937.28722771884429,744.01910247606349,-744.01910247606349,937.28722771884429,4369.0948963752944,0.0
352154.6038362722,4615833.5216966402,-27500.0,1135.0232076300472,-215.17323721016953,-2989.4116691208046,-27.336570701372413,-1256.7380123142198,-275.3971489299467,2319.5631607977457,-597.1565304263105,561.33215566498063,-561.33215566498063,597.1565304263105,4249.9851117852586,0.0
357154.6038362722,4615833.5216966402,-27500.0,1231.1401420964894,183.32910966077876,-2779.246013150741,115.8317787854302,-1129.0858808064049,-213.57509781773561,2229.3190577120113,-231.60388687489566,357.9645902818412,-357.9645902818412,231.60388687489566,4042.5385231557598,0.0
362154.6038362722,4615833.5216966402,-27500.0,1241.8584835425222,559.61947909091964,-2423.1616095726058,242.46011583733676,-947.83761295573163,-140.28175665973319,2094.6765105338791,129.54999684884575,149.39229635118608,-149.39229635118608,-129.54999684884575,3753.4228650300142,0.0
367154.6038362722,4615833.5216966402,-27500.0,1170.416037675237,872.39534355479907,-1939.8513503073873,338.5820271174087,-722.82974788463798,-59.821914979443171,1921.5312948600367,453.98132294521326,-46.550432605426892,46.550432605426892,-453.98132294521326,3399.3326504197657,0.0
372154.6038362722,4615833.5216966402,-27500.0,1034.489963845544,1086.7140354855019,-1368.6273158075417,393.27076512291018,-470.82532083481874,22.218359613885902,1720.1337548236525,713.13265233167408,-212.80904231747735,212.80904231747735,-713.13265233167408,3006.4790692356396,0.0
377154.6038362722,4615833.5216966402,-27500.0,863.04332963189665,1182.2897637720152,-763.87059757739291,401.21604478891288,-213.31406612927992,99.667344047467893,1504.1294409990328,888.37056967065928,-336.51506124896167,336.51506124896167,-888.37056967065928,2607.7775349987946,0.0
382154.6038362722,4615833.5216966402,-27500.0,689.51123675754343,1158.4787804231671,-184.78686316310359,364.150246590699,27.157364881051226,166.68957990111355,1289.0344433111068,974.83404712916172,-411.54817266358583,411.54817266358583,-974.83404712916172,2237.6071368688272,0.0
387154.6038362722,4615833.5216966402,-27500.0,543.57721052391923,1033.8993579204405,316.46517398421014,290.5155980934461,231.12965910881633,218.72410451538258,1091.1934212284193,981.49252897866813,-439.34481174660044,439.34481174660044,-981.49252897866813,1924.4832319959844,0.0
392154.6038362722,4615833.5216966402,-27500.0,444.53677299453756,840.80784434272437,704.33811780296367,193.41785603999091,385.57153196815761,253.18474928511051,930.13191956342564,927.49020444830046,-427.72112537044916,427.72112537044916,-927.49020444830046,1683.1301084753948,0.0
397154.6038362722,4615833.5216966402,-27500.0,398.45635649612655,616.51256724946063,964.26813380961187,87.585177275189352,485.44309549462702,269.72629970504556,830.04783532803935,836.37798486903648,-388.27547990360017,388.27547990360017,-836.37798486903648,1509.8983742455862,0.0
402154.6038362722,4615833.5216966402,-27500.0,399.51284602777383,395.01294413791129,1101.2870064855865,-13.630422738051632,533.23465941859115,270.02583003043884,777.6631844558483,730.44805477256091,-333.40052487259686,333.40052487259686,-730.44805477256091,1386.2918707607059,0.0
407154.6038362722,4615833.5216966402,-27500.0,434.18564117931743,201.36118433286936,1134.5068198442855,-100.34654894149077,536.97869605298763,257.19288999226234,735.90179764078709,626.87936278334939,-273.8679458201824,273.8679458201824,-626.87936278334939,1289.4237428989109,0.0
412154.6038362722,4615833.5216966402,-27500.0,486.2481668968656,49.638614126651689,1090.1017409387919,-166.97491291951923,507.62059383116468,235.02071827238063,691.48478473443095,536.27924323889067,-217.49314191255314,217.49314191255314,-536.27924323889067,1201.4694357702601,0.0
417154.6038362722,4615833.5216966402,-27500.0,540.85875978340005,-56.043576620707078,995.07732235807941,-211.92245727856505,456.58590517895811,207.29463574061654,642.3408003387641,463.20317781557753,-168.87351685424161,168.87351685424161,-463.20317781557753,1112.9504220528315,0.0
422154.6038362722,4615833.5216966402,-27500.0,586.94613996833516,-118.84713952439742,873.05800650400465,-236.60747843217388,394.04717547962025,177.29769726985231,589.61002120036665,407.76057119395364,-129.86698734645643,129.86698734645643,-407.76057119395364,1021.2834479818033,0.0
427154.6038362722,4615833.5216966402,-27500.0,617.92363473155444,-146.11470596806464,742.26431043704326,-244.26315761272778,328.01573948215042,147.55558179691459,535.46847482034173,367.45839047896408,-100.39910619532151,100.39910619532151,-367.45839047896408,927.9103183141566,0.0
432154.6038362722,4615833.5216966402,-27500.0,631.2345174622285,-146.73945258575461,615.20341989818701,-238.86957717124889,264.12359122930724,119.78774386393057,482.22474942275431,338.74672862172804,-79.278397431198556,79.278397431198556,-338.74672862172804,835.87857075526279,0.0
437154.6038362722,4615833.5216966402,-27500.0,627.32352735766881,-129.3507553403816,499.38893855179066,-224.37832422741809,205.85198357468136,94.99521651804487,431.80311618735487,318.06081206521395,-64.844858904821351,64.844858904821351,-318.06081206521395,748.32770513518244,0.0
442154.6038362722,4615833.5216966402,-27500.0,608.50020287819007,-101.30867844975418,398.49182077514814,-204.25231523127491,154.97319133209641,73.614310309934496,385.48027773167951,302.38067634403666,-55.401034994672671,55.401034994672671,-302.38067634403666,667.73749155544294,0.0
447154.6038362722,4615833.5216966402,-27500.0,577.96559178797168,-68.32255549520967,313.52239634472062,-181.26457120251058,112.03615911180208,55.683013739477822,343.8458028772834,289.43285923622688,-49.449133742203188,49.449133742203188,-289.43285923622688,595.67270629028235,0.0
452154.6038362722,4615833.5216966402,-27500.0,539.10615146062696,-34.468742110588082,243.83504198791624,-157.47312889224409,76.798815510482854,40.988366038676823,306.93439567103269,277.67364917928717,-45.786983557374015,45.786983557374015,-277.67364917928717,532.80238438104129,0.0
297154.6038362722,4620833.5216966402,-27500.0,-1134.8597979772085,-1375.0097872439546,-817.39729781704114,-688.76304482388889,-614.49308867977061,-263.45353898124023,1558.3565739772207,-1577.1920755671949,980.18338624028274,-980.18338624028274,1577.1920755671949,2968.4064927987947,0.0
302154.6038362722,4620833.5216966402,-27500.0,-1088.1145055039174,-1506.0189605421494,-1015.1658401954725,-733.40852226459845,-715.97351988100536,-295.69361077350868,1704.0965880623751,-1704.7864148162851,1066.0675661637545,-1066.0675661637545,1704.7864148162851,3245.1878357320552,0.0
307154.6038362722,4620833.5216966402,-27500.0,-1006.2898677869316,-1630.484248271134,-1248.3818217778578,-771.11455297157318,-829.53212618714429,-329.15050786190039,1857.7667496507511,-1825.5422081051397,1149.9306102249298,-1149.9306102249298,1825.5422081051397,3536.2008534357087,0.0
312154.6038362722,4620833.5216966402,-27500.0,-883.06175369650123,-1739.1717443460841,-1518.4648733937001,-797.85911275828232,-954.10376812021229,-362.61423994769393,2017.100106388089,-1931.4246258465164,1227.3581721780465,-1227.3581721780465,1931.4246258465164,3836.6823264920113,0.0
317154.6038362722,4620833.5216966402,-27500.0,-713.20469023612225,-1820.0025912449648,-1824.0410342150735,-808.86157872279944,-1087.2020311636527,-394.36680385052767,2178.6923458392212,-2012.0716383795282,1292.5654483419619,-1292.5654483419619,2012.0716383795282,4139.542960237276,0.0
322154.6038362722,4620833.5216966402,-27500.0,-493.90398156271118,-1858.133181199416,-2159.3904068676734,-798.79890357677891,-1224.4222963612283,-422.13392348601997,2337.7710242217031,-2054.8596686173487,1338.385138528497,-1338.385138528497,2054.8596686173487,4434.9040275241796,0.0
327154.6038362722,4620833.5216966402,-27500.0,-226.44239741762092,-1836.6648701134277,-2512.645441282426,-762.25826740915011,-1358.9540108850645,-443.09965601541001,2488.0129134724029,-2045.4546121811745,1356.5010281630666,-1356.5010281630666,2045.4546121811745,4709.7491213998928,0.0
332154.6038362722,4620833.5216966402,-27500.0,81.91382680986564,-1738.3049063549938,-2864.03619686717,-694.49257667318682,-1481.2290153288147,-454.01835996740556,2621.4789530154862,-1969.094034577603,1338.0601446991559,-1338.0601446991559,1969.094034577603,4947.8485485706551,0.0
337154.6038362722,4620833.5216966402,-27500.0,416.23912283028716,-1548.2527689360559,-3184.7564666424978,-592.50565795951604,-1578.9039165783604,-451.45618314502337,2728.7675298400359,-1812.8138843295128,1274.787811266985,-1274.787811266985,1812.8138843295128,5130.1811777603662,0.0
342154.6038362722,4620833.5216966402,-27500.0,753.17987722060593,-1258.3479756326294,-3437.3230024541431,-456.40403980976146,-1637.4360414708615,-432.17823413941409,2799.5081360149688,-1568.6555360684963,1160.6552492439712,-1160.6552492439712,1568.6555360684963,5236.1211648846411,0.0
347154.6038362722,4620833.5216966402,-27500.0,1062.0112632635639,-872.01134689904461,-3578.4816194961913,-290.8015607132989,-1641.5230067321309,-393.671393868081,2823.3183342778584,-1237.513612693501,993.97529168741437,-993.97529168741437,1237.513612693501,5245.6460554097821,0.0
352154.6038362722,4620833.5216966402,-27500.0,1308.3739377525455,-408.74340205675878,-3565.4829806443149,-105.86500848032208,-1577.5592035667335,-334.75244762683059,2791.2757684442681,-832.70359942890627,779.51414674505077,-779.51414674505077,832.70359942890627,5142.654713925861,0.0
357154.6038362722,4620833.5216966402,-27500.0,1460.9251508844736,93.831996559664432,-3365.6451885403844,82.581573946718592,-1436.9624375788003,-256.16714931883217,2697.8074695585146,-381.74081923334046,529.88422053460499,-529.88422053460499,381.74081923334046,4919.1438343939571,0.0
362154.6038362722,4620833.5216966402,-27500.0,1499.8419261984461,582.63154204009027,-2967.4432700393618,254.48286666740665,-1219.7263731043711,-161.04133625674652,2542.6527577076668,75.371060232987958,265.3012762855966,-265.3012762855966,-75.371060232987958,4579.4531802765368,0.0
367154.6038362722,4620833.5216966402,-27500.0,1424.5074216852477,997.7567427752075,-2389.4764541844279,388.76975663434877,-937.02476487995921,-55.010301259477728,2332.3175652005011,492.3233324958079,11.020633302657387,-11.020633302657387,-492.3233324958079,4143.2615790947357,0.0
372154.6038362722,4620833.5216966402,-27500.0,1256.782838933148,1285.9640465443165,-1682.7980729245025,467.91802344773106,-611.48170799424531,54.143063662028368,2080.3736545917759,826.34306082336752,-207.43854159703255,207.43854159703255,-826.34306082336752,3645.8062885793242,0.0
377154.6038362722,4620833.5216966402,-27500.0,1037.1702664913466,1414.8200289722961,-923.56456398268597,482.53927231240976,-274.19610297018932,157.43304331824385,1806.2310095403398,1048.6768919055826,-370.03590139847972,370.03590139847972,-1048.6768919055826,3134.1214625309826,0.0
382154.6038362722,4620833.5216966402,-27500.0,814.16502323727468,1381.8183874712172,-196.9163058340641,434.22945100397436,41.155756596183856,246.10480237073136,1532.7542171088999,1151.5510807766168,-466.84997743206975,466.84997743206975,-1151.5510807766168,2658.8787092574617,0.0
387154.6038362722,4620833.5216966402,-27500.0,630.6889007104653,1214.2405136768257,422.53338132572804,335.33012373229178,305.38423165488445,313.22553751964512,1284.4717687595073,1148.5537212211932,-499.74004298787736,499.74004298787736,-1148.5537212211932,2262.3632541234183,0.0
392154.6038362722,4620833.5216966402,-27500.0,513.22195562676086,959.77141550175565,886.23439370495316,205.54314296151495,499.53474904517111,354.94418540812529,1090.3542667041463,1068.446528696305,-480.44908027715672,480.44908027715672,-1068.446528696305,1965.2129823198159,0.0
397154.6038362722,4620833.5216966402,-27500.0,467.72190906496633,672.21332842522759,1177.9661513559981,66.754237737642086,617.40109640839717,370.99715192706736,976.8332088882097,945.48957565851492,-426.20227842758044,426.20227842758044,-945.48957565851492,1759.2708055439848,0.0
402154.6038362722,4620833.5216966402,-27500.0,482.73426576562798,398.25254940177052,1310.225869906579,-61.929682728899522,664.39906242229608,364.32643606556184,914.10804964492991,810.44384198910939,-354.77943075864277,354.77943075864277,-810.44384198910939,1615.0367588900297,0.0
407154.6038362722,4620833.5216966402,-27500.0,536.86003097551816,169.52279920804168,1314.2755947684063,-167.35530469865964,653.89199530830808,340.02745565685137,860.1159823559168,685.15290523044655,-280.80977714977598,280.80977714977598,-685.15290523044655,1499.7000653528476,0.0
412154.6038362722,4620833.5216966402,-27500.0,606.75117053466965,0.91367235406880276,1228.7719624347271,-243.20202625567163,602.71656685794699,304.05077225978499,801.88234526375845,581.28788104955777,-214.05067848100987,214.05067848100987,-581.28788104955777,1390.7082005677357,0.0
417154.6038362722,4620833.5216966402,-27500.0,672.90528002656583,-106.54201936008722,1090.7051042084549,-289.02939118634191,527.3876867122575,262.06774663122678,738.01076763638901,502.07774741351949,-159.43229888251375,159.43229888251375,-502.07774741351949,1278.3086129790468,0.0
422154.6038362722,4620833.5216966402,-27500.0,722.37179380805298,-160.78022699462204,930.13721800938799,-308.39740667414389,441.70517718792541,218.73459967079677,670.62037505025796,445.28708931655274,-118.14366663429209,118.14366663429209,-445.28708931655274,1161.7415402173988,0.0
427154.6038362722,4620833.5216966402,-27500.0,748.88860445363844,-173.92184931559194,768.43010547365873,-306.89141960411547,355.77963636056211,177.39056646769868,602.85173973417955,406.08098931292557,-89.02821700478043,89.02821700478043,-406.08098931292557,1044.6007445003336,0.0
432154.6038362722,4620833.5216966402,-27500.0,751.52872580053554,-158.70107577101047,618.80706065116385,-290.5526458130692,276.09572425896255,140.09165390401185,537.67983737396776,379.10453205851837,-69.81021139959222,69.81021139959222,-379.10453205851837,931.57208425062311,0.0
437154.6038362722,4620833.5216966402,-27500.0,732.85247898109935,-126.34878420353947,488.03915947003435,-264.87838795987716,206.1393648594356,107.83563120740897,477.28343883012911,359.66570121347809,-57.955413687085922,57.955413687085922,-359.66570121347809,826.69293720518147,0.0
442154.6038362722,4620833.5216966402,-27500.0,697.20629140867186,-85.682376412038195,378.38215690333652,-234.33677411415738,147.20952898990484,80.853323820471374,422.84125489387651,344.209096938176,-51.164255844817291,51.164255844817291,-344.209096938176,732.6725900581888,0.0
447154.6038362722,4620833.5216966402,-27500.0,649.45127228707531,-42.994683925008466,289.28240884962622,-202.24851893620001,99.181336631601383,58.884449359174347,374.65306971113779,330.34533904299406,-47.584826816796408,47.584826816796408,-330.34533904299406,650.8124403515634,0.0
452154.6038362722,4620833.5216966402,-27500.0,594.1613229888975,-2.3695207651693311,218.67173068694038,-170.88274814283662,61.115430875467773,41.39902843631895,332.43119184763833,316.66211949637704,-45.849560331898914,45.849560331898914,-316.66211949637704,581.21164129985914,0.0
457154.6038362722,4620833.5216966402,-27500.0,535.20968807376369,33.84098757001464,163.84811482211646,-141.64877591235833,31.692465614881314,27.755240488737385,295.59927562870712,302.46766069998273,-45.020676569404031,45.020676569404031,-302.46766069998273,523.07968231890197,0.0
292154.6038362722,4625833.5216966402,-27500.0,-1364.2925333217781,-1299.8565939464088,-557.22746446241752,-729.24595075428522,-538.61728139352954,-259.4345599709734,1531.9839143714476,-1524.8117391060946,963.94269208934065,-963.94269208934065,1524.8117391060946,2918.0437080872089,0.0
297154.6038362722,4625833.5216966402,-27500.0,-1371.5827737610348,-1458.935666829808,-722.81090244237453,-794.49434296139032,-638.5677035988798,-295.51996527936609,1691.3560837701075,-1680.6421403160475,1068.0317931265558,-1068.0317931265558,1680.6421403160475,3222.2890289315628,0.0
302154.6038362722,4625833.5216966402,-27500.0,-1349.184569429395,-1625.0339764997548,-926.65455865352931,-858.15620017578931,-754.58108133653172,-334.60197886177843,1864.3695866159128,-1841.5542548583351,1177.3379049308621,-1177.3379049308621,1841.5542548583351,3552.308846529661,0.0
307154.6038362722,4625833.5216966402,-27500.0,-1288.3476466925308,-1791.9257788982541,-1174.4374179823906,-916.72232999852201,-887.55460106126259,-375.89787069259944,2050.197642655306,-2001.9665708861301,1288.9666514026396,-1288.9666514026396,2001.9665708861301,3906.2764575802371,0.0
312154.6038362722,4625833.5216966402,-27500.0,-1179.6917906346109,-1950.1219251055747,-1470.8292104719419,-965.51643224490226,-1037.4493692149122,-418.09744798809652,2247.0100240932584,-2153.6082049609477,1398.4942393641031,-1398.4942393641031,2153.6082049609477,4280.3050877305432,0.0
317154.6038362722,4625833.5216966402,-27500.0,-1014.1182477298368,-2086.13833750914,-1818.1088325279475,-998.61627495211303,-1202.7139078643984,-459.23803862444606,2451.6228719195533,-2284.939279612468,1499.6077614070805,-1499.6077614070805,2284.939279612468,4667.718552644069,0.0
322154.6038362722,4625833.5216966402,-27500.0,-784.32440050539481,-2182.0252640372992,-2214.1515170076732,-1008.9417589032317,-1379.5512724333751,-496.60965515175076,2659.102640595956,-2380.7690997083232,1583.8281954121344,-1583.8281954121344,2380.7690997083232,5058.2255801405609,0.0
327154.6038362722,4625833.5216966402,-27500.0,-487.02837155395923,-2215.5358108333107,-2649.7647323484625,-988.6251380849601,-1561.0730617452234,-526.72974724279152,2862.3625692730666,-2422.3617170196953,1640.4606161996185,-1640.4606161996185,2422.3617170196953,5437.0878461997654,0.0
332154.6038362722,4625833.5216966402,-27500.0,-125.85196363826476,-2161.4756522095895,-3105.5844741933802,-929.80037528683715,-1736.4645225108934,-545.43390350656534,3051.8297492793395,-2388.4470818407608,1656.9874286978402,-1656.9874286978402,2388.4470818407608,5784.4668902507856,0.0
337154.6038362722,4625833.5216966402,-27500.0,285.51380985558706,-1994.8695844819169,-3549.1673192465955,-825.93936810881701,-1890.4111313966387,-548.12744153102392,3215.3223833031579,-2257.6360515174279,1620.1776133437593,-1620.1776133437593,2257.6360515174279,6075.2771917457849,0.0
342154.6038362722,4625833.5216966402,-27500.0,720.749281414096,-1696.4366004499761,-3933.5185783527963,-673.78308297055526,-2003.1931460848725,-530.2260393971028,3338.3485089137448,-2012.6390143561434,1518.1673132484934,-1518.1673132484934,2012.6390143561434,6280.0290622750772,0.0
347154.6038362722,4625833.5216966402,-27500.0,1140.4486593584072,-1260.2583050344201,-4198.927806389499,-475.72048478639965,-2051.9983848927882,-487.78802536156775,3405.1052695625731,-1646.234518740896,1343.5876801225736,-1343.5876801225736,1646.234518740896,6367.2680287041476,0.0
352154.6038362722,4625833.5216966402,-27500.0,1495.6237589907457,-702.26119292633371,-4280.1712504077796,-242.11724597757842,-2013.9964785596228,-418.30583537299947,3400.4343924672703,-1167.969001923997,1097.3704462095848,-1097.3704462095848,1167.969001923997,6308.1209216318839,0.0
357154.6038362722,4625833.5216966402,-27500.0,1736.5289920289902,-66.389136880815812,-4120.1647760688902,7.3554375527938038,-1871.3724570837346,-321.58943359195439,3312.7841114896264,-609.22406269336375,792.16290905553728,-792.16290905553728,609.22406269336375,6082.9625569357504,0.0
362154.6038362722,4625833.5216966402,-27500.0,1826.1944788833703,575.97863542184143,-3688.4126550762371,244.66248184201308,-1617.6615412533267,-200.61471547622591,3137.7747351920525,-23.260765326115148,453.60710762037456,-453.60710762037456,23.260765326115148,5689.2100375596292,0.0
367154.6038362722,4625833.5216966402,-27500.0,1754.7630959024211,1137.0917838817645,-2998.5346885803569,437.64332382326904,-1263.4829276591831,-62.105146455236628,2881.3636119350213,522.62951316628903,117.68327454190171,-117.68327454190171,-522.62951316628903,5147.9539415184217,0.0
372154.6038362722,4625833.5216966402,-27500.0,1547.8718134322573,1534.0557643169311,-2116.136660407607,557.3806605271734,-838.81775666977035,83.517860210665646,2561.2414990308157,962.69227432527248,-176.47524253020663,176.47524253020663,-962.69227432527248,4506.2991308152059,0.0
377154.6038362722,4625833.5216966402,-27500.0,1262.8075691422728,1713.5745512741912,-1149.719039553295,586.61507245335281,-389.37607184135817,223.1983620550136,2205.419138343555,1251.0935560862983,-396.52575994831244,396.52575994831244,-1251.0935560862983,3832.6483272486189,0.0
382154.6038362722,4625833.5216966402,-27500.0,971.5891165001899,1669.1466363972695,-224.70622682694514,525.65538421999145,33.065147396756785,343.42732970862636,1848.3492728750225,1374.9680391404881,-525.66939040258205,525.66939040258205,-1374.9680391404881,3203.8437696993005,0.0
387154.6038362722,4625833.5216966402,-27500.0,737.82317674499814,1441.7269042730579,549.72341767814339,392.68155477227947,383.20084444430501,433.06625582969457,1527.4827995265489,1355.5814446279855,-566.168370329563,566.168370329563,-1355.5814446279855,2685.1048523747818,0.0
392154.6038362722,4625833.5216966402,-27500.0,598.32496566709199,1103.4561297419398,1106.6106362975406,217.97715944650895,632.53863211101884,485.81143570444232,1285.7646281799873,1237.3699576251252,-536.16629118960805,536.16629118960805,-1237.3699576251252,2307.359185883266,0.0
397154.6038362722,4625833.5216966402,-27500.0,557.36405907341623,733.13899124080285,1429.9485514191767,34.780287595860749,773.56024279325243,501.29761723428396,1151.1984992917719,1071.1256171616603,-461.90072496898421,461.90072496898421,-1071.1256171616603,2055.4229599311689,0.0
402154.6038362722,4625833.5216966402,-27500.0,593.58640790538834,395.00872513798009,1546.0800402616242,-129.17542396334824,817.0798213893861,484.46534518776178,1073.1007280982069,899.47486018180552,-369.3127369568204,369.3127369568204,-899.47486018180552,1882.5784170230863,0.0
407154.6038362722,4625833.5216966402,-27500.0,673.42028241437004,127.96222001603076,1505.5872748373201,-256.47928332238428,785.30242666813729,443.63331541267632,1002.3281410884953,749.54984601971273,-278.31820347367716,278.31820347367716,-749.54984601971273,1741.5776308501061,0.0
412154.6038362722,4625833.5216966402,-27500.0,763.77683418060496,-54.429958947403613,1364.9793117324816,-340.63831611189374,704.12644501895193,388.17620293208421,925.79439165074029,632.89080547783828,-200.79040906171184,200.79040906171184,-632.89080547783828,1603.9656116994011,0.0
417154.6038362722,4625833.5216966402,-27500.0,839.87504564951348,-157.29490282277635,1173.9690457768725,-383.72167531508609,597.27769592567893,326.62052719802364,843.10974780357424,549.6296512389365,-141.42342735423273,141.42342735423273,-549.6296512389365,1460.3760565750395,0.0
422154.6038362722,4625833.5216966402,-27500.0,887.69498313691111,-196.03072414773624,969.59628760688577,-392.89438169122644,483.1824471403138,265.55274783694409,757.74456750332251,493.70135041963442,-99.950875467769862,99.950875467769862,-493.70135041963442,1312.8217688824384,0.0
427154.6038362722,4625833.5216966402,-27500.0,902.72201173708072,-189.2560253345321,775.60843364347022,-377.25087496858225,374.20823264433784,209.31646216515904,673.9739077313601,457.06033637921138,-73.463203669321899,73.463203669321899,-457.06033637921138,1167.6178565537612,0.0
432154.6038362722,4625833.5216966402,-27500.0,887.06093184939584,-154.29967956314766,604.71054994935366,-345.61116399989396,277.37533481135387,160.24733641276958,595.35305847771997,432.25206830960605,-58.170616169093989,58.170616169093989,-432.25206830960605,1031.1844048946959,0.0
437154.6038362722,4625833.5216966402,-27500.0,846.43985560300837,-105.05422403471475,461.73800380268381,-305.34183187842581,195.68129596108281,119.15680781345503,524.0681237764594,413.54099473150467,-50.466030745809974,50.466030745809974,-413.54099473150467,908.20294688317847,0.0
442154.6038362722,4625833.5216966402,-27500.0,787.86458230967446,-51.473937661905623,346.61311448972555,-261.96289927851217,129.46711454546792,85.850963089039652,460.94318887181913,397.09720667021446,-47.413558678926336,47.413558678926336,-397.09720667021446,801.16728673260138,0.0
447154.6038362722,4625833.5216966402,-27500.0,718.11065289330054,0.022833260077037731,256.61970480251063,-219.23226763053873,77.543103533798259,59.568401163058347,405.82081363842275,380.7109622832823,-46.865039896957967,46.865039896957967,-380.7109622832823,710.61076980802829,0.0
452154.6038362722,4625833.5216966402,-27500.0,642.9376598771853,45.791998371564567,187.93928207996595,-179.45379954766088,37.996082494429075,39.298367874478814,358.01780768945281,363.35460810560892,-47.382295436776673,47.382295436776673,-363.35460810560892,635.59566292366083,0.0
457154.6038362722,4625833.5216966402,-27500.0,566.81134615472604,84.165077072950822,136.57720440268093,-143.84346944532155,8.706798024653633,23.985448040155116,316.67266467802983,344.76410741072436,-48.085454221115754,48.085454221115754,-344.76410741072436,574.25662790665194,0.0
462154.6038362722,4625833.5216966402,-27500.0,492.92856758057547,114.76577507593258,98.853170344016263,-112.86535418601804,-12.354228033426001,12.6454105438831,280.96161175325619,325.10903521122196,-48.494733790621581,48.494733790621581,-325.10903521122196,524.29643190553088,0.0
287154.6038362722,4630833.5216966402,-27500.0,-1533.1281363547014,-1162.5804892577694,-312.44724475339325,-741.85940009669946,-450.30946972368918,-248.26337633137965,1475.8496223323248,-1412.7386880057747,911.50354370087746,-911.50354370087746,1412.7386880057747,2808.328965048519,0.0
292154.6038362722,4630833.5216966402,-27500.0,-1594.369176330586,-1331.8975697810602,-436.10200735878948,-823.25603242406828,-542.05177517929349,-286.31276485086011,1642.0714258590974,-1581.5048159113819,1025.0533344605026,-1025.0533344605026,1581.5048159113819,3126.3526494319435,0.0
297154.6038362722,4630833.5216966402,-27500.0,-1635.9892686722433,-1519.2974925643266,-594.897397924438,-908.76495933359183,-651.71345372962082,-328.89046455014676,1826.6539530532616,-1765.3915370144193,1150.0687324219746,-1150.0687324219746,1765.3915370144193,3479.6719345119259,0.0
302154.6038362722,4630833.5216966402,-27500.0,-1649.0135334485803,-1722.5804647495295,-796.89380347864414,-996.11808285093684,-781.86218000808742,-375.74818265821153,2030.3690379101397,-1962.1700004183922,1285.7187145486287,-1285.7187145486287,1962.1700004183922,3869.7374127931184,0.0
307154.6038362722,4630833.5216966402,-27500.0,-1622.4710446975016,-1936.9034264531115,-1050.9231697418963,-1081.8307100245991,-934.82446072205869,-426.19133329083377,2253.3427627829406,-2167.3975964994988,1429.9670617853176,-1429.9670617853176,2167.3975964994988,4296.6927999508835,0.0
312154.6038362722,4630833.5216966402,-27500.0,-1543.583065593353,-2153.6362120542476,-1365.8659044918727,-1160.8863277882697,-1112.2426759948037,-478.91267223741835,2494.6980326056464,-2373.5009635551451,1579.0454306265383,-1579.0454306265383,2373.5009635551451,4758.6306377660985,0.0
317154.6038362722,4630833.5216966402,-27500.0,-1398.4509535646139,-2359.0311139562455,-1749.2692430946422,-1226.4499609258401,-1314.3990807236958,-531.82015550981646,2752.0812114300052,-2568.7033775026548,1726.8177711236006,-1726.8177711236006,2568.7033775026548,5250.5913082872212,0.0
322154.6038362722,4630833.5216966402,-27500.0,-1173.5310434127816,-2532.9023571471002,-2205.0194359926113,-1269.6999395645298,-1539.2487508258412,-581.89057479515668,3021.0610680394652,-2735.941600049684,1864.094718325583,-1864.094718325583,2735.941600049684,5763.2745932294274,0.0
327154.6038362722,4630833.5216966402,-27500.0,-858.21852219840093,-2647.7454361178156,-2729.8042977251816,-1279.9260662391198,-1781.1336203222991,-625.09459862209587,3294.4102469227091,-2852.1002685151043,1978.0455064439577,-1978.0455064439577,2852.1002685151043,6281.4888606992427,0.0
332154.6038362722,4630833.5216966402,-27500.0,-448.77612737246568,-2669.061568153606,-3308.3007514212959,-1245.1126862409194,-2029.231159130075,-656.44477714624009,3561.3247220499929,-2888.1600805429334,2051.993742967019,-2051.993742967019,2888.1600805429334,6782.4845584505756,0.0
337154.6038362722,4630833.5216966402,-27500.0,46.490349121697626,-2558.0330397090456,-3907.5530905639152,-1153.2944975166342,-2265.965603822774,-670.21024692916592,3806.7316670734908,-2811.1723748831691,2066.0686967709189,-2066.0686967709189,2811.1723748831691,7234.5641210183685,0.0
342154.6038362722,4630833.5216966402,-27500.0,601.65967442850172,-2277.8938997827504,-4472.0097787705299,-994.9862352388925,-2465.909531742117,-660.31706915903897,4010.9925257516861,-2589.1539256482106,1999.3442837709076,-1999.3442837709076,2589.1539256482106,7596.7347132995228,0.0
347154.6038362722,4630833.5216966402,-27500.0,1169.3020579732874,-1804.8990132091737,-4922.1292639772755,-766.83548016540271,-2596.1196808558875,-620.93352800479408,4150.5249094574428,-2199.6762357157168,1834.0617290359423,-1834.0617290359423,2199.6762357157168,7820.6128518038067,0.0
352154.6038362722,4630833.5216966402,-27500.0,1681.7165245755984,-1143.0637158579016,-5160.776482795327,-476.1581530456283,-2619.2249506685648,-547.25666745805972,4200.0446031667261,-1641.5763144924867,1562.0056308954245,-1562.0056308954245,1641.5763144924867,7856.0346440745388,0.0
357154.6038362722,4630833.5216966402,-27500.0,2061.1551140927786,-338.47454564394263,-5091.3481023960712,-145.06064381706099,-2500.4772536791806,-436.58314408166882,4136.9865531586911,-946.55963592316243,1191.8121265440247,-1191.8121265440247,946.55963592316243,7661.3249543726479,0.0
362154.6038362722,4630833.5216966402,-27500.0,2240.5112915131317,514.98314833746895,-4647.6777901238811,188.33418225533126,-2218.7396569007078,-289.76675430696207,3947.8837843807614,-184.35431780963512,754.1420264483038,-754.1420264483038,184.35431780963512,7217.4006000749559,0.0
367154.6038362722,4630833.5216966402,-27500.0,2189.7047495655293,1287.7648930974372,-3827.6364163284434,474.50504135308768,-1778.697902516994,-112.93509638208251,3635.0724252171358,545.79906802885625,300.45137443945987,-300.45137443945987,-545.79906802885625,6541.907556623366,0.0
372154.6038362722,4630833.5216966402,-27500.0,1935.3844560279256,1847.9329845666641,-2713.7769792453028,664.26297275613581,-1218.5318048313625,81.240902524140395,3220.8264587642448,1139.8593796189944,-107.49724789552965,107.49724789552965,-1139.8593796189944,5696.9379300858427,0.0
377154.6038362722,4630833.5216966402,-27500.0,1559.5291509651961,2105.5038672808978,-1463.8660997671782,724.64458067248268,-606.66806112817846,273.99198199661549,2746.1956048505258,1522.2723727548405,-415.37801624251085,415.37801624251085,-1522.2723727548405,4783.904786168805,0.0
382154.6038362722,4630833.5216966402,-27500.0,1172.0857442102174,2045.9287652155851,-267.84313477471653,651.66514835123803,-25.584252092156117,443.59706526542885,2264.4099141166248,1671.3534695162889,-593.56610442001045,593.56610442001045,-1671.3534695162889,3922.8253390459936,0.0
387154.6038362722,4630833.5216966402,-27500.0,869.92146133392271,1732.8215285921021,710.77430804671337,472.44700982857097,451.55985435795935,570.7331186886704,1833.8527983122626,1622.1264276775069,-644.76720694851792,644.76720694851792,-1622.1264276775069,3218.1633418913889,0.0
392154.6038362722,4630833.5216966402,-27500.0,704.66701533872958,1278.3429906136462,1379.5354981844896,234.94684100979228,780.43772121594247,643.77996691257636,1519.9001282624724,1445.7399151952172,-598.29383896506806,598.29383896506806,-1445.7399151952172,2719.4810205525719,0.0
397154.6038362722,4630833.5216966402,-27500.0,675.14210802107823,799.6548829635334,1728.1403155725923,-8.9927586635794743,952.52985617329932,661.48397405770493,1353.8651058449527,1219.0692495617875,-495.50296552390972,495.50296552390972,-1219.0692495617875,2400.812267896843,0.0
402154.6038362722,4630833.5216966402,-27500.0,742.61078756850623,384.6238455056548,1808.5317289087336,-218.5129374312564,988.84569647071714,631.91787421368883,1253.9811811813311,1001.0681724737176,-375.00001673196152,375.00001673196152,-1001.0681724737176,2187.9049161269841,0.0
407154.6038362722,4630833.5216966402,-27500.0,854.97393574244188,78.546749530188734,1701.7638367832408,-370.91173188457913,926.45981630366225,568.7627516993922,1160.4898828855353,823.83080212366212,-263.83553088643072,263.83553088643072,-823.83080212366212,2011.8522327444855,0.0
412154.6038362722,4630833.5216966402,-27500.0,966.48474578458513,-110.84062359429912,1489.0873636058095,-460.9546696577379,805.19083167859253,486.97033255916392,1060.3228870601058,696.00880418917018,-175.74673137989231,175.74673137989231,-696.00880418917018,1836.5550458646928,0.0
417154.6038362722,4630833.5216966402,-27500.0,1047.3416122900619,-199.72660306066112,1235.3111373283359,-495.61242992887247,658.77362566457032,399.48040749058362,954.55157114726978,611.68866866658743,-113.96109951528319,113.96109951528319,-611.68866866658743,1653.8893873558825,0.0
422154.6038362722,4630833.5216966402,-27500.0,1084.4505071938872,-214.46982026369275,983.82186607919937,-487.87087640163747,511.22755525197408,315.6220191690411,848.24355337935776,558.99080735410826,-75.453492827705531,75.453492827705531,-558.99080735410826,1469.6815739105591,0.0
427154.6038362722,4630833.5216966402,-27500.0,1077.3900935510967,-181.91137028553254,758.82856809039151,-451.85219656756885,376.98559866588323,240.9525410470539,746.71097109107302,525.80922348028969,-54.627583413074831,54.627583413074831,-525.80922348028969,1293.3651029060638,0.0
432154.6038362722,4630833.5216966402,-27500.0,1033.1769005392655,-124.3248507957577,570.47833055112619,-399.929017818555,262.90012505356799,177.93349397972898,653.72583891755824,502.55751037785058,-45.693032926678569,45.693032926678569,-502.55751037785058,1132.8549954170644,0.0
437154.6038362722,4630833.5216966402,-27500.0,961.85594014283288,-57.832440632018276,420.07265862281741,-341.54915595538966,170.69495717646726,126.88335970849296,571.07873416146845,482.83544770431683,-43.828624926860243,43.828624926860243,-482.83544770431683,992.84727233907336,0.0
442154.6038362722,4630833.5216966402,-27500.0,873.5792122996462,7.2030331920796149,304.17195485692588,-283.16369737159209,99.097653596905943,86.859803224493319,498.97674852286679,463.0233171371915,-45.523327830724782,45.523327830724782,-463.0233171371915,874.84286405030809,0.0
447154.6038362722,4630833.5216966402,-27500.0,777.05957294345865,64.964689151560393,217.35558105348008,-228.69989931381832,45.391297346136987,56.326361177788819,436.70589200570771,441.51481023642515,-48.480384423926296,48.480384423926296,-441.51481023642515,777.86948734291514,0.0
452154.6038362722,4630833.5216966402,-27500.0,679.0032601054819,112.83647408986829,153.85202938222403,-180.20000065793943,6.404903720701574,33.587577531461612,383.18307791234463,417.9687570407354,-51.352650093826924,51.352650093826924,-417.9687570407354,699.38528519856743,0.0
457154.6038362722,4630833.5216966402,-27500.0,584.12122981851689,150.24842574544408,108.37354314461521,-138.42300898992272,-20.929137913448841,17.036320540626864,337.33011421488874,392.72840996668083,-53.458088366480069,53.458088366480069,-392.72840996668083,636.12299516797225,0.0
462154.6038362722,4630833.5216966402,-27500.0,495.41798934704406,177.80967156909304,76.45433452932923,-103.32744238541464,-39.309415330919848,5.2705161461156775,298.93994222682954,366.42919925231007,-54.540385017001597,54.540385017001597,-366.42919925231007,584.75235966413948,0.0
467154.6038362722,4630833.5216966402,-27500.0,414.56885760839856,196.71500743164691,54.511562890161748,-74.421746239153237,-50.976368033696744,-2.8705494351557737,279.64859195205725,339.76284622773221,-54.591797751686244,54.591797751686244,-339.76284622773221,542.30688000787575,0.0
282154.6038362722,4635833.5216966402,-27500.0,-1629.8904624805552,-982.32310181496223,-102.48766299932215,-727.68923288708288,-357.86991280346194,-231.24014451468477,1395.043393794755,-1256.3606422727917,830.4310695584935,-830.4310695584935,1256.3606422727917,2649.6345265300465,0.0
287154.6038362722,4635833.5216966402,-27500.0,-1737.3519215020638,-1144.7690389236709,-181.98501007385747,-819.17374073830354,-436.5248906671842,-269.31629075292722,1561.3022718859643,-1422.9005789091977,944.39885540125147,-944.39885540125147,1422.9005789091977,2967.7008016217051,0.0
292154.6038362722,4635833.5216966402,-27500.0,-1837.4013177641721,-1331.9290476229266,-289.28979451897999,-919.78305564308369,-532.7819435607546,-313.00270745388531,1749.136714942216,-1611.0214013727225,1074.0346186475888,-1074.0346186475888,1611.0214013727225,3327.4883511565936,0.0
297154.6038362722,4635833.5216966402,-27500.0,-1922.8510086455044,-1545.3604246957541,-432.69216637858051,-1028.8513402420856,-650.23195913117593,-362.5790699777807,1960.7745186636303,-1821.7081730931775,1220.5140331025425,-1220.5140331025425,1821.7081730931775,3733.4160552584558,0.0
302154.6038362722,4635833.5216966402,-27500.0,-1983.9755231965826,-1785.2361177201835,-622.4129992797557,-1144.7905002095913,-792.88465440522248,-418.03035625960138,2198.2735781873271,-2054.7437065724957,1384.4468998250272,-1384.4468998250272,2054.7437065724957,4189.5993364879314,0.0
307154.6038362722,4635833.5216966402,-27500.0,-2008.0448656892195,-2049.3077283265798,-870.64437289459863,-1264.6963306308371,-964.99251804252594,-478.88511384707454,2463.2647496591867,-2307.8667000171195,1565.421627904002,-1565.421627904002,2307.8667000171195,4699.3330350445531,0.0
312154.6038362722,4635833.5216966402,-27500.0,-1979.030646044733,-2331.4224542917009,-1191.2087345938271,-1383.862926170412,-1170.6859307466341,-544.02410433259774,2756.5629520384782,-2575.564274758412,1761.3373289384795,-1761.3373289384795,2575.564274758412,5264.2868428724823,0.0
317154.6038362722,4635833.5216966402,-27500.0,-1877.7399993647543,-2619.5313253303661,-1598.5009365005587,-1495.2230041276771,-1413.3128844389669,-611.47959333192432,3077.5955193943946,-2847.4356700307162,1967.4692070306012,-1967.4692070306012,2847.4356700307162,5883.2872629454014,0.0
322154.6038362722,4635833.5216966402,-27500.0,-1682.7933487948953,-2893.2495937643457,-2105.2178459084835,-1588.7727072097864,-1694.3416652267822,-678.26278391273547,3423.5903172947187,-3106.156873249548,2175.2438372390016,-2175.2438372390016,3106.156873249548,6550.5357984516741,0.0
327154.6038362722,4635833.5216966402,-27500.0,-1373.0467733391652,-3121.3078032612393,-2718.2381780643555,-1651.112404602035,-2011.6591944587569,-740.26740694049965,3788.4668423117919,-3325.2965845209342,2370.7919772018645,-2370.7919772018645,3325.2965845209342,7253.1152532270844,0.0
332154.6038362722,4635833.5216966402,-27500.0,-932.19086422680903,-3259.7590656018451,-3432.0280914359287,-1665.3647254033226,-2357.1209294795176,-792.28873175203717,4161.4068507250213,-3467.6679417174964,2533.5524090140298,-2533.5524090140298,3467.6679417174964,7967.7446658312456,0.0
337154.6038362722,4635833.5216966402,-27500.0,-356.12739590246969,-3252.627826797439,-4219.3999272001811,-1611.9374150025606,-2713.3628422046918,-828.15225096999575,4525.177869464118,-3485.593087899736,2635.5755863900276,-2635.5755863900276,3485.593087899736,8657.0737103946831,0.0
342154.6038362722,4635833.5216966402,-27500.0,337.06228792105145,-3037.6418513171502,-5020.778048340635,-1470.8648636295036,-3050.3143293008598,-840.87214002155076,4854.5138292580523,-3325.2780142675815,2642.7138753108452,-2642.7138753108452,3325.2780142675815,9266.5087766816232,0.0
347154.6038362722,4635833.5216966402,-27500.0,1096.6967315829875,-2560.1121690353566,-5735.7471795041838,-1226.6338622075812,-3322.7178028821745,-822.72830045722753,5115.3361254799911,-2937.876452051345,2519.3672590712094,-2519.3672590712094,2937.876452051345,9723.676980518494,0.0
352154.6038362722,4635833.5216966402,-27500.0,1834.0343424046039,-1796.4515705774388,-6224.3182780028901,-876.04638904391538,-3471.2579871579742,-765.31532086171694,5266.3616576169952,-2298.536913964484,2238.2564896750469,-2238.2564896750469,2298.536913964484,9943.8509673163699,0.0
357154.6038362722,4635833.5216966402,-27500.0,2430.3922485886978,-783.30724813421239,-6327.7623139751176,-438.0671377989529,-3430.9225801174948,-660.08194583421607,5265.0703602041958,-1430.1974532879099,1794.7563934715722,-1794.7563934715722,1430.1974532879099,9844.7732254561106,0.0
362154.6038362722,4635833.5216966402,-27500.0,2766.4451180568844,361.18586023889043,-5915.0674696164015,38.569685126888302,-3149.1877525111113,-500.40522781203833,5078.8921617831056,-421.25874001948182,1221.0851595198571,-1221.0851595198571,421.25874001948182,9371.6459937925356,0.0
367154.6038362722,4635833.5216966402,-27500.0,2769.8454748634972,1445.0797060327905,-4946.1391777200215,477.37639634848614,-2611.4042182208609,-285.96751615631786,4699.2219183811694,579.57024330692843,590.92617937859859,-590.92617937859859,-579.57024330692843,8526.5780222593585,0.0
372154.6038362722,4635833.5216966402,-27500.0,2459.6754318420108,2253.6944271169609,-3520.9743567174314,791.98650269514985,-1862.1690178936826,-28.317633352136518,4152.1502872201927,1402.3510897174885,5.1644243925863975,-5.1644243925863975,-1402.3510897174885,7389.2239182458816,0.0
377154.6038362722,4635833.5216966402,-27500.0,1954.7321561604044,2631.1410047691516,-1874.845450504838,917.11788727830299,-1006.3648586541161,246.20711573989348,3498.9382407533849,1918.3347230349459,-440.87977096090617,440.87977096090617,-1918.3347230349459,6113.2747794146035,0.0
382154.6038362722,4635833.5216966402,-27500.0,1428.4089843928705,2547.6587675575656,-304.47404312761188,837.22636474028786,-181.18644877509445,500.47161904780921,2824.2224363059222,2091.2134454861193,-693.17337006147648,693.17337006147648,-2091.2134454861193,4891.7246000679861,0.0
387154.6038362722,4635833.5216966402,-27500.0,1032.5350926511032,2106.9498235176006,939.99659813755716,593.89785453433808,490.00612937601437,697.6509816185694,2221.0509191741949,1983.0621032260124,-755.81787894293609,755.81787894293609,-1983.0621032260124,3896.9084863670637,0.0
392154.6038362722,4635833.5216966402,-27500.0,839.20300183525512,1488.9134643566636,1733.4987790027246,266.22372915814822,936.32246028583859,813.78211748149079,1793.8118639744303,1712.8026065610097,-679.45449931877613,679.45449931877613,-1712.8026065610097,3211.9245526297473,0.0
397154.6038362722,4635833.5216966402,-27500.0,833.00236189537623,869.60318070324956,2085.9220360354989,-62.411156671879709,1150.5737305408261,844.47616394089289,1583.3100729992971,1398.9987310828396,-532.1529422617557,532.1529422617557,-1398.9987310828396,2794.1613888592142,0.0
402154.6038362722,4635833.5216966402,-27500.0,944.82865165748433,366.50686858631838,2096.3540128351369,-331.13313040955285,1173.7381021321842,802.94673679330117,1452.9606310119846,1121.7776161958554,-372.48852581256676,372.48852581256676,-1121.7776161958554,2524.7642384938295,0.0
407154.6038362722,4635833.5216966402,-27500.0,1095.3463693256886,26.342901637808957,1892.7714093052502,-511.4669449416578,1068.1863949120934,712.24561863249812,1328.9191462004815,915.09826306394166,-236.60768110410316,236.60768110410316,-915.09826306394166,2301.7581729051485,0.0
412154.6038362722,4635833.5216966402,-27500.0,1223.9853964404404,-157.63051364746181,1588.5764028700064,-602.66809130949707,894.84502514143321,596.75978649380704,1199.4095575956678,779.05834794935504,-138.66900249994512,138.66900249994512,-779.05834794935504,2078.8051526149325,0.0
417154.6038362722,4635833.5216966402,-27500.0,1298.257044410758,-219.79478211022914,1264.0338122520593,-620.6570049749497,700.75970035051466,476.44398347367041,1067.1313027079295,697.13419585392046,-77.942235745545645,77.942235745545645,-697.13419585392046,1849.9161880146837,0.0
422154.6038362722,4635833.5216966402,-27500.0,1309.8606445644534,-201.35183695818711,965.83133316829731,-587.40593308317307,516.04681083285664,364.592500235871,938.29597446278717,649.2984781399025,-46.549463153606951,46.549463153606951,-649.2984781399025,1625.5355712255468,0.0
427154.6038362722,4635833.5216966402,-27500.0,1265.864458779821,-138.45032943652174,714.96558773212178,-523.8677860938235,356.30932812985429,268.20602029337283,818.52942058895303,618.87852444270243,-34.972658949785853,34.972658949785853,-618.87852444270243,1418.0584908854332,0.0
432154.6038362722,4635833.5216966402,-27500.0,1180.3455797198574,-57.745624235670299,516.08661877309839,-446.62357680058801,226.95620485196039,189.57926010282338,711.14264550939356,594.63908730504966,-34.940584528391241,34.940584528391241,-594.63908730504966,1235.9940725811207,0.0
437154.6038362722,4635833.5216966402,-27500.0,1068.5985660202155,23.613163757686763,365.10120775355381,-367.14249917304602,127.31414323001046,128.07481335566118,617.14430951627105,570.3067913411171,-40.409115019835497,40.409115019835497,-570.3067913411171,1082.8285870035172,0.0
442154.6038362722,4635833.5216966402,-27500.0,943.99472192769122,96.080147496220803,254.26866004782357,-292.41362150081409,53.703757788363163,81.563165088267866,536.02847603208954,543.19120552579489,-47.499986607951286,47.499986607951286,-543.19120552579489,957.87909074012475,0.0
447154.6038362722,4635833.5216966402,-27500.0,816.78386187850208,155.41342097672381,175.14745886055024,-226.05814863747239,1.4078222750690796,47.394211764368471,466.57606380938921,512.79533696373483,-54.028376990351745,54.028376990351745,-512.79533696373483,857.76576033788842,0.0
452154.6038362722,4635833.5216966402,-27500.0,694.03551753052682,200.68478372472151,120.04841943061072,-169.42859979852184,-34.233668073348056,22.958536676187219,407.47611809887519,479.75155408277487,-58.969604682377422,58.969604682377422,-479.75155408277487,777.86445143723438,0.0
457154.6038362722,4635833.5216966402,-27500.0,580.11633487321717,232.8089758386607,82.586645389720019,-122.4940945997709,-57.311580815544659,5.9581677041257803,361.5371814879303,445.12819880348763,-62.013765587182689,62.013765587182689,-445.12819880348763,713.44304428159114,0.0
462154.6038362722,4635833.5216966402,-27500.0,477.32928013374902,253.56522993619137,57.752856505613103,-84.473158677970133,-71.180160470605188,-5.5016009570295754,345.77528324297793,410.03407542347713,-63.2451049736421,63.2451049736421,-410.03407542347713,660.36243649751043,0.0
467154.6038362722,4635833.5216966402,-27500.0,386.52284794216388,265.00164128832,41.765385541266305,-54.248208756679951,-78.469631303095383,-12.916853386044965,332.24604459075891,375.42630084077047,-62.933263992456943,62.933263992456943,-375.42630084077047,615.36869297450892,0.0
282154.6038362722,4640833.5216966402,-27500.0,-1794.2797561343721,-923.36496522925813,21.995456276727388,-785.84521186124789,-331.72997877702551,-246.47154176989554,1456.2953377144891,-1226.1349271211548,837.25050677625825,-837.25050677625825,1226.1349271211548,2761.1449123269676,0.0
287154.6038362722,4640833.5216966402,-27500.0,-1939.225334578608,-1092.1499709689701,-36.173616929269528,-893.66108568210655,-410.27468612223817,-289.01250045032452,1639.6629072765595,-1402.0605295527798,961.31613303758422,-961.31613303758422,1402.0605295527798,3111.8497568429011,0.0
292154.6038362722,4640833.5216966402,-27500.0,-2084.1586454291537,-1291.5125126881326,-119.86498095159885,-1015.0610728731469,-508.24066561331927,-338.40963513335879,1849.4366187428218,-1605.20463712436,1105.4443630918872,-1105.4443630918872,1605.20463712436,3513.8172783156801,0.0
297154.6038362722,4640833.5216966402,-27500.0,-2222.6142133001094,-1525.4806782980372,-238.18436768689878,-1150.4852984732427,-630.34679087772997,-395.24580935741903,2089.2239967818955,-1838.7130398539721,1272.3944756131204,-1272.3944756131204,1838.7130398539721,3974.3033467608825,0.0
302154.6038362722,4640833.5216966402,-27500.0,-2345.1187209445961,-1797.4202003849557,-403.04674867555406,-1299.6319185255832,-782.26168880100875,-459.86125778820133,2362.8335561788745,-2105.126629550387,1464.8231245313527,-1464.8231245313527,2105.126629550387,4501.0688862377283,0.0
307154.6038362722,4640833.5216966402,-27500.0,-2438.2733354316561,-2109.0187660603838,-629.71220544459084,-1461.0148642752017,-970.62900318831498,-532.19736631842284,2674.085340830095,-2405.5413807974865,1684.8760105151159,-1684.8760105151159,2405.5413807974865,5102.0289890949553,0.0
312154.6038362722,4640833.5216966402,-27500.0,-2483.7769984735842,-2458.6324812729781,-937.10347243599324,-1631.3485759451748,-1202.9427031192699,-611.61938834017576,3026.4686510714705,-2738.228152576452,1933.4806689454679,-1933.4806689454679,2738.228152576452,5784.5730615796647,0.0
317154.6038362722,4640833.5216966402,-27500.0,-2457.6062541229248,-2838.7438281928353,-1347.5239603434095,-1804.7129748056525,-1487.1312205551912,-696.75133421609644,3422.5565775719592,-3096.4825003148067,2209.1837260794714,-2209.1837260794714,3096.4825003148067,6554.3300963160273,0.0
322154.6038362722,4640833.5216966402,-27500.0,-2329.8099446812121,-3232.3093018676841,-1885.0941965776094,-1971.4590403033937,-1830.613909053764,-785.37651579271937,3863.0488843046874,-3465.4868969034337,2506.3433308281224,-2506.3433308281224,3465.4868969034337,7413.0342781361442,0.0
327154.6038362722,4640833.5216966402,-27500.0,-2065.7666177214746,-3607.9908210017193,-2571.8169818343354,-2116.8576947562769,-2238.4561230017898,-874.45887320288921,4345.2771492383017,-3818.1439472802845,2812.515355794058,-2812.515355794058,3818.1439472802845,8355.0148454511964,0.0
332154.6038362722,4640833.5216966402,-27500.0,-1630.2820115027585,-3914.8822012490018,-3419.7761403717673,-2219.6373906870904,-2710.0949145947111,-960.28400779497463,4860.9953794301937,-4110.3760742381528,3105.0747743447478,-3105.0747743447478,4110.3760742381528,9361.7982130535001,0.0
337154.6038362722,4640833.5216966402,-27500.0,-996.38260801182832,-4078.6500827324626,-4417.9379137793239,-2250.9173159698817,-3234.0472121947869,-1038.5548142924883,5393.3082603871226,-4277.5455688709862,3347.681709906662,-3347.681709906662,4277.5455688709862,10394.602183993728,0.0
342154.6038362722,4640833.5216966402,-27500.0,-160.47624005310794,-4003.2101377854278,-5513.2033123776955,-2174.7780588415922,-3780.3537145011323,-1104.0068667142084,5912.6896347946677,-4235.5919598735218,3488.3554791129259,-3488.3554791129259,4235.5919598735218,11385.550091367386,0.0
347154.6038362722,4640833.5216966402,-27500.0,836.62468606981838,-3584.6527570722837,-6589.1248528963215,-1952.8238907938094,-4291.8575352563939,-1148.9181328033421,6372.6155403669964,-3892.6985821192106,3462.6343188489259,-3462.6343188489259,3892.6985821192106,12230.694409955791,0.0
352154.6038362722,4640833.5216966402,-27500.0,1889.2514835940315,-2744.7390949865817,-7453.2403409642475,-1555.8856346016414,-4678.4570532810603,-1160.3001714283441,6707.5762495475137,-3177.6227936206183,3206.6270292737022,-3206.6270292737022,3177.6227936206183,12791.345003700033,0.0
357154.6038362722,4640833.5216966402,-27500.0,2823.0620861025868,-1484.6075553231667,-7853.3599265593639,-984.39329413438838,-4822.8216775437795,-1117.2053854415324,6839.3888103641639,-2084.7649472046842,2683.0343343718941,-2683.0343343718941,2084.7649472046842,12912.855316448378,0.0
362154.6038362722,4640833.5216966402,-27500.0,3430.192423008928,59.875251961339778,-7544.5907965001788,-292.04807030848787,-4607.9459189280706,-992.13680155370707,6696.4809657903434,-719.79947240580623,1914.8839154688239,-1914.8839154688239,719.79947240580623,12467.352808819011,0.0
367154.6038362722,4640833.5216966402,-27500.0,3552.4290052232159,1605.0116089143808,-6405.4025000453166,403.84482521333183,-3968.6328116037412,-761.2245703418165,6242.9868807073835,690.31346252505966,1007.6447327311636,-1007.6447327311636,-690.31346252505966,11413.981683993794,0.0
372154.6038362722,4640833.5216966402,-27500.0,3179.1826261322499,2793.9530335411068,-4549.0712714300917,946.66140790486827,-2946.6998387552862,-422.52601568619866,5504.8476750823902,1858.1930258099205,133.07835245498109,-133.07835245498109,-1858.1930258099205,9849.844594735041,0.0
377154.6038362722,4640833.5216966402,-27500.0,2485.2943570527668,3350.3856412198497,-2338.1151572901153,1202.7226162685592,-1708.4789771175942,-11.399862906278685,4575.769983344604,2557.6310846283695,-533.7350355963215,533.7350355963215,-2557.6310846283695,8014.2224121596128,0.0
382154.6038362722,4640833.5216966402,-27500.0,1754.8391616280039,3218.4023447809936,-251.97574165686348,1128.3835303434835,-494.33184418555868,402.83644756106321,3594.8599513033896,2730.902446714942,-892.1268524199977,892.1268524199977,-2730.902446714942,6226.4901227637029,0.0
387154.6038362722,4640833.5216966402,-27500.0,1232.3167325276347,2578.5191048945144,1321.5225016107934,791.44211069829009,478.77751820787557,742.85084018728662,2712.681638954642,2498.6115394666172,-953.30822260758987,953.30822260758987,-2498.6115394666172,4775.3853889366919,0.0
392154.6038362722,4640833.5216966402,-27500.0,1014.5159136943247,1728.7678568779461,2225.4146212248029,329.48936750352743,1096.9824201018414,955.45629066022411,2104.2029523248075,2068.8403132677449,-812.81323771221628,812.81323771221628,-2068.8403132677449,3800.3940412837896,0.0
397154.6038362722,4640833.5216966402,-27500.0,1051.5600696962706,933.21191792766683,2525.750524505775,-119.28326014450758,1364.2375141463306,1028.2579020377566,1836.9361698551843,1625.918398884879,-588.02495649770151,588.02495649770151,-1625.918398884879,3232.166958243165,0.0
402154.6038362722,4640833.5216966402,-27500.0,1222.4275512464549,339.57026427801765,2406.8222412665032,-464.54096174111908,1362.0414329971081,984.23105170499309,1662.3792344709179,1272.9003118893054,-368.57318771861378,368.57318771861378,-1272.9003118893054,2881.0478002861792,0.0
407154.6038362722,4640833.5216966402,-27500.0,1410.8302532083594,-18.368885832307022,2064.6750067983417,-674.05171608521812,1195.6321982320735,863.97260584500555,1496.7791681182964,1035.695182641577,-200.1974677622897,200.1974677622897,-1035.695182641577,2595.531681194866,0.0
412154.6038362722,4640833.5216966402,-27500.0,1542.7615643943909,-176.61823947461954,1648.9706501964731,-758.30435532493311,956.62503591318455,708.47142650956175,1333.1572771639617,895.32646033192009,-93.047643462402505,93.047643462402505,-895.32646033192009,2315.1635943026959,0.0
417154.6038362722,4640833.5216966402,-27500.0,1589.3519250373745,-196.55960424203818,1250.3976327075209,-748.58069286671389,708.18066147179559,549.09612579062048,1173.9137932629048,818.37176203990782,-37.638682331451378,37.638682331451378,-818.37176203990782,2036.1750207153855,0.0
422154.6038362722,4640833.5216966402,-27500.0,1553.3403704828356,-137.08266192444708,911.75258687804603,-679.90842950310343,485.60455761464385,404.95520621205202,1023.7566807531996,774.5773630111338,-18.012303997953268,18.012303997953268,-774.5773630111338,1773.2090182988518,0.0
427154.6038362722,4640833.5216966402,-27500.0,1453.3524462004536,-42.891415085031433,644.981603671382,-581.81541889434595,303.53688318175085,284.73966981360104,887.02136583605318,743.09295088320494,-19.209198639414694,19.209198639414694,-743.09295088320494,1540.0965000143153,0.0
432154.6038362722,4640833.5216966402,-27500.0,1312.2870330456756,57.108843288216221,445.63275606206622,-475.29231517129006,163.9304313919167,190.10839415385144,766.01512813119496,712.30019540413423,-30.115368170766203,30.115368170766203,-712.30019540413423,1343.8548247488168,0.0
437154.6038362722,4640833.5216966402,-27500.0,1150.8244187758903,146.92496093326938,302.489315709008,-373.28002506296491,62.293892683112041,118.83859762950362,661.02418670150973,677.2849128511067,-43.675491762546699,43.675491762546699,-677.2849128511067,1184.742054272783,0.0
442154.6038362722,4640833.5216966402,-27500.0,984.83190356295495,219.50763524029909,202.99083702502435,-282.54230823647771,-8.2759513723667801,67.079318659585724,571.0640728200774,637.14480768580188,-56.03618315570742,56.03618315570742,-637.14480768580188,1058.4211583078352,0.0
447154.6038362722,4640833.5216966402,-27500.0,825.07410344750826,273.2696152124484,135.79351205511779,-205.69475341757737,-54.864359027960347,30.697867776714347,494.79163481680598,592.95273199156452,-65.497214880711113,65.497214880711113,-592.95273199156452,958.4275414332576,0.0
452154.6038362722,4640833.5216966402,-27500.0,677.98708497393943,309.5526518725577,91.668279720721699,-142.86569369307853,-83.709654891936907,5.9523049538584152,449.3921830413924,546.47481335858856,-71.637534103369319,71.637534103369319,-546.47481335858856,878.12079394227453,0.0
457154.6038362722,4640833.5216966402,-27500.0,546.76571600176874,330.99269554844426,63.560530266711964,-92.872278757332381,-99.868476798267181,-10.255629759020746,432.10589844319605,499.47944032067949,-74.702726950419674,74.702726950419674,-499.47944032067949,811.83116489557733,0.0
462154.6038362722,4640833.5216966402,-27500.0,432.3895584998811,340.56531109026389,46.297832235100095,-53.972239423614226,-107.23161320996984,-20.353654861787064,413.59316048629103,453.43026032708326,-75.222310876589972,75.222310876589972,-453.43026032708326,755.26941377746721,0.0
467154.6038362722,4640833.5216966402,-27500.0,334.44664801897551,341.0866999128155,36.200735005895822,-24.30299680194377,-108.68648232786298,-26.174697407069488,393.97709276483147,409.39814907268885,-73.793386870257251,73.793386870257251,-409.39814907268885,705.46091942972032,0.0
472154.6038362722,4640833.5216966402,-27500.0,251.73455929190914,334.99371243514247,30.713155153572551,-2.1127444276893033,-106.31825768565861,-29.066213890513279,373.76509315384573,368.08198541739137,-70.971845288243884,70.971845288243884,-368.08198541739137,660.47181852630774,0.0
277154.6038362722,4645833.5216966402,-27500.0,-1771.0643647567488,-693.53233972807527,169.0183597585816,-729.74692141592459,-235.46418353058161,-220.01983282035761,1335.2445915413396,-1013.4685140240829,716.09799872174813,-716.09799872174813,1013.4685140240829,2523.3685003423834,0.0
282154.6038362722,4645833.5216966402,-27500.0,-1943.3351642123137,-832.06930566149958,151.40131278171862,-837.243836887822,-294.90799200264945,-259.59864544004716,1507.8843175979166,-1165.643225022887,826.93923552522688,-826.93923552522688,1165.643225022887,2852.5019116401245,0.0
287154.6038362722,4645833.5216966402,-27500.0,-2127.7244109001213,-999.9496166101419,119.25834594866619,-961.34502039757797,-370.36243511897663,-306.32663900704097,1707.474664550718,-1344.9282842468283,958.09327897464107,-958.09327897464107,1344.9282842468283,3233.8100467210584,0.0
292154.6038362722,4645833.5216966402,-27500.0,-2321.6877743195287,-1203.1369956923186,66.064702566884804,-1104.1428129283584,-466.34772690059123,-361.20453323303099,1938.5841953873041,-1556.2978094695218,1113.5358672456109,-1113.5358672456109,1556.2978094695218,3676.4328182424792,0.0
297154.6038362722,4645833.5216966402,-27500.0,-2520.5632083071018,-1448.3444705357713,-17.317055040131269,-1267.6595435716711,-588.6592360450054,-425.19566168623135,2206.5006903820931,-1805.3129206173469,1297.905943457193,-1297.905943457193,1805.3129206173469,4191.0776738544955,0.0
302154.6038362722,4645833.5216966402,-27500.0,-2716.57929900006,-1742.7099491856306,-143.55988385993928,-1453.619238037897,-744.68710053449081,-499.13340692102003,2517.2730972606205,-2097.8451762544073,1516.4665748615391,-1516.4665748615391,2097.8451762544073,4790.1754732269401,0.0
307154.6038362722,4645833.5216966402,-27500.0,-2897.5045805609475,-2093.0437835600037,-329.99429384596874,-1663.075547014686,-943.77029086497146,-583.61591347160936,2877.689094756443,-2439.4259844193325,1774.8951402326697,-1774.8951402326697,2439.4259844193325,5487.9250752626722,0.0
312154.6038362722,4645833.5216966402,-27500.0,-3044.885061766734,-2504.3323134807351,-599.82241527475492,-1895.8114994104706,-1197.53305362485,-678.92480502449416,3295.1152574014495,-2833.929596325941,2078.735398807934,-2078.735398807934,2833.929596325941,6300.0618418713602,0.0
317154.6038362722,4645833.5216966402,-27500.0,-3131.9142348981009,-2977.0207719201344,-983.10227714456619,-2149.3725822762349,-1520.0739472834307,-785.04109378028897,3777.0687407344967,-3281.1411043995431,2432.2268501747649,-2432.2268501747649,3281.1411043995431,7243.0281815414692,0.0
322154.6038362722,4645833.5216966402,-27500.0,-3121.2329128637175,-3502.4295184614675,-1516.757984596602,-2417.5094519370332,-1927.7155275806699,-901.86749845887414,4330.2984306757144,-3772.5961055771036,2836.0628180346771,-2836.0628180346771,3772.5961055771036,8331.9482347066169,0.0
327154.6038362722,4645833.5216966402,-27500.0,-2963.5167070935113,-4055.6158887691354,-2242.1451900311513,-2687.7127308155027,-2437.7209749234953,-1029.7594384069569,4959.0554614436032,-4285.046762079538,3283.4707519405138,-3283.4707519405138,4285.046762079538,9576.4161961510054,0.0
332154.6038362722,4645833.5216966402,-27500.0,-2598.7566423361232,-4585.4019215293729,-3197.628788111102,-2937.5097427444716,-3064.8802251212119,-1170.3140975228359,5662.1884333970138,-4771.3292573116687,3754.0160306967882,-3754.0160306967882,4771.3292573116687,10972.677230184781,0.0
337154.6038362722,4645833.5216966402,-27500.0,-1963.7544517776928,-5002.8151067704175,-4402.4981165093614,-3129.5446947435162,-3814.2100229472376,-1326.9095391943072,6428.7267804321391,-5149.9206592344326,4205.1120665909966,-4205.1120665909966,5149.9206592344326,12490.691128403098,0.0
342154.6038362722,4645833.5216966402,-27500.0,-1011.0282815896809,-5172.8307925149129,-5828.4637989457306,-3206.7625258695666,-4667.6173499429815,-1503.6202151051057,7230.9844379714677,-5297.9411356538412,4563.0937426832634,-4563.0937426832634,5297.9411356538412,14055.666828477722,0.0
347154.6038362722,4645833.5216966402,-27500.0,256.10861575913367,-4920.7588289969972,-7358.6812090727608,-3092.0214216793638,-5563.5605773143207,-1700.1887719469546,8012.2484398543183,-5058.1301484528331,4719.6618996550123,-4719.6618996550123,5058.1301484528331,15527.341716192937,0.0
352154.6038362722,4645833.5216966402,-27500.0,1735.1145388161517,-4071.7935092305088,-8746.3186503047327,-2700.9696051831206,-6374.117506998412,-1901.1475883472863,8672.0137188356639,-4275.8986314500835,4545.0134988067366,-4545.0134988067366,4275.8986314500835,16687.778311097281,0.0
357154.6038362722,4645833.5216966402,-27500.0,3186.1100842199048,-2540.0884812447493,-9607.7691329974259,-1978.8838948125988,-6895.7777169861129,-2061.5904645256683,9068.7450400712678,-2878.535451376139,3931.0658411584768,-3931.0658411584768,2878.535451376139,17258.117027550372,0.0
362154.6038362722,4645833.5216966402,-27500.0,4256.3398191049164,-452.28417100343489,-9506.6927762757732,-960.83869893389056,-6883.7666389901115,-2101.4615053476214,9053.8259676447651,-979.17025500818704,2865.2166261763723,-2865.2166261763723,979.17025500818704,16967.089390631318,0.0
367154.6038362722,4645833.5216966402,-27500.0,4617.0440041285901,1776.9809105565441,-8159.8137723023929,177.70812886596306,-6152.9640035252232,-1927.0173667844397,8530.1639796199015,1067.4728137373957,1498.8254053180137,-1498.8254053180137,-1067.4728137373957,15671.787215940083,0.0
372154.6038362722,4645833.5216966402,-27500.0,4175.8343093071126,3542.6145914708754,-5681.497767254391,1143.4183448834988,-4715.314707418951,-1485.3596720917144,7512.5064912644648,2756.8736645476938,139.30267951637597,-139.30267951637597,-2756.8736645476938,13479.131770018234,0.0
377154.6038362722,4645833.5216966402,-27500.0,3196.2715934512935,4346.1469738911755,-2655.1946768205075,1654.3500340944138,-2849.0665775895268,-821.03144994922366,6149.3085651494857,3681.8057472079545,-876.89093023616692,876.89093023616692,-3681.8057472079545,10774.990104461953,0.0
382154.6038362722,4645833.5216966402,-27500.0,2164.6047203772077,4095.3019432124206,117.78447611330225,1603.7697537651425,-1001.1266163947864,-79.029513706308848,4678.3122481782466,3764.5909256153473,-1362.2869952483468,1362.2869952483468,-3764.5909256153473,8103.6128678084406,0.0
387154.6038362722,4645833.5216966402,-27500.0,1481.7317401638077,3130.6279342986268,2039.9356280984837,1116.4546667281629,434.38670255155381,564.44525375443573,3343.3437233823624,3262.9568970215018,-1360.5804909634785,1360.5804909634785,-3262.9568970215018,5947.5222775025441,0.0
392154.6038362722,4645833.5216966402,-27500.0,1260.3325329694574,1958.9796104090537,2958.482959072011,447.23662063148453,1284.4237132325954,989.17121133808905,2441.7957108272526,2554.8569509381459,-1069.4902785729453,1069.4902785729453,-2554.8569509381459,4525.4628490057767,0.0
397154.6038362722,4645833.5216966402,-27500.0,1370.8693243153978,963.59057102978682,3079.4531699087152,-171.2740301283531,1598.5670861516833,1168.3718046019974,2119.5802704931143,1920.3556601334794,-698.44409620175065,698.44409620175065,-1920.3556601334794,3721.0244458444195,0.0
402154.6038362722,4645833.5216966402,-27500.0,1609.2824367302346,302.15837831990808,2732.5682466675571,-611.11579493418253,1541.3885526900913,1147.9264431387924,1871.5915338723989,1472.6904536678362,-380.95528480599148,380.95528480599148,-1472.6904536678362,3242.6497832595355,0.0
407154.6038362722,4645833.5216966402,-27500.0,1818.3698632632747,-36.806383679439946,2199.2885091189528,-845.98603518565096,1287.5067384411291,1003.2737950581544,1647.038870854544,1205.5442947253764,-166.12935932111361,166.12935932111361,-1205.5442947253764,2871.2589495075122,0.0
412154.6038362722,4645833.5216966402,-27500.0,1921.4125512066969,-139.64117561630934,1656.5684079121875,-910.29619680777705,968.44914042321784,805.06426714475401,1449.0171000371263,1063.9471697011261,-49.023240506740592,49.023240506740592,-1063.9471697011261,2525.6316617758807,0.0
417154.6038362722,4645833.5216966402,-27500.0,1905.3395024225142,-101.81731859395626,1189.6663040868086,-859.53506200846505,662.80059386249525,603.17478924324007,1268.6171145819997,990.74466330924349,-2.8053254272615504,2.8053254272615504,-990.74466330924349,2200.2982596140282,0.0
422154.6038362722,4645833.5216966402,-27500.0,1791.8243404550094,1.3900519752204561,824.64054058397187,-745.91236465310442,406.98671967042765,425.14752974427722,1101.7523326830201,944.9768569357966,1.1771324013643039,-1.1771324013643039,-944.9768569357966,1909.8425250825062,0.0
427154.6038362722,4645833.5216966402,-27500.0,1614.2531863293668,120.99990489964357,556.78197279893095,-608.38125921331755,210.69526812680922,281.5866769149406,950.44616989491522,903.5683745313388,-15.019991022582474,15.019991022582474,-903.5683745313388,1665.0743558456238,0.0
432154.6038362722,4645833.5216966402,-27500.0,1404.3953352557685,230.08523292735231,369.12305455716825,-471.57028524779241,69.668091756134075,172.85663522237954,816.85388965303548,856.64555728825781,-37.352980753071449,37.352980753071449,-856.64555728825781,1467.6554637098022,0.0
437154.6038362722,4645833.5216966402,-27500.0,1186.8340513280407,316.88410650545882,242.42587448623283,-348.63595814378226,-25.908525864656159,94.399274021237602,701.32966329295004,802.12005397089138,-58.25013274038497,58.25013274038497,-802.12005397089138,1312.0661838250976,0.0
442154.6038362722,4645833.5216966402,-27500.0,978.02655806559471,378.6804880052444,159.62078015162837,-244.95681426634837,-86.774192245452809,40.08860791788441,603.12168484832807,741.60849923949183,-74.445635198561035,74.445635198561035,-741.60849923949183,1189.4113324659236,0.0
447154.6038362722,4645833.5216966402,-27500.0,787.50211241580178,417.42871286360412,107.1925163567585,-161.28173656365766,-122.47480248755046,3.9877342325868312,568.3955202883692,677.9463142889814,-85.159040041923276,85.159040041923276,-677.9463142889814,1090.6233976632493,0.0
452154.6038362722,4645833.5216966402,-27500.0,619.69003873378938,437.0188200640265,75.130787082988491,-95.962089412984994,-140.66950480765453,-18.921965860146592,545.68560578089807,613.91743181327979,-90.847882886991499,90.847882886991499,-613.91743181327979,1008.2431450228391,0.0
457154.6038362722,4645833.5216966402,-27500.0,475.63943340804695,441.74919450079977,56.341952980677895,-46.353479288751018,-147.13570620241646,-32.572573919499867,520.0804290207833,551.73726875729574,-92.457731199307432,92.457731199307432,-551.73726875729574,936.91917637603296,0.0
462154.6038362722,4645833.5216966402,-27500.0,354.37036871950858,435.57748380968366,45.958277362258229,-9.6100065489290412,-146.05246271050839,-39.899948136727687,492.75954469125384,492.93977054134359,-91.020018386692612,91.020018386692612,-492.93977054134359,873.16872558658588,0.0
467154.6038362722,4645833.5216966402,-27500.0,253.82810533920639,421.82533770410276,40.724039527318133,16.916010432047791,-140.3489173034954,-43.024304340982802,464.70305211578648,438.44736186542781,-87.464366648267344,87.464366648267344,-438.44736186542781,814.8840390685848,0.0
472154.6038362722,4645833.5216966402,-27500.0,171.5062411443345,403.12431273011367,38.510612723467425,35.50840753791644,-132.02479883931935,-43.43927105513098,436.66496443048101,388.70305988632197,-82.550973109479713,82.550973109479713,-388.70305988632197,760.8576838070594,0.0
272154.6038362722,4650833.5216966402,-27500.0,-1682.3810100663461,-476.53159612703126,261.4616489118967,-658.62575603783318,-152.76697428844818,-192.12464707795189,1206.1291858390055,-804.14503942252713,592.39804357512412,-592.39804357512412,804.14503942252713,2270.5039991754002,0.0
277154.6038362722,4650833.5216966402,-27500.0,-1864.3902735718311,-579.84452634260083,272.94367778695039,-759.75650037617925,-194.139871620821,-227.52134649125625,1363.6799229426824,-926.6875190873061,685.58063836361111,-685.58063836361111,926.6875190873061,2569.5175588694028,0.0
282154.6038362722,4650833.5216966402,-27500.0,-2066.4966476688423,-707.50551486240329,279.10717563831281,-878.38902287071062,-247.44359869545511,-269.78853851587598,1547.0137019398926,-1072.8027791108987,797.05575729117572,-797.05575729117572,1072.8027791108987,2918.1725284843087,0.0
287154.6038362722,4650833.5216966402,-27500.0,-2289.5371682493569,-865.59060831078989,276.31118354788168,-1017.6189534801608,-316.3963301717626,-320.13406318605962,1761.0430080017986,-1247.7717521762456,931.04849845477247,-931.04849845477247,1247.7717521762456,3326.2054752788067,0.0
292154.6038362722,4650833.5216966402,-27500.0,-2533.4317109753551,-1061.6312333466562,259.08727100746853,-1181.0137144305354,-405.95916606491403,-379.87936654984088,2011.7161299893542,-1458.0958989408414,1092.8608838037194,-1092.8608838037194,1458.0958989408414,3805.5335376028397,0.0
297154.6038362722,4650833.5216966402,-27500.0,-2796.5125157293269,-1304.8299543765036,219.28761150916219,-1372.6338364476733,-522.77560219591282,-450.42975370289042,2306.244148075501,-1711.6763715449429,1289.1268436542177,-1289.1268436542177,1711.6763715449429,4370.793475863341,0.0
302154.6038362722,4650833.5216966402,-27500.0,-3074.4777846401385,-1606.1589478775907,144.87349995671156,-1597.0159407108522,-675.76880982505645,-533.24746197644697,2653.3639863474978,-2017.8777360199156,1528.0710158762313,-1528.0710158762313,2017.8777360199156,5039.9971267779047,0.0
307154.6038362722,4650833.5216966402,-27500.0,-3358.7788515843476,-1978.1507087838911,18.243908688698806,-1859.0709644227124,-876.94273722740161,-629.86907227869779,3063.6159611059852,-2387.2837771857726,1819.6866950895196,-1819.6866950895196,2387.2837771857726,5835.2722127539482,0.0
312154.6038362722,4650833.5216966402,-27500.0,-3634.182897227076,-2434.0131394161258,-185.9517019270931,-2163.7932353343222,-1142.4223285870562,-742.06070192566415,3549.5691019135215,-2830.7696224014226,2175.6361672378862,-2175.6361672378862,2830.7696224014226,6783.5545924896023,0.0
317154.6038362722,4650833.5216966402,-27500.0,-3875.2179516677911,-2985.3985941550741,-503.39801159978651,-2515.5526471328012,-1493.705890929059,-872.2853217938416,4125.8326100214608,-3357.2069518799058,2608.4635646151742,-2608.4635646151742,3357.2069518799058,7916.8634883355444,0.0
322154.6038362722,4650833.5216966402,-27500.0,-4041.314680793012,-3637.7018069969417,-982.52814289201376,-2916.4996011217509,-1958.9121801791655,-1024.7505279119225,4808.5206591763481,-3968.6754148434852,3129.346003909151,-3129.346003909151,3968.6754148434852,9271.3188069564076,0.0
327154.6038362722,4650833.5216966402,-27500.0,-4070.9837447729928,-4381.2105702334893,-1685.2127477697193,-3363.2053866788492,-2573.3310536809431,-1207.3246924274888,5613.6132418912994,-4651.5720727007965,3743.0838762720787,-3743.0838762720787,4651.5720727007965,10883.243057217838,0.0
332154.6038362722,4650833.5216966402,-27500.0,-3876.8075193128557,-5176.1307809396194,-2682.3292731296988,-3840.1337619641067,-3377.5788070579706,-1434.3283769881709,6553.6275824764416,-5361.9124937324359,4438.4988973248383,-4438.4988973248383,5361.9124937324359,12779.514143589187,0.0
337154.6038362722,4650833.5216966402,-27500.0,-3346.119167539252,-5930.4524247058625,-4037.9829417306064,-4308.3050753471825,-4409.8597806732623,-1729.1721903173527,7633.0825440383151,-6004.4904125731382,5172.4916152864344,-5172.4916152864344,6004.4904125731382,14958.200615548583,0.0
342154.6038362722,4650833.5216966402,-27500.0,-2357.4293413470759,-6473.9878870012844,-5773.1868587268191,-4688.8505088110933,-5686.4170719857302,-2123.4784776521715,8843.2635308088284,-6410.502646064303,5848.229312291819,-5848.229312291819,6410.502646064303,17355.713294482808,0.0
347154.6038362722,4650833.5216966402,-27500.0,-828.12902280876881,-6543.127176286438,-7800.3807918054736,-4846.7450650480914,-7163.1011608012586,-2645.8473155639713,10132.529105477317,-6329.4013722106711,6294.9616757236827,-6294.9616757236827,6329.4013722106711,19801.091196481811,0.0
352154.6038362722,4650833.5216966402,-27500.0,1194.0640258933772,-5810.9738714325094,-9833.8553323323304,-4592.8886810578742,-8677.1454805061003,-3291.8658932434382,11347.006563850067,-5467.8889729627572,6271.0611522212512,-6271.0611522212512,5467.8889729627572,21971.180933186712,0.0
357154.6038362722,4650833.5216966402,-27500.0,3416.2198504839826,-4015.3526748530621,-11323.645192599497,-3739.0049375398962,-9892.9948818139928,-3975.8994704468296,12235.923666822862,-3618.1574872620986,5527.6027209426247,-5527.6027209426247,3618.1574872620986,23385.292314706869,0.0
362154.6038362722,4650833.5216966402,-27500.0,5261.8390406865547,-1204.8742459656175,-11530.87323909535,-2232.596189991059,-10322.80380164304,-4494.17580073515,12509.028023735862,-876.2039418407785,3959.3459257000104,-3959.3459257000104,876.2039418407785,23501.798210741486,0.0
367154.6038362722,4650833.5216966402,-27500.0,6071.3066203213039,2026.9751635375637,-9873.8657321274331,-321.52908219324468,-9514.0947350541173,-4563.2602298109714,11941.404022842395,2183.3906422098812,1788.3155506175694,-1788.3155506175694,-2183.3906422098812,21953.645615156212,0.0
372154.6038362722,4650833.5216966402,-27500.0,5555.0841552413485,4635.0452752722231,-6450.6430917392345,1426.6688633681365,-7384.571836259749,-3975.3166796796863,10509.924705606787,4638.8260065735822,-401.43099341682137,401.43099341682137,-4638.8260065735822,18833.465525174128,0.0
377154.6038362722,4650833.5216966402,-27500.0,4129.3354288827959,5712.7931136296302,-2256.379810094717,2402.7056665404325,-4441.2587757854699,-2786.0786235684409,8461.1944690580603,5748.7101124006822,-1936.4928612468289,1936.4928612468289,-5748.7101124006822,14793.301974526375,0.0
382154.6038362722,4650833.5216966402,-27500.0,2667.2758132270383,5150.7738359873629,1332.2814247421361,2372.7687999470095,-1569.1214249700358,-1340.1545472991231,6222.0372901478604,5467.8429389347248,-2483.2101518670534,2483.2101518670534,-5467.8429389347248,10787.017468679122,0.0
387154.6038362722,4650833.5216966402,-27500.0,1821.3730935931992,3647.1034514013099,3444.3398352627246,1612.7603178946888,511.84252322665043,-60.077764395904907,4196.2714844672964,4390.9819955203475,-2216.0365710111769,2216.0365710111769,-4390.9819955203475,7597.39673404921,0.0
392154.6038362722,4650833.5216966402,-27500.0,1657.1656626454414,2066.5678672965978,4084.2572225175036,622.16256894400544,1594.955229915689,796.49452462725958,2878.0060615512548,3209.2969753402058,-1572.6146005596077,1572.6146005596077,-3209.2969753402058,5506.856589384618,0.0
397154.6038362722,4650833.5216966402,-27500.0,1873.3873962699033,905.97715920324731,3772.4891801601298,-219.32506493988097,1881.7779782239695,1197.1528682287696,2469.098655373823,2306.2389524362843,-922.64472486611862,922.64472486611862,-2306.2389524362843,4310.2294939288122,0.0
402154.6038362722,4650833.5216966402,-27500.0,2156.300907796468,256.32568600430324,3052.4841283379728,-757.92490474001988,1698.4235232452934,1248.7808616232187,2070.1268268964395,1749.6369465051196,-442.35034119212128,442.35034119212128,-1749.6369465051196,3607.5514806033011,0.0
407154.6038362722,4650833.5216966402,-27500.0,2329.3203428383317,3.7114865148828695,2275.0426376810615,-1000.8388043107739,1316.1363810760804,1095.6956193674284,1758.4372875152944,1454.3581926394493,-158.15976668053054,158.15976668053054,-1454.3581926394493,3107.9798730744305,0.0
412154.6038362722,4650833.5216966402,-27500.0,2341.0045695533986,-7.3073489864439898,1604.3920617018127,-1025.6553379072971,904.22194139630562,859.14398271770517,1539.6852714162178,1309.0549527572116,-26.888312202765974,26.888312202765974,-1309.0549527572116,2693.6723091113563,0.0
417154.6038362722,4650833.5216966402,-27500.0,2210.7840249830483,97.311900974680711,1088.5528451576176,-920.50691354367484,546.01943800520019,617.27063937052401,1350.8042478256134,1229.4850833459168,9.0520083904538069,-9.0520083904538069,-1229.4850833459168,2339.9181088646415,0.0
422154.6038362722,4650833.5216966402,-27500.0,1984.7184164398893,236.1115084220576,719.2630155486371,-756.34554291454356,269.45993991847047,409.10088157510938,1172.0097632150755,1167.0473173023045,-3.3211090725183112,3.3211090725183112,-1167.0473173023045,2047.2718237535805,0.0
427154.6038362722,4650833.5216966402,-27500.0,1709.9078247404273,365.01772479768641,467.97276165489626,-580.01493900609637,73.138759829794338,247.20123867185765,1007.6217555922291,1100.1986335111849,-33.448859294413296,33.448859294413296,-1100.1986335111849,1813.9295198087048,0.0
432154.6038362722,4650833.5216966402,-27500.0,1423.4055032184908,465.17351867970194,303.6257265963103,-417.46625132776887,-56.504295950868261,129.8490720742239,862.05844035211987,1023.310543697964,-64.690885133863105,64.690885133863105,-1023.310543697964,1631.032888690494,0.0
437154.6038362722,4650833.5216966402,-27500.0,1149.8060207799867,532.3302422793364,199.75630619404984,-280.0488866422578,-135.72701584682392,49.432866034993786,749.66063283716676,938.2246585393666,-89.698349616848816,89.698349616848816,-938.2246585393666,1486.1629803023109,0.0
442154.6038362722,4650833.5216966402,-27500.0,902.91961513042247,569.46987905691162,136.23145921105143,-170.34758845047486,-179.18237871014756,-2.8591127804116159,727.27929623434579,849.22182740441826,-106.41042538472408,106.41042538472408,-849.22182740441826,1367.5005361763122,0.0
447154.6038362722,4650833.5216966402,-27500.0,688.6981965067223,582.3509446659881,98.72392055900302,-86.414710330146605,-198.5081583305066,-34.911365783126783,696.6565357653044,760.54739861693224,-115.34169519879947,115.34169519879947,-760.54739861693224,1266.0119505171692,0.0
452154.6038362722,4650833.5216966402,-27500.0,508.03032991164531,577.13787669941757,77.483148798855453,-24.420396921535726,-202.2961920868685,-52.997624267652306,660.94835148183074,675.47235684097382,-117.99806533427761,117.99806533427761,-675.47235684097382,1175.7546248502274,0.0
457154.6038362722,4650833.5216966402,-27500.0,358.90350375146943,559.31799653401401,66.088474218953479,19.87507824653251,-196.58735416903329,-61.783699917229377,622.57732864213676,596.12816582268476,-116.0612853661755,116.0612853661755,-596.12816582268476,1093.2380858204885,0.0
462154.6038362722,4650833.5216966402,-27500.0,237.8892821944286,533.33401059174935,60.425001432610649,50.403664508009221,-185.47554359601281,-64.589683032361876,583.30208498874151,523.66569623606529,-111.02894977647043,111.02894977647043,-523.66569623606529,1016.5965295569752,0.0
467154.6038362722,4650833.5216966402,-27500.0,141.07459239467389,502.57135303024319,57.921075143842302,70.507807467604337,-171.64861457275958,-63.703963242207386,544.3578630619013,458.50462521994433,-104.0968696407536,104.0968696407536,-458.50462521994433,944.91184518822581,0.0
472154.6038362722,4650833.5216966402,-27500.0,64.596621868067814,469.49555365523111,57.012101895121759,82.887106725666683,-156.81605918875545,-60.664003606462124,506.57856976714595,400.57080133315685,-96.156524122304205,96.156524122304205,-400.57080133315685,877.75883867402922,0.0
477154.6038362722,4650833.5216966402,-27500.0,4.9175855226592828,435.83244648100845,56.776913424961272,89.650703310616777,-142.02485771992622,-56.478913225727801,470.49738005771854,349.485975807567,-87.838535554090839,87.838535554090839,-349.485975807567,814.93410271623088,0.0
272154.6038362722,4655833.5216966402,-27500.0,-1724.2901120928379,-355.56203016515343,336.96889417465627,-670.74885751858687,-111.79310362270351,-195.20201690892907,1215.8921291460438,-704.16148657921246,549.18137458564149,-549.18137458564149,704.16148657921246,2280.6864628228782,0.0
277154.6038362722,4655833.5216966402,-27500.0,-1925.0701510250994,-442.13345474884284,367.25275854290913,-778.1564471136054,-145.67965722918751,-231.99966978847499,1379.3518852671955,-814.47567659963306,638.27865074114402,-638.27865074114402,814.47567659963306,2589.7613318763947,0.0
282154.6038362722,4655833.5216966402,-27500.0,-2152.5652610658726,-551.37524742786832,397.36256031399245,-905.68928891364874,-190.22648055946826,-276.22158940082556,1570.9842117338569,-947.60061627722507,746.11302577272454,-746.11302577272454,947.60061627722507,2952.9101127364279,0.0
287154.6038362722,4655833.5216966402,-27500.0,-2409.9046413354422,-689.779857813219,425.09046100454157,-1057.5551839216428,-249.09782067164718,-329.29352951141658,1796.6776817840491,-1109.3745763982658,877.57943064091194,-877.57943064091194,1109.3745763982658,3381.7782818637343,0.0
292154.6038362722,4655833.5216966402,-27500.0,-2700.0730500329732,-865.79804223444489,446.73427363726267,-1238.9380543859747,-327.3555846107372,-392.85080371361983,2063.7880509305078,-1307.33975142552,1039.096803660492,-1039.096803660492,1307.33975142552,3891.0786753956218,0.0
297154.6038362722,4655833.5216966402,-27500.0,-3025.4517781051131,-1090.3896522718633,456.23920449187744,-1456.2656229567633,-432.05724982374483,-468.76665173864404,2381.5726020822071,-1551.2089710194862,1239.1222933683568,-1239.1222933683568,1551.2089710194862,4499.5801204565905,0.0
302154.6038362722,4655833.5216966402,-27500.0,-3386.9719225496056,-1377.6392084834742,443.87566217185338,-1717.5619036945666,-573.13889040481661,-559.23570142237509,2761.7626767777324,-1853.3499862029132,1488.8011181197933,-1488.8011181197933,1853.3499862029132,5231.4481254344437,0.0
307154.6038362722,4655833.5216966402,-27500.0,-3782.587118577293,-1745.313512176411,394.23627942290625,-2032.889202497473,-764.72387807618315,-667.01049061842309,3219.2966289907999,-2229.1177697680428,1802.7107962971227,-1802.7107962971227,2229.1177697680428,6118.017586620118,0.0
312154.6038362722,4655833.5216966402,-27500.0,-4204.5740312083108,-2215.0387980924588,283.29096741429049,-2414.8211556188216,-1027.0471388330939,-795.99808979249019,3773.1904452512367,-2696.6237968581263,2199.5218581778281,-2199.5218581778281,2696.6237968581263,7199.9892555354872,0.0
317154.6038362722,4655833.5216966402,-27500.0,-4634.8918876037269,-2811.3661998570624,74.285573059016286,-2878.7051851671026,-1389.203344138012,-952.60740562243609,4447.3965649918118,-3275.0633521472432,2702.0878113619569,-2702.0878113619569,3275.0633521472432,8529.7636795208218,0.0
322154.6038362722,4655833.5216966402,-27500.0,-5037.5653967417138,-3558.230737752453,-287.39897560764422,-3442.0303288515397,-1892.8048024562499,-1148.4862614254905,5271.2181831347953,-3979.910743286312,3335.8561106591433,-3335.8561106591433,3979.910743286312,10172.959785410256,0.0
327154.6038362722,4655833.5216966402,-27500.0,-5347.114206607419,-4470.0561783061003,-879.2867232452852,-4121.2907157760137,-2596.0951531158657,-1405.4696653039937,6278.3219504538038,-4812.100079245196,4123.395357799076,-4123.395357799076,4812.100079245196,12206.797476625508,0.0
332154.6038362722,4655833.5216966402,-27500.0,-5453.3229993456162,-5533.1594184091873,-1803.169727722488,-4923.1336148957416,-3576.5412857871274,-1763.2310836141608,7502.8886405057492,-5737.1292918654981,5071.2740300753758,-5071.2740300753758,5737.1292918654981,14710.718272737397,0.0
337154.6038362722,4655833.5216966402,-27500.0,-5186.885346271024,-6672.2170145046339,-3174.4683953761946,-5824.566703520115,-4926.4926314520144,-2288.2228431974836,8974.8010058225973,-6650.3624319320825,6144.197680330557,-6144.197680330557,6650.3624319320825,17741.530632820817,0.0
342154.6038362722,4655833.5216966402,-27500.0,-4320.269172086324,-7699.6348620999352,-5084.0287352263913,-6736.4750693769129,-6730.2894377866896,-3077.2134471676932,10748.421549572446,-7330.4275736611426,7222.6945804347733,-7222.6945804347733,7330.4275736611426,21282.897353558721,0.0
347154.6038362722,4655833.5216966402,-27500.0,-2615.0160645170467,-8259.896940973551,-7510.1968303068343,-7451.5234220751245,-9003.4076300980723,-4238.6539249382267,12816.482517446571,-7400.2280952236706,8050.5552835820399,-8050.5552835820399,7400.2280952236706,25161.246730308274,0.0
352154.6038362722,4655833.5216966402,-27500.0,37.371626174111597,-7818.0505391090046,-10165.853897792023,-7603.5147739630738,-11573.997864012261,-5824.2831427570445,14918.113360524992,-6351.6501249481826,8205.9810938285827,-8205.9810938285827,6351.6501249481826,28936.747489832091,0.0
357154.6038362722,4655833.5216966402,-27500.0,3359.9722170500499,-5805.359960800587,-12321.096386681262,-6719.9273759941598,-13923.789642028687,-7693.30842055431,16652.282682134384,-3735.554831169572,7179.2157991091763,-7179.2157991091763,3735.554831169572,31826.691817713345,0.0
362154.6038362722,4655833.5216966402,-27500.0,6461.4873675181634,-2055.1844892570712,-12800.832624555924,-4489.889920915406,-15125.175362817152,-9366.8394211487666,17489.478663690716,408.75288413987346,4663.5294117196709,-4663.5294117196709,-408.75288413987346,32804.635015373082,0.0
367154.6038362722,4655833.5216966402,-27500.0,8057.4249393097043,2602.6814869232744,-10523.401355559314,-1225.3752882321282,-14161.581640292634,-10071.877104197705,16947.047928512729,5093.8530668706426,1012.8880410016263,-1012.8880410016263,-5093.8530668706426,31040.923898772122,0.0
372154.6038362722,4655833.5216966402,-27500.0,7422.9716731153139,6327.345068030656,-5587.7831197332607,1934.1011140613671,-10734.309385083418,-9174.866762224523,14905.560327379728,8562.7426397614508,-2581.3149334928339,2581.3149334928339,-8562.7426397614508,26567.308805068267,0.0
377154.6038362722,4655833.5216966402,-27500.0,5283.1824986985675,7486.909730374965,179.15671035227794,3649.5716014417362,-5894.4455190688632,-6785.3472384790575,11803.430201530351,9490.1708590302442,-4731.8993255454798,4731.8993255454798,-9490.1708590302442,20553.720751863366,0.0
382154.6038362722,4655833.5216966402,-27500.0,3281.9979058892231,6128.419109596467,4398.8629817778465,3491.294384871127,-1497.0624857730766,-3828.8418389141084,8454.6242557832229,8136.9384495675267,-4941.4468423365752,4941.4468423365752,-8136.9384495675267,14687.30193392416,0.0
387154.6038362722,4655833.5216966402,-27500.0,2401.4023211108497,3775.134456724335,6037.3740483048887,2195.9133523530418,1222.9634347518634,-1323.1253520975315,5636.1902200814629,5925.3564091874105,-3863.4492622259659,3863.4492622259659,-5925.3564091874105,10116.452918230594,0.0
392154.6038362722,4655833.5216966402,-27500.0,2419.1593222344231,1816.2706671699375,5723.5790203276774,756.72787943471917,2270.4918903105699,280.18520435287451,3939.3525989932064,4030.0997871038203,-2467.8907423742271,2467.8907423742271,-4030.0997871038203,7045.7289870288523,0.0
397154.6038362722,4655833.5216966402,-27500.0,2720.6511295090686,686.24152478517351,4568.9915642190854,-301.49586789280045,2273.8563838845121,1044.1034272633476,2973.311973985295,2810.5506701823988,-1330.1493468215076,1330.1493468215076,-2810.5506701823988,5150.024815372748,0.0
402154.6038362722,4655833.5216966402,-27500.0,2929.0198631996768,225.5196799972255,3316.2855177929014,-886.30124239704901,1816.2314747209552,1227.2558615906082,2248.1127414472721,2148.3835577294294,-600.00681938070966,600.00681938070966,-2148.3835577294294,4013.7597734255742,0.0
407154.6038362722,4655833.5216966402,-27500.0,2932.6331252548403,156.63899373374446,2272.9663161497933,-1090.8883578684561,1248.8776205119348,1091.7413824641228,1828.3625238415689,1821.4312989864131,-215.94491638820364,215.94491638820364,-1821.4312989864131,3306.4290420262341,0.0
412154.6038362722,4655833.5216966402,-27500.0,2749.7686205214432,267.29483976404879,1502.9285465625389,-1050.2674632857281,739.02803321687827,831.90652855931205,1623.5029751970565,1654.1110229042265,-60.212241407967667,60.212241407967667,-1654.1110229042265,2829.0546106914885,0.0
417154.6038362722,4655833.5216966402,-27500.0,2441.2587278052142,429.78825706269276,973.30919156289792,-883.02928548340685,344.9772743699034,562.78631764044758,1428.3241454484055,1542.2431382264895,-28.825783755822727,28.825783755822727,-1542.2431382264895,2485.2435871851535,0.0
422154.6038362722,4655833.5216966402,-27500.0,2070.8491642217859,579.06116848961881,626.19275281651335,-672.69158432588313,69.697457729964668,336.88484491231173,1235.3524049322618,1437.0082940986358,-51.448613405586912,51.448613405586912,-1437.0082940986358,2228.616691331792,0.0
427154.6038362722,4655833.5216966402,-27500.0,1689.1747036851455,689.06899007001527,406.92766964085854,-468.29919221634015,-106.65490426119715,168.34750658442377,1057.6065803434994,1322.6349873070308,-88.486859976902792,88.486859976902792,-1322.6349873070308,2030.6361275001921,0.0
432154.6038362722,4655833.5216966402,-27500.0,1329.6906494322432,755.16272126116496,272.62490458607232,-293.07796646496018,-209.30232194271466,52.654896263472345,968.34930225945777,1199.1679987566931,-121.440002122745,121.440002122745,-1199.1679987566931,1870.3519000768893,0.0
437154.6038362722,4655833.5216966402,-27500.0,1010.5925270648439,782.67153833914597,192.6085836757606,-154.13096643645039,-261.00123583664686,-21.231443626720264,941.45278619311591,1072.1423455057318,-143.92183100931283,143.92183100931283,-1072.1423455057318,1732.9458180374722,0.0
442154.6038362722,4655833.5216966402,-27500.0,738.91029948983567,780.32077376680343,146.16578513959493,-50.016477276989839,-279.52864823924256,-64.817654245232646,899.72984010496248,947.54713659944491,-155.48919950686394,155.48919950686394,-947.54713659944491,1609.2030999143958,0.0
447154.6038362722,4655833.5216966402,-27500.0,514.59671923314409,756.90047776781194,119.8627869281745,24.367982754763133,-277.67222778406119,-87.726154669829256,849.36496047181072,829.93325261632231,-158.06706863592899,158.06706863592899,-829.93325261632231,1494.1995980927227,0.0
452154.6038362722,4655833.5216966402,-27500.0,333.72872035058941,719.87485278989448,105.25417077278529,75.057452919342524,-264.13452298959641,-97.194577476698967,794.89011972398293,722.07630830129983,-154.14244560392882,154.14244560392882,-722.07630830129983,1385.7495861447387,0.0
457154.6038362722,4655833.5216966402,-27500.0,190.67517460830098,675.01690740627464,97.171219928207478,107.70283471459315,-244.58942729121927,-98.332818454000986,739.36422114709376,625.25272958520191,-145.98266978935533,145.98266978935533,-625.25272958520191,1283.1447154576315,0.0
462154.6038362722,4655833.5216966402,-27500.0,79.41311157550146,626.51669025741205,92.533055457332452,127.06338419814567,-222.59537994592901,-94.595021520461444,684.78381734664401,539.67006496077056,-135.38055911722668,135.38055911722668,-539.67006496077056,1186.3325208797849,0.0
467154.6038362722,4655833.5216966402,-27500.0,-5.7586781958873763,577.26125659636807,89.55750987578844,136.91331139778461,-200.29179015743571,-88.237566303492301,632.39574739964257,464.86016536430287,-123.63916688871865,123.63916688871865,-464.86016536430287,1095.4576026170862,0.0
472154.6038362722,4655833.5216966402,-27500.0,-69.890128128156903,529.14014556537097,87.253184430134965,140.13257855034973,-178.89518764584773,-80.688769050108064,582.92564447908944,399.97898865594323,-111.64724905322507,111.64724905322507,-399.97898865594323,1010.6420383508799,0.0
477154.6038362722,4655833.5216966402,-27500.0,-117.27548115026362,483.31502638133401,85.0998270560588,138.86038500615066,-159.03786228437917,-72.822099935485426,536.74266368755548,344.01274093532891,-99.975369897761297,99.975369897761297,-344.01274093532891,931.90213564460225,0.0
272154.6038362722,4660833.5216966402,-27500.0,-1732.1508923098484,-220.30306970803065,398.71698230366064,-671.56938539290968,-66.94855841797704,-195.50155010619585,1213.7491792497394,-586.63698788941508,493.07534608062826,-493.07534608062826,586.63698788941508,2267.0587456634594,0.0
277154.6038362722,4660833.5216966402,-27500.0,-1945.3416518932543,-284.89072711488842,445.85729834047112,-782.62093709369185,-91.692161448258148,-232.9514766100049,1380.5938921730574,-679.47186455353801,574.49750098239849,-574.49750098239849,679.47186455353801,2581.0160930554366,0.0
282154.6038362722,4660833.5216966402,-27500.0,-2190.827717748763,-368.53885698795727,498.00355763884374,-915.81599929818492,-125.12195352212056,-278.17294320171055,1577.4309224291585,-792.63302579821493,674.00238786458158,-674.00238786458158,792.63302579821493,2952.2604810686635,0.0
287154.6038362722,4660833.5216966402,-27500.0,-2474.0541099791467,-477.4359610835146,554.66890544334638,-1076.3845808745923,-170.54223258423031,-332.76055509121255,1811.0149265222717,-931.9237409658499,796.81014614493301,-796.81014614493301,931.9237409658499,3394.0855422064647,0.0
292154.6038362722,4660833.5216966402,-27500.0,-2801.288242394895,-619.97916184586063,614.44714023351139,-1271.0809695612759,-232.6765960272696,-398.61443631072819,2090.0049013975204,-1105.140745555148,950.01924797547417,-950.01924797547417,1105.140745555148,3923.7316246342261,0.0
297154.6038362722,4660833.5216966402,-27500.0,-3179.5466010323835,-807.59886985642925,674.31148560630902,-1508.7723090374061,-318.37192042868196,-478.04423398906198,2425.6396518682482,-1322.7849728075275,1143.3763380254345,-1143.3763380254345,1322.7849728075275,4563.8845222326036,0.0
302154.6038362722,4660833.5216966402,-27500.0,-3616.2406101955594,-1055.8524301499344,728.44026905126202,-1801.3117830370218,-437.70507927590364,-574.00753589252167,2832.6922424363938,-1598.9377111722147,1390.3415277894928,-1390.3415277894928,1598.9377111722147,5344.8390849394091,0.0
307154.6038362722,4660833.5216966402,-27500.0,-4118.202346451686,-1385.7851095249605,766.27634423508709,-2164.818618840221,-605.7427471588444,-690.67298186641221,3330.8035226873121,-1952.1846676883906,1709.4831467493964,-1709.4831467493964,1952.1846676883906,6307.5897437792646,0.0
312154.6038362722,4660833.5216966402,-27500.0,-4689.4102821072238,-1825.3930516151597,769.38502643843481,-2621.4667164784983,-845.34804856549295,-834.70935516717418,3946.2750988929311,-2406.1923587520405,2126.097441534248,-2126.097441534248,2406.1923587520405,7508.0906165305842,0.0
317154.6038362722,4660833.5216966402,-27500.0,-5326.1456214385171,-2410.5950120235871,706.54680825425169,-3201.7027057470764,-1191.6007661129368,-1018.0834498198246,4714.2823580639915,-2988.9259678133685,2673.561372376711,-2673.561372376711,2988.9259678133685,9022.6884196330848,0.0
322154.6038362722,4660833.5216966402,-27500.0,-6007.4088761191915,-3184.1360305885705,526.5869201549807,-3946.2009224689623,-1698.4886754331485,-1263.7378364420533,5681.0974645182523,-3728.2647673191495,3393.0149468106265,-3393.0149468106265,3728.2647673191495,10953.93320471363,0.0
327154.6038362722,4660833.5216966402,-27500.0,-6677.4439785242012,-4188.8746273216275,149.2002043261071,-4905.2850718514501,-2448.159669502314,-1616.1746944299484,6905.038296371813,-4639.6377821932292,4328.1125657359971,-4328.1125657359971,4639.6377821932292,13434.059966742545,0.0
332154.6038362722,4660833.5216966402,-27500.0,-7217.255268939276,-5448.5713617860229,-543.38061838084047,-6130.2209323794696,-3561.2228498916288,-2158.9666440388387,8453.137003440188,-5698.3879983517081,5508.3992758731501,-5508.3992758731501,5698.3879983517081,16619.718490027979,0.0
337154.6038362722,4660833.5216966402,-27500.0,-7406.0661670056661,-6925.2436111014231,-1704.6740247263504,-7645.1828506804868,-5201.3556678110717,-3038.4323402139962,10387.81381589458,-6787.6814858283105,6910.8337952942129,-6910.8337952942129,6787.6814858283105,20665.581686806861,0.0
342154.6038362722,4660833.5216966402,-27500.0,-6887.7313774881259,-8441.3307109529032,-3491.0074014632046,-9382.6098724176882,-7555.8465425651693,-4482.677472901657,12924.684373277263,-7617.8690176629616,8387.5785332901396,-8387.5785332901396,7617.8690176629616,25657.230195118689,0.0
347154.6038362722,4660833.5216966402,-27500.0,-5189.1778480607927,-9568.1496125041449,-5960.2235177391894,-11067.117300015163,-10753.881595216955,-6781.4774984956866,16058.31208897388,-7638.1091625703493,9559.6169633922618,-9559.6169633922618,7638.1091625703493,31479.069537737585,0.0
352154.6038362722,4660833.5216966402,-27500.0,-1891.1880487935225,-9532.0573637935704,-8857.3692916351538,-12070.128223880829,-14664.038241168195,-10154.237383391654,19438.648409804489,-6025.0717602903578,9721.2798764167856,-9721.2798764167856,6025.0717602903578,37603.060480881424,0.0
357154.6038362722,4660833.5216966402,-27500.0,2913.105446840761,-7317.4790126333664,-11288.183928829598,-11381.529321710252,-18538.142621696392,-14416.479582564147,22503.663733971487,-1947.9911822825725,7910.5649178824406,-7910.5649178824406,1947.9911822825725,42850.099270024446,0.0
362154.6038362722,4660833.5216966402,-27500.0,7947.0068332139072,-2336.9063222482114,-11529.785287388528,-8062.9517616605726,-20696.259387438058,-18504.784928085995,24335.829743163769,4626.5964036145406,3444.6868797559846,-3444.6868797559846,-4626.5964036145406,45390.187199943037,0.0
367154.6038362722,4660833.5216966402,-27500.0,10774.771444795966,4239.8248103523611,-7789.8886387687562,-2431.0786322541385,-19004.490268127211,-20421.576081347193,23961.376201249506,11832.204984124077,-2983.1149223646062,2983.1149223646062,-11832.204984124077,43518.729756148328,0.0
372154.6038362722,4660833.5216966402,-27500.0,9791.5800718608079,9082.1081281655461,-403.06092807822796,3094.7750115990625,-12826.281057022081,-18460.952767021194,21072.968277642023,16178.24367139817,-8733.807960421138,8733.807960421138,-16178.24367139817,37199.990669781779,0.0
377154.6038362722,4660833.5216966402,-27500.0,6515.3750870973063,9399.8581189683264,7017.7064277815552,5562.4398572274768,-4728.9304765553597,-13145.842640099298,16528.858175742553,15534.426839077827,-10960.75181981135,10960.75181981135,-15534.426839077827,28664.870921997153,0.0
382154.6038362722,4660833.5216966402,-27500.0,4143.6604583770704,6187.9195060633483,10608.060355183157,4558.030115863281,1295.4879568587312,-7218.0783125801845,11890.42665758984,11584.35138605511,-9453.138610696762,9453.138610696762,-11584.35138605511,20653.261801827324,0.0
387154.6038362722,4660833.5216966402,-27500.0,3718.8134379758071,2777.0500095449761,10068.393507502546,2281.9416067944899,3689.1040963690043,-2900.496136281733,8247.6460759654365,7573.9745327690762,-6436.4943144091849,6436.4943144091849,-7573.9745327690762,14343.936778460167,0.0
392154.6038362722,4660833.5216966402,-27500.0,4040.0979448326207,899.53893248099473,7685.0803871913067,488.67008851380905,3688.8892509997709,-450.45449065345713,5590.7281663397707,4935.393101976686,-3760.0201167865926,3760.0201167865926,-4935.393101976686,9684.3461794066097,0.0
397154.6038362722,4660833.5216966402,-27500.0,4169.7621982000201,292.81591169422666,5272.5005618065716,-521.73849009592914,2824.10717858718,685.43050350605063,3674.8019136683702,3484.5756068704054,-1950.7634017538317,1950.7634017538317,-3484.5756068704054,6496.1146993797383,0.0
402154.6038362722,4660833.5216966402,-27500.0,3970.6421321616372,293.21039777453944,3440.2397443596201,-960.45851625838395,1859.8552364455243,1019.0458984120219,2388.6305862418844,2737.3302284251704,-908.54579176126595,908.54579176126595,-2737.3302284251704,4564.0175862844053,0.0
407154.6038362722,4660833.5216966402,-27500.0,3559.8082212450836,496.33180815132715,2195.8865246925507,-1036.323878176984,1053.6797118503591,928.97429000922659,1981.7481460282681,2345.9636786089177,-396.57340267538825,396.57340267538825,-2345.9636786089177,3533.4088678657463,0.0
412154.6038362722,4660833.5216966402,-27500.0,3045.1791379335928,722.54774193636115,1394.8356680422476,-905.92176149050624,460.53904502500927,675.23646838968546,1738.4106722078054,2106.6880115025674,-196.56343852349846,196.56343852349846,-2106.6880115025674,3015.5661963842022,0.0
417154.6038362722,4660833.5216966402,-27500.0,2499.3655964469085,902.92134036223126,895.56008943736197,-685.42578301964795,62.71392293983881,406.57225541533171,1505.9290990424481,1915.7715539837286,-151.49286998697846,151.49286998697846,-1915.7715539837286,2731.7701309446393,0.0
422154.6038362722,4660833.5216966402,-27500.0,1971.9496459158793,1018.3258734532692,591.57268107954678,-451.22355272984618,-181.18426433682464,187.29378942333454,1295.7074926669839,1731.5647002762996,-167.00756194024893,167.00756194024893,-1731.5647002762996,2539.1323925464562,0.0
427154.6038362722,4660833.5216966402,-27500.0,1494.624510121238,1072.0547064540435,409.73970651098494,-244.26557859590355,-314.86152041636763,32.240345866244922,1267.0734787998067,1544.8847724700449,-195.29770685260394,195.29770685260394,-1544.8847724700449,2377.6749893111128,0.0
432154.6038362722,4660833.5216966402,-27500.0,1083.6057738170998,1076.2976711818505,302.24687260193338,-80.200313309115927,-375.22531025250964,-66.019983405944004,1234.9500376373915,1359.6198322524474,-216.72340454924677,216.72340454924677,-1359.6198322524474,2225.0436395288339,0.0
437154.6038362722,4660833.5216966402,-27500.0,743.14193034540256,1045.0997970609321,238.90925800189896,40.002297801295896,-389.91909115655483,-121.50585561096075,1176.6631316207206,1182.5004966932822,-226.08744172215262,226.08744172215262,-1182.5004966932822,2074.4866159493195,0.0
442154.6038362722,4660833.5216966402,-27500.0,469.68890954930697,991.02910406207616,201.2014111184746,122.1764869361628,-378.08690616068259,-147.71184775920219,1104.2774613560318,1018.9344061421025,-224.38878106099941,224.38878106099941,-1018.9344061421025,1925.5002752751307,0.0
447154.6038362722,4660833.5216966402,-27500.0,255.5687104457121,923.99899941890533,178.02684440396027,174.24814223092883,-352.24425104464638,-155.2645091101455,1025.8309153572318,871.99135738912457,-214.58239282255306,214.58239282255306,-871.99135738912457,1779.7689838795882,0.0
452154.6038362722,4660833.5216966402,-27500.0,91.580740294195152,851.20594383064667,162.88745640400055,203.87470074747949,-320.18795295703836,-151.72390712049236,946.43204100137518,742.68103958703273,-199.70408436483206,199.70408436483206,-742.68103958703273,1639.3722541101788,0.0
457154.6038362722,4660833.5216966402,-27500.0,-31.412132937028645,777.54025935701111,152.06576840660935,217.50655178532352,-286.54883849247693,-142.1339868823662,869.20869404969881,630.58143659806888,-182.20825435379427,182.20825435379427,-630.58143659806888,1506.0554631596469,0.0
462154.6038362722,4660833.5216966402,-27500.0,-121.66682448502793,706.11658407297546,143.49147764150442,220.18534515029259,-253.92165240142603,-129.699633286362,795.9696851026556,534.42773978502112,-163.85199740204249,163.85199740204249,-534.42773978502112,1381.0064023701218,0.0
467154.6038362722,4660833.5216966402,-27500.0,-186.2391424660585,638.76713498842662,136.05124306044129,215.66910387641286,-223.63683095358101,-116.36726071123293,727.65836909391999,452.55126335801526,-145.78746876252441,145.78746876252441,-452.55126335801526,1264.8653203230656,0.0
472154.6038362722,4660833.5216966402,-27500.0,-230.94520795421909,576.44094074891825,129.17588401249108,206.66622557363914,-196.26561134162179,-103.25882706726394,664.6603405625749,383.16663276346787,-128.70707086276229,128.70707086276229,-383.16663276346787,1157.8230803140757,0.0
477154.6038362722,4660833.5216966402,-27500.0,-260.46365158128583,519.5037451644871,122.59744634925724,195.07704757754124,-171.94072663810996,-90.974137982695595,607.0108452811412,324.54143716753549,-112.9798354127052,112.9798354127052,-324.54143716753549,1059.7386887463667,0.0
267154.6038362722,4665833.5216966402,-27500.0,-1514.4997756784915,-47.912790644756825,390.62483927726493,-567.14557666459302,-9.9449577690151152,-162.01521485691083,1056.9152986170188,-397.22747403687225,367.80219640205547,-367.80219640205547,397.22747403687225,1963.2138411467236,0.0
272154.6038362722,4665833.5216966402,-27500.0,-1701.8186486167178,-76.416617217280319,442.81197310969117,-659.93861050926989,-20.049478230824302,-192.78691422967455,1198.9217379857505,-455.58742917255967,425.53713565796664,-425.53713565796664,455.58742917255967,2228.3588050684079,0.0
277154.6038362722,4665833.5216966402,-27500.0,-1919.1567382879496,-114.96035653004463,503.332544302945,-771.40965086994856,-34.461206270732582,-230.01997109457807,1366.2306418877379,-526.41323486004865,495.81955349902557,-495.81955349902557,526.41323486004865,2541.2891512961246,0.0
282154.6038362722,4665833.5216966402,-27500.0,-2172.4739746947084,-167.18106045115368,573.44972005148907,-906.13538246569738,-54.983218760894552,-275.10420734069925,1564.5856705015835,-613.39107648889865,582.33217143693116,-582.33217143693116,613.39107648889865,2913.1148874684923,0.0
287154.6038362722,4665833.5216966402,-27500.0,-2469.1629256469218,-238.1694188070465,654.42930327268527,-1070.1190696742879,-84.250399169658294,-329.72212543946728,1801.3963113102659,-721.59795954370372,690.16328934900628,-690.16328934900628,721.59795954370372,3358.3072473621028,0.0
292154.6038362722,4665833.5216966402,-27500.0,-2818.4251785816919,-335.11141594019648,747.34045264421752,-1271.3941532450899,-126.17184554536225,-395.94041125173129,2086.3642150898677,-858.09431741606727,826.45084933762541,-826.45084933762541,858.09431741606727,3896.035205832567,0.0
297154.6038362722,4665833.5216966402,-27500.0,-3231.6934904758109,-468.22691501013259,852.657709330579,-1520.9634477871393,-186.64803571940121,-476.39747163271164,2432.4034664271694,-1032.7500654789153,1001.3385436541403,-1001.3385436541403,1032.7500654789153,4552.1638264100329,0.0
302154.6038362722,4665833.5216966402,-27500.0,-3722.9952758748918,-652.1284083118187,969.50001677460227,-1834.2804502902802,-274.75792851758013,-574.72742352149191,2857.0049469148544,-1259.3373883671181,1229.3692503591922,-1229.3692503591922,1259.3373883671181,5362.267702764806,0.0
307154.6038362722,4665833.5216966402,-27500.0,-4308.9552699055466,-907.72926656056677,1094.2200005299176,-2233.5818708898405,-404.75623587541389,-696.53901320652653,3384.2538750633976,-1556.8183933258335,1531.4313535292047,-1531.4313535292047,1556.8183933258335,6376.1587219460498,0.0
312154.6038362722,4665833.5216966402,-27500.0,-5007.6940840204006,-1264.7518673519089,1217.8594019598163,-2751.4707721887685,-599.46502344627515,-851.63563481914844,4047.75424094868,-1950.4535886209223,1937.2456697522684,-1937.2456697522684,1950.4535886209223,7664.5427068520657,0.0
317154.6038362722,4665833.5216966402,-27500.0,-5834.9636164278209,-1764.5401543418645,1321.7155035060782,-3436.0824928886805,-896.0100765532585,-1058.8655447544834,4894.6692936505606,-2471.5990979213984,2487.9250574708058,-2487.9250574708058,2471.5990979213984,9328.3151858283563,0.0
322154.6038362722,4665833.5216966402,-27500.0,-6794.1649787436845,-2461.864491434208,1370.0266389592118,-4357.523254763043,-1355.2780132619573,-1356.1922653578156,5990.7970291433849,-3153.3849002590077,3236.9123822598685,-3236.9123822598685,3153.3849002590077,11510.239498282706,0.0
327154.6038362722,4665833.5216966402,-27500.0,-7854.2575694909365,-3421.90973831062,1299.0526984904564,-5613.0732008301038,-2076.545456297692,-1820.231571010665,7425.8726305171385,-4016.1829044447454,4244.7839798469076,-4244.7839798469076,4016.1829044447454,14406.44094231437,0.0
332154.6038362722,4665833.5216966402,-27500.0,-8906.9131672111835,-4703.4520136908995,1004.0297176201913,-7323.0231607969636,-3217.0734328693406,-2600.6332722700809,9318.090820676407,-5031.4289058386021,5557.8801436987869,-5557.8801436987869,5031.4289058386021,18269.943807210042,0.0
337154.6038362722,4665833.5216966402,-27500.0,-9695.8747475895907,-6310.8363895639122,332.85469899261631,-9597.5698904042511,-5009.5616235679445,-3971.6326548724664,11833.547205811061,-6046.706605186976,7152.1940461142267,-7152.1940461142267,6046.706605186976,23388.942276346563,0.0
342154.6038362722,4665833.5216966402,-27500.0,-9728.3836289138981,-8090.0662525001053,-887.39265187125739,-12438.061913517329,-7751.6716236383354,-6386.5414474961481,15243.831333419686,-6658.141939489642,8816.9070576272225,-8816.9070576272225,6658.141939489642,30008.577795926802,0.0
347154.6038362722,4665833.5216966402,-27500.0,-8228.7321838182997,-9555.1173583911695,-2738.5071949734097,-15524.687892975666,-11704.494053708266,-10473.706624817249,19599.513686656574,-6052.3909761777159,9964.2132136370728,-9964.2132136370728,6052.3909761777159,38150.256150186491,0.0
352154.6038362722,4665833.5216966402,-27500.0,-4295.1037365485508,-9692.8391884761786,-4946.3509736602791,-17878.272445555252,-16784.708860689454,-16815.178148423412,24616.537446499227,-2950.0121473543304,9424.9499030098668,-9424.9499030098668,2950.0121473543304,47275.293214335179,0.0
357154.6038362722,4665833.5216966402,-27500.0,2419.3363233324353,-6971.1827076938816,-6435.4051544246522,-17584.890695582078,-21912.796885088344,-25223.688758371845,29546.260303360385,3992.6144260036772,5499.3568194013869,-5499.3568194013869,-3992.6144260036772,55783.158308617356,0.0
362154.6038362722,4665833.5216966402,-27500.0,10218.009829155819,-237.61627348459024,-4934.8513337844579,-12405.926529151753,-24171.802459623665,-33390.634243428067,32933.677468941285,14679.31555798724,-3038.2526652137449,3038.2526652137449,-14679.31555798724,60706.225679071191,0.0
367154.6038362722,4665833.5216966402,-27500.0,14561.59814540359,8638.41396136808,1986.4479074158548,-2622.7248171091642,-19432.47373592349,-36298.743925061004,33024.521250793434,25098.29745271014,-14342.167849118319,14342.167849118319,-25098.29745271014,59014.388978755713,0.0
372154.6038362722,4665833.5216966402,-27500.0,12295.738511787633,13444.118597938796,12727.508417081101,6126.7858033734265,-7162.8979944713228,-29935.250086929496,29345.374340961102,28205.912613305296,-22091.858606524143,22091.858606524143,-28205.912613305296,51094.458640140205,0.0
377154.6038362722,4665833.5216966402,-27500.0,7416.880192945483,10214.793067650548,20083.199863412505,7571.051963646285,5476.3851687637143,-17586.545357465988,23632.339853410922,22099.544619190219,-21169.807343365286,21169.807343365286,-22099.544619190219,40954.476964442991,0.0
382154.6038362722,4665833.5216966402,-27500.0,5957.7363345784379,3610.9596767945068,19462.228318861929,3451.8629297569951,10642.700007757412,-7624.5746015235354,17919.327844156836,13656.085695512667,-14688.943431134596,14688.943431134596,-13656.085695512667,31063.435677148245,0.0
387154.6038362722,4665833.5216966402,-27500.0,7062.6754909272067,-113.78230171725227,14189.925287861748,116.1705247019564,9144.6648774682526,-2904.3567042704767,12518.108404119273,8440.2039330829029,-8757.0173774182003,8757.0173774182003,-8440.2039330829029,21728.574776313766,0.0
392154.6038362722,4665833.5216966402,-27500.0,7337.4363826915578,-636.8548417431158,9022.3076326844748,-902.74035293226405,5957.2431079294283,-849.62657100677052,7848.9289711040801,5884.2259219356101,-4984.3618507230485,4984.3618507230485,-5884.2259219356101,13920.802669858893,0.0
397154.6038362722,4665833.5216966402,-27500.0,6437.9685755674554,-24.422569825248626,5499.5467923797878,-988.18163082111198,3422.658107702101,174.00230813880262,4502.0889956516048,4469.1012483459617,-2717.3856961422935,2717.3856961422935,-4469.1012483459617,8503.8068067790427,0.0
402154.6038362722,4665833.5216966402,-27500.0,5190.7296808510137,632.8976542539624,3362.8582446196747,-884.76758473394761,1758.6626247631043,560.21574280001516,2955.1243139243156,3597.2692854391289,-1425.3711085984012,1425.3711085984012,-3597.2692854391289,5398.8509145858779,0.0
407154.6038362722,4665833.5216966402,-27500.0,4037.5078820124654,1087.4369752135788,2104.0137433665318,-716.26987284328288,717.65881149998609,538.84990044877065,2297.4088539188174,3033.8323483012905,-772.00475240064679,772.00475240064679,-3033.8323483012905,3980.7235752111437,0.0
412154.6038362722,4665833.5216966402,-27500.0,3068.160523950382,1352.0403688659492,1363.9663211782181,-497.8110076974898,88.458405261316059,339.65358705155694,1878.2382555617289,2630.7171262743686,-492.31377422346122,492.31377422346122,-2630.7171262743686,3456.8893278565724,0.0
417154.6038362722,4665833.5216966402,-27500.0,2266.4410277507591,1476.5375996472565,927.20831791232627,-264.42563553632016,-269.19497981922046,117.88430163806214,1666.1648743395569,2299.0654144316968,-396.58870538709471,396.58870538709471,-2299.0654144316968,3240.3816474381551,0.0
422154.6038362722,4665833.5216966402,-27500.0,1608.3304717521714,1503.2408380162062,667.52470930350614,-53.475628968875945,-450.99265805178862,-56.944825640374418,1692.3186173208549,1999.6728834694941,-372.87536321385687,372.87536321385687,-1999.6728834694941,3080.5060973291088,0.0
427154.6038362722,4665833.5216966402,-27500.0,1076.56857419533,1464.6717922679495,510.83226619371197,113.68910155053237,-523.45249324590611,-169.90614321172919,1646.8433252168161,1722.3571594337695,-366.73810616243827,366.73810616243827,-1722.3571594337695,2909.4938283779652,0.0
432154.6038362722,4665833.5216966402,-27500.0,656.32214143186343,1385.5764454567673,413.69456965795234,232.18974897313538,-531.71138144309111,-230.05891286522376,1560.3362646644687,1468.3916433349509,-357.15832196862709,357.15832196862709,-1468.3916433349509,2720.0795035803699,0.0
437154.6038362722,4665833.5216966402,-27500.0,332.25859675441751,1284.2183513808022,350.83236914095488,307.11966452219531,-505.10457423716048,-252.64585575509088,1453.0933561860043,1241.008035105941,-339.17443809687535,339.17443809687535,-1241.008035105941,2519.7880398119128,0.0
442154.6038362722,4665833.5216966402,-27500.0,88.552782631464837,1173.4215063654356,307.68947887323009,347.50979338197226,-461.81883069773198,-251.50285991470028,1338.03543488593,1041.8934233764317,-314.09622518528948,314.09622518528948,-1041.8934233764317,2317.5527099002866,0.0
447154.6038362722,4665833.5216966402,-27500.0,-90.040879154215389,1061.6694793671791,275.97872497430177,362.69124396991702,-412.58775670193256,-236.92771248661361,1223.0664451289128,870.66923169102472,-284.86317300085909,284.86317300085909,-870.66923169102472,2120.3906690887165,0.0
452154.6038362722,4665833.5216966402,-27500.0,-217.23709759524971,954.19216407652573,251.03227141773968,360.65861353929404,-363.39266945327307,-215.80777083738505,1112.7769313284789,725.42361092589954,-254.20278057448462,254.20278057448462,-725.42361092589954,1932.9882555629511,0.0
457154.6038362722,4665833.5216966402,-27500.0,-304.72918341222851,853.91986352294305,230.24589308942856,347.61724723851495,-317.3064594582429,-192.41314869150159,1009.6217793884974,603.40581913620349,-224.10112468476419,224.10112468476419,-603.40581913620349,1758.0750166583355,0.0
462154.6038362722,4665833.5216966402,-27500.0,-362.0989043233609,762.23740353117387,212.17660152412199,328.08921626560527,-275.68837418688867,-169.21076651498348,914.70824877223595,501.57149048900192,-195.80015783546216,195.80015783546216,-501.57149048900192,1596.9297654913582,0.0
467154.6038362722,4665833.5216966402,-27500.0,-396.97381954785402,679.54302886823382,196.02654985136201,305.22052756935989,-238.93032967099435,-147.50570449344519,828.31807884196803,416.93301481129828,-169.96040926429413,169.96040926429413,-416.93301481129828,1449.8369208518868,0.0
472154.6038362722,4665833.5216966402,-27500.0,-415.29807609855686,605.63918915969214,181.35111048502495,281.11406950057557,-206.9081167450216,-127.89121904189811,750.24630801573221,346.74935503351651,-146.8404631780906,146.8404631780906,-346.74935503351651,1316.4408967853831,0.0
477154.6038362722,4665833.5216966402,-27500.0,-421.63099833880699,539.99497899219909,167.89567023497696,257.11889383053858,-179.24669156647417,-110.54502141065603,680.01843877573606,288.60775107694622,-126.44438518642606,126.44438518642606,-288.60775107694622,1196.0037359471028,0.0
267154.6038362722,4670833.5216966402,-27500.0,-1449.804419926397,74.605243123103875,408.10935024257532,-545.55771218146572,28.255346455060597,-157.15558076966082,1031.7814592011193,-278.78856317122882,302.89596037760521,-302.89596037760521,278.78856317122882,1906.0816071644961,0.0
272154.6038362722,4670833.5216966402,-27500.0,-1631.3190099091782,69.097050124857475,466.54848235454455,-635.37705913862817,26.732835520757185,-186.97266176111236,1171.1397595615933,-316.3759130772429,348.97957087177394,-348.97957087177394,316.3759130772429,2164.4205458939014,0.0
277154.6038362722,4670833.5216966402,-27500.0,-1843.2057136404947,58.823308065904946,535.70682459211605,-743.65915520828685,23.181898821162324,-223.05251417737452,1335.7454493806688,-361.96716529229985,405.16107631760264,-405.16107631760264,361.96716529229985,2470.0198496408957,0.0
282154.6038362722,4670833.5216966402,-27500.0,-2092.1154514470722,41.546114559055951,617.85471111677975,-875.15544971076793,16.490464504260629,-266.75256069707967,1531.5318337299516,-418.14813299915994,474.58256608612788,-474.58256608612788,418.14813299915994,2834.2360917482993,0.0
287154.6038362722,4670833.5216966402,-27500.0,-2386.6079400595913,13.974887138307144,715.73675997107114,-1036.2378234747582,4.9456926889042734,-319.73451561573756,1766.2576621959702,-488.60802325383446,561.69866187739376,-561.69866187739376,488.60802325383446,3272.0605631562203,0.0
292154.6038362722,4670833.5216966402,-27500.0,-2737.824535401076,-28.768901508167815,832.61464698155726,-1235.6681709455461,-14.128074152811426,-384.08592240495699,2050.2508925280731,-578.66337447545948,672.93618612766454,-672.93618612766454,578.66337447545948,3803.6758651411478,0.0
297154.6038362722,4670833.5216966402,-27500.0,-3160.3856598429538,-93.976813490775442,972.24310924615918,-1485.8453018627381,-44.983070194440607,-462.58339870516579,2397.5358400620362,-696.00691666220723,817.70254752591723,-817.70254752591723,696.00691666220723,4456.8505116335436,0.0
302154.6038362722,4670833.5216966402,-27500.0,-3673.5001976334752,-192.62037197875006,1138.6858362903579,-1804.8579779374859,-94.511550370828928,-559.30180720858436,2827.563086391358,-851.71401068429782,1009.8973696672413,-1009.8973696672413,851.71401068429782,5270.6646756252458,0.0
307154.6038362722,4670833.5216966402,-27500.0,-4302.0957041419679,-341.26256384694113,1335.7853579689734,-2219.8771391120149,-174.12416156959179,-681.03914636444313,3367.8756005225468,-1061.424187592354,1270.0834678781143,-1270.0834678781143,1061.424187592354,6301.3148544442565,0.0
312154.6038362722,4670833.5216966402,-27500.0,-5077.2911609353368,-564.81914175957979,1565.9278577508289,-2772.6787779100955,-303.10848270460042,-840.59277297691585,4058.1803008343222,-1346.2616140635243,1628.3330479362733,-1628.3330479362733,1346.2616140635243,7631.0278413472088,0.0
317154.6038362722,4670833.5216966402,-27500.0,-6034.3648321303172,-900.1630856830468,1827.4543338195811,-3528.2528338051061,-514.6386821560593,-1064.0609947752046,4956.4037394235456,-1732.132354035517,2127.2051681897019,-2127.2051681897019,1732.132354035517,9381.2384419310984,0.0
322154.6038362722,4670833.5216966402,-27500.0,-7203.8506405958742,-1399.6874989407565,2109.6705411056769,-4586.9839728990655,-866.33320632339201,-1406.4396214368212,6147.2895927263235,-2243.8692550961709,2822.6850264834852,-2822.6850264834852,2243.8692550961709,11730.62580859222,0.0
327154.6038362722,4670833.5216966402,-27500.0,-8586.6411578532552,-2131.2763466925298,2384.2023693439628,-6098.253098458058,-1457.8540449960815,-1983.0698170879816,7753.9648728379398,-2886.1036473626878,3776.8721637273306,-3776.8721637273306,2886.1036473626878,14936.161443175726,0.0
332154.6038362722,4670833.5216966402,-27500.0,-10096.940863651469,-3164.4402203046047,2592.7819999868698,-8264.977873722115,-2456.8338780648464,-3027.901637483275,9954.2056941997234,-3594.372597760575,5027.4814692571508,-5027.4814692571508,3594.372597760575,19348.7714039161,0.0
337154.6038362722,4670833.5216966402,-27500.0,-11452.358040106279,-4518.7071656508224,2638.7727390331174,-11308.37734358033,-4125.9536885416828,-4987.2570262321215,13008.302216831178,-4128.7588895707067,6503.7020952791481,-6503.7020952791481,4128.7588895707067,25401.215190786548,0.0
342154.6038362722,4670833.5216966402,-27500.0,-12007.531250503234,-6032.2119210963738,2412.5251918493927,-15325.134162891827,-6815.1284520765776,-8631.7116113976772,17242.499914227672,-3881.1998358715682,7840.3769364715245,-7840.3769364715245,3881.1998358715682,33522.150245340272,0.0
347154.6038362722,4670833.5216966402,-27500.0,-10608.598616550318,-7115.5754639377637,1925.694242298307,-19930.689321910169,-10815.067361795334,-15079.211867601021,22836.134881367831,-1624.4418376093249,8055.6058527033601,-8055.6058527033601,1624.4418376093249,43904.661202065727,0.0
352154.6038362722,4670833.5216966402,-27500.0,-5726.4338982886275,-6468.5824754693231,1647.723118543428,-23616.786826068696,-15873.021232117049,-25413.191982615743,29604.228758937752,4554.8563963120896,5196.3484332013895,-5196.3484332013895,-4554.8563963120896,56051.439121947697,0.0
357154.6038362722,4670833.5216966402,-27500.0,3586.4227366010418,-2110.4650194066207,2978.3786384075443,-23041.573280033343,-20143.428057532368,-39213.982077762623,36694.124541488694,16439.958818338302,-3508.3051002914017,3508.3051002914017,-16439.958818338302,68041.144931062765,0.0
362154.6038362722,4670833.5216966402,-27500.0,14943.398830310651,7318.7100533791954,8432.3140196549903,-13761.312607257454,-18701.110162505764,-51196.948708809316,42191.831561603445,32657.1513770335,-19437.061162579579,19437.061162579579,-32657.1513770335,75922.991736788681,0.0
367154.6038362722,4670833.5216966402,-27500.0,19849.776206496583,17924.418994738593,19831.640073216557,3132.0965828264707,-4814.403558740165,-49140.30000002931,43774.463641269074,43631.821613878055,-36409.2522560543,36409.2522560543,-43631.821613878055,76296.78663923555,0.0
372154.6038362722,4670833.5216966402,-27500.0,13479.901945628022,18424.079729527548,31652.888069338434,13072.995635702964,18244.07378892809,-26680.560455739389,41493.723977452886,36864.759263027219,-39403.183274992603,39403.183274992603,-36864.759263027219,72128.663944696105,0.0
377154.6038362722,4670833.5216966402,-27500.0,7749.0448676240176,7065.3905690924885,32681.754817672416,5660.9819521399568,31530.305116636624,-1725.4245030071277,36832.886495231243,19211.086958634583,-25439.652666924998,25439.652666924998,-19211.086958634583,64622.051932527422,0.0
382154.6038362722,4670833.5216966402,-27500.0,11008.350161594584,-2340.0704011710263,23781.06314672736,-5290.7310705674599,26829.844085485987,5416.185806126834,28914.087711737589,9553.7584277425813,-12121.855822156165,12121.855822156165,-9553.7584277425813,50257.004533121537,0.0
387154.6038362722,4670833.5216966402,-27500.0,14341.427688318072,-3639.8413973926299,14372.02057840732,-6836.5142048451116,15914.355910745197,1962.1161792262005,19057.054461229924,8094.9785217655044,-7244.0897428518438,7244.0897428518438,-8094.9785217655044,33066.392244327428,0.0
392154.6038362722,4670833.5216966402,-27500.0,12743.438064916674,-1544.6570904142168,8344.7503671729755,-3852.2813069060339,7990.6249411472654,-295.3897948248736,10896.547250512731,7353.5746636540543,-5248.8414646511546,5248.8414646511546,-7353.5746636540543,19370.96086807207,0.0
397154.6038362722,4670833.5216966402,-27500.0,9248.3863363206619,354.50823086276949,5012.7501079940112,-1526.2844924973151,3669.753858078896,-478.63001946721107,6004.677361027464,6004.8278808851728,-3545.7281612949546,3545.7281612949546,-6004.8278808851728,10914.316287536909,0.0
402154.6038362722,4670833.5216966402,-27500.0,6210.0452833761192,1418.5024497117051,3181.0262936575909,-443.77633612362041,1444.0508916085535,-221.77984021708713,3822.8359034821224,4733.449040537791,-2223.7865011098224,2223.7865011098224,-4733.449040537791,6629.0511285053663,0.0
407154.6038362722,4670833.5216966402,-27500.0,4078.2546490565742,1897.9315960938736,2135.9650313324219,14.420968515576014,288.42233291396781,-136.62343275388054,2717.1657852610433,3793.3010411471614,-1416.2556150370585,1416.2556150370585,-3793.3010411471614,4940.4242242033597,0.0
412154.6038362722,4670833.5216966402,-27500.0,2638.3751073487861,2054.8642201480302,1515.758658866037,255.67963607527574,-303.36161991242193,-208.86326444248289,2371.0879421902273,3115.7042546180801,-996.91440874642581,996.91440874642581,-3115.7042546180801,4394.346293048904,0.0
417154.6038362722,4670833.5216966402,-27500.0,1641.1157052139313,2041.34535318025,1134.2358620832615,420.34373043661537,-582.19274628727544,-319.62923564805129,2338.3211188883788,2593.3358600716124,-792.23596333385012,792.23596333385012,-2593.3358600716124,4141.9524502264767,0.0
422154.6038362722,4670833.5216966402,-27500.0,928.98247046775361,1938.1174978772342,890.4405624701958,537.0662480001705,-684.89047164969566,-401.62930604739245,2243.3189746805278,2162.4179788646584,-683.03472744525141,683.03472744525141,-2162.4179788646584,3906.6830569203162,0.0
427154.6038362722,4670833.5216966402,-27500.0,413.80582145670911,1790.1440167932651,727.56598402262114,609.32908445947737,-691.39775885774202,-438.4393484479067,2100.9672255125524,1795.4811537665223,-608.52121487097918,608.52121487097918,-1795.4811537665223,3640.597895571796,0.0
432154.6038362722,4670833.5216966402,-27500.0,43.256910335456539,1624.0335273943219,613.12460613570454,641.65398353563614,-649.10831892729527,-437.43148183613397,1935.1498647025444,1481.9521141577231,-544.07833049766555,544.07833049766555,-1481.9521141577231,3352.816477932513,0.0
437154.6038362722,4670833.5216966402,-27500.0,-218.02509898394328,1455.7986273567767,528.42361516703841,642.22077067923226,-585.52355104025389,-411.88327162273987,1762.7163283771815,1216.4797941501818,-482.44938778490314,482.44938778490314,-1216.4797941501818,3059.9635339715842,0.0
442154.6038362722,4670833.5216966402,-27500.0,-396.51118424227053,1294.7441644941148,462.65036439297404,620.3233761695875,-515.94208303004291,-373.46153169604435,1594.1514884353487,994.35873977031611,-423.07806770922247,423.07806770922247,-994.35873977031611,2775.0614055593123,0.0
447154.6038362722,4670833.5216966402,-27500.0,-512.8939746400672,1145.8087196161819,409.48589643218196,584.29091756610717,-448.35074248641314,-330.33480581904678,1435.364918199178,810.47521234909823,-367.21570546389739,367.21570546389739,-810.47521234909823,2506.3118788052298,0.0
452154.6038362722,4670833.5216966402,-27500.0,-583.41399467070846,1011.1363530237621,365.16838880101051,540.6336713294429,-386.49768228171962,-287.49190309379799,1289.2464802780048,659.48073220409276,-316.07407764397874,316.07407764397874,-659.48073220409276,2258.0650539206445,0.0
457154.6038362722,4670833.5216966402,-27500.0,-620.66106247292714,891.15652965583195,327.39311182709258,493.99182950194842,-331.76954872342822,-247.61942914291996,1156.8030188865432,536.18792473344138,-270.33183638441966,270.33183638441966,-536.18792473344138,2032.0137460677201,0.0
462154.6038362722,4670833.5216966402,-27500.0,-634.23449372893549,785.30988816614331,294.69085511912766,447.43528553743153,-284.30304190774871,-211.92106387535208,1037.9269133777711,435.86374047596104,-230.14698154953845,230.14698154953845,-435.86374047596104,1828.159678780188,0.0
467154.6038362722,4670833.5216966402,-27500.0,-631.3373344496091,692.5211844626192,266.07871610483778,402.8489761898328,-243.62436219946463,-180.72297377049966,931.8956654062506,354.37454018031917,-195.30890063290349,195.30890063290349,-354.37454018031917,1645.5082695540077,0.0
472154.6038362722,4670833.5216966402,-27500.0,-617.29640693446743,611.4934364915888,240.8628713826252,361.28172873583225,-209.00467817359049,-153.87352502901206,837.6830527319371,288.21725512161424,-165.39147161235584,165.39147161235584,-288.21725512161424,1482.5324503062086,0.0
477154.6038362722,4670833.5216966402,-27500.0,-596.00026252418911,540.88403760783933,218.52725559033794,323.22253114797041,-179.65020777170108,-130.98993763388842,754.14890376004485,234.48382131043968,-139.86910298294015,139.86910298294015,-234.48382131043968,1337.4728430847083,0.0
267154.6038362722,4675833.5216966402,-27500.0,-1353.4338506741376,191.34767919702367,408.42921611293116,-514.14225184689087,64.277590896273139,-149.98523149124074,996.48770069548846,-159.41871721155886,233.7001413273575,-233.7001413273575,159.41871721155886,1829.5906002946228,0.0
272154.6038362722,4675833.5216966402,-27500.0,-1521.3792143249523,208.48153148530432,468.86536067774881,-598.21557965055956,71.046727735898997,-178.15026414833696,1130.7188269641078,-175.32082559294651,266.65028754807361,-266.65028754807361,175.32082559294651,2076.3201941251614,0.0
277154.6038362722,4675833.5216966402,-27500.0,-1717.7546732985891,226.38954938144252,541.16317626785383,-699.6129420912655,78.093474517115766,-212.1431564619831,1289.4050695112526,-194.23882143927509,306.64295223584372,-306.64295223584372,194.23882143927509,2368.3222803378235,0.0
282154.6038362722,4675833.5216966402,-27500.0,-1949.1089507776167,244.48296196393875,628.19156405921922,-822.902539037937,85.066040672273317,-253.20049704017981,1478.4071572133837,-217.35888744728541,355.98976891751158,-355.98976891751158,217.35888744728541,2716.6611699781201,0.0
287154.6038362722,4675833.5216966402,-27500.0,-2224.0650814450055,261.7013329744874,733.62407053759341,-974.30672600812079,91.30776959133317,-302.8380974656252,1705.4603925185452,-246.50189974751572,418.06167280607838,-418.06167280607838,246.50189974751572,3136.0709356060629,0.0
292154.6038362722,4675833.5216966402,-27500.0,-2554.1594835346446,276.21137966627913,862.18016506531512,-1162.556561731325,95.631657474002964,-362.98526564169703,1980.982204184817,-284.46105788351576,497.86421634771739,-497.86421634771739,284.46105788351576,3646.6084775248337,0.0
297154.6038362722,4675833.5216966402,-27500.0,-2955.0314191210327,284.91629661981079,1019.9291862638682,-1400.3204800519707,95.917474593020557,-436.296456871239,2319.3229715914567,-335.47474022560664,602.92894524414191,-602.92894524414191,335.47474022560664,4276.2471968616746,0.0
302154.6038362722,4675833.5216966402,-27500.0,-3448.0306599664541,282.6624839060176,1214.6533117391034,-1706.6342386060046,88.378911815485864,-526.90243444343139,2740.734034308377,-405.81031237357246,744.65404623925292,-744.65404623925292,405.81031237357246,5065.0016961730653,0.0
307154.6038362722,4675833.5216966402,-27500.0,-4062.161893944723,260.98049832701173,1456.2337917030388,-2111.0570348826609,66.207887619480431,-642.21291059266514,3274.4895659087224,-504.27174912499629,940.20167898532065,-940.20167898532065,504.27174912499629,6071.5136996875844,0.0
312154.6038362722,4675833.5216966402,-27500.0,-4835.7869954040325,206.17578289081996,1756.9460953763632,-2660.7028072444373,17.039845298979728,-797.14944470213629,3963.8272399484026,-641.98236433482361,1214.8405137093739,-1214.8405137093739,641.98236433482361,7383.4597692951629,0.0
317154.6038362722,4675833.5216966402,-27500.0,-5816.156671119692,96.717906720593589,2131.381251501095,-3431.7175246209817,-81.788573212265945,-1023.786911578387,4873.6553319771347,-829.62989877577024,1603.8486979455217,-1603.8486979455217,829.62989877577024,9133.4995056343923,0.0
322154.6038362722,4675833.5216966402,-27500.0,-7051.5865156676318,-99.416412724921372,2595.3978171170202,-4546.5565869426555,-271.95731606983253,-1392.4813998416648,6102.2644516825412,-1067.6325222483356,2150.8805083076395,-2150.8805083076395,1067.6325222483356,11522.219519192888,0.0
327154.6038362722,4675833.5216966402,-27500.0,-8564.0829385814577,-424.34429907160563,3163.1050985308611,-6195.461708643672,-629.37383168663064,-2055.8170613870461,7798.5468734103115,-1318.7966081486325,2894.1160565119003,-2894.1160565119003,1318.7966081486325,14847.241565724318,0.0
332154.6038362722,4675833.5216966402,-27500.0,-10277.445113378024,-916.60083097998063,3841.1185127334165,-8649.1290478787305,-1287.4293355189616,-3333.1347309810421,10186.191407435708,-1441.759777175507,3818.9000911205003,-3818.9000911205003,1441.759777175507,19530.202036097522,0.0
337154.6038362722,4675833.5216966402,-27500.0,-11860.080655567892,-1556.3281517656762,4623.8452578391461,-12216.912940275362,-2460.1289770339095,-5852.2633605685269,13588.571725487021,-1046.8102829120137,4731.1605435379088,-4731.1605435379088,1046.8102829120137,26114.427584122805,0.0
342154.6038362722,4675833.5216966402,-27500.0,-12450.197616398915,-2109.0109252836073,5514.9344250950862,-17031.965064848777,-4416.0270001278323,-10721.804748829962,18398.99243229147,769.2398477351876,4973.2256903384241,-4973.2256903384241,-769.2398477351876,35168.07745164189,0.0
347154.6038362722,4675833.5216966402,-27500.0,-10361.543153539589,-1797.1646659898315,6662.040231558819,-22442.956462876613,-7233.9671505481138,-19525.456464491377,24909.083508264419,5756.3247696312783,2921.4680026921587,-2921.4680026921587,-5756.3247696312783,46984.268323793658,0.0
352154.6038362722,4675833.5216966402,-27500.0,-3274.8539109355156,1055.241121887183,8740.5061258049373,-25850.934134498788,-9980.6849013916926,-33451.799434468368,33030.285813887196,16402.402231750042,-4479.0629729224111,4479.0629729224111,-16402.402231750042,61029.492746329372,0.0
357154.6038362722,4675833.5216966402,-27500.0,10052.996284750428,8561.3606279654814,13289.077412501843,-21544.381196246446,-9132.0513956032046,-50112.243111799529,41989.673672959107,33832.744194911742,-20780.649671043866,20780.649671043866,-33832.744194911742,75416.06398730287,0.0
362154.6038362722,4675833.5216966402,-27500.0,24991.078836756569,20690.325150203691,21622.686527127709,-2535.048085570837,2607.2617997140528,-56379.787910267034,50334.512142120308,51464.640366153821,-44233.677340400216,44233.677340400216,-51464.640366153821,87649.395509972543,0.0
367154.6038362722,4675833.5216966402,-27500.0,25615.393010566466,29009.226023785792,31668.742062429199,23777.147410624089,31346.95358036437,-26188.801395704049,57578.558757504426,48251.263784112998,-55010.277244619203,55010.277244619203,-48251.263784112998,101007.25103022814,0.0
372154.6038362722,4675833.5216966402,-27500.0,10159.174358068647,18471.296705117773,34460.774653848217,20989.301039627851,59509.960578739025,33698.424907946035,63806.437448215314,15846.825359307168,-28764.59531847791,28764.59531847791,-15846.825359307168,116370.73317553473,0.0
377154.6038362722,4675833.5216966402,-27500.0,9738.1470131496171,201.33359903966669,25279.282602361982,-10559.289894606542,56385.738419600762,58003.078345801245,59853.974158812627,-5169.186012729685,4860.9990372003967,-4860.9990372003967,5169.186012729685,108136.99901589353,0.0
382154.6038362722,4675833.5216966402,-27500.0,22078.926649487184,-5397.9096450435254,14759.025729515359,-25114.914476373393,34554.943055652533,35424.568322605381,43568.883349216114,1262.8365964317973,9023.4127445665217,-9023.4127445665217,-1262.8365964317973,76754.134857472862,0.0
387154.6038362722,4675833.5216966402,-27500.0,24923.102041649567,-2833.5812629759535,8875.1832171702881,-17233.638135506375,17150.443890955732,10557.175139469338,26001.295034537765,9547.8353823669404,-155.40156802567981,155.40156802567981,-9547.8353823669404,45065.151736570668,0.0
392154.6038362722,4675833.5216966402,-27500.0,18601.044130875856,200.22876701893668,5963.2863109546479,-6900.6065713614216,7766.4738342846522,494.11443570198998,13854.53161985569,10321.385564892928,-4620.9407974673086,4620.9407974673086,-10321.385564892928,24138.611572384663,0.0
397154.6038362722,4675833.5216966402,-27500.0,11404.526012961784,1873.4474235879788,4292.3494493761873,-1405.0721191333075,3206.6816179411812,-1509.563681556524,7559.3984560608942,8083.6931540891565,-4598.0197669387744,4598.0197669387744,-8083.6931540891565,13145.721804737583,0.0
402154.6038362722,4675833.5216966402,-27500.0,6394.9140878731114,2542.0098541886814,3197.4294856862734,648.23450152912119,995.04923642149231,-1391.4732006580409,4758.9728755492342,5897.9541383984269,-3391.9202577084047,3391.9202577084047,-5897.9541383984269,8340.9421817012917,0.0
407154.6038362722,4675833.5216966402,-27500.0,3396.944554809922,2696.414660520597,2441.6530991027189,1245.9344976145942,-82.600294596100426,-1108.8846033490172,3705.033034804308,4381.9357242222877,-2369.4300816476839,2369.4300816476839,-4381.9357242222877,6587.8813650253733,0.0
412154.6038362722,4675833.5216966402,-27500.0,1649.2731685615636,2613.9550883226484,1910.3880939479061,1367.6306402014586,-582.69969612730551,-963.91630177310219,3383.2680738720328,3375.457988513454,-1725.2427530044356,1725.2427530044356,-3375.457988513454,5891.300714498625,0.0
417154.6038362722,4675833.5216966402,-27500.0,600.78739809100966,2426.3820308534791,1530.6989624701871,1353.8579553715833,-778.10034382830588,-893.57491303194217,3133.9073415906446,2666.2478809287441,-1340.376526194601,1340.376526194601,-2666.2478809287441,5428.1288519220352,0.0
422154.6038362722,4675833.5216966402,-27500.0,-52.116638307751217,2196.95817387959,1252.9987034344492,1297.1696009248433,-814.33062295815898,-833.46753485685485,2873.0576259675804,2128.8593611008164,-1093.4176734586392,1093.4176734586392,-2128.8593611008164,4985.0590754414407,0.0
427154.6038362722,4675833.5216966402,-27500.0,-465.94350551804081,1958.3452775864268,1044.221238724801,1219.2310685324383,-772.1641475116221,-761.43931784870267,2604.6663753627572,1702.9034161987111,-914.46530465651711,914.46530465651711,-1702.9034161987111,4535.1733124521979,0.0
432154.6038362722,4675833.5216966402,-27500.0,-724.82481167129777,1728.0915837600769,882.83331141348901,1127.5553141638245,-696.23293917895023,-678.36236034260082,2340.9285336099138,1359.3942739744537,-771.19199666842383,771.19199666842383,-1359.3942739744537,4091.3681213849127,0.0
437154.6038362722,4675833.5216966402,-27500.0,-878.63045106761831,1515.2466807218673,754.91631327141226,1028.2372452589027,-610.37704060989051,-591.6021275588065,2091.4455708153801,1081.8684547918579,-650.38353685246068,650.38353685246068,-1081.8684547918579,3668.7054261247463,0.0
442154.6038362722,4675833.5216966402,-27500.0,-959.92396645930876,1323.7507415692123,651.38639432720117,926.97571309316857,-526.58027407816166,-507.83195076241969,1861.8195061516972,858.5648665869885,-546.82859723354795,546.82859723354795,-858.5648665869885,3277.0273222948808,0.0
447154.6038362722,4675833.5216966402,-27500.0,-991.33033110744543,1154.4834666680072,566.17970721062966,828.35416485117969,-450.24396939406756,-431.21165032264412,1654.4114509009839,679.81162321139766,-458.12670129105243,458.12670129105243,-679.81162321139766,2921.0181402533735,0.0
452154.6038362722,4675833.5216966402,-27500.0,-988.99967294528312,1006.5870769144475,495.12390469508392,735.50756699310614,-383.25108186529275,-363.63214645760934,1469.4218222653426,537.33267744267937,-382.6531875004892,382.6531875004892,-537.33267744267937,2601.6909107234433,0.0
457154.6038362722,4675833.5216966402,-27500.0,-964.51489338581666,878.31411831256742,435.25069818929319,650.23335562085015,-325.70269071438975,-305.44891074206294,1305.7778811228748,424.09552875967023,-318.91521772293987,318.91521772293987,-424.09552875967023,2317.7872735729238,0.0
462154.6038362722,4675833.5216966402,-27500.0,-926.12913724745215,767.55321396908141,384.37961839463964,573.29739177403178,-276.87564618688799,-256.14285500029234,1161.753904776645,334.23921307545379,-265.43164330752188,265.43164330752188,-334.23921307545379,2066.8081201192094,0.0
467154.6038362722,4675833.5216966402,-27500.0,-879.65065159231403,672.13476635324662,340.86169629792812,504.75803213421972,-235.73202906601304,-214.78001085470538,1035.362535026466,262.96908993942958,-220.76712380215955,220.76712380215955,-262.96908993942958,1845.6886919289532,0.0
472154.6038362722,4675833.5216966402,-27500.0,-829.10331804079931,589.99852038137624,303.4194464284214,444.23645977027672,-201.17892288917409,-180.29248127887448,924.58898242944849,206.42074216226769,-183.58756196871394,183.58756196871394,-206.42074216226769,1651.2183402695064,0.0
477154.6038362722,4675833.5216966402,-27500.0,-777.22109238409337,519.27354664991196,271.04350854703472,391.11449389472131,-172.19072440743093,-151.63237707204925,827.51913347924199,161.51233360439639,-152.69717747895052,152.69717747895052,-161.51233360439639,1480.281404584294,0.0
482154.6038362722,4675833.5216966402,-27500.0,-725.81565401890543,458.30691924454936,242.92381179071981,344.66812499927016,-147.85858957921852,-127.84614754098179,742.40215822146229,125.80333841687964,-127.05339425390979,127.05339425390979,-125.80333841687964,1329.9840436672907,0.0
267154.6038362722,4680833.5216966402,-27500.0,-1228.4951174145422,296.41175676505685,392.40756753244079,-473.87386124028251,96.407364832021088,-140.71856015553197,951.80811593175258,-44.287008442255612,163.17492294144847,-163.17492294144847,44.287008442255612,1735.6657650695929,0.0
272154.6038362722,4680833.5216966402,-27500.0,-1375.6701540791678,334.00619815342708,450.61072092812503,-549.65302429114024,110.58596934169802,-166.59672350212136,1078.5870981543617,-39.117622440988598,182.37911826545826,-182.37911826545826,39.117622440988598,1966.4120231019926,0.0
277154.6038362722,4680833.5216966402,-27500.0,-1547.0881854088468,377.51320973380859,520.48591419797401,-640.73381946959887,127.13897781860943,-197.64990868064416,1228.3146497298853,-31.982627467356522,205.2591767158404,-205.2591767158404,31.982627467356522,2239.0720850236148,0.0
282154.6038362722,4680833.5216966402,-27500.0,-1748.3481645601018,427.96366513325177,605.00462481077511,-751.13345337931298,146.43644954364069,-234.90910713090889,1406.50950699333,-22.583216715140637,233.1170161209688,-233.1170161209688,22.583216715140637,2563.8847665393082,0.0
287154.6038362722,4680833.5216966402,-27500.0,-1986.9090107173681,486.54668062092423,708.06036741502226,-886.37282495735258,168.84925955518173,-279.62048044104114,1620.489749313238,-10.701812181710267,267.94402474678839,-267.94402474678839,10.701812181710267,2954.5367411911438,0.0
292154.6038362722,4680833.5216966402,-27500.0,-2272.8983349254436,554.60377639904743,834.80583501766455,-1054.305324816326,194.68565137358465,-333.36888515163071,1880.1744402569564,3.7167515019908706,312.82788291425879,-312.82788291425879,-3.7167515019908706,3429.7607269867744,0.0
297154.6038362722,4680833.5216966402,-27500.0,-2620.2844837542834,633.59398773435134,992.1293495407923,-1266.5378825971727,224.05782605513457,-398.39433398884142,2199.3423493070304,20.495376209842021,372.57633028302519,-372.57633028302519,-20.495376209842021,4015.8719107837278,0.0
302154.6038362722,4680833.5216966402,-27500.0,-3048.4954386082113,725.00943040929189,1189.3299849107052,-1540.9076559651546,256.61063077024403,-478.39924886052512,2597.6427486731727,39.289969548604034,454.61559771170619,-454.61559771170619,-39.289969548604034,4750.8517187587786,0.0
307154.6038362722,4680833.5216966402,-27500.0,-3584.4144438487447,830.22115102343378,1439.0717390703812,-1905.8157185761968,290.97899249863866,-580.55051596185774,3103.8396565949347,60.156927511937425,570.1209060916616,-570.1209060916616,-60.156927511937425,5690.9534746554873,0.0
312154.6038362722,4680833.5216966402,-27500.0,-4264.1406828292666,950.27254193898818,1758.7108986144558,-2407.7154669653823,323.71652958323239,-720.28542522588748,3761.0493432576131,85.598427747223866,734.9597602753613,-734.9597602753613,-85.598427747223866,6921.2895628153583,0.0
317154.6038362722,4680833.5216966402,-27500.0,-5132.3637109727888,1085.810225767266,2172.0750826348581,-3123.5715309124998,347.21804329628469,-932.45517946489076,4635.1192020737071,126.5021647112178,968.90761506029389,-968.90761506029389,-126.5021647112178,8572.3283260464414,0.0
322154.6038362722,4680833.5216966402,-27500.0,-6233.2836525402372,1237.9587897287108,2711.6543001926239,-4179.8873070673926,345.84539963106505,-1296.1557090422536,5827.7624010914005,217.62519427249651,1288.611844341689,-1288.611844341689,-217.62519427249651,10844.153766214453,0.0
327154.6038362722,4680833.5216966402,-27500.0,-7578.0045675472629,1412.9018996767259,3420.8155067148764,-5776.256719155941,289.33064589973503,-1987.2528576002614,7496.3641376484029,455.00768374639506,1682.5062278919047,-1682.5062278919047,-455.00768374639506,14038.315875836734,0.0
332154.6038362722,4680833.5216966402,-27500.0,-9055.0229570458596,1638.7241165365579,4354.9572881189224,-8196.2552931338196,124.14687672065088,-3380.9579909344438,9880.7712207461136,1080.1204329744226,2039.6853184744498,-2039.6853184744498,-1080.1204329744226,18589.56089669828,0.0
337154.6038362722,4680833.5216966402,-27500.0,-10221.668070190639,2018.728175611664,5580.3424377055799,-11740.775718320378,-226.23400616062125,-6223.9844347968892,13325.789955347107,2652.1460387516522,1973.6202703497943,-1973.6202703497943,-2652.1460387516522,25068.513137958125,0.0
342154.6038362722,4680833.5216966402,-27500.0,-9905.5447409823755,2879.6569094202036,7176.2167887100222,-16395.333113057797,-796.35950165803433,-11821.360200122601,18254.212667259304,6341.8846933777031,442.90599788398958,-442.90599788398958,-6341.8846933777031,34079.071428350806,0.0
347154.6038362722,4680833.5216966402,-27500.0,-5734.3100747845847,5093.1188502369778,9283.0289926611222,-20824.109226852033,-1238.8490848231913,-21823.000898247221,25022.859372531886,14187.247552371089,-4860.4767408580947,4860.4767408580947,-14187.247552371089,45927.444579850649,0.0
352154.6038362722,4680833.5216966402,-27500.0,5391.2488266696264,10311.994077597637,12283.299715877336,-20403.010308676268,277.10899109603423,-36104.128922692304,33683.587341657185,28209.110190199761,-17615.818299759769,17615.818299759769,-28209.110190199761,60195.062238136175,0.0
357154.6038362722,4680833.5216966402,-27500.0,23565.841168826944,19355.861395003034,16572.31400403145,-6329.3960226364325,8538.6131679019927,-46059.568680349788,44057.597883190712,45321.644181094176,-39028.429214321717,39028.429214321717,-45321.644181094176,76632.470541444432,0.0
362154.6038362722,4680833.5216966402,-27500.0,38539.267134432557,27723.627672538132,19566.685828000074,27207.885145643468,27979.261106540391,-24654.041813086998,57107.140870916322,47602.305075658616,-54756.76163689977,54756.76163689977,-47602.305075658616,100147.56980382786,0.0
367154.6038362722,4680833.5216966402,-27500.0,26626.992395626174,26028.566125980655,14980.011409689609,54425.667842165509,51664.3158971745,61659.313447584544,75765.979962960322,8385.7814742320861,-24057.547695117304,24057.547695117304,-8385.7814742320861,143866.11761234666,0.0
372154.6038362722,4680833.5216966402,-27500.0,2810.2087105612932,12296.536963903423,5544.806680278175,15893.623147220027,56328.131244629898,150031.70307796923,93901.508776442075,-39147.966694987248,49685.145757225997,-49685.145757225997,39147.966694987248,178910.77712905145,0.0
377154.6038362722,4680833.5216966402,-27500.0,16311.391228968687,3491.1498079096336,1730.8452847941162,-39540.457331046971,37198.388019597973,127850.34844938967,82497.532277958424,-27680.257891714598,69116.426858438004,-69116.426858438004,27680.257891714598,152177.19303734487,0.0
382154.6038362722,4680833.5216966402,-27500.0,34617.04957307467,3758.0865309498099,2841.3303994993344,-43554.627568348224,19255.790891697492,57412.484341725125,53285.730151285992,3951.0093436391981,34992.265320156133,-34992.265320156133,-3951.0093436391981,95390.83996122019,0.0
387154.6038362722,4680833.5216966402,-27500.0,32615.225209131204,4604.6369617109967,4165.6135465744446,-23038.518491475133,10094.253713848706,14208.605396372926,29114.078694834378,16021.812415555542,5757.9432548630903,-5757.9432548630903,-16021.812415555542,50854.034182163465,0.0
392154.6038362722,4680833.5216966402,-27500.0,21349.842069716869,4339.1128982503615,4540.0124814326646,-7091.7928894694996,5272.6255987809873,-468.83249441134717,15075.457614677907,14342.409867775179,-4988.5140141523743,4988.5140141523743,-14342.409867775179,26127.050211700207,0.0
397154.6038362722,4680833.5216966402,-27500.0,11464.820248518985,3847.1231845008542,4221.9746268548688,140.28667234626673,2412.0379656240752,-3197.8545859685355,8589.9780760040485,9912.846063854995,-6227.6198110361947,6227.6198110361947,-9912.846063854995,14938.783372773087,0.0
402154.6038362722,4680833.5216966402,-27500.0,5311.2872544721622,3430.045112758567,3629.0324951559023,2470.1841378501131,738.14116229908461,-2900.5002489640133,6052.4544298625915,6540.5802969771139,-4933.2579837924077,4933.2579837924077,-6540.5802969771139,10568.099689369879,0.0
407154.6038362722,4680833.5216966402,-27500.0,1947.5934719805693,3080.5519887273831,3015.2860083628666,2889.1707880118561,-166.84965783639313,-2295.571316030323,5074.4978376604322,4467.1766279256426,-3580.1245555501519,3580.1245555501519,-4467.1766279256426,8790.3157942636826,0.0
412154.6038362722,4680833.5216966402,-27500.0,180.62427903515106,2760.4668286883461,2479.0810515963326,2729.472462270136,-598.8076217844623,-1857.723974939453,4470.7904494742088,3212.6011836898697,-2628.9952072516426,2628.9952072516426,-3212.6011836898697,7772.3307505831499,0.0
417154.6038362722,4680833.5216966402,-27500.0,-747.52088182881357,2454.4755135565219,2039.4907705137468,2443.7653579530233,-759.9791992731715,-1553.8843903400445,3973.6435513016891,2399.9205566558098,-2003.3843178842349,2003.3843178842349,-2399.9205566558098,6956.078149109564,0.0
422154.6038362722,4680833.5216966402,-27500.0,-1234.2835169161151,2163.3518062430508,1686.8860518051385,2155.4229635380088,-777.78593058457375,-1316.6399297478233,3527.8937339174145,1828.2859710198911,-1576.0111930035771,1576.0111930035771,-1828.2859710198911,6210.7376135466147,0.0
427154.6038362722,4680833.5216966402,-27500.0,-1477.7371129981379,1892.7174380306278,1405.1283749510314,1890.1030005671309,-726.94035688410736,-1113.680866754376,3120.7767137369406,1402.3335775333883,-1264.1443374708081,1264.1443374708081,-1402.3335775333883,5517.5953086832778,0.0
432154.6038362722,4680833.5216966402,-27500.0,-1579.4980144544172,1647.2624305105869,1179.1269578777747,1650.7156466510564,-648.63660923141538,-935.25305842851822,2751.3058276130591,1075.6927173383856,-1023.8292473695233,1023.8292473695233,-1075.6927173383856,4881.0888552723527,0.0
437154.6038362722,4680833.5216966402,-27500.0,-1595.6359822574229,1429.1364242865718,996.62944116092865,1436.5370330074372,-564.23260837577277,-779.58236803550972,2420.2467749368643,822.64801507569427,-832.56395006972434,832.56395006972434,-822.64801507569427,4306.2326884724625,0.0
442154.6038362722,4680833.5216966402,-27500.0,-1559.6358503220204,1238.2081044300442,848.14508705486435,1246.5631146209791,-483.95001409503658,-646.13546108570108,2127.1125490493869,626.34567502755635,-678.01998304187146,678.01998304187146,-626.34567502755635,3794.2380993155939,0.0
447154.6038362722,4680833.5216966402,-27500.0,-1492.6963302144809,1072.8312721870504,726.41939989676132,1079.588741554008,-412.0300291361981,-533.66207575722478,1869.9011499994106,474.33478217523714,-552.469868043372,552.469868043372,-474.33478217523714,3342.8664239266004,0.0
452154.6038362722,4680833.5216966402,-27500.0,-1408.6502455096231,930.55880535258734,625.9059810675883,934.0477770826808,-349.65089634052492,-440.10912786284285,1645.6011119381587,356.90470234692935,-450.36764604815852,450.36764604815852,-356.90470234692935,2947.6875075700391,0.0
457154.6038362722,4680833.5216966402,-27500.0,-1316.5858264378192,808.65272678211022,542.33974251302618,808.04737507545963,-296.52197946308479,-363.00576537473285,1450.7374720342432,266.37573048812442,-367.3682129815553,367.3682129815553,-266.37573048812442,2603.1980481350229,0.0
462154.6038362722,4680833.5216966402,-27500.0,-1222.4112598309846,704.39893210171783,472.41553736754258,699.51173337026762,-251.72762773086191,-299.82519922703,1281.7683028487581,196.69140862695133,-299.93131671108404,299.93131671108404,-196.69140862695133,2303.5979013674905,0.0
467154.6038362722,4680833.5216966402,-27500.0,-1129.8716433983484,615.27745973808157,413.55178449910926,606.33599383446506,-214.15720567622736,-248.21254526269578,1135.3257690445184,143.11049169660913,-245.14199934766043,245.14199934766043,-143.11049169660913,2043.2631576717363,0.0
472154.6038362722,4680833.5216966402,-27500.0,-1041.2391586756944,539.03827494750828,363.7157930636406,526.50320231397438,-182.71210594516467,-206.09380070080545,1008.3390061997331,101.94788210257602,-200.60457208753579,200.60457208753579,-101.94788210257602,1816.9973505614871,0.0
477154.6038362722,4680833.5216966402,-27500.0,-957.79184327279154,473.72141379180317,321.29520614659793,458.15707560648264,-156.39569571179149,-171.70665095201019,898.08209305932235,70.355103503245516,-164.36139486276949,164.36139486276949,-70.355103503245516,1620.142189035158,0.0
482154.6038362722,4680833.5216966402,-27500.0,-880.1470710146715,417.64663703555362,285.00223967990172,399.63751322920206,-134.34359463475852,-143.58799143369052,802.17752044050235,46.138149633857495,-134.82229465314322,134.82229465314322,-46.138149633857495,1448.6034863085065,0.0
267154.6038362722,4685833.5216966402,-27500.0,-1080.135873099613,384.61730440132095,362.24943931135624,-426.30774997648024,123.15649251807493,-129.69138405864507,898.9393348691093,61.712310674978163,94.414946850023171,-94.414946850023171,-61.712310674978163,1627.0899838378641,0.0
272154.6038362722,4685833.5216966402,-27500.0,-1200.6675468829537,438.83451827195057,414.53644109119722,-491.70747686326473,143.33497397687907,-152.76193608575832,1016.2517094666607,85.848561082974996,100.21826114093129,-100.21826114093129,-85.848561082974996,1838.2326964541842,0.0
277154.6038362722,4685833.5216966402,-27500.0,-1339.3952393693044,503.06268377088884,477.11385998960873,-569.6562974568933,167.55452343217249,-180.17962276745368,1154.3832987124279,116.37500401823371,106.37244196754415,-106.37244196754415,-116.37500401823371,2086.7978043461876,0.0
282154.6038362722,4685833.5216966402,-27500.0,-1500.2364155121945,579.63069382052629,552.5870363689595,-663.30546921709856,196.76001885240595,-212.70184317185416,1318.2698272607777,154.91824309454671,113.14300126282552,-113.14300126282552,-154.91824309454671,2381.7492331372318,0.0
287154.6038362722,4685833.5216966402,-27500.0,-1688.4028524297,671.54793848482723,644.38007963627172,-776.99055361998967,232.14982190734932,-251.20372774465704,1514.454027305336,203.53540965243778,121.07539877057232,-121.07539877057232,-203.53540965243778,2735.0498031693951,0.0
292154.6038362722,4685833.5216966402,-27500.0,-1910.9784788686757,782.75904179464953,757.04635230451561,-916.92174252325867,275.25747489741002,-296.76670170443975,1751.8103677716974,264.88291602080358,131.19384294470586,-131.19384294470586,-264.88291602080358,3163.0603357786681,0.0
297154.6038362722,4685833.5216966402,-27500.0,-2177.7445678143854,918.52258817280506,896.71591748585274,-1092.3948616733128,328.0701693466923,-350.95002068016061,2042.6894272758068,342.54460524925298,145.28272029992831,-145.28272029992831,-342.54460524925298,3688.766580798123,0.0
302154.6038362722,4685833.5216966402,-27500.0,-2502.2619799425343,1085.9904713488829,1071.7456054571639,-1317.9395235995669,393.21047229024322,-416.54423099114194,2404.7549805746503,441.74219326992136,166.20255009349162,-166.20255009349162,-441.74219326992136,4345.37004117783,0.0
307154.6038362722,4685833.5216966402,-27500.0,-2903.004717702479,1295.1234041043492,1293.666232307095,-1617.1185089561404,474.23421035488292,-499.51893087857053,2863.959454101438,570.96329769324961,197.99674780278951,-197.99674780278951,-570.96329769324961,5182.0938799107889,0.0
312154.6038362722,4685833.5216966402,-27500.0,-3403.6747431393578,1560.1878275637303,1578.5512776090231,-2029.0983950941511,576.15614470304831,-613.79790231258335,3459.3619086568897,745.75484382004788,244.98389396112094,-244.98389396112094,-745.75484382004788,6273.4630539874588,0.0
317154.6038362722,4685833.5216966402,-27500.0,-4030.0171989584392,1902.3021045942151,1948.9357141042865,-2619.4083161051717,706.45087581967789,-792.44199747388757,4250.8523421342779,997.50762727211475,307.55099536544492,-307.55099536544492,-997.50762727211475,7733.6821521462844,0.0
322154.6038362722,4685833.5216966402,-27500.0,-4795.9410145490428,2353.9641036868329,2436.2955916803598,-3495.5029303323322,877.10934079392086,-1112.6217925790738,5331.2618301693046,1393.350481305682,368.72780934452783,-368.72780934452783,-1393.350481305682,9737.5806188809929,0.0
327154.6038362722,4685833.5216966402,-27500.0,-5661.3888376587975,2967.531564401726,3083.5803088479202,-4822.4555786854844,1109.2152929921172,-1748.0763075180137,6844.4425570256153,2079.5217378461484,357.31184410249864,-357.31184410249864,-2079.5217378461484,12547.698708375208,0.0
332154.6038362722,4685833.5216966402,-27500.0,-6423.1075172799556,3832.0710430561871,3945.5879317128142,-6814.0762960190286,1444.1003595501261,-3068.9928846752509,9008.7920043901613,3370.1344983525369,56.188652093424935,-56.188652093424935,-3370.1344983525369,16540.484498420254,0.0
337154.6038362722,4685833.5216966402,-27500.0,-6465.314426381462,5108.6754934759556,5080.3075530908827,-9612.0294993325151,1973.6389993798552,-5795.6438323579296,12136.10727700721,5907.8185697710423,-1103.6112959507655,1103.6112959507655,-5907.8185697710423,22207.495670351283,0.0
342154.6038362722,4685833.5216966402,-27500.0,-4289.9371130588715,7103.7741369484256,6513.9374081304541,-12796.987061897878,2932.4211419169837,-11084.702520661183,16617.937415865024,10867.23480738993,-4432.3329633606045,4432.3329633606045,-10867.23480738993,30079.545712872216,0.0
347154.6038362722,4685833.5216966402,-27500.0,2952.4076958570718,10372.282514912627,8149.2047568394628,-13968.199426893427,4992.4552341060089,-19818.947801533664,22868.350578973837,19788.795870561142,-12377.509128575137,12377.509128575137,-19788.795870561142,40580.01714384248,0.0
352154.6038362722,4685833.5216966402,-27500.0,18055.116335693703,15412.876619002616,9595.8664887710638,-6303.2778258359658,9988.6590313136221,-28480.948774337747,31408.102643504542,32078.911488538666,-27103.008029879755,27103.008029879755,-32078.911488538666,54540.70242523175,0.0
357154.6038362722,4685833.5216966402,-27500.0,36441.526704233693,19812.74813421088,9818.6467448922522,18814.67335326067,20307.430058641479,-19202.13261497311,43493.978170877766,36843.87119948621,-41240.371740120536,41240.371740120536,-36843.87119948621,76160.265296454192,0.0
362154.6038362722,4685833.5216966402,-27500.0,41777.630564436382,15322.577904467242,6502.5765884230632,53190.583603579202,28126.587320873481,36676.788600085216,60863.776461183785,12054.709115957863,-25169.611407201744,25169.611407201744,-12054.709115957863,112497.95119147698,0.0
367154.6038362722,4685833.5216966402,-27500.0,20039.087544380836,6172.1812890321662,160.72854096195005,58565.022962235467,13198.65345649036,137407.61425006093,83626.365637612413,-39694.327645159894,48088.674879843151,-48088.674879843151,39694.327645159894,165620.35048802939,0.0
372154.6038362722,4685833.5216966402,-27500.0,1076.5694322269367,10923.555613648925,-1653.2000555812122,-333.08415305159008,-10290.986816142959,191329.36580305322,101728.83366208656,-55502.028924144222,119788.28812310909,-119788.28812310909,55502.028924144222,193388.06248763515,0.0
377154.6038362722,4685833.5216966402,-27500.0,21407.807252953222,19635.39485527236,1530.8202150099157,-49881.836620534523,-12439.457773245573,130576.99820616304,82713.381316945844,-13827.719570120666,98622.246903999345,-98622.246903999345,13827.719570120666,153520.09919538951,0.0
382154.6038362722,4685833.5216966402,-27500.0,37428.688114754987,18541.110812693965,4306.2951600762208,-42994.897051362212,-3419.2820698577457,50082.377584352602,50212.7209199032,18672.103157097277,39388.886069222812,-39388.886069222812,-18672.103157097277,91040.681042448821,0.0
387154.6038362722,4685833.5216966402,-27500.0,31877.74367525478,12622.502938364709,5254.7347821044978,-19253.432373298798,2202.8749589796289,9044.1991488642125,26617.894692053898,23205.496082095073,3887.324849518227,-3887.324849518227,-23205.496082095073,47189.854727224207,0.0
392154.6038362722,4685833.5216966402,-27500.0,19315.304472902139,7635.5680765070019,5248.7447112419504,-3659.1767795984483,3182.0609309661972,-3497.0094429324213,14446.383229136429,16769.59948369538,-7445.7104318392567,7445.7104318392567,-16769.59948369538,25354.091419240773,0.0
397154.6038362722,4685833.5216966402,-27500.0,9257.923052461214,4792.3726438064969,4830.0249990314351,2855.2029589530407,2213.2569968824446,-5286.1262090568407,9518.0688535389982,10289.152157572764,-8352.6981230855054,8352.6981230855054,-10289.152157572764,16576.750609316434,0.0
402154.6038362722,4685833.5216966402,-27500.0,3229.2452488205931,3403.3397982665329,4231.0968446611378,4638.3903971191321,1038.1418590676803,-4489.8341480134031,7542.6808757234539,6150.7351945616392,-6627.0939962935045,6627.0939962935045,-6150.7351945616392,13070.831752461449,0.0
407154.6038362722,4685833.5216966402,-27500.0,65.844581427352878,2718.2033357667101,3596.8599981333382,4629.6421948413381,207.01314140676553,-3510.732422696683,6369.560946170508,3830.7594905868891,-4875.3966120286777,4875.3966120286777,-3830.7594905868891,11157.245783914301,0.0
412154.6038362722,4685833.5216966402,-27500.0,-1475.4735015112185,2319.0610528836633,3008.8932825561728,4114.0573214200049,-260.34663549227997,-2765.7281305898441,5484.5222131903829,2531.9295930770108,-3591.5851044625538,3591.5851044625538,-2531.9295930770108,9730.0644400829042,0.0
417154.6038362722,4685833.5216966402,-27500.0,-2174.5113075987579,2027.5109021074325,2499.8051985732436,3531.9781279510862,-476.28974177857157,-2218.5985737318661,4760.9425536076142,1753.5859163073328,-2704.9278449216918,2704.9278449216918,-1753.5859163073328,8514.3891114127309,0.0
422154.6038362722,4685833.5216966402,-27500.0,-2444.3495421187486,1780.4795975104187,2074.373266886425,3002.878378498172,-545.71462985589324,-1797.4802751174425,4143.118712937483,1245.3067003633362,-2080.9736186753653,2080.9736186753653,-1245.3067003633362,7441.0916264547786,0.0
427154.6038362722,4685833.5216966402,-27500.0,-2492.7244066837234,1559.8343857958253,1725.0651608601995,2546.8575430591345,-538.82337109167383,-1460.0203190908769,3605.2548771017232,890.47584870467267,-1624.9391776980676,1624.9391776980676,-890.47584870467267,6490.7772943271448,0.0
432154.6038362722,4685833.5216966402,-27500.0,-2425.304978351181,1361.820582041368,1440.442686889676,2159.1575993006195,-496.73516444730984,-1185.010677901188,3135.7379438548146,633.16279826517757,-1280.5820171604323,1280.5820171604323,-633.16279826517757,5654.8614613030595,0.0
437154.6038362722,4685833.5216966402,-27500.0,-2298.2599488532228,1185.9045323844175,1208.9674617902638,1830.8996421561994,-441.73323707661103,-960.55759730254977,2727.5690014004235,443.47002419636556,-1014.9002304713792,1014.9002304713792,-443.47002419636556,4925.3973721538241,0.0
442154.6038362722,4685833.5216966402,-27500.0,-2142.9638345204066,1031.4514539349836,1020.4430405854722,1553.641512705866,-385.12178851273268,-778.19807187880292,2374.590576900272,303.03642224752298,-807.35103488103186,807.35103488103186,-303.03642224752298,4293.0709031345732,0.0
447154.6038362722,4685833.5216966402,-27500.0,-1977.5651079857735,897.13044892055507,866.37554513000782,1319.9607575985276,-332.16325330274441,-630.84119757216934,2070.6196096194872,199.2606755793737,-644.08740554380813,644.08740554380813,-199.2606755793737,3747.5427234991521,0.0
452154.6038362722,4685833.5216966402,-27500.0,-1812.6678551821046,781.09168384624206,739.89348265848776,1123.3516219257463,-284.93270124806315,-512.26969788311033,1809.5371078990354,122.93908122312456,-515.12998078026794,515.12998078026794,-122.93908122312456,3278.2446337509728,0.0
457154.6038362722,4685833.5216966402,-27500.0,-1654.345145217761,681.25669268875174,635.51912475972733,958.11226740011057,-243.89720858507468,-417.09194064244133,1585.5453220237187,67.17477968515243,-412.97194456425734,412.97194456425734,-67.17477968515243,2875.0406781423862,0.0
462154.6038362722,4685833.5216966402,-27500.0,-1505.8649994028456,595.54076898253379,548.91411953863462,819.27843657597498,-208.76461105106085,-340.74569258039048,1393.3555599787981,26.764923211511359,-331.83595222412106,331.83595222412106,-26.764923211511359,2528.6287360923425,0.0
467154.6038362722,4685833.5216966402,-27500.0,-1368.7455463885451,521.98794226146015,476.64982120927056,702.57446994865904,-178.92815693148532,-279.4589157523414,1228.2798299603728,-2.2112139647670119,-267.22935613167419,267.22935613167419,2.2112139647670119,2230.7303004555793,0.0
472154.6038362722,4685833.5216966402,-27500.0,-1243.421919823589,458.83658561794215,416.01393473384655,604.35783396041541,-153.69133450216549,-230.16798266272303,1086.2440793686662,-22.698487887148318,-215.64376018023626,215.64376018023626,22.698487887148318,1974.1282313168701,0.0
477154.6038362722,4685833.5216966402,-27500.0,-1129.6776981086405,404.54147061538731,364.85563516043192,521.55559693634348,-132.37581786324046,-190.4160772871515,963.75648656831584,-36.90141799958522,-174.33530698219582,174.33530698219582,36.90141799958522,1752.619945543604,0.0
267154.6038362722,4690833.5216966402,-27500.0,-915.13852614134555,452.06161067357675,321.31119502309502,-373.46342777186243,143.41397455678205,-117.33685985015394,839.42894173126251,154.4370334670279,30.358524837231791,-30.358524837231791,-154.4370334670279,1507.3355178435124,0.0
272154.6038362722,4690833.5216966402,-27500.0,-1005.1093760705517,517.82707469511604,364.9937030972556,-427.05624954611869,167.79249964918486,-137.23444113755988,945.70265548575685,194.18630103194693,24.027160424531928,-24.027160424531928,-194.18630103194693,1696.2723711280739,0.0
277154.6038362722,4690833.5216966402,-27500.0,-1106.0431444859271,596.17993906369338,416.7402367511371,-489.96593784945378,197.28377324809568,-160.53914430308041,1070.1949614213675,243.72898105942986,15.11351466773894,-15.11351466773894,-243.72898105942986,1917.368859585192,0.0
282154.6038362722,4690833.5216966402,-27500.0,-1219.7166574522851,690.19743397876698,478.46069663110256,-564.27269202439402,233.17644605488491,-187.69486583296737,1217.0786889360929,305.65134361445274,2.9804690527719799,-2.9804690527719799,-305.65134361445274,2178.0178007400818,0.0
287154.6038362722,4690833.5216966402,-27500.0,-1348.4120714220178,803.92251080755364,552.62298814040696,-652.80738009784091,277.16049650783185,-219.14566446894867,1391.853016011687,383.32426799412974,-13.089912367409141,13.089912367409141,-383.32426799412974,2488.0117249538284,0.0
292154.6038362722,4690833.5216966402,-27500.0,-1495.1331228250199,942.7574939877552,642.44545811424382,-759.62190951649711,331.49806171575045,-255.37155099945005,1601.9362408886454,481.23882089119991,-33.885992393884294,33.885992393884294,-481.23882089119991,2860.6445902429709,0.0
297154.6038362722,4690833.5216966402,-27500.0,-1663.8665291227483,1114.0599506327512,752.1613194445938,-890.83766231062691,399.30215616630898,-297.07342913761829,1857.5985627467712,605.59167389016466,-60.296302015495996,60.296302015495996,-605.59167389016466,3314.4523422079956,0.0
302154.6038362722,4690833.5216966402,-27500.0,-1859.7668561710998,1328.0610314109404,887.37772869096761,-1056.1733794483532,485.01631320068691,-345.77194475832277,2173.4503073628221,765.38989342238074,-93.518710603451211,93.518710603451211,-765.38989342238074,3875.9887052931049,0.0
307154.6038362722,4690833.5216966402,-27500.0,-2088.8364887555058,1599.295571560094,1055.5466306960463,-1271.6395677352209,595.27995107639981,-405.4506561856208,2570.8255105596663,974.66142302159597,-135.85169047952837,135.85169047952837,-974.66142302159597,4584.2380255084317,0.0
312154.6038362722,4690833.5216966402,-27500.0,-2355.859253607659,1948.8245383301432,1266.5325590047416,-1564.062728826731,740.54888865776161,-486.6719177393926,3081.5761214679032,1257.0293114889923,-193.13715491545508,193.13715491545508,-1257.0293114889923,5497.5013152475221,0.0
317154.6038362722,4690833.5216966402,-27500.0,-2657.3159338565251,2407.6048654407805,1533.1466810546233,-1977.9147080131536,938.1974830299016,-616.21744435407652,3754.0050189895928,1655.2622675234711,-281.52295810820294,281.52295810820294,-1655.2622675234711,6703.7064337203092,0.0
322154.6038362722,4690833.5216966402,-27500.0,-2961.2687679317228,3021.251873356277,1871.175582193918,-2583.0977934681368,1218.4800265790529,-858.23791727362141,4661.8553197426581,2250.8942619415161,-444.81108514752043,444.81108514752043,-2250.8942619415161,8334.7243270327035,0.0
327154.6038362722,4690833.5216966402,-27500.0,-3155.9688082955317,3855.5829971607855,2297.4873410142741,-3474.8916369617791,1635.7505075171762,-1356.8201251792395,5917.1143434182031,3202.6167035404505,-796.00439059490941,796.00439059490941,-3202.6167035404505,10583.655185489348,0.0
332154.6038362722,4690833.5216966402,-27500.0,-2929.809219128409,4999.0395134581904,2822.2919386850454,-4732.906546903826,2288.3182915710959,-2409.3603559396256,7685.7998166328089,4813.557175314214,-1608.8791813968749,1608.8791813968749,-4813.557175314214,13720.257408938192,0.0
337154.6038362722,4690833.5216966402,-27500.0,-1521.8804986051721,6547.5766987013349,3425.3220240276619,-6235.6341360316364,3348.452945510106,-4546.6027630004501,10202.161614973156,7617.6972026775256,-3493.263203498394,3493.263203498394,-7617.6972026775256,18096.567732299358,0.0
342154.6038362722,4690833.5216966402,-27500.0,2678.3594049996341,8526.9690006026067,3991.6785561730508,-7054.9999333280866,5086.5769977310865,-8406.3720813412965,13786.022501229963,12349.476766561904,-7618.4196419060354,7618.4196419060354,-12349.476766561904,24170.650370123996,0.0
347154.6038362722,4690833.5216966402,-27500.0,12210.871367909565,10626.392925535478,4167.6689711608497,-3937.9002996227382,7786.1232331951232,-13401.636098914336,18978.848292061288,19109.754564965056,-15411.516280753478,15411.516280753478,-19109.754564965056,32891.337206469638,0.0
352154.6038362722,4690833.5216966402,-27500.0,27616.812556142282,11484.974158032959,3216.4940615063865,10250.590039920269,11071.493084164527,-12188.718952541438,27224.542891090248,23587.070056731474,-24810.013878426707,24810.013878426707,-23587.070056731474,47825.30496231086,0.0
357154.6038362722,4690833.5216966402,-27500.0,38148.915691231334,7896.1634461461472,959.31545995446902,37506.512469430258,11206.101359928654,17038.836945944226,40963.099330668549,11525.967340995594,-18830.191628189838,18830.191628189838,-11525.967340995594,76338.850843045439,0.0
362154.6038362722,4690833.5216966402,-27500.0,30077.387187334734,-962.1905244217495,1845.8160157148234,51849.417525480145,-2168.492588899514,80094.394013816098,57603.667369557021,-20685.650547182646,24464.876773529875,-24464.876773529875,20685.650547182646,113105.04885303145,0.0
367154.6038362722,4690833.5216966402,-27500.0,12732.359755984859,-2162.6242300206227,11770.37883563186,33046.66525754219,-31700.963787635388,131424.80876602815,74295.024043648824,-40325.312255256787,82410.111181126267,-82410.111181126267,40325.312255256787,143206.60993975936,0.0
372154.6038362722,4690833.5216966402,-27500.0,5669.9884278735026,14693.949975155632,21026.782644894294,-9714.928003644518,-48391.950134299623,132095.97557821072,79180.487190990636,-22969.746827326591,106393.6284302673,-106393.6284302673,22969.746827326591,149110.97201942059,0.0
377154.6038362722,4690833.5216966402,-27500.0,20453.208584780008,27778.384289834914,19180.285025083762,-35864.853367402946,-33856.487408845554,79720.367131602601,61756.622135282421,12623.499109798751,71722.564522714267,-71722.564522714267,-12623.499109798751,114900.92784867613,0.0
382154.6038362722,4690833.5216966402,-27500.0,30188.638890800532,24298.1916531766,12878.451614512182,-27746.548880975341,-12082.879840524856,26687.521892224435,37523.54661444878,28696.868017667588,23451.104255011222,-23451.104255011222,-28696.868017667588,69065.929703686794,0.0
387154.6038362722,4690833.5216966402,-27500.0,24834.283406561521,14940.220559969921,8453.8183673986423,-10241.742734019879,-193.24697521420461,692.86479176429475,20952.039136368916,24807.462868618135,-2974.5017060014179,2974.5017060014179,-24807.462868618135,37948.683126428929,0.0
392154.6038362722,4690833.5216966402,-27500.0,14465.307856367524,7814.6803883041739,6261.7131889107295,998.82386489835187,3208.669959228911,-6686.367933429925,13454.442984625104,15783.249462497366,-10576.616792390352,10576.616792390352,-15783.249462497366,23627.524293559731,0.0
397154.6038362722,4690833.5216966402,-27500.0,6094.0836857899112,3995.067981495321,5164.4802237410231,5525.8182793245742,3001.4228048426689,-7048.5407987501858,10449.919304940817,8807.625074439864,-10275.944398147094,10275.944398147094,-8807.625074439864,18107.640259735617,0.0
402154.6038362722,4690833.5216966402,-27500.0,990.63333536796972,2291.868711393493,4435.6145383019712,6482.3731602369053,1945.7206094692317,-5792.2568254378884,8696.444871189864,4714.177300672256,-8080.8414256002688,8080.8414256002688,-4714.177300672256,15310.825632031743,0.0
407154.6038362722,4690833.5216966402,-27500.0,-1687.6653524049655,1605.5585380550908,3812.2823738671491,6058.4300827024954,1018.0643326032149,-4531.4163866561648,7361.4124325401172,2547.6632047631001,-6014.9967499650802,6014.9967499650802,-2547.6632047631001,13226.238005787945,0.0
412154.6038362722,4690833.5216966402,-27500.0,-2932.2693936796932,1326.3077726349602,3242.6533222703824,5257.257908914401,404.34009362792153,-3545.1611102712909,6288.6290810102773,1415.8299256713417,-4461.8469344224786,4461.8469344224786,-1415.8299256713417,11444.38279712594,0.0
417154.6038362722,4690833.5216966402,-27500.0,-3407.6988442639813,1185.126204082005,2732.3309515338929,4443.4925116788245,49.496235095449613,-2795.9357244978946,5404.6924634921488,797.72863340165804,-3349.4080661200178,3349.4080661200178,-797.72863340165804,9888.0116969675109,0.0
422154.6038362722,4690833.5216966402,-27500.0,-3488.0914870634028,1081.8942921854321,2289.7739988278058,3722.2138939701185,-135.85407878293469,-2217.205452544606,4656.9175708133589,436.0857049859128,-2547.8476630505002,2547.8476630505002,-436.0857049859128,8531.5506162941547,0.0
427154.6038362722,4690833.5216966402,-27500.0,-3371.3986330230546,986.16669542135082,1915.5418908879947,3110.2107662668009,-220.92775173975681,-1762.8160790022666,4015.6832813824381,210.93377587926693,-1958.5928172839442,1958.5928172839442,-210.93377587926693,7356.5638816849105,0.0
432154.6038362722,4690833.5216966402,-27500.0,-3161.3581993407747,892.17788385247718,1604.1154195178772,2598.8704508999444,-250.18190030020065,-1403.4203420745689,3464.7214001835664,65.311584472990489,-1517.185465314637,1517.185465314637,-65.311584472990489,6345.138121456067,0.0
437154.6038362722,4690833.5216966402,-27500.0,-2913.0249169589401,801.19614212887689,1347.223816377423,2174.1977739896538,-249.9873920953053,-1118.8208558796184,2992.604246865269,-30.003581806832926,-1181.9464317134564,1181.9464317134564,30.003581806832926,5479.0297177966286,0.0
442154.6038362722,4690833.5216966402,-27500.0,-2655.9820588866696,715.47971291443775,1136.1104890892607,1822.4335403210544,-235.34230640451321,-893.72218254013455,2589.3781318728606,-91.70427404014157,-924.94800382490712,924.94800382490712,91.70427404014157,4740.1009386398082,0.0
447154.6038362722,4690833.5216966402,-27500.0,-2406.0349037132096,636.61550241497253,962.68196975255569,1531.3817458503697,-214.52989232186181,-715.91587024762543,2245.7930664983792,-130.31418970865326,-726.64155991710754,726.64155991710754,130.31418970865326,4111.0242625250585,0.0
452154.6038362722,4690833.5216966402,-27500.0,-2171.2760932478195,565.32739263609358,819.94901891595907,1290.5866272522117,-191.98814606352497,-575.52165397266572,1953.3301480297205,-152.92608875155753,-572.85877784051354,572.85877784051354,152.92608875155753,3575.8641200563698,0.0
457154.6038362722,4690833.5216966402,-27500.0,-1955.3790291796786,501.67971648186261,702.09558213688115,1091.2234016996561,-169.99139798791489,-464.58099709512106,1704.3406314794638,-164.49202585021811,-453.09313486679429,453.09313486679429,164.49202585021811,3120.4064700936651,0.0
462154.6038362722,4690833.5216966402,-27500.0,-1759.4715433922884,445.32283044617952,604.38147420981693,925.92264111911527,-149.61414011686725,-376.74828354634309,1492.1185607764542,-168.51863724094454,-359.44711813868452,359.44711813868452,168.51863724094454,2732.2625800935803,0.0
467154.6038362722,4690833.5216966402,-27500.0,-1583.2391447885218,395.68488628072828,522.9868602158059,788.58136209247868,-131.27734608868192,-307.01352861991751,1310.8909602132821,-167.49526874210954,-285.93750612380273,285.93750612380273,167.49526874210954,2400.8129316743043,0.0
472154.6038362722,4690833.5216966402,-27500.0,-1425.5874898481329,352.1005019374681,454.85046858177571,674.17799360686593,-115.05614759526783,-251.45089928494167,1155.7518837407522,-163.18304016639999,-228.00901978938063,228.00901978938063,163.18304016639999,2117.0589454265264,0.0
477154.6038362722,4690833.5216966402,-27500.0,-1285.0439533920271,313.89019192674181,397.52386424377187,578.60111450214652,-100.85209441297421,-206.99970923196636,1022.569648132004,-156.81959550111227,-182.18144311954617,182.18144311954617,156.81959550111227,1873.4363196581717,0.0
267154.6038362722,4695833.5216966402,-27500.0,-741.29138981707104,496.52042201698868,273.70005051087264,-317.64876989574606,156.55428855145931,-104.1500110978906,775.06890656089354,230.88360660850182,-26.490274742280434,26.490274742280434,-230.88360660850182,1380.3228832474842,0.0
272154.6038362722,4695833.5216966402,-27500.0,-799.11469615742283,568.12507348485883,307.36979091269814,-358.78294528520303,183.13309543028336,-120.68944474992638,869.26383001423858,282.05348022044222,-42.928149673034767,42.928149673034767,-282.05348022044222,1545.6354098977702,0.0
277154.6038362722,4695833.5216966402,-27500.0,-860.32653077278758,653.14499394937638,346.51083029056429,-405.83098466539752,215.22302528931391,-139.65828508705454,978.79721150356761,345.10814533130048,-64.205965657225931,64.205965657225931,-345.10814533130048,1737.51090302291,0.0
282154.6038362722,4695833.5216966402,-27500.0,-924.47127696761299,754.75470101270446,392.22038341571994,-459.74224179198376,254.18691880761449,-161.18167340815643,1106.9827718849585,423.10037505805411,-91.600413785866806,91.600413785866806,-423.10037505805411,1961.6718950440579,0.0
287154.6038362722,4695833.5216966402,-27500.0,-990.7771068058737,877.0863176912984,445.84618217855859,-521.75008398572004,301.80739163409226,-185.26567812830001,1258.1358775004005,519.99733343353364,-126.70851539394258,126.70851539394258,-519.99733343353364,2225.5993439065783,0.0
292154.6038362722,4695833.5216966402,-27500.0,-1057.9977397213556,1025.602238740446,509.03795701172538,-593.59512848291342,360.47082020894965,-211.77405057477114,1438.0075564814499,641.05669272283831,-171.5562451847974,171.5562451847974,-641.05669272283831,2539.310083716688,0.0
297154.6038362722,4695833.5216966402,-27500.0,-1124.0969036444508,1207.6445981286849,583.79271369326341,-677.95775782503438,433.47462562226923,-240.50643738787343,1654.4592315479435,793.45412136944788,-228.81766238347899,228.81766238347899,-793.45412136944788,2916.5632887527067,0.0
302154.6038362722,4695833.5216966402,-27500.0,-1185.5375759119579,1433.2458327079039,672.46676089621394,-779.26030386167599,525.56693225383208,-271.58382446296099,1918.5193829808663,987.39955153749224,-302.32190414001894,302.32190414001894,-987.39955153749224,3376.7357102436881,0.0
307154.6038362722,4695833.5216966402,-27500.0,-1235.579742238805,1716.2979324740422,777.68757614114713,-905.05392509813646,643.92989392375819,-306.62720941097484,2246.0280679639304,1238.2210600596218,-398.28975037085968,398.28975037085968,-1238.2210600596218,3947.6966771463267,0.0
312154.6038362722,4695833.5216966402,-27500.0,-1260.1458309803434,2076.1240891305415,902.01558858025567,-1068.1284642504993,800.00493514221762,-351.79793181843547,2660.1458277366846,1570.354237680504,-528.35104054310739,528.35104054310739,-1570.354237680504,4670.0787749916835,0.0
317154.6038362722,4695833.5216966402,-27500.0,-1227.9073571866188,2539.1941483834798,1047.0306426287455,-1288.8309458640319,1012.8566059648034,-424.85559249902468,3195.0506763430594,2024.9481887720003,-716.71569196675102,716.71569196675102,-2024.9481887720003,5603.2806433204669,0.0
322154.6038362722,4695833.5216966402,-27500.0,-1067.2444436789801,3139.6475826826741,1211.1856145528307,-1594.5027864429576,1315.0851263560876,-570.00850094818509,3901.1359531636408,2673.7422937467163,-1016.4537356001201,1016.4537356001201,-2673.7422937467163,6833.2565224784357,0.0
327154.6038362722,4695833.5216966402,-27500.0,-615.30334184697585,3914.0069184460699,1385.2378467893366,-2004.7199921450508,1761.9202689341626,-885.14484610787542,4851.9339669755682,3641.5575074228559,-1543.8664425224538,1543.8664425224538,-3641.5575074228559,8481.9192901384067,0.0
332154.6038362722,4695833.5216966402,-27500.0,485.51152523221958,4876.4064870235388,1543.703587337644,-2467.963327234389,2439.93578911033,-1558.6628202240834,6153.3344995068046,5131.7165063467492,-2541.9204265147723,2541.9204265147723,-5131.7165063467492,10720.632344202813,0.0
337154.6038362722,4695833.5216966402,-27500.0,2963.7488732934726,5938.2438040804482,1633.1150592578344,-2659.2459129478539,3451.9773157128247,-2867.545742537246,7962.1094451037661,7409.1825466960063,-4461.8204457260299,4461.8204457260299,-7409.1825466960063,13811.831613494285,0.0
342154.6038362722,4695833.5216966402,-27500.0,8076.3491781636594,6693.4027891969627,1575.4833873106436,-1450.7797463270817,4779.1928611181074,-4900.0573205774936,10568.583530177448,10550.850131695746,-7907.4228627080502,7907.4228627080502,-10550.850131695746,18317.526199763452,0.0
347154.6038362722,4695833.5216966402,-27500.0,17076.181116210442,5994.171990268107,1388.8585295465607,4046.1706173137036,5687.719809684977,-6173.8759621579493,14797.11821582469,13380.93220684761,-12673.137979711162,12673.137979711162,-13380.93220684761,25997.718207165053,0.0
352154.6038362722,4695833.5216966402,-27500.0,27799.698894711673,1878.5922327926223,1777.810758210006,18029.183512303356,3064.6134433783845,302.86526147681923,22978.488925519418,10969.782925105623,-13697.108576186676,13697.108576186676,-10969.782925105623,41612.645439753447,0.0
357154.6038362722,4695833.5216966402,-27500.0,29457.190276512058,-5100.931025821621,5364.6626738762034,36020.583274035089,-9345.8999421246044,27574.533750245224,37285.68744206064,-3607.5381905067629,3750.6562815821794,-3750.6562815821794,3607.5381905067629,69073.725937830925,0.0
362154.6038362722,4695833.5216966402,-27500.0,17708.55616772073,-6793.4139315054508,15204.678830389515,35521.767401351244,-30672.161674044641,66544.030147427096,51661.81572919531,-19390.203844738746,41440.535403351612,-41440.535403351612,19390.203844738746,96226.99599829677,0.0
367154.6038362722,4695833.5216966402,-27500.0,8148.9691830267857,2079.0569874913367,28101.63905810584,14474.072140521414,-46185.01190401653,81137.673829771651,57247.799684536338,-14923.672446246335,66479.431465215559,-66479.431465215559,14923.672446246335,106347.40341592133,0.0
372154.6038362722,4695833.5216966402,-27500.0,8025.4194154053921,16813.950161324701,33441.317367011354,-8505.1811556264947,-44641.297192393053,65923.526543030399,52741.638644980827,5439.6677502426646,62137.701422419763,-62137.701422419763,-5439.6677502426646,97827.928629368456,0.0
377154.6038362722,4695833.5216966402,-27500.0,16328.82129102723,24734.18538486358,26572.007184313417,-18647.558163316942,-27097.893150802694,34729.945655339048,39144.267590695934,24061.539660617964,34630.338124689537,-34630.338124689537,-24061.539660617964,73051.075238933932,0.0
382154.6038362722,4695833.5216966402,-27500.0,20957.955570707363,20635.446999457825,16108.956648054631,-12828.808917927998,-8486.5485523140524,7913.7979554883914,24299.639638952907,27811.057429692755,6149.6129826191209,-6149.6129826191209,-27811.057429692755,46018.216877365267,0.0
387154.6038362722,4695833.5216966402,-27500.0,17034.000801732589,12153.658139729199,9105.7793865265685,-2499.0278698829479,1644.5609104457808,-5119.6674940613702,16113.552546477937,20840.246997572478,-8826.7351070172226,8826.7351070172226,-20840.246997572478,29120.197587595161,0.0
392154.6038362722,4695833.5216966402,-27500.0,9703.8333309337813,5592.9840705279867,5829.585560040071,4359.7578187503013,4615.3222744538898,-8484.6376878174906,12777.442613013656,12288.651334416541,-12546.847705881673,12546.847705881673,-12288.651334416541,22138.972576320713,0.0
397154.6038362722,4695833.5216966402,-27500.0,3420.7767775147427,2047.9638433248076,4499.4673860168959,7123.952960100195,4319.8670393594011,-7977.2705513834298,10850.152702655607,6201.7200505678557,-11343.983142085988,11343.983142085988,-6201.7200505678557,19083.82460899041,0.0
402154.6038362722,4695833.5216966402,-27500.0,-639.11072107001496,546.31046615504044,3876.401986068367,7505.5275364623412,3155.6789253805396,-6557.7760412872476,9278.4277269993836,2725.9788683906195,-8973.7002694767107,8973.7002694767107,-2725.9788683906195,16790.336127134524,0.0
407154.6038362722,4695833.5216966402,-27500.0,-2858.4230462507589,72.132560172859485,3434.498145879058,6883.8932202297256,2059.7059230836521,-5195.7316568552651,7929.5136296688997,949.38432798163558,-6800.165533842508,6800.165533842508,-949.38432798163558,14651.931611559845,0.0
412154.6038362722,4695833.5216966402,-27500.0,-3889.8861695960691,16.815825294677857,3021.8414355258292,5966.8133452597913,1256.9405221008487,-4085.5876403467551,6797.2445631867304,91.625996381293589,-5108.6744424764856,5108.6744424764856,-91.625996381293589,12677.225408051951,0.0
417154.6038362722,4695833.5216966402,-27500.0,-4236.4886543646289,91.889736416207541,2621.7887884368483,5046.3078258131491,725.57094323747094,-3212.0028912282755,5842.3332833720315,-308.54990926618075,-3850.9603070786284,3850.9603070786284,308.54990926618075,10911.447737678804,0.0
422154.6038362722,4695833.5216966402,-27500.0,-4213.3439805018143,182.48402097887941,2248.6316668340496,4222.0188197734115,390.91392490542967,-2527.4141099235676,5024.1378266456177,-486.54290009242573,-2921.3648216994816,2921.3648216994816,486.54290009242573,9366.9483886606486,0.0
427154.6038362722,4695833.5216966402,-27500.0,-4002.4941989877598,252.10685123806266,1914.7445731723788,3516.7900845787281,186.17041979462181,-1990.6898252185283,4319.6243669946925,-555.52618140247546,-2229.9595473603176,2229.9595473603176,555.52618140247546,8034.6022956037095,0.0
432154.6038362722,4695833.5216966402,-27500.0,-3705.8004037546548,294.96735734034127,1624.9326460988784,2925.8330860464271,63.745197127911673,-1570.1537100282944,3714.9380587503365,-569.58454864867008,-1711.4219396855315,1711.4219396855315,569.58454864867008,6895.4945112398636,0.0
437154.6038362722,4695833.5216966402,-27500.0,-3379.4069109619259,315.27410032321251,1378.2705478518756,2435.7120519216473,-7.529660032379927,-1241.1263010975483,3198.5094554026123,-555.38748436860408,-1319.6805605155237,1319.6805605155237,555.38748436860408,5927.1352500537778,0.0
442154.6038362722,4695833.5216966402,-27500.0,-3053.693937475578,319.21677569286538,1170.7748408960756,2031.3538178654342,-47.352685341295434,-983.99342381653696,2759.2181084196936,-526.79133731280467,-1021.9566339105993,1021.9566339105993,526.79133731280467,5106.6653850916027,0.0
447154.6038362722,4695833.5216966402,-27500.0,-2744.4424774608269,312.29294618764084,997.30320464205363,1698.5552714850517,-67.994488700252447,-783.08551863551111,2386.4220382417334,-491.39362275277142,-794.53577172014195,794.53577172014195,491.39362275277142,4412.5280024931808,0.0
452154.6038362722,4695833.5216966402,-27500.0,-2459.113855119539,298.69053066381679,852.63302576568151,1424.8095904631848,-77.059328496863984,-625.95433021150279,2070.3079388975489,-453.52699865307261,-620.01593878890378,620.01593878890378,453.52699865307261,3825.2961368908786,0.0
457154.6038362722,4695833.5216966402,-27500.0,-2200.439224174123,281.3711468023796,731.97764684628373,1199.4739783564085,-79.252553122151852,-502.80191836476371,1802.1281409715073,-415.69891861794116,-485.49960621473491,485.49960621473491,415.69891861794116,3327.9763210759224,0.0
462154.6038362722,4695833.5216966402,-27500.0,-1968.5096535837292,262.33337322993361,631.17925388515732,1013.6734785527071,-77.482546915218165,-405.9848326333555,1574.2808569930833,-379.33839570407542,-381.36434993290652,381.36434993290652,379.33839570407542,2906.003541249856,0.0
467154.6038362722,4695833.5216966402,-27500.0,-1762.0055912057783,242.8756033727434,546.73413060070425,860.10214835398119,-73.541883855955476,-329.58121830103676,1380.2765128324354,-345.21467061369793,-300.39739289761525,300.39739289761525,345.21467061369793,2547.0653030347248,0.0
472154.6038362722,4695833.5216966402,-27500.0,-1578.9223845402755,223.80846566231432,475.74138473445782,732.79620296494113,-68.528390140652292,-269.02379282067653,1214.6417368495895,-313.68781025490193,-237.17165048985464,237.17165048985464,313.68781025490193,2240.8494553272994,0.0
477154.6038362722,4695833.5216966402,-27500.0,-1416.9926634693684,205.6116368376203,415.82289436137728,626.91282196370958,-63.106165183957437,-220.79808830145427,1072.7955772505345,-284.86534980472891,-187.58904341534677,187.58904341534677,284.86534980472891,1978.7685468534196,0.0
267154.6038362722,4700833.5216966402,-27500.0,-566.63236829261632,517.62320122803578,223.77201580748411,-261.2496895233341,162.48443190848465,-90.645693337055235,707.76692061109634,289.41838043913054,-74.28144687322758,74.28144687322758,-289.41838043913054,1250.1358160201905,0.0
272154.6038362722,4700833.5216966402,-27500.0,-593.10785400710654,589.39964520748924,247.36972959523487,-290.07064537855621,189.27577195138542,-103.82657991416929,789.41028208306079,347.48313439094693,-98.290077772473964,98.290077772473964,-347.48313439094693,1391.633395528811,0.0
277154.6038362722,4700833.5216966402,-27500.0,-615.91363560565685,673.73757736893799,273.98038320763163,-321.54779907103114,221.32381043435007,-118.49656708966745,883.43781311574458,418.14261711350196,-128.55299690420932,128.55299690420932,-418.14261711350196,1554.2153160284445,0.0
282154.6038362722,4700833.5216966402,-27500.0,-632.63985606876736,773.30695154568696,303.99195942330431,-355.58891483634591,259.81123701175045,-134.49146570036365,992.29824417950078,504.41173084657493,-166.65553046875226,166.65553046875226,-504.41173084657493,1742.0379832214458,0.0
287154.6038362722,4700833.5216966402,-27500.0,-639.89697605458707,891.4686747378438,337.80390924874672,-391.97071239757167,306.23966932249527,-151.42603650554895,1119.121837932114,610.12823169254159,-214.58751559684012,214.58751559684012,-610.12823169254159,1960.4450839832191,0.0
292154.6038362722,4700833.5216966402,-27500.0,-632.88694304280034,1032.4937249403163,375.78567393642396,-430.34650022287815,362.55728319294019,-168.61899612842478,1268.00111274553,740.25094192421511,-274.8805699913587,274.8805699913587,-740.25094192421511,2216.4697984534955,0.0
297154.6038362722,4700833.5216966402,-27500.0,-604.69732081173152,1201.8545479325855,418.18980780794004,-470.31763312267378,431.37432471040211,-185.07117142548231,1444.4190582700191,901.33404989807832,-350.8594132016961,350.8594132016961,-901.33404989807832,2519.5961008463678,0.0
302154.6038362722,4700833.5216966402,-27500.0,-545.0449985043407,1406.5858839404639,464.97846178540379,-511.61237543966689,516.34500745371611,-199.63747918161377,1655.8990091146702,1102.3245320156504,-447.16068364011795,447.16068364011795,-1102.3245320156504,2882.900234458667,0.0
307154.6038362722,4700833.5216966402,-27500.0,-437.88015635660696,1655.6415934225759,515.49162705242691,-554.37740408328636,622.86068432866045,-211.71901696740022,1912.9694973567002,1355.9525693287549,-570.87209820061958,570.87209820061958,-1355.9525693287549,3324.7206562216679,0.0
312154.6038362722,4700833.5216966402,-27500.0,-256.59116857646598,1959.9445417078662,567.8417364763003,-599.35970723699108,759.28995897270215,-223.15647226869623,2230.5308192198668,1681.1625864983866,-734.05817931901447,734.05817931901447,-1681.1625864983866,3871.0012336763302,0.0
317154.6038362722,4700833.5216966402,-27500.0,45.753488589273346,2331.1778382984494,617.90665558478281,-646.94472321163676,939.0507961328459,-242.57099380086819,2629.6774276134402,2107.1669061137873,-959.20272904167564,959.20272904167564,-2107.1669061137873,4558.4743038125398,0.0
322154.6038362722,4700833.5216966402,-27500.0,555.92877691687499,2776.6400526661878,657.98708897375582,-691.57352157991443,1183.4508592360075,-293.89714234051149,3140.0423198704857,2679.2690687405425,-1290.1765094570624,1290.1765094570624,-2679.2690687405425,5439.2123835261382,0.0
327154.6038362722,4700833.5216966402,-27500.0,1437.2046282472265,3283.2659585070237,676.30387555128823,-701.62886385729018,1523.1597264001612,-429.64482935097249,3803.3573390024285,3463.7042967734656,-1811.5605611187307,1811.5605611187307,-3463.7042967734656,6589.3862841982382,0.0
332154.6038362722,4700833.5216966402,-27500.0,2988.1807597191773,3774.7493500737969,662.95411163570589,-560.3481555438126,1988.0081976675938,-740.18225688617463,4682.9462129362801,4537.6533689238167,-2672.6089634819782,2672.6089634819782,-4537.6533689238167,8135.2798737659132,0.0
337154.6038362722,4700833.5216966402,-27500.0,5699.0723347928588,4011.0214107783518,643.22916501176098,80.469287767636615,2548.0280886179385,-1313.4546647086258,5904.8050306573077,5917.4921498382955,-4076.9337636178479,4076.9337636178479,-5917.4921498382955,10346.23090579225,0.0
342154.6038362722,4700833.5216966402,-27500.0,10150.519675207621,3402.8694811956102,803.8399335356587,2077.9791764653742,2896.6588796707374,-1990.0641248800434,7839.4448782414484,7306.7329528164046,-6072.2432706099207,6072.2432706099207,-7306.7329528164046,13933.574596317216,0.0
347154.6038362722,4700833.5216966402,-27500.0,16242.746736611887,888.99973514366434,1861.0635890464653,6982.8700921132531,1858.848899292798,-1568.4204224763157,11555.339267118596,7525.1968583459693,-7675.0798613490097,7675.0798613490097,-7525.1968583459693,20662.387727561221,0.0
352154.6038362722,4700833.5216966402,-27500.0,21132.255896442253,-4177.3247989440688,5675.3035960398247,15693.010453536794,-3434.5590005151166,3473.0266437450814,18595.095470762255,4262.9205724901058,-4980.7969834904397,4980.7969834904397,-4262.9205724901058,33231.887296564135,0.0
357154.6038362722,4700833.5216966402,-27500.0,19023.04021563975,-8670.2191512243025,14489.369025799913,23442.219984907635,-15739.461627896353,16856.23516704459,28604.523297848536,-2463.444656627827,7878.653517315699,-7878.653517315699,2463.444656627827,51310.317946925963,0.0
362154.6038362722,4700833.5216966402,-27500.0,10790.473427276107,-5752.8646125330051,26123.224821342079,20293.918026508607,-29901.791919033938,32029.360616872571,36720.807148417334,-4577.6027791202305,26477.889631359132,-26477.889631359132,4577.6027791202305,66164.191051186557,0.0
367154.6038362722,4700833.5216966402,-27500.0,5879.3157793973287,4257.750250088784,33418.841068253976,7765.0073273613989,-34874.432747104081,35323.735095807868,37882.190153716772,3583.3045653873141,34571.77035949847,-34571.77035949847,-3583.3045653873141,68545.338702871479,0.0
372154.6038362722,4700833.5216966402,-27500.0,7293.8537602904071,14167.174714422903,31995.658151005566,-3620.3155319117946,-28013.804546485717,25620.084616890417,32332.284189340618,15624.242775657043,27060.938274177646,-27060.938274177646,-15624.242775657043,59068.648325931681,0.0
377154.6038362722,4700833.5216966402,-27500.0,11913.250537919486,17771.324099460169,23320.487187882794,-7485.2810450634415,-14549.391768941987,10618.400115811351,23118.784741047682,22837.286286974864,10792.764380209601,-10792.764380209601,-22837.286286974864,43556.571617249501,0.0
382154.6038362722,4700833.5216966402,-27500.0,13979.527359360756,14164.309051835568,13525.02781411005,-4003.5311794927302,-2382.4839103830232,-1521.1717184840363,15660.977669613494,21497.7072238408,-3924.0617943896559,3924.0617943896559,-21497.7072238408,30007.159283569796,0.0
387154.6038362722,4700833.5216966402,-27500.0,11339.381870382351,7867.0644920929381,7033.0808680268783,1682.5840468090055,4205.6452296997977,-7464.2945806701819,13276.155211371173,14998.689821727512,-11434.529772476522,11434.529772476522,-14998.689821727512,23202.929113279799,0.0
392154.6038362722,4700833.5216966402,-27500.0,6419.0306868525822,2812.1306924615956,4006.9305486037688,5714.2957641713056,6045.1576053475501,-8801.7941642928236,11902.412148961066,8267.5146356719033,-12874.835788852799,12874.835788852799,-8267.5146356719033,20786.85015231221,0.0
397154.6038362722,4700833.5216966402,-27500.0,1837.0932330298288,-22.113827567803618,2941.5345106852428,7442.6105282361032,5515.4004822628185,-8063.1192579628723,10613.553203186642,3522.8340101989961,-11422.707916132069,11422.707916132069,-3522.8340101989961,19173.052708517385,0.0
402154.6038362722,4700833.5216966402,-27500.0,-1390.7842403035713,-1190.6314004673068,2634.3848291551731,7622.159398631532,4275.7357713814354,-6749.3163104242667,9294.7115747307325,790.77482143802445,-9213.3776145718366,9213.3776145718366,-790.77482143802445,17316.909359940102,0.0
407154.6038362722,4700833.5216966402,-27500.0,-3298.4071824215421,-1446.1294895209994,2504.4839462856548,7040.9620136807498,3069.1603561836714,-5452.4023806863097,8065.2024584432365,-580.27930067283341,-7145.3092462800141,7145.3092462800141,580.27930067283341,15299.385151196306,0.0
412154.6038362722,4700833.5216966402,-27500.0,-4244.4620877666021,-1303.3728653516564,2356.9011512855495,6182.8122345452557,2117.3092032583168,-4339.3564115756299,6990.319122671458,-1179.4247983298806,-5460.7506641532618,5460.7506641532618,1179.4247983298806,13320.670857555473,0.0
417154.6038362722,4700833.5216966402,-27500.0,-4577.6626281508943,-1035.5133463399713,2161.2192928477207,5287.907730999048,1429.125159736481,-3429.5472444404154,6051.5580493953676,-1381.0093963542608,-4156.4417974309272,4156.4417974309272,1381.0093963542608,11498.85423986087,0.0
422154.6038362722,4700833.5216966402,-27500.0,-4551.3774235693299,-764.25636071794474,1936.3861478451697,4459.3746306467237,951.49613731142392,-2701.3246677001307,5224.2575430261732,-1390.7050317757021,-3164.6538858148579,3164.6538858148579,1390.7050317757021,9881.1654588598594,0.0
427154.6038362722,4700833.5216966402,-27500.0,-4329.7842584974333,-533.54940537305652,1706.2378217829344,3733.1999871648363,626.39526365024926,-2125.1471452789378,4499.9211484569269,-1313.8733140007521,-2414.5083544928871,2414.5083544928871,1313.8733140007521,8475.1538909694755,0.0
432154.6038362722,4700833.5216966402,-27500.0,-4013.3861423648209,-352.46700837307475,1487.3860509899041,3114.8081424183856,407.10794317099965,-1672.651609159295,3872.7518923712464,-1202.7078487680942,-1847.3568332972068,1847.3568332972068,1202.7078487680942,7268.9534560502007,0.0
437154.6038362722,4700833.5216966402,-27500.0,-3661.4837380244012,-216.57816182881299,1288.6270476686236,2596.6645051930664,259.8122490856743,-1318.9778825481335,3334.7146297489203,-1082.576938008011,-1417.8942295615398,1417.8942295615398,1082.576938008011,6242.3146464504525,0.0
442154.6038362722,4700833.5216966402,-27500.0,-3307.8224265528779,-117.5340107885192,1113.2143318312378,2166.5225986368714,161.11124161330261,-1043.2443098934757,2876.0038239320893,-965.5087601125158,-1091.8933359545974,1091.8933359545974,965.5087601125158,5372.4175850602041,0.0
447154.6038362722,4700833.5216966402,-27500.0,-2970.623713233736,-46.935697654557778,961.11861230120508,1811.2318072767064,95.14069467346738,-828.40529722958127,2486.3055664365602,-856.87339373748614,-843.680295222621,843.680295222621,856.87339373748614,4636.8623823756789,0.0
452154.6038362722,4700833.5216966402,-27500.0,-2658.8268493891987,2.360214177818186,830.62891949493951,1518.4324805705839,51.227778456056797,-660.84359049797706,2155.7193495853408,-758.69322199065539,-654.04179789442003,654.04179789442003,758.69322199065539,4015.1171363711442,0.0
457154.6038362722,4700833.5216966402,-27500.0,-2375.9199380470955,35.999001792603522,719.33404613616767,1277.2194698229678,22.203692485641842,-529.85344115974408,1875.2518609521862,-671.30841919169723,-508.60707477943549,508.60707477943549,671.30841919169723,3489.0900785920167,0.0
462154.6038362722,4700833.5216966402,-27500.0,-2122.2818070272133,58.274640963982364,624.67133588211334,1078.3066082636424,3.2460114294506592,-427.11373159054256,1637.013346896792,-594.23608078614279,-396.62425356270188,396.62425356270188,594.23608078614279,3043.2308384549051,0.0
467154.6038362722,4700833.5216966402,-27500.0,-1896.601594204418,72.383594302172952,544.20517312372647,913.95407484382349,-8.899158878275168,-346.20503059622632,1434.233907984195,-526.62147347501855,-310.04027671694644,310.04027671694644,526.62147347501855,2664.3837275090837,0.0
472154.6038362722,4700833.5216966402,-27500.0,-1696.7311441496236,80.674947085769048,475.74951895393235,777.79688999008715,-16.435335643930333,-282.1966241849903,1261.186864380584,-467.47746331078309,-242.81263499295,242.81263499295,467.47746331078309,2341.531754233672,0.0
477154.6038362722,4700833.5216966402,-27500.0,-1520.1881576267504,84.861308380980148,417.40561532006194,664.64410151606319,-20.860161942923831,-231.30851989135465,1113.0717260835813,-415.8102216394347,-190.39616033725196,190.39616033725196,415.8102216394347,2065.5072738837503,0.0
267154.6038362722,4705833.5216966402,-27500.0,-398.68683311872343,516.77710189512698,175.61882264727146,-206.51745552032256,161.62306096770033,-77.315991515832252,639.41216389280271,329.82101882884422,-111.94723287607258,111.94723287607258,-329.82101882884422,1120.7280004931583,0.0
272154.6038362722,4705833.5216966402,-27500.0,-396.73806079296122,583.72619755497419,190.28429784650945,-223.89244714305264,186.84915271540555,-87.307188637511075,708.57780995419012,390.42852390531408,-140.78590512490911,140.78590512490911,-390.42852390531408,1239.3667722621276,0.0
277154.6038362722,4705833.5216966402,-27500.0,-385.29125331282961,661.02892778392254,206.0523781409627,-241.08317280398515,216.5344200845766,-97.949592281037766,787.28998468023997,463.10363842814434,-176.4190954809383,176.4190954809383,-463.10363842814434,1374.1314869022719,0.0
282154.6038362722,4705833.5216966402,-27500.0,-360.54246646646698,750.42554817937503,222.87080786625367,-257.16584878954649,251.48944730965499,-108.84720833003357,877.20691255453801,550.41423559699126,-220.41485008825126,220.41485008825126,-550.41423559699126,1527.8868919880272,0.0
287154.6038362722,4705833.5216966402,-27500.0,-317.33282391997125,853.92960187728738,240.60428498530214,-270.78675068860565,292.66302378077728,-119.3129686258857,980.39407099731341,655.50289600207259,-274.68599999684068,274.68599999684068,-655.50289600207259,1704.2715979014467,0.0
292154.6038362722,4705833.5216966402,-27500.0,-248.62028350601591,973.8363824357923,258.98762061769418,-280.02787124645153,341.17274047798907,-128.25989924880616,1099.4828870889983,782.23908703560664,-341.57904647875625,341.57904647875625,-782.23908703560664,1908.0282403209378,0.0
297154.6038362722,4705833.5216966402,-27500.0,-144.67429545377348,1112.6814738315177,277.55459938846536,-282.2474543255625,398.36149077898767,-134.10834461815787,1237.9087119953897,935.44081515152232,-424.02980249731206,424.02980249731206,-935.44081515152232,2145.5009494900869,0.0
302154.6038362722,4705833.5216966402,-27500.0,8.2196624987551701,1273.0667648437272,295.53569486121182,-273.87702357826601,465.90869104577627,-134.79505839665063,1400.2600760758726,1121.2149078925722,-525.87742244766582,525.87742244766582,-1121.2149078925722,2425.3720736372879,0.0
307154.6038362722,4705833.5216966402,-27500.0,229.95308913026469,1457.1492099536335,311.73452101735512,-250.08712441505102,546.04037341038861,-128.07752824675802,1592.767818868854,1347.4863343563798,-652.53573800065169,652.53573800065169,-1347.4863343563798,2759.7312948749054,0.0
312154.6038362722,4705833.5216966402,-27500.0,550.43791178977847,1665.2895586167667,324.46427077378684,-204.00528770172102,641.86732833450435,-112.50868712587074,1823.937356317439,1624.7626597235612,-812.4086440665443,812.4086440665443,-1624.7626597235612,3165.6211457763552,0.0
317154.6038362722,4705833.5216966402,-27500.0,1016.3540507856849,1892.6756730172469,331.88497236948353,-124.53156445487238,757.71201036787068,-89.669326201587097,2105.3187453870555,1966.9561480982882,-1019.67062450242,1019.67062450242,-1966.9561480982882,3667.4674151919553,0.0
322154.6038362722,4705833.5216966402,-27500.0,1702.3860593464672,2121.260805426004,333.90295402039311,9.7737796686315122,898.54875926615057,-68.16684885137191,2452.6765639674736,2391.182186703732,-1298.9728967568994,1298.9728967568994,-2391.182186703732,4301.898450787633,0.0
327154.6038362722,4705833.5216966402,-27500.0,2727.0749816160474,2301.6198643255684,339.21439899145651,246.51448143531798,1065.1896213788539,-68.316529776984908,2889.7614850983737,2912.7035675993116,-1690.8576417380905,1690.8576417380905,-2912.7035675993116,5130.2674021621424,0.0
332154.6038362722,4705833.5216966402,-27500.0,4264.6152010460119,2315.9631213813109,387.57302458661582,695.50075693616145,1234.6982072175463,-119.82645404116563,3467.7054843876958,3524.489315613017,-2248.690249750905,2248.690249750905,-3524.489315613017,6274.6934494140796,0.0
337154.6038362722,4705833.5216966402,-27500.0,6513.4729382849828,1917.1157126298076,612.19419239836657,1594.2042815602317,1298.8526209889276,-226.07838150710316,4363.0845596158533,4139.8949979721319,-2993.2275972711841,2993.2275972711841,-4139.8949979721319,8011.6281804938862,0.0
342154.6038362722,4705833.5216966402,-27500.0,9510.6240904136757,682.44833323047897,1388.0847697678832,3368.6365899203288,910.42598578596983,-234.60539662974401,6050.0274746517252,4481.048445854396,-3739.0194398047338,3739.0194398047338,-4481.048445854396,10941.485461653325,0.0
347154.6038362722,4705833.5216966402,-27500.0,12622.998144190671,-1806.4793348541725,3575.0977408005069,6475.8199299191256,-769.98212463077073,435.64603785083784,9050.6060195277878,4012.4634800234762,-3691.9727501958505,3691.9727501958505,-4012.4634800234762,16046.917352161301,0.0
352154.6038362722,4705833.5216966402,-27500.0,13971.236093316193,-5080.5793932930073,8495.4395285925511,10518.643149016338,-5029.9585023397585,2909.0773250917991,13637.044389929155,2420.8226309292913,-1147.8369376016917,1147.8369376016917,-2420.8226309292913,24021.770194131357,0.0
357154.6038362722,4705833.5216966402,-27500.0,11600.499997317478,-6511.6737542010869,16484.620210247514,12896.993955488189,-12039.951944190558,7634.5532114578364,18977.600296721241,1126.8198213115857,5031.450335549619,-5031.450335549619,-1126.8198213115857,33466.967266025866,0.0
362154.6038362722,4705833.5216966402,-27500.0,7136.4636205237157,-3051.8998336270743,24391.147251393511,10459.346835791945,-18322.192488710469,12007.228344687419,22601.258668618382,3266.8288243911866,11794.957264464969,-11794.957264464969,-3266.8288243911866,40008.114815640154,0.0
367154.6038362722,4705833.5216966402,-27500.0,4873.4694681352757,3959.0377438723067,27353.85487974414,4391.3416527433274,-19057.692546421003,12068.063992534853,22376.691578969774,9197.4082253154011,13379.771799074064,-13379.771799074064,-9197.4082253154011,39872.963026636833,0.0
372154.6038362722,4705833.5216966402,-27500.0,6113.1980323629341,9870.7289644088087,23859.376097446377,-843.99856449215838,-13580.711090360983,7318.387109122621,18635.48860063318,15153.955707281239,8190.4908799208824,-8190.4908799208824,-15153.955707281239,33804.28714566736,0.0
377154.6038362722,4705833.5216966402,-27500.0,8704.0960058966484,11410.353586416037,16372.221494555244,-2292.9017530830574,-5223.3073902369997,586.55506873436582,13590.017122562045,17346.905600662176,-423.42736549513393,423.42736549513393,-17346.905600662176,25983.657642247083,0.0
382154.6038362722,4705833.5216966402,-27500.0,9654.5883015301315,8691.9375474199351,8896.2791999380806,-216.84104177615558,1935.6471296862246,-4881.7312926362392,11691.671139312724,14891.289492758096,-7822.2312787819501,7822.2312787819501,-14891.289492758096,20949.634390946409,0.0
387154.6038362722,4705833.5216966402,-27500.0,7900.9847258534801,4319.0243561871475,3963.6609857117883,3052.5267789944801,5837.3571850964381,-7656.8403798739628,11279.587664633749,9898.3425466909393,-11556.501356823279,11556.501356823279,-9898.3425466909393,19555.87216715156,0.0
392154.6038362722,4705833.5216966402,-27500.0,4579.5869938243777,635.15965720218003,1682.483356716921,5589.0104814136585,6843.2142535875864,-8203.3811028619693,10766.86274340071,4977.7567744945518,-12034.825196946927,12034.825196946927,-4977.7567744945518,19239.907517841239,0.0
397154.6038362722,4705833.5216966402,-27500.0,1202.7687852500708,-1559.2081336795372,1029.3106808516129,6836.1944903919357,6234.7145516929422,-7556.4903427496183,9920.9656978883668,1413.838775307142,-10752.182762132581,10752.182762132581,-1413.838775307142,18421.302767942798,0.0
402154.6038362722,4705833.5216966402,-27500.0,-1419.3207169050611,-2484.961061857297,1060.7763587629499,7049.2699270954108,5052.8470242526892,-6475.4387192194099,8880.2438125590488,-709.85656740686773,-8895.9326878005304,8895.9326878005304,709.85656740686773,16983.826934272805,0.0
407154.6038362722,4705833.5216966402,-27500.0,-3129.0191569848271,-2628.6339798319168,1251.030798200213,6650.1970616521612,3849.5579750295096,-5345.0352554238443,7839.7951971401499,-1779.8102891291874,-7075.042219828294,7075.042219828294,1779.8102891291874,15220.500276162289,0.0
412154.6038362722,4705833.5216966402,-27500.0,-4074.1400176455018,-2388.6004512809427,1392.3107643750552,5965.561470955904,2834.9780456097287,-4320.9775968128251,6904.577685779419,-2203.5085570127935,-5513.7182163585876,5513.7182163585876,2203.5085570127935,13389.684362094593,0.0
417154.6038362722,4705833.5216966402,-27500.0,-4473.7306999615002,-2009.324861863947,1438.5174849275209,5194.4083165136308,2049.1636614589588,-3450.8949796280071,6048.1718554117779,-2272.4716536357482,-4253.1267475876693,4253.1267475876693,2272.4716536357482,11645.111441775713,0.0
422154.6038362722,4705833.5216966402,-27500.0,-4520.5680575222223,-1616.7245964852777,1404.5977752297956,4442.6014981011658,1466.2690487002396,-2736.7944528951684,5261.4914598565356,-2164.6278508252003,-3264.9782944300091,3264.9782944300091,2164.6278508252003,10060.896493237444,0.0
427154.6038362722,4705833.5216966402,-27500.0,-4357.2607646070574,-1265.2878636927142,1319.1628830989102,3759.3190926198213,1043.5841338026366,-2162.8732620809974,4555.5780221501418,-1979.7481314981851,-2502.0653875342223,2502.0653875342223,1979.7481314981851,8663.0452275925691,0.0
432154.6038362722,4705833.5216966402,-27500.0,-4080.4656353199312,-972.08680381967122,1207.2209315536095,3162.1839291251617,740.60090353100441,-1707.7020961913779,3935.2127726083995,-1770.7259064990037,-1917.6288211143935,1917.6288211143935,1770.7259064990037,7451.2921773449116,0.0
437154.6038362722,4705833.5216966402,-27500.0,-3752.119074363025,-736.81101629189607,1086.2445394398369,2652.3982951195489,524.56819783892649,-1349.6680783442232,3397.7986950233458,-1564.1398385936714,-1471.5442902787222,1471.5442902787222,1564.1398385936714,6412.2881030221888,0.0
442154.6038362722,4705833.5216966402,-27500.0,-3410.1019107865213,-552.30211407853005,966.96097413445432,2223.3521840407975,370.7943526729544,-1069.3265947599507,2936.4691292773541,-1372.3147802503522,-1131.4252219469372,1131.4252219469372,1372.3147802503522,5527.1738578915019,0.0
447154.6038362722,4705833.5216966402,-27500.0,-3076.419015774009,-409.62326167327313,855.23090281070108,1865.3363892165146,261.30147577184215,-850.22054814775117,2542.5620301878644,-1200.0460343347063,-871.9356037915195,871.9356037915195,1200.0460343347063,4775.7560913023544,0.0
452154.6038362722,4705833.5216966402,-27500.0,-2762.9398931834858,-300.25891626742367,753.7626385222062,1568.0147599718205,183.23228655375533,-678.93320298089657,2207.1177314252832,-1048.2647189264505,-673.60251873727088,673.60251873727088,1048.2647189264505,4138.6771199451168,0.0
457154.6038362722,4705833.5216966402,-27500.0,-2475.2468790686876,-216.90768458428354,663.37023278046695,1321.6335605095246,127.47178824949275,-544.787910937334,1921.6761059946593,-916.01618417632915,-521.61427759433957,521.61427759433957,916.01618417632915,3598.4243020272552,0.0
462154.6038362722,4705833.5216966402,-27500.0,-2215.1425080122567,-153.63238571955304,583.80837813586231,1117.5352748633175,87.580453248471485,-439.42135963251536,1678.6403129356527,-801.51881661620564,-404.7718498325512,404.7718498325512,801.51881661620564,3139.6863516844692,0.0
467154.6038362722,4705833.5216966402,-27500.0,-1982.247444367508,-105.74537293335898,514.29316142688185,948.30160041327338,59.009996746142619,-356.34687880311452,1471.3903957958494,-702.72074736229638,-314.6326908537248,314.6326908537248,702.72074736229638,2749.3565482572058,0.0
472154.6038362722,4705833.5216966402,-27500.0,-1775.0016494832751,-69.608648764360382,453.81210198870281,807.71244523086773,38.542404846619952,-290.56254409956534,1294.265243466828,-617.58368850926001,-244.83774888505832,244.83774888505832,617.58368850926001,2416.365603638234,0.0
477154.6038362722,4705833.5216966402,-27500.0,-1591.2780759854957,-42.427023556999835,401.30011149076569,690.62262297939662,23.894148435390587,-238.22214511801869,1142.4805674403249,-544.21747207198632,-190.5939069688946,190.5939069688946,544.21747207198632,2131.4432249217475,0.0
267154.6038362722,4710833.5216966402,-27500.0,-243.81998803002108,496.8651702029905,132.63389016383948,-155.38559219284789,154.81819541619825,-64.593021580214369,571.7525937000986,353.14575090255659,-139.2237786300131,139.2237786300131,-353.14575090255659,995.65767263389148,0.0
272154.6038362722,4710833.5216966402,-27500.0,-217.98039353066483,555.12656082379806,140.3844067465034,-162.74984277112034,177.06388668432251,-71.700542586081667,628.99108385434727,412.53906649877285,-170.24343513863334,170.24343513863334,-412.53906649877285,1093.3505681012182,0.0
277154.6038362722,4710833.5216966402,-27500.0,-178.50137726607585,620.6775097159956,148.1240341932469,-167.69538488154498,202.59941827870585,-78.770430388663215,693.2082931195996,482.53994734704122,-207.81966099295565,207.81966099295565,-482.53994734704122,1203.0304534844665,0.0
282154.6038362722,4710833.5216966402,-27500.0,-120.88207619538736,694.14777086416575,155.69983241668035,-168.74734181158817,231.76163210611915,-85.249263651288047,765.40401271163614,565.02304008524868,-253.24463077929852,253.24463077929852,-565.02304008524868,1326.6508960689741,0.0
287154.6038362722,4710833.5216966402,-27500.0,-39.215268530367261,776.00732870137892,162.93991405547155,-163.84753816382815,264.81893318015409,-90.261495932768298,846.7820534759926,662.12958746471008,-307.99892461384576,307.99892461384576,-662.12958746471008,1466.7239230997079,0.0
292154.6038362722,4710833.5216966402,-27500.0,74.270888836104191,866.39211431309388,169.68213786068475,-150.16561194935056,301.90118622315589,-92.489483139078203,938.83085205448765,776.27027208331822,-373.75160864127668,373.75160864127668,-776.27027208331822,1626.5949534154606,0.0
297154.6038362722,4710833.5216966402,-27500.0,229.8506698572447,964.7997742349188,175.84352241719344,-123.85864782630956,342.89758758755721,-90.049353368116869,1043.4470353224206,910.11014548888215,-452.36288805624736,452.36288805624736,-910.11014548888215,1810.8702004421034,0.0
302154.6038362722,4710833.5216966402,-27500.0,441.21605005631164,1069.5453329408631,181.57959636591124,-79.752346078946914,387.31062573163717,-80.412087033678503,1163.1181477458649,1066.5230044851796,-545.91763722306757,545.91763722306757,-1066.5230044851796,2026.0712850256909,0.0
307154.6038362722,4710833.5216966402,-27500.0,726.82207651399654,1176.7571651578542,187.64905613465643,-10.866657277287445,434.03768265083193,-60.476975741343388,1301.1780054623841,1248.4786384997724,-656.85222352464757,656.85222352464757,-1248.4786384997724,2281.6330983520857,0.0
312154.6038362722,4710833.5216966402,-27500.0,1111.8604538174179,1278.4728946943524,196.26266692268808,92.428918768248508,480.98611666341264,-26.986093080619856,1462.1448133924046,1458.7454906053792,-788.27202512646977,788.27202512646977,-1458.7454906053792,2591.4699424347741,0.0
317154.6038362722,4710833.5216966402,-27500.0,1630.9555024860867,1358.9906423508878,213.0987509921265,244.16640515761361,524.20980940215031,22.480330223326856,1652.2416745905857,1699.0604377365694,-944.50929502379404,944.50929502379404,-1699.0604377365694,2976.6976561240608,0.0
322154.6038362722,4710833.5216966402,-27500.0,2330.9489268585485,1388.0188574606004,252.13167576337219,466.58839895958801,555.61254837407239,87.887617486416104,1881.028796821515,1967.8439120117305,-1131.5311238943696,1131.5311238943696,-1967.8439120117305,3471.1539602455132,0.0
327154.6038362722,4710833.5216966402,-27500.0,3270.488994332246,1308.7768575698551,347.04744198589236,797.9154975335457,556.62745310879018,165.53382399184238,2173.2512230501543,2254.4244859766377,-1355.1310528329325,1355.1310528329325,-2254.4244859766377,4133.800011329784,0.0
332154.6038362722,4710833.5216966402,-27500.0,4505.8508784800351,1021.2476721520179,576.93301493173817,1305.2998253351257,481.92171319762292,251.38621448887847,2665.3385726663623,2526.6136344208717,-1610.2419148467325,1610.2419148467325,-2526.6136344208717,5075.2765319842347,0.0
337154.6038362722,4710833.5216966402,-27500.0,6037.9002318792118,372.6162361042181,1117.7345031526947,2096.1805989669474,223.2088311656951,359.01037329175824,3548.4719214326519,2711.5686097516905,-1846.0982975239156,1846.0982975239156,-2711.5686097516905,6501.1272868849874,0.0
342154.6038362722,4710833.5216966402,-27500.0,7684.1180546247006,-796.14096221792806,2319.6998548786314,3292.4289910768825,-449.57518607617214,564.46276498951227,4912.2404035508907,2691.7229305440615,-1888.7534892945259,1888.7534892945259,-2691.7229305440615,8735.0905247845294,0.0
347154.6038362722,4710833.5216966402,-27500.0,8899.0577888391217,-2437.5115632440234,4733.5411461825361,4878.7272662958585,-1912.6158202686538,1058.0580090572362,6897.5521070064578,2398.6948885876664,-1353.7342456772674,1353.7342456772674,-2398.6948885876664,12098.579101547723,0.0
352154.6038362722,4710833.5216966402,-27500.0,8830.7028808366158,-3871.1097460876267,8810.6762709086415,6370.2757374465527,-4463.7512183700865,2065.1585362142,9440.2893990383564,2119.8973810412504,225.43921678934021,-225.43921678934021,-2119.8973810412504,16495.77025049704,0.0
357154.6038362722,4710833.5216966402,-27500.0,7132.3151137211589,-3664.0772269284525,14002.187669368655,6675.9837420861941,-7631.8893017098517,3432.1539288970166,11928.787674285722,2777.4454244696103,2698.4676764647752,-2698.4676764647752,-2777.4454244696103,20857.273143648425,0.0
362154.6038362722,4710833.5216966402,-27500.0,4973.6490489563685,-857.86507985367393,18112.781243328802,4987.8548291301695,-9702.825244112646,4224.6990157032251,13272.685376085643,5249.4396146921199,4565.1415313259704,-4565.1415313259704,-5249.4396146921199,23287.692296487719,0.0
367154.6038362722,4710833.5216966402,-27500.0,4174.3880829600821,3409.9496284175871,18706.488891019762,2067.4303802635909,-8889.6504507387835,3339.8450313660487,12736.058146553809,8919.5137789177716,3914.2430767756769,-3914.2430767756769,-8919.5137789177716,22556.369603744071,0.0
372154.6038362722,4710833.5216966402,-27500.0,5159.3102063490651,6641.3406713240947,15362.954395071818,-220.12649660752422,-5139.1705936056478,688.66339510533055,10719.063741194344,11785.010646877363,407.35240091347441,-407.35240091347441,-11785.010646877363,19529.944570534204,0.0
377154.6038362722,4710833.5216966402,-27500.0,6679.5933465906419,7155.8343956381123,9861.1386772939059,-583.84375607575703,-149.02298596919712,-2669.3209993505116,9165.7106883646193,12167.550423539782,-4393.2163107162742,4393.2163107162742,-12167.550423539782,16792.128118928154,0.0
382154.6038362722,4710833.5216966402,-27500.0,7144.9578455776564,5144.7417563026438,4629.6494861367682,837.01248533070373,4052.5039897636561,-5424.8249628443145,9355.8959320732247,9930.7545569247377,-8395.5083996225003,8395.5083996225003,-9930.7545569247377,16232.207949002959,0.0
387154.6038362722,4710833.5216966402,-27500.0,5959.2119673599245,2076.0921393479689,1158.9162700247332,2948.9811626822393,6393.6568220841054,-6903.2556223062547,9646.5037758804756,6305.1225373609432,-10440.785722780589,10440.785722780589,-6305.1225373609432,16982.307014412949,0.0
392154.6038362722,4710833.5216966402,-27500.0,3658.2598096798688,-645.54327712613679,-428.72361535162662,4736.5803335949058,6969.4792277731922,-7192.739603999702,9532.7247662815425,2734.5832196274905,-10624.864220812873,10624.864220812873,-2734.5832196274905,17446.387800924,0.0
397154.6038362722,4710833.5216966402,-27500.0,1123.311012579152,-2397.9030549491918,-753.52749432013388,5773.222761612622,6432.2439482948084,-6721.7752405162082,9002.2051085761395,28.236156186276276,-9650.9542674048716,9650.9542674048716,-28.236156186276276,17079.383715733602,0.0
402154.6038362722,4710833.5216966402,-27500.0,-1035.8715210841201,-3204.4004180252105,-484.96342059880982,6094.2522629769992,5413.3435109460952,-5893.3268481649384,8211.4063194547361,-1670.6832415810122,-8194.5664658328897,8194.5664658328897,1670.6832415810122,16022.219741072971,0.0
407154.6038362722,4710833.5216966402,-27500.0,-2589.4556771699463,-3347.150884300695,-58.131757824410101,5912.0702429997327,4313.7159896958728,-4968.7211359100984,7358.907122777131,-2556.0542510983933,-6680.606318262372,6680.606318262372,2556.0542510983933,14573.387190168709,0.0
412154.6038362722,4710833.5216966402,-27500.0,-3553.2020877532223,-3115.4100839964999,321.06741914316518,5441.9782491683081,3325.8056065205637,-4086.648455526657,6615.9252771317751,-2893.4839635752569,-5313.1949627988788,5313.1949627988788,2893.4839635752569,12981.021331171978,0.0
417154.6038362722,4710833.5216966402,-27500.0,-4045.1052773587776,-2717.8253276214582,587.88926391522,4843.54288755364,2513.6512372158618,-3308.2968179415598,5874.3848233636691,-2904.0403867599316,-4162.4612657076714,4162.4612657076714,2904.0403867599316,11405.642017311686,0.0
422154.6038362722,4710833.5216966402,-27500.0,-4200.4249860640066,-2279.5086111357646,743.89424663591728,4217.901265316531,1877.8440968890463,-2651.8670117442998,5158.4852360043187,-2740.1179727780268,-3231.7040475604804,3231.7040475604804,2740.1179727780268,9936.1565322090955,0.0
427154.6038362722,4710833.5216966402,-27500.0,-4135.4463819202456,-1865.034316627504,813.42971690618288,3621.8699817994029,1393.9571391259017,-2113.7446515894931,4498.7452214889272,-2496.4425215753295,-2496.3185776970872,2496.3185776970872,2496.4425215753295,8613.4624962730086,0.0
432154.6038362722,4710833.5216966402,-27500.0,-3938.0206727399964,-1501.8248012720424,823.46109616737851,3082.9860399865984,1031.6645154820885,-1680.5900000826073,3908.6973912963604,-2227.7726128922004,-1923.4401808678786,1923.4401808678786,2227.7726128922004,7449.3505671286566,0.0
437154.6038362722,4710833.5216966402,-27500.0,-3669.5915967605479,-1196.9776245219093,796.28353133903067,2611.0677948241723,762.8575236775207,-1335.9424085549413,3390.9229627652494,-1963.6544910762748,-1480.8539284193309,1480.8539284193309,1963.6544910762748,6439.3570733956285,0.0
442154.6038362722,4710833.5216966402,-27500.0,-3370.782695429727,-947.67439876297908,748.11378728795432,2206.0366999829707,564.29260042360465,-1063.6017054615595,2941.992058673628,-1718.6108583696623,-1140.4645331888605,1140.4645331888605,1718.6108583696623,5570.8783123622152,0.0
447154.6038362722,4710833.5216966402,-27500.0,-3067.1239687732268,-747.03010539686943,689.87078069468419,1862.8236366277449,417.82125502120721,-849.15009103379111,2555.5962105856247,-1498.5898267370021,-879.17321022499345,879.17321022499345,1498.5898267370021,4828.0143846955589,0.0
452154.6038362722,4710833.5216966402,-27500.0,-2773.7649106557787,-587.12385370454524,628.48562539546936,1574.2756767125729,309.71778799620017,-680.45281765364018,2224.3955485416427,-1304.8581373608511,-678.62103670388319,678.62103670388319,1304.8581373608511,4194.3107110069714,0.0
457154.6038362722,4710833.5216966402,-27500.0,-2498.988888528736,-460.42435621752611,568.11207982236374,1332.7791561793783,229.78910723333158,-547.63881440459329,1941.0424500797185,-1136.2799379221929,-524.51314483644319,524.51314483644319,1136.2799379221929,3654.1988810338844,0.0
462154.6038362722,4710833.5216966402,-27500.0,-2246.6854242658501,-360.35609758021769,511.06354926894858,1131.0952861807077,170.54212151451389,-442.84899383842202,1698.698495209366,-990.61355271946582,-405.85808566073365,405.85808566073365,990.61355271946582,3193.6546839656717,0.0
467154.6038362722,4710833.5216966402,-27500.0,-2018.030011904352,-281.43643243096125,458.48027327767812,962.73755662754979,126.496821273508,-359.91079402597825,1491.2578802100784,-865.22927890950496,-314.26753563972784,314.26753563972784,865.22927890950496,2800.4156439491371,0.0
472154.6038362722,4710833.5216966402,-27500.0,-1812.5936407847789,-219.21553094820595,410.78138316946252,822.09274643568006,93.652833009496618,-294.01642952155584,1313.4054003210706,-757.48933706991681,-243.36561438132969,243.36561438132969,757.48933706991681,2463.9592037791695,0.0
267154.6038362722,4715833.5216966402,-27500.0,-106.79354400671751,461.78778105367491,97.223993176249337,-109.34067472384088,143.22117606665671,-52.821807952207074,506.29790323005284,361.4416394834825,-156.57312073915443,156.57312073915443,-361.4416394834825,877.87917879625354,0.0
272154.6038362722,4715833.5216966402,-27500.0,-62.552385679580723,508.89156537171601,100.54204318985992,-108.4965508168096,161.5219809198054,-57.446289819800192,552.53222753938167,416.73618482084271,-187.4596939341163,187.4596939341163,-416.73618482084271,957.22908472988263,0.0
277154.6038362722,4715833.5216966402,-27500.0,-2.3743154676609386,559.91481443736257,103.58930996083478,-103.6931505587246,181.76710442522571,-61.517558345761081,603.54933156762286,480.62692849713289,-224.07320854112049,224.07320854112049,-480.62692849713289,1045.4098205862163,0.0
282154.6038362722,4715833.5216966402,-27500.0,78.259204938593925,614.43670832732653,106.42287342126012,-93.198083468903505,203.81221280645661,-64.40301744824896,659.85163562751268,554.22820825593749,-267.27514435926196,267.27514435926196,-554.22820825593749,1143.8692677178808,0.0
287154.6038362722,4715833.5216966402,-27500.0,185.05376627771906,671.5430726687847,109.26091259833065,-74.680584847448117,227.26254255718723,-65.154550150082727,722.020299881597,638.64421813036574,-317.92425256945376,317.92425256945376,-638.64421813036574,1254.5801729337841,0.0
292154.6038362722,4715833.5216966402,-27500.0,325.17837722031044,729.55527875451662,112.62650601163566,-45.042135964822521,251.32913177157286,-62.398313371760835,790.76102786604486,734.86973512276654,-376.7887372401558,376.7887372401558,-734.86973512276654,1380.3448597963197,0.0
297154.6038362722,4715833.5216966402,-27500.0,507.5854860574475,785.61840786364689,117.60193451736852,-0.21475067938337111,274.6199138918642,-54.21589119653833,866.9832670235171,843.63357752981653,-444.41124282419344,444.41124282419344,-843.63357752981653,1525.2711036365943,0.0
302154.6038362722,4715833.5216966402,-27500.0,743.36144178079246,835.06910040574871,126.28326876537189,65.077405365600129,294.8381753627138,-38.047762556093801,951.93303299685715,965.15968813729205,-520.91668494738906,520.91668494738906,-965.15968813729205,1695.4970700131614,0.0
307154.6038362722,4715833.5216966402,-27500.0,1046.0572735565261,870.45194249422627,142.60715599058403,157.61182754301501,308.34031545446845,-10.6819281465819,1047.4128954551481,1098.8034171907973,-605.75342377157347,605.75342377157347,-1098.8034171907973,1900.2668672727975,0.0
312154.6038362722,4715833.5216966402,-27500.0,1431.8378721678425,879.9814734609256,173.88617965291724,286.07327283507175,309.45195202620613,31.570512512320644,1156.2085356216685,1242.4844934686091,-697.34168470442114,697.34168470442114,-1242.4844934686091,2153.5133872811939,0.0
317154.6038362722,4715833.5216966402,-27500.0,1918.9756629021422,845.19329710502552,233.71474503197112,461.69627329656487,289.30882115911385,92.401130693397889,1283.9652574014385,1391.7736866484906,-792.51608420375487,792.51608420375487,-1391.7736866484906,2476.2609852454666,0.0
322154.6038362722,4715833.5216966402,-27500.0,2525.4234396681327,737.67272297118382,347.49010068606526,699.31088369471706,233.68491562198582,174.7428297493569,1485.5227449694814,1538.4210939663719,-885.3520505233962,885.3520505233962,-1538.4210939663719,2900.4971097095518,0.0
327154.6038362722,4715833.5216966402,-27500.0,3261.479238041878,515.71658675226308,562.61524665676188,1018.6558509240103,118.7309529861308,280.19721053627603,1851.7814877973144,1668.2813464742801,-964.2319359102396,964.2319359102396,-1668.2813464742801,3475.4849731131062,0.0
332154.6038362722,4715833.5216966402,-27500.0,4111.7679142572724,125.15892097524933,965.68252162145995,1444.178293896852,-96.882893615098254,410.10294405188762,2356.8408616363495,1759.9030961362739,-1004.807526665252,1004.807526665252,-1759.9030961362739,4276.2751014896648,0.0
337154.6038362722,4715833.5216966402,-27500.0,4999.5043978045105,-482.99652837424162,1704.9052392626563,1996.5804871321318,-483.13567379561277,570.49402411526603,3049.2271030156703,1789.769462999684,-956.47996112605222,956.47996112605222,-1789.769462999684,5407.2008245781662,0.0
342154.6038362722,4715833.5216966402,-27500.0,5737.7982958540242,-1292.8008861763944,2997.7959234436025,2660.5800721084875,-1142.5100280423369,780.12146805623797,3983.6653237451233,1760.4547198518587,-727.95178611302049,727.95178611302049,-1760.4547198518587,6976.257958720963,0.0
347154.6038362722,4715833.5216966402,-27500.0,6020.6187681024539,-2102.0598885711902,5060.1171972193351,3313.6994884859882,-2168.8967961827097,1066.2390210282094,5166.9711666191097,1773.4049191982403,-205.82890100481666,205.82890100481666,-1773.4049191982403,9001.1039644558878,0.0
352154.6038362722,4715833.5216966402,-27500.0,5577.8514881326919,-2413.0091688749671,7859.246136681616,3654.3219027092414,-3501.7027526216198,1411.1977631624984,6461.9695329322467,2118.646503514392,622.8522763055139,-622.8522763055139,-2118.646503514392,11242.213228407381,0.0
357154.6038362722,4715833.5216966402,-27500.0,4536.1602941803167,-1598.3795411553319,10748.763476193193,3289.7492004117853,-4708.7704006851227,1642.5559026724684,7521.2880882336403,3205.4562485569759,1441.8998530949286,-1441.8998530949286,-3205.4562485569759,13099.448746361997,0.0
362154.6038362722,4715833.5216966402,-27500.0,3597.4847599411005,487.95443398923641,12464.902442763545,2108.6797855599084,-5000.0456935749517,1403.2078301650508,7917.1090840347724,5147.8571688298471,1550.0588859792251,-1550.0588859792251,-5147.8571688298471,13854.91892328619,0.0
367154.6038362722,4715833.5216966402,-27500.0,3519.8251697696965,3033.6855035323943,11917.37857184078,604.67351514539882,-3749.9750009454119,381.83794101847366,7496.6926312188198,7343.4367838604958,314.4621736558297,-314.4621736558297,-7343.4367838604958,13327.072192451948,0.0
372154.6038362722,4715833.5216966402,-27500.0,4346.1000196398127,4720.4181075319657,9114.3115429925438,-375.98469214198775,-1100.408536195652,-1356.0104217405024,6793.9924871345938,8715.3659428579122,-2206.0592850640742,2206.0592850640742,-8715.3659428579122,12383.15811764797,0.0
377154.6038362722,4715833.5216966402,-27500.0,5333.7537656614613,4710.6791093815118,5180.7353875192712,-275.37897721261174,2059.421027740827,-3327.3047929171585,7063.7001167934413,8481.6926350977919,-5193.9330820781943,5193.9330820781943,-8481.6926350977919,12378.799922125509,0.0
382154.6038362722,4715833.5216966402,-27500.0,5605.1956265193048,3157.2049619805375,1544.3906267710936,811.23783090435325,4695.7389927801369,-4944.128687172677,7776.9708941519657,6678.1643345640241,-7631.8323698621043,7631.8323698621043,-6678.1643345640241,13526.554470378223,0.0
387154.6038362722,4715833.5216966402,-27500.0,4800.7562152792834,901.31232318473349,-894.06670118803856,2325.5347018956013,6217.7721012340644,-5861.6620840022588,8266.64924052274,4023.9027493907229,-8921.0288242074512,8921.0288242074512,-4023.9027493907229,14833.781862109754,0.0
392154.6038362722,4715833.5216966402,-27500.0,3177.2131024425844,-1193.6457798542642,-2005.6761756339006,3694.7637420945457,6614.742346184802,-6069.7089740522479,8343.6211151077514,1366.8325116911592,-9053.8258713499126,9053.8258713499126,-1366.8325116911592,15522.074373752575,0.0
397154.6038362722,4715833.5216966402,-27500.0,1257.860755846501,-2658.0944907795583,-2145.5991158012553,4608.0115334260881,6215.8850825750123,-5757.6066912924807,8039.8913695332885,-749.56720924626052,-8374.656069160359,8374.656069160359,749.56720924626052,15418.587892029271,0.0
402154.6038362722,4715833.5216966402,-27500.0,-515.10112972436275,-3421.0600254479314,-1768.5363115760692,5017.6187832723572,5404.0646059282208,-5151.6880895341965,7477.4332057122947,-2160.0947456667782,-7282.1720723671697,7282.1720723671697,2160.0947456667782,14680.244201745292,0.0
407154.6038362722,4715833.5216966402,-27500.0,-1908.321310276255,-3627.1316078358768,-1218.307618551853,5020.0242190280132,4466.9667357926692,-4430.8308881897292,6822.5340049761589,-2940.1481574977306,-6075.525013493535,6075.525013493535,2940.1481574977306,13546.634107714826,0.0
412154.6038362722,4715833.5216966402,-27500.0,-2866.0200567737588,-3474.0518898734626,-688.50901490494732,4751.0139489793119,3572.14589060762,-3709.4300100172604,6219.0219425047399,-3253.6761827025121,-4930.0002007662542,4930.0002007662542,3253.6761827025121,12226.75828643241,0.0
417154.6038362722,4715833.5216966402,-27500.0,-3433.638827408698,-3130.4591151048257,-259.83874744816569,4331.3591218607862,2795.6329318938347,-3049.2030065414015,5580.8461616689374,-3263.3028035570273,-3926.7593894327033,3926.7593894327033,3263.3028035570273,10868.702968624706,0.0
422154.6038362722,4715833.5216966402,-27500.0,-3695.5383438890203,-2713.1517041064458,51.650095978679055,3849.5993971078883,2158.1122321237885,-2476.4144392671465,4946.7215496268191,-3096.2109318991879,-3089.3802559999185,3089.3802559999185,3096.2109318991879,9564.1813857218094,0.0
427154.6038362722,4715833.5216966402,-27500.0,-3738.9206111275794,-2292.2465725512466,259.31621279128296,3362.9454722621249,1652.2079355001254,-1996.209137972806,4349.5480262562896,-2840.1064731469992,-2411.2811759506417,2411.2811759506417,2840.1064731469992,8362.77052035421,0.0
432154.6038362722,4715833.5216966402,-27500.0,-3637.9143846106181,-1904.2956876988255,385.78449985467341,2904.3135676822226,1259.18051141971,-1602.5816587745023,3806.0636954559968,-2550.4969574993656,-1872.7564293122632,1872.7564293122632,2550.4969574993656,7285.8706258823959,0.0
437154.6038362722,4715833.5216966402,-27500.0,-3449.296773344985,-1564.645926030769,453.3948345208006,2489.9194581624679,957.80587412652744,-1284.6394287869884,3322.2519882191409,-2259.9836028675154,-1450.3854404972562,1450.3854404972562,2259.9836028675154,6337.5371222912354,0.0
442154.6038362722,4715833.5216966402,-27500.0,-3213.6676587914067,-1276.5354460360677,480.64864717042042,2125.4548090703274,728.46328348523309,-1030.206094265008,2897.7129684846832,-1986.1251028290378,-1121.6770355893816,1121.6770355893816,1986.1251028290378,5512.0194709658845,0.0
447154.6038362722,4715833.5216966402,-27500.0,-2958.5439821650898,-1036.9977923395732,481.55591443303905,1810.5007678493855,554.61454632977848,-827.68978993292603,2528.6081992232694,-1737.15280534422,-867.00429803471638,867.00429803471638,1737.15280534422,4798.656045276337,0.0
452154.6038362722,4715833.5216966402,-27500.0,-2701.6673160747609,-840.37839437215337,466.15572903888233,1541.4375515249965,423.00629329750802,-666.90440857204783,2209.5134789089111,-1515.8021440191874,-670.11897055466807,670.11897055466807,1515.8021440191874,4184.8767951538321,0.0
457154.6038362722,4715833.5216966402,-27500.0,-2453.8467210198551,-680.27792563038645,441.36603740729259,1313.2445017365553,323.3302948940065,-539.3058265418282,1934.5221389834705,-1321.7533961595509,-517.99045879533844,517.99045879533844,1321.7533961595509,3657.9386955056125,0.0
462154.6038362722,4715833.5216966402,-27500.0,-2221.1618160445737,-550.53473535584021,411.80403761214291,1120.546025095078,247.71278378779937,-437.93127202344812,1697.8589719478491,-1153.1246673936962,-400.37458406100404,400.37458406100404,1153.1246673936962,3205.8471213349567,0.0
467154.6038362722,4715833.5216966402,-27500.0,-2006.5746352307754,-445.65800912549906,380.45839760353738,958.17645690536585,190.20447639073853,-357.21031025596568,1494.1930097796235,-1007.3549049137965,-309.31819776355189,309.31819776355189,1007.3549049137965,2817.7854831342188,0.0
472154.6038362722,4715833.5216966402,-27500.0,-1811.0612220090668,-360.96273624517164,349.1972532934646,821.45056633021682,146.33742777394195,-292.7381111848789,1318.7687155836056,-881.70395283315406,-238.69405015755183,238.69405015755183,881.70395283315406,2484.254555902352,0.0
272154.6038362722,4720833.5216966402,-27500.0,66.299138155384441,450.82931463452803,72.115817494105528,-62.264634403226111,142.00193788827661,-44.836650242184255,480.66285439317744,406.69024871617984,-193.96451906437329,193.96451906437329,-406.69024871617984,833.60479632205727,0.0
277154.6038362722,4720833.5216966402,-27500.0,139.67457191764237,486.45560839412076,73.746023836484412,-50.354881682151508,156.4692208616859,-46.53418149389865,520.07603271750213,462.39442251681999,-227.43285344045785,227.43285344045785,-462.39442251681999,904.27632442737661,0.0
282154.6038362722,4720833.5216966402,-27500.0,233.55344100158351,521.58618438303836,76.063389438155994,-31.898017953405091,170.98695584191063,-46.697157937762562,562.66609065336229,524.94366759712148,-265.82051045334038,265.82051045334038,-524.94366759712148,982.9167535146421,0.0
287154.6038362722,4720833.5216966402,-27500.0,352.73549626934454,554.32472173433598,79.928560001698457,-4.6527464680312258,184.62556175529969,-44.405235858393795,608.62786149336921,594.57796995224248,-309.33936943794811,309.33936943794811,-594.57796995224248,1071.4261845217577,0.0
292154.6038362722,4720833.5216966402,-27500.0,502.88682223544032,581.84200269045209,86.833864338404481,34.236877499327171,195.90614851230356,-38.372777221365503,658.22964249481913,671.20687765488196,-357.88256416757235,357.88256416757235,-671.20687765488196,1172.6652792407731,0.0
297154.6038362722,4720833.5216966402,-27500.0,690.52860581514688,600.01567674884177,99.301598601522599,88.340263020845128,202.55708561521845,-26.860062907587196,711.91390921170625,754.22659550005778,-410.81220803363954,410.81220803363954,-754.22659550005778,1290.9736180481495,0.0
302154.6038362722,4720833.5216966402,-27500.0,922.87615178406111,602.95852155795251,121.52597727338072,162.00997811292498,201.18254733208883,-7.6058570139465083,770.53507453156067,842.28413356494048,-466.66245285839386,466.66245285839386,-842.28413356494048,1432.88479578483,0.0
307154.6038362722,4720833.5216966402,-27500.0,1207.3880370004965,582.42749764909638,160.41032264282001,260.38670241163112,186.8171519377959,22.173620038885563,836.39487900526967,932.99500155713315,-522.7396369251536,522.7396369251536,-932.99500155713315,1608.034043932922,0.0
312154.6038362722,4720833.5216966402,-27500.0,1550.7647955326031,527.15452992021756,227.24175088387818,389.28412034864544,152.32994469787411,65.649078729952834,934.82138730386498,1022.6486079064739,-574.59817878429817,574.59817878429817,-1022.6486079064739,1830.1946282623069,0.0
317154.6038362722,4720833.5216966402,-27500.0,1956.9114240353817,422.29675283276799,340.36484537556777,554.85537007214282,87.622296668199198,126.02295229545135,1121.4658193178627,1106.0088332709529,-615.35448583490461,615.35448583490461,-1106.0088332709529,2118.3222205559887,0.0
322154.6038362722,4720833.5216966402,-27500.0,2423.008200957298,249.62808399780869,529.2902472863268,762.81793374413371,-21.450076268544876,205.90709072358138,1366.1885286790096,1176.5086674625677,-634.7577278411145,634.7577278411145,-1176.5086674625677,2497.4261354250202,0.0
327154.6038362722,4720833.5216966402,-27500.0,2932.4244265274751,-9.8788008582672333,840.3871226753397,1016.652353220984,-194.39981392905966,306.51080704146068,1679.4672716293537,1227.6391371858172,-617.91537476406074,617.91537476406074,-1227.6391371858172,2998.8240738776876,0.0
332154.6038362722,4720833.5216966402,-27500.0,3443.4808770098539,-367.42212528881504,1342.7068150496377,1313.3393347753622,-457.02402185451024,426.87176698367313,2079.4431857947075,1257.4544492464026,-543.88705193759392,543.88705193759392,-1257.4544492464026,3658.1632765088439,0.0
337154.6038362722,4720833.5216966402,-27500.0,3876.3118511862549,-805.54170414716737,2127.4905333181564,1633.909454960422,-839.10447632656917,563.1064819332704,2582.843803370205,1279.8805902198737,-386.03400934423337,386.03400934423337,-1279.8805902198737,4506.6021833987179,0.0
342154.6038362722,4720833.5216966402,-27500.0,4110.3932629052797,-1240.4855423082156,3284.4081119396537,1926.3356333396266,-1361.161046878085,705.95596149294954,3191.1857527093784,1346.6583078581125,-120.73409129659569,120.73409129659569,-1346.6583078581125,5546.839496142562,0.0
347154.6038362722,4720833.5216966402,-27500.0,4022.1356889007557,-1481.4078267590533,4827.2415984518984,2086.6243485705759,-1997.3507832833536,831.45373534955797,3864.9769279375219,1573.8750217319873,242.32816459600008,-242.32816459600008,-1573.8750217319873,6709.0554602532011,0.0
352154.6038362722,4720833.5216966402,-27500.0,3589.5190071995958,-1245.2999701786864,6562.2702617465202,1967.083638641531,-2611.7932271710674,879.91983348722681,4496.9188973642276,2136.4295276221833,600.99208498956875,-600.99208498956875,-2136.4295276221833,7807.6311261784494,0.0
357154.6038362722,4720833.5216966402,-27500.0,3014.2029342433079,-313.60687904813852,7988.3517948409481,1457.7493496254758,-2915.1923382955788,736.28518100152337,4923.2418050873348,3166.0384704364842,710.73638286158348,-710.73638286158348,-3166.0384704364842,8568.9529468466972,0.0
362154.6038362722,4720833.5216966402,-27500.0,2690.7730953547284,1201.306519311081,8422.9719614005899,630.01371037777221,-2544.9964057208713,255.12865331679072,5017.5343633129378,4557.4574386763852,244.08325066340785,-244.08325066340785,-4557.4574386763852,8814.9446962459515,0.0
367154.6038362722,4720833.5216966402,-27500.0,2924.3880758741284,2746.7908992944394,7412.01927353062,-197.10345269683111,-1300.0663432954022,-642.21786457503856,4873.6265158870046,5866.4313737112861,-995.44525419287356,995.44525419287356,-5866.4313737112861,8757.0983394145696,0.0
372154.6038362722,4720833.5216966402,-27500.0,3627.9677882943083,3604.5669470070638,5105.2817536539169,-604.17781004136475,648.82547465503103,-1863.4415130933983,5092.7589560195938,6494.8853489417234,-2861.3078859255143,2861.3078859255143,-6494.8853489417234,9043.6327276460233,0.0
377154.6038362722,4720833.5216966402,-27500.0,4336.8721042362376,3354.6615939808735,2216.0462184661187,-342.25839559000605,2798.0439823815373,-3148.139286296213,5837.8868604966265,6059.5857368863817,-4879.9873205216572,4879.9873205216572,-6059.5857368863817,10111.811315600125,0.0
382154.6038362722,4720833.5216966402,-27500.0,4539.0963422244367,2113.2880233071764,-400.77173688780005,515.39071668487361,4584.8919639407968,-4197.376448000432,6594.843926380403,4625.6209425557772,-6507.3805171085605,6507.3805171085605,-4625.6209425557772,11611.622407606494,0.0
387154.6038362722,4720833.5216966402,-27500.0,4004.5393955916202,383.31227743096099,-2182.4548268972771,1656.8957038573562,5663.3097291036202,-4820.9148581566797,7099.0128530629863,2627.4442717294937,-7406.7450029172778,7406.7450029172778,-2627.4442717294937,12901.954584677624,0.0
392154.6038362722,4720833.5216966402,-27500.0,2855.4851923535743,-1286.2119941605827,-3009.4651259749344,2739.1824716253577,5990.3484848456701,-4990.5940341813475,7264.6366030668978,590.09453355128971,-7543.3704484728987,7543.3704484728987,-590.09453355128971,13603.931315551863,0.0
397154.6038362722,4720833.5216966402,-27500.0,1407.1809474802435,-2545.2571804470717,-3079.1281507244307,3540.0766961740715,5732.9207818054756,-4795.5386585742735,7120.9720488445437,-1108.3515560989708,-7093.2179859420903,7093.2179859420903,1108.3515560989708,13652.983406322586,0.0
402154.6038362722,4720833.5216966402,-27500.0,-27.837357350210002,-3287.8126328596582,-2694.7043671363813,3988.4077480853402,5124.6104160446275,-4367.1149808816881,6757.3041970413906,-2309.267524964469,-6297.7146509447339,6297.7146509447339,2309.267524964469,13164.552942333554,0.0
407154.6038362722,4720833.5216966402,-27500.0,-1244.5423078221638,-3572.7477420797927,-2119.9811265791859,4117.9876721117353,4368.626534532088,-3825.7794020995539,6280.2298539913409,-3022.5013376680181,-5365.620428070406,5365.620428070406,3022.5013376680181,12312.237936003721,0.0
412154.6038362722,4720833.5216966402,-27500.0,-2156.5936975193349,-3526.1796555789574,-1528.0019657746905,4008.8691266623655,3603.0465157425542,-3259.5428135159286,5757.4831504172353,-3342.4003269179611,-4438.596427121809,4438.596427121809,3342.4003269179611,11259.026845635293,0.0
417154.6038362722,4720833.5216966402,-27500.0,-2762.4824800557844,-3276.3667478777734,-1008.0011437425053,3746.5972351437458,2904.4692094123952,-2722.8175846090958,5208.2829836591272,-3383.8717499007357,-3595.4040727120623,3595.4040727120623,3383.8717499007357,10130.780850303008,0.0
422154.6038362722,4720833.5216966402,-27500.0,-3105.6648028929471,-2924.9350765641252,-591.95115984743688,3402.5588651863627,2305.3280986152017,-2243.6056002255655,4657.8151278917912,-3248.918340077576,-2869.4902060120526,2869.4902060120526,3248.918340077576,9013.1293897066371,0.0
427154.6038362722,4720833.5216966402,-27500.0,-3245.1079281778698,-2541.2543452035848,-279.8886032511831,3028.4840924589766,1811.3249257987261,-1832.093247162516,4130.9294197717036,-3015.2794116379778,-2266.5513226387579,2266.5513226387579,3015.2794116379778,7958.077675636906,0.0
432154.6038362722,4720833.5216966402,-27500.0,-3238.3714035967209,-2167.2677185552211,-57.520761023157938,2658.0064927754165,1414.3614144280036,-1487.8370409468168,3643.4559296962843,-2736.6542139795079,-1777.6350686611509,1777.6350686611509,2736.6542139795079,6992.9529730542681,0.0
437154.6038362722,4720833.5216966402,-27500.0,-3134.0396140334155,-1825.1135618578639,93.590598853561502,2310.7078565970778,1100.6987641560943,-1204.8754072733202,3202.9617107199601,-2447.3421570849332,-1387.542206036479,1387.542206036479,2447.3421570849332,6128.497931248834,0.0
442154.6038362722,4720833.5216966402,-27500.0,-2969.7258457839971,-1524.0791558495378,191.02500580713061,1996.3351840565022,855.5052636725494,-974.98978084243174,2811.2969108741072,-2167.5991183317342,-1079.6378979831993,1079.6378979831993,2167.5991183317342,5365.1315257274155,0.0
447154.6038362722,4720833.5216966402,-27500.0,-2772.8336130416037,-1265.8329054601654,249.54712954106543,1718.2837338861982,665.07210820415526,-789.59205059993371,2466.8253463881083,-1908.2206676432481,-838.29669659307115,838.29669659307115,1908.2206676432481,4697.3801073898203,0.0
452154.6038362722,4720833.5216966402,-27500.0,-2562.368175172358,-1047.9548520901778,280.71937166863751,1476.1531384596321,517.67644198722451,-640.69769665598301,2166.0218838294522,-1673.981012443365,-649.93293503686959,649.93293503686959,1673.981012443365,4116.8150185280592,0.0
457154.6038362722,4720833.5216966402,-27500.0,-2350.909306500032,-866.1421300724694,293.20539848067921,1267.483473855028,403.73451185859136,-521.33985624060654,1904.5181411763231,-1466.0252626638553,-503.25638779505914,503.25638779505914,1466.0252626638553,3613.8939892236358,0.0
462154.6038362722,4720833.5216966402,-27500.0,-2146.3550852094027,-715.49445173763615,293.30179222157926,1088.8642806555877,315.62557318153353,-425.66894950887229,1677.7416987855217,-1283.4474992318424,-389.14645228295001,389.14645228295001,1283.4474992318424,3179.0461456433354,0.0
467154.6038362722,4720833.5216966402,-27500.0,-1953.3193787152168,-591.20872920147053,285.48138453459188,936.60395192183807,247.39503343846576,-348.8926886762253,1481.2818854142547,-1124.2906862158766,-300.36881141059314,300.36881141059314,1124.2906862158766,2803.2658174758717,0.0
472154.6038362722,4720833.5216966402,-27500.0,-1774.1845788679661,-488.91380272312665,272.86172665360493,807.1066047393316,194.44089391787205,-287.14696104768007,1311.0774925539827,-986.15466973081732,-231.25284657120312,231.25284657120312,986.15466973081732,2478.394583079014,0.0
272154.6038362722,4725833.5216966402,-27500.0,167.66837714122795,386.57710277773822,55.076143996301852,-24.487799914396081,120.25760171031207,-34.01781671741432,414.40358759112598,386.30285318656053,-191.73513553319407,191.73513553319407,-386.30285318656053,723.98634746387506,0.0
277154.6038362722,4725833.5216966402,-27500.0,247.34933037694029,407.54420777092463,58.050951177846812,-7.9944219579149145,129.03291778111225,-33.956999038803033,443.95115849278648,432.99535299795537,-220.66166818376553,220.66166818376553,-432.99535299795537,781.11033339948369,0.0
282154.6038362722,4725833.5216966402,-27500.0,345.83168415780062,424.89832552401174,63.209606498683208,15.110409584755946,136.37891434434607,-32.227471414170864,475.14935942369971,483.97183557779181,-252.74291917199275,252.74291917199275,-483.97183557779181,845.01743131864328,0.0
287154.6038362722,4725833.5216966402,-27500.0,466.62476839018444,436.25854507100081,72.104132178421793,46.72879283500172,141.01970127827474,-28.010135609047619,508.03707121837476,538.89187353759496,-287.64338277304836,287.64338277304836,-538.89187353759496,917.79164670454065,0.0
292154.6038362722,4725833.5216966402,-27500.0,613.49547421740147,438.38644499886749,87.168387289777272,89.152864361902033,141.08658663241519,-20.205473124724023,542.83754109230154,597.03123353986393,-324.57697280164189,324.57697280164189,-597.03123353986393,1002.5827244816047,0.0
297154.6038362722,4725833.5216966402,-27500.0,790.21213989254761,426.98072794576473,112.16877780631089,145.05061334833007,133.90339699373803,-7.384920335163816,580.55373744232463,657.15870458106224,-362.08700711829442,362.08700711829442,-657.15870458106224,1104.0586513564631,0.0
302154.6038362722,4725833.5216966402,-27500.0,1000.0651131115009,396.49244338063858,152.86481862072691,217.370892183709,115.72266988136138,12.228634616742625,629.88294402385498,717.42576464150159,-397.76267600148515,397.76267600148515,-717.42576464150159,1228.9093489733796,0.0
307154.6038362722,4725833.5216966402,-27500.0,1245.0358509888415,340.04516897373549,217.95768732303569,309.10734834840741,81.423627681119356,40.713048476552757,727.66493535747179,775.32523645665151,-427.89874671629173,427.89874671629173,-775.32523645665151,1386.2802549035098,0.0
312154.6038362722,4725833.5216966402,-27500.0,1524.4316760167783,249.63958129080137,320.40339342192698,422.82942454453058,24.207759218364405,80.273529891945913,861.92801372340523,827.83330692075594,-447.13061828708976,447.13061828708976,-827.83330692075594,1587.9362641728453,0.0
317154.6038362722,4725833.5216966402,-27500.0,1832.7545531191913,117.00714713007225,479.10429168474474,559.84044924558236,-64.61960877709943,132.86770500888287,1029.2776922630901,871.95779772372475,-448.12720989379136,448.12720989379136,-871.95779772372475,1847.916430766013,0.0
322154.6038362722,4725833.5216966402,-27500.0,2156.5978844676879,-64.196289686950024,720.74972447142818,718.74372726053275,-195.58139851218701,199.54833940837361,1236.0833645225855,906.09883645130003,-421.52151776610418,421.52151776610418,-906.09883645130003,2181.4156526614383,0.0
327154.6038362722,4725833.5216966402,-27500.0,2470.6912025891984,-293.67794074410398,1080.8911098868934,893.08100285662022,-380.21780779502279,279.4543384914727,1489.5124555950765,932.90723432564016,-356.47440901431276,356.47440901431276,-932.90723432564016,2602.4796005200615,0.0
332154.6038362722,4725833.5216966402,-27500.0,2734.3503669003826,-555.70909916630137,1601.7580200836508,1067.6299294479086,-628.52142875714321,368.37156484025013,1794.5358121766078,964.57003606772832,-242.74413175683503,242.74413175683503,-964.57003606772832,3119.613437365289,0.0
337154.6038362722,4725833.5216966402,-27500.0,2892.2814476966178,-805.4950131860561,2321.5218354959525,1213.3106448960741,-942.62854683270086,456.63772891689916,2149.0177267922913,1031.0249250382858,-76.038961774633606,76.038961774633606,-1031.0249250382858,3727.7929581898493,0.0
342154.6038362722,4725833.5216966402,-27500.0,2887.7547300669353,-954.66741128187005,3246.9928776624006,1282.5551078772751,-1303.8926315274005,525.81663892661993,2536.0694676747039,1188.7802181736909,130.59301600742106,-130.59301600742106,-1188.7802181736909,4396.1030759111272,0.0
347154.6038362722,4725833.5216966402,-27500.0,2696.9762512879506,-871.19348842067052,4305.274242055877,1211.7622581387607,-1652.290549609248,543.6021848089465,2916.2089287705635,1520.5390628128241,327.87618872211601,-327.87618872211601,-1520.5390628128241,5055.6047369543112,0.0
352154.6038362722,4725833.5216966402,-27500.0,2379.1766003527414,-421.28610231083877,5291.2016676201802,942.97817876325053,-1866.7423332080427,458.84026853406141,3228.3580862569834,2106.4365238892647,411.08105149743403,-411.08105149743403,-2106.4365238892647,5604.8103846768845,0.0
357154.6038362722,4725833.5216966402,-27500.0,2101.5137898875487,431.98267972027031,5865.9887473623294,471.61731402916342,-1772.3144376000544,204.8502641344497,3414.1597052801762,2953.997803501542,224.40643155479052,-224.40643155479052,-2953.997803501542,5963.1315395032307,0.0
362154.6038362722,4725833.5216966402,-27500.0,2077.2485329571623,1522.4762504179473,5671.6821103753327,-102.30021414999376,-1204.0379911474663,-276.82502098881821,3480.2246592345764,3917.8838231744858,-381.75332032111578,381.75332032111578,-3917.8838231744858,6185.2644502041549,0.0
367154.6038362722,4725833.5216966402,-27500.0,2416.9782815077278,2480.8833200800846,4539.8327869245413,-574.81200301033914,-115.10124582808231,-993.0005116825165,3654.393827562043,4693.1282847142465,-1449.3435259751379,1449.3435259751379,-4693.1282847142465,6547.4172782875166,0.0
372154.6038362722,4725833.5216966402,-27500.0,3007.9792990982482,2900.2414646677857,2643.7738009421601,-724.19821026748616,1348.0852456094951,-1864.6060893348292,4233.2802141568645,4936.9669133569314,-2838.8025144926978,2838.8025144926978,-4936.9669133569314,7372.9033572565759,0.0
377154.6038362722,4725833.5216966402,-27500.0,3548.6822376481332,2564.4160444883169,449.05376826752689,-434.73911697734678,2881.781569217334,-2738.9398801161847,4977.8731601273503,4454.2248017967941,-4259.7349549092287,4259.7349549092287,-4454.2248017967941,8652.2987875063936,0.0
382154.6038362722,4725833.5216966402,-27500.0,3724.4929169048055,1560.4227010471086,-1512.5023278070687,238.46398192277621,4159.2277664301037,-3450.6782232919841,5644.6879274874445,3305.992209744742,-5399.3399156683772,5399.3399156683772,-3305.992209744742,10035.225060357414,0.0
387154.6038362722,4725833.5216966402,-27500.0,3381.0272761599972,201.59857171857283,-2875.5224581991984,1110.0886875554424,4966.8374858875877,-3889.3806066494985,6101.243537364413,1765.0074443874892,-6056.4231163224749,6056.4231163224749,-1765.0074443874892,11150.911053442251,0.0
392154.6038362722,4725833.5216966402,-27500.0,2572.9349710290585,-1152.3203761965788,-3536.3985315795571,1966.3703079769302,5257.3794811510943,-4029.0432473829014,6298.7730136174059,169.33984385945496,-6194.4355921578708,6194.4355921578708,-169.33984385945496,11793.212703424131,0.0
397154.6038362722,4725833.5216966402,-27500.0,1490.668081321417,-2241.9837655484585,-3600.7658743110978,2650.3964210674285,5114.5932566525235,-3912.9417550028797,6254.1269322861763,-1213.7263473981511,-5905.5333163913083,5905.5333163913083,1213.7263473981511,11926.44314573683,0.0
402154.6038362722,4725833.5216966402,-27500.0,350.36363020966854,-2956.6558945679135,-3268.1991271405986,3091.9569099534028,4680.8378796098414,-3617.9760492109394,6022.4953818521708,-2245.8066929353695,-5337.5540330544281,5337.5540330544281,2245.8066929353695,11624.061023107468,0.0
407154.6038362722,4725833.5216966402,-27500.0,-681.84680513487797,-3305.2275407598795,-2735.9068777892689,3292.8057614300346,4096.7246879053118,-3223.3041765545022,5668.8883029606013,-2904.0527493944996,-4633.7933104091007,4633.7933104091007,2904.0527493944996,11004.936091655496,0.0
412154.6038362722,4725833.5216966402,-27500.0,-1514.0252396196461,-3361.0592810567005,-2151.1821322194805,3295.7202904413602,3470.4205077839579,-2793.0329634222603,5245.3453426222923,-3236.8780232496947,-3903.1219889144786,3903.1219889144786,3236.8780232496947,10189.888701540369,0.0
417154.6038362722,4725833.5216966402,-27500.0,-2118.3426409411436,-3215.5694639379226,-1603.2846978613306,3157.2706449297802,2871.2527345496542,-2371.1747893794586,4786.6966372334737,-3321.4433972064098,-3214.4466894662419,3214.4466894662419,3321.4433972064098,9279.8945840750384,0.0
422154.6038362722,4725833.5216966402,-27500.0,-2508.7482271314393,-2951.2845776364411,-1134.8403870244097,2930.9811296118532,2335.9210728942503,-1983.5620017611263,4319.5987406297554,-3235.8089461084551,-2603.4835761525724,2603.4835761525724,3235.8089461084551,8349.4706867713794,0.0
427154.6038362722,4725833.5216966402,-27500.0,-2719.9760908052126,-2631.2998378614125,-757.92805836593891,2659.8177626080806,1878.375964813572,-1642.3531744096467,3865.1150209225716,-3045.5008552959816,-2082.9232080320935,2082.9232080320935,3045.5008552959816,7448.2583605381969,0.0
432154.6038362722,4725833.5216966402,-27500.0,-2792.8235410128359,-2298.4971806027243,-467.75394944034974,2374.6348891621087,1498.806330009292,-1350.6649269472828,3437.6541328305848,-2799.6940763796647,-1651.5591639217464,1651.5591639217464,2799.6940763796647,6605.895292601298,0.0
437154.6038362722,4725833.5216966402,-27500.0,-2765.7548123925544,-1979.0550784972261,-252.01029499397876,2095.5769831302691,1190.2439974153349,-1106.3096194780719,3045.3789507631623,-2532.3648937921225,-1300.9804294763417,1300.9804294763417,2532.3648937921225,5837.4306505027471,0.0
442154.6038362722,4725833.5216966402,-27500.0,-2671.1397146896406,-1686.9998350964031,-96.393556278199341,1834.4972757657235,942.81330931539526,-904.43265020995989,2691.6653595779048,-2265.3254568281259,-1019.8921989656728,1019.8921989656728,2265.3254568281259,5148.0565564606677,0.0
447154.6038362722,4725833.5216966402,-27500.0,-2534.3050342959814,-1428.2829426914991,12.581272127986288,1597.3737807344291,746.17564566145427,-739.19236891193145,2376.6505785797303,-2011.4865458610975,-796.61823807115297,796.61823807115297,2011.4865458610975,4536.7644015461092,0.0
452154.6038362722,4725833.5216966402,-27500.0,-2374.0339810339096,-1203.9053186808198,86.418068001731584,1386.3111742889644,590.76990949060712,-604.73304733245345,2098.494708558525,-1777.653054709134,-620.38247948848198,620.38247948848198,1777.653054709134,3998.9670284602221,0.0
457154.6038362722,4725833.5216966402,-27500.0,-2203.6491381209412,-1012.0937527531609,134.37539273640485,1201.0355601921453,468.32381037965069,-495.68412417807144,1854.2897017922758,-1566.662607702458,-481.84308163467097,481.84308163467097,1566.662607702458,3528.2688691522226,0.0
462154.6038362722,4725833.5216966402,-27500.0,-2032.2059276939628,-849.7153293186492,163.62994335334625,1039.9349394832766,371.96197343499807,-407.36741205534719,1640.6663390716058,-1378.9117174660187,-373.20727061810885,373.20727061810885,1378.9117174660187,3117.5994393024257,0.0
467154.6038362722,4725833.5216966402,-27500.0,-1865.5738106933786,-713.14162919683451,179.6027703315761,900.74391321079963,296.114536381459,-335.83776809436108,1454.1743847002758,-1213.3914686677024,-288.13467918881042,288.13467918881042,1213.3914686677024,2759.8989973429816,0.0
272154.6038362722,4730833.5216966402,-27500.0,242.60619374573776,321.07530452055641,48.299878642833619,5.000119950200351,97.859005817709829,-25.00676634026917,354.37098637269838,359.27594051273985,-182.91615560388556,182.91615560388556,-359.27594051273985,628.84414962939456,0.0
277154.6038362722,4730833.5216966402,-27500.0,322.83523115856417,329.2748379209483,54.599471952155817,23.867398989998655,101.46641548959941,-23.747264846283983,375.82773797248592,397.1327513117543,-206.63609362956848,206.63609362956848,-397.1327513117543,675.99189743268676,0.0
282154.6038362722,4730833.5216966402,-27500.0,419.03717852340213,331.82270278895214,64.788402490105241,48.827521098715913,102.54316826947579,-20.852707429449694,398.01619455233924,437.25081943370907,-231.89145692114965,231.89145692114965,-437.25081943370907,729.50768068687023,0.0
287154.6038362722,4730833.5216966402,-27500.0,533.34691417407089,326.317423588932,80.989555602656836,81.31394870573989,99.665483747368015,-15.648212512040189,421.29092942766323,479.00967672331956,-257.96669101429688,257.96669101429688,-479.00967672331956,791.68524498679631,0.0
292154.6038362722,4730833.5216966402,-27500.0,667.66595601788481,309.74028010516577,106.32078156652472,122.92085586480152,90.866388549523933,-7.2691114823812342,448.37487746564011,521.47920731556735,-283.66585561215447,283.66585561215447,-521.47920731556735,865.84643124212539,0.0
297154.6038362722,4730833.5216966402,-27500.0,823.2869397331541,278.4347660296026,145.30226322215975,175.30154443794319,73.487948153524712,5.349645117557329,497.14794277113327,563.39407007330374,-307.13727702634725,307.13727702634725,-563.39407007330374,956.61213364188256,0.0
302154.6038362722,4730833.5216966402,-27500.0,1000.3129989183402,228.20772646891896,204.38893115679696,239.96407856731994,44.032777016636324,23.447798857981279,574.01111730124671,603.20049380886019,-325.67823863924548,325.67823863924548,-603.20049380886019,1070.0707685326379,0.0
307154.6038362722,4730833.5216966402,-27500.0,1196.8071094044185,154.67115085423524,292.62230934367193,317.90794052856666,-1.9451905162559735,48.344869294360088,670.03452047454391,639.25316587678253,-335.5548659926269,335.5548659926269,-639.25316587678253,1213.7012773494862,0.0
312154.6038362722,4730833.5216966402,-27500.0,1407.6217830885671,54.022414914707547,422.33264122907303,409.02753681830779,-69.83077963308223,81.227969788203382,786.81057764445382,670.29092089960773,-331.91329529150124,331.91329529150124,-670.29092089960773,1395.8970857023592,0.0
317154.6038362722,4730833.5216966402,-27500.0,1622.9347089921109,-75.430907667536928,609.67419185431424,511.19584644066299,-165.67001673191044,122.75978441785882,927.8829186909727,696.38855672609088,-308.92905244870025,308.92905244870025,-696.38855672609088,1624.9696517539996,0.0
322154.6038362722,4730833.5216966402,-27500.0,1826.7171298382657,-230.58651981109935,874.46730185856461,618.94674667799427,-295.36376697846617,172.43547063860476,1096.7182161961168,720.64539491830544,-260.45336096410028,260.45336096410028,-720.64539491830544,1907.5253699507207,0.0
327154.6038362722,4730833.5216966402,-27500.0,1995.8251501797308,-399.29632618597691,1238.2548270464622,721.74504995313089,-462.89842892091701,227.62042964992625,1295.1731267588598,751.85820497100531,-181.58403402234302,181.58403402234302,-751.85820497100531,2246.0646902757153,0.0
332154.6038362722,4730833.5216966402,-27500.0,2101.2448852256875,-554.59971543416668,1718.6406367763509,802.07120479433195,-666.96515052106008,282.2162349305637,1521.2624469225855,808.11990836051439,-71.790505796398634,71.790505796398634,-808.11990836051439,2635.6228625621729,0.0
337154.6038362722,4730833.5216966402,-27500.0,2114.1107923197483,-649.04915239907632,2317.2772472174393,834.17048503397734,-895.23612148328039,324.94188287692816,1766.3605450746877,920.25828485684656,59.701888339156312,-59.701888339156312,-920.25828485684656,3059.6666223753527,0.0
342154.6038362722,4730833.5216966402,-27500.0,2019.3550617191263,-614.0569490815916,2999.8252401682148,785.54536918682845,-1116.1850571030386,337.37324824437144,2012.9214422553086,1131.7840360646271,186.14881579387793,-186.14881579387793,-1131.7840360646271,3487.0571026142734,0.0
347154.6038362722,4730833.5216966402,-27500.0,1836.477945355643,-373.34797499908774,3671.7469651039592,624.74797459184742,-1270.7452520013142,292.44571078581419,2235.278766561009,1489.0275418265903,255.30331412371538,-255.30331412371538,-1489.0275418265903,3875.4921177660353,0.0
352154.6038362722,4730833.5216966402,-27500.0,1637.2022202281855,120.85272549925629,4165.652440880257,338.63122294192249,-1270.8871779292092,155.44672671459472,2407.6062114659935,2015.0192270896127,187.92040318900706,-187.92040318900706,-2015.0192270896127,4191.4790923622531,0.0
357154.6038362722,4730833.5216966402,-27500.0,1538.0442698553886,834.60527230949538,4266.8011278683234,-43.894819970087845,-1016.2980526448064,-108.97790547493305,2525.2080739405355,2670.2935980935545,-106.61897504419608,106.61897504419608,-2670.2935980935545,4455.0176694603988,0.0
362154.6038362722,4730833.5216966402,-27500.0,1649.8321910381876,1615.3774444961189,3792.8321045807934,-436.54207779215704,-435.1125142876765,-521.39462309815997,2668.2735680892556,3324.2095279432851,-691.87609882144966,691.87609882144966,-3324.2095279432851,4788.279639361388,0.0
367154.6038362722,4730833.5216966402,-27500.0,2000.553919129851,2217.9517176172699,2699.841831530317,-710.04131191984231,465.40208266152388,-1068.0199100004713,3053.4589619834283,3772.6025359007026,-1556.4745744501297,1556.4745744501297,-3772.6025359007026,5382.4871825998771,0.0
372154.6038362722,4730833.5216966402,-27500.0,2488.1221552442717,2403.7575426596954,1142.936322561691,-742.09156961920974,1572.8721391586871,-1690.0804523164049,3653.4704813570352,3814.1545466083071,-2589.8186113296679,2589.8186113296679,-3814.1545466083071,6328.8604000810028,0.0
377154.6038362722,4730833.5216966402,-27500.0,2912.2144285010909,2058.2639221280606,-565.64817567977548,-477.11222077710346,2696.5515344643618,-2294.8217660471737,4291.5890706691371,3347.1302269728249,-3608.3997151003296,3608.3997151003296,-3347.1302269728249,7503.7209191422198,0.0
382154.6038362722,4730833.5216966402,-27500.0,3071.7248879133363,1245.5573256665878,-2082.4764232258594,45.0072732032312,3637.3611995831061,-2786.3975018296392,4845.5511228633241,2421.8567195194037,-4423.8969962120291,4423.8969962120291,-2421.8567195194037,8662.6181142952701,0.0
387154.6038362722,4730833.5216966402,-27500.0,2859.6888525655031,167.16045779114287,-3162.1675059530285,710.02398742788637,4258.6035322559555,-3098.7485305099181,5237.9161120647914,1215.127116306074,-4911.5660177140708,4911.5660177140708,-1215.127116306074,9585.8342457763119,0.0
392154.6038362722,4730833.5216966402,-27500.0,2296.3875966173082,-936.1984534098932,-3718.1864872284268,1381.6793175856892,4518.3884972572787,-3211.8259621861439,5436.0715189932844,-49.516517698796179,-5040.4792547877259,5040.4792547877259,49.516517698796179,10148.397862680697,0.0
397154.6038362722,4730833.5216966402,-27500.0,1496.1264648754609,-1873.4557010961698,-3803.234960109311,1950.2369159664606,4457.1459712958631,-3146.640623341309,5446.7653543473016,-1181.8723978015664,-4859.3244929130287,4859.3244929130287,1181.8723978015664,10323.422322126602,0.0
402154.6038362722,4730833.5216966402,-27500.0,605.49450005951451,-2543.3844444954607,-3546.4979429782193,2355.4878130757588,4160.8987886415116,-2948.0595505325964,5302.3787772756859,-2067.771912883833,-4458.9022244015305,4458.9022244015305,2067.771912883833,10153.968488804872,0.0
407154.6038362722,4730833.5216966402,-27500.0,-247.85929038399033,-2928.3908631100876,-3091.6994335931308,2584.6247661682664,3724.8471109716356,-2666.939650721888,5045.0591196089654,-2670.7843445894923,-3936.0025234428422,3936.0025234428422,2670.7843445894923,9718.5714690470231,0.0
412154.6038362722,4730833.5216966402,-27500.0,-979.70070805709884,-3065.391457396538,-2558.7639480568118,2657.0546364961019,3230.1993077643224,-2348.1240291035006,4714.5430856765461,-3010.3582249193082,-3371.1844005984535,3371.1844005984535,3010.3582249193082,9103.7053570146909,0.0
417154.6038362722,4730833.5216966402,-27500.0,-1550.7140749279422,-3015.1606837223071,-2030.1678204626371,2607.5855272137783,2735.1734540953412,-2025.1830393049129,4343.1199494898037,-3135.131405390639,-2820.8138829315267,2820.8138829315267,3135.131405390639,8387.0805965673098,0.0
422154.6038362722,4730833.5216966402,-27500.0,-1955.9799586143895,-2840.5313825455769,-1553.1076876690402,2473.8609169627071,2275.4402992767382,-1719.942124855922,3955.9075571867888,-3101.9624545833408,-2318.2863510826314,2318.2863510826314,3101.9624545833408,7630.31005984489,0.0
427154.6038362722,4730833.5216966402,-27500.0,-2211.6338142369991,-2594.8845660739039,-1148.2706936852635,2289.2041133652106,1868.8760763615066,-1444.4410531716824,3571.8715121380928,-2963.3922966798455,-1879.2330514899759,1879.2330514899759,2963.3922966798455,6877.7364654651337,0.0
432154.6038362722,4730833.5216966402,-27500.0,-2343.6224187721095,-2318.2903560840173,-819.33719040551443,2079.7398411460072,1521.1840501367856,-1203.6221813807117,3204.3146920740069,-2762.1015676000452,-1507.3486628204246,1507.3486628204246,2762.1015676000452,6158.4679235616004,0.0
437154.6038362722,4730833.5216966402,-27500.0,-2380.0652291160332,-2038.0166567869965,-560.62208860699036,1864.1496116934015,1230.7178426869084,-997.82932470415631,2861.5521497205973,-2529.8180795588996,-1199.2769445529484,1199.2769445529484,2529.8180795588996,5489.6034493778034,0.0
442154.6038362722,4730833.5216966402,-27500.0,-2346.921330867141,-1770.9066913263189,-362.28965250885653,1654.7065058595226,992.00088517770757,-824.75882279481959,2547.9235707202824,-2288.4848737934472,-948.12435033345855,948.12435033345855,2288.4848737934472,4879.4978558176617,0.0
447154.6038362722,4730833.5216966402,-27500.0,-2266.0499685370619,-1526.1479865189572,-213.49211337345514,1458.7246713326106,798.02238579435982,-680.8225072734383,2264.8869584235681,-2052.2550989119454,-745.72459196539535,745.72459196539535,2052.2550989119454,4330.5546977400136,0.0
452154.6038362722,4730833.5216966402,-27500.0,-2154.7463888007455,-1307.728512524335,-104.02826745369218,1279.9612795595103,641.59120000359076,-562.01569990532698,2011.9792491919584,-1829.5309764339672,-583.95480256582005,583.95480256582005,1829.5309764339672,3841.389878301261,0.0
457154.6038362722,4730833.5216966402,-27500.0,-2026.0630709219047,-1116.3485456495853,-25.067320216680201,1119.781043361904,516.04643691800425,-464.42191403965637,1787.5665664706469,-1624.7081086497551,-455.40998473432785,455.40998473432785,1624.7081086497551,3408.4032236031394,0.0
462154.6038362722,4730833.5216966402,-27500.0,-1889.4625215094743,-950.78909365266304,30.660510648280123,978.03849551590247,415.56467249632078,-384.47197886333925,1589.3831034489972,-1439.5282656365005,-353.67773670526958,353.67773670526958,1439.5282656365005,3026.8567156380327,0.0
277154.6038362722,4735833.5216966402,-27500.0,370.00426114370958,256.23294461890163,60.687692482572167,46.276691721388396,75.335337980810095,-15.734518292372686,316.15301469335549,358.69917913632139,-188.03474494371858,188.03474494371858,-358.69917913632139,587.85419256370994,0.0
282154.6038362722,4735833.5216966402,-27500.0,459.02839773875559,247.59204782692748,76.90036639223041,70.940740547635869,71.357439813369609,-12.265770017053299,332.58256226838779,389.44127826160985,-206.69444686602839,206.69444686602839,-389.44127826160985,634.29031010388042,0.0
287154.6038362722,4735833.5216966402,-27500.0,561.56753487466619,230.25183782839878,101.05582980239841,101.75214286987887,62.755202471638619,-6.7963146821203653,356.49493920866053,420.38872432752021,-224.65111032449374,224.65111032449374,-420.38872432752021,689.41508472647638,0.0
292154.6038362722,4735833.5216966402,-27500.0,677.97353580530796,201.83058730253498,136.58955229313472,139.61948249177448,47.69395049421535,1.2967043067353841,400.02855798742661,450.72344544675144,-240.56127013493318,240.56127013493318,-450.72344544675144,756.41116440139137,0.0
297154.6038362722,4735833.5216966402,-27500.0,807.66872633615787,159.77403996648522,188.19777852969409,185.27227079288559,23.83525199881803,12.725325589818011,457.48349738129167,479.52650118943478,-252.54610730773044,252.54610730773044,-479.52650118943478,839.34495642911952,0.0
302154.6038362722,4735833.5216966402,-27500.0,948.62834124473454,101.66016191598588,262.16165998113024,239.01399139329743,-11.69402601266991,28.233964728349179,526.84557103561974,505.94861460405423,-258.10840467126013,258.10840467126013,-505.94861460405423,943.04820674657992,0.0
307154.6038362722,4735833.5216966402,-27500.0,1096.7288783254223,25.777772888064568,366.63203097848134,300.34104139704658,-62.241405377838731,48.477725935087953,609.58102226191068,529.5540782284761,-254.12262688727472,254.12262688727472,-529.5540782284761,1072.7426090183262,0.0
312154.6038362722,4735833.5216966402,-27500.0,1245.0183630777865,-67.880166183299494,511.72562518329539,367.39183981040725,-131.38810478573146,73.800343251915336,707.80470056089496,550.93231719785945,-236.9878847018764,236.9878847018764,-550.93231719785945,1233.3556526739405,0.0
317154.6038362722,4735833.5216966402,-27500.0,1383.0779721792369,-176.0521509377426,709.13917100134847,436.20939617026505,-222.38778925256707,103.86938220988124,823.5277505605651,572.68178427457542,-203.08872755102573,203.08872755102573,-572.68178427457542,1428.51244261333,0.0
322154.6038362722,4735833.5216966402,-27500.0,1496.8452045510505,-289.97310225879033,970.76222994219984,499.85632186653521,-337.08166665842054,137.12721496066806,957.83811842280568,600.82935006254138,-149.77489025513046,149.77489025513046,-600.82935006254138,1659.2064972203952,0.0
327154.6038362722,4735833.5216966402,-27500.0,1569.5780288879025,-392.61366840399256,1305.4887814023091,547.55111385693328,-474.03566199739021,170.03448033034093,1109.7422638144787,646.57934386580132,-77.123979869038237,77.123979869038237,-646.57934386580132,1922.2027581999391,0.0
332154.6038362722,4735833.5216966402,-27500.0,1584.9689979874249,-456.1532451173502,1713.2447966296709,564.24403714715856,-625.67370891029793,196.13085811042234,1274.8788086527109,727.85985220865894,9.2831937525560306,-9.2831937525560306,-727.85985220865894,2208.4439092714574,0.0
337154.6038362722,4735833.5216966402,-27500.0,1533.444024508625,-441.59581407398412,2175.6190931215974,531.45417404768216,-774.45228703291104,205.04413936282134,1444.7001632086199,869.33150393214692,94.627629941611872,-94.627629941611872,-869.33150393214692,2502.3550111894701,0.0
342154.6038362722,4735833.5216966402,-27500.0,1421.6514549663809,-303.89784401938851,2644.2321233293633,430.63201800921047,-888.90352808635009,181.7912460800805,1607.0540012042602,1098.4748910183625,150.99989660588574,-150.99989660588574,-1098.4748910183625,2784.1745457904349,0.0
347154.6038362722,4735833.5216966402,-27500.0,1282.1718151087789,-6.4324645457009,3031.8282980568283,250.30285660826229,-921.86542104544822,107.08747405431713,1749.3860154933684,1434.9663716174011,135.73322886411802,-135.73322886411802,-1434.9663716174011,3039.0296487015853,0.0
352154.6038362722,4735833.5216966402,-27500.0,1175.948856226458,454.65254954642796,3215.9418001471399,-3.2122169968972223,-814.9158465928075,-40.177305278294639,1866.8299780472939,1872.7466938212488,-4.1806751023683546,4.1806751023683546,-1872.7466938212488,3276.2545885286477,0.0
357154.6038362722,4735833.5216966402,-27500.0,1177.7970897507012,1024.5595995791018,3065.8216923568148,-295.33329780842973,-512.9451329423282,-277.14636465874781,1987.1138324580338,2360.6282765107053,-317.92245763007236,317.92245763007236,-2360.6282765107053,3553.6793483347074,0.0
362154.6038362722,4735833.5216966402,-27500.0,1342.2596241856379,1581.1848986152779,2493.0017355857435,-561.03556875807396,11.843092132952373,-608.13947997553453,2228.6241624097552,2795.3444655865787,-827.89922133224604,827.89922133224604,-2795.3444655865787,3977.1611749102508,0.0
367154.6038362722,4735833.5216966402,-27500.0,1664.050832351367,1961.768823134528,1505.1869552168307,-718.67277283864166,736.12103473857917,-1016.0181955856144,2661.1784917212094,3041.5505416919759,-1507.5582644189772,1507.5582644189772,-3041.5505416919759,4637.1269674313926,0.0
372154.6038362722,4735833.5216966402,-27500.0,2060.784737896869,2022.5431392848711,228.81361394640027,-698.76415614075142,1577.5891277605249,-1459.6267185608237,3185.6740938896901,2978.8142876791767,-2275.0985970147981,2275.0985970147981,-2978.8142876791767,5522.9830296410328,0.0
377154.6038362722,4735833.5216966402,-27500.0,2397.1789541236017,1701.2634940729145,-1122.21513466484,-474.03741305595412,2413.2715816924506,-1881.6358721775205,3708.7416279316303,2553.6041014195948,-3012.4171821341529,3012.4171821341529,-2553.6041014195948,6516.4577402149898,0.0
382154.6038362722,4735833.5216966402,-27500.0,2540.8574836732273,1044.6013367286841,-2319.2791248110861,-72.647197019591118,3117.7285258163797,-2224.8471336732259,4159.5537882685949,1805.421290507549,-3602.6283993277539,3602.6283993277539,-1805.421290507549,7457.9484486550646,0.0
387154.6038362722,4735833.5216966402,-27500.0,2416.2232850270552,185.22425648601177,-3193.2824787819695,433.31675431674455,3601.3185381796252,-2448.9210811334042,4488.8411894945493,851.72001798956535,-3966.5057048589551,3966.5057048589551,-851.72001798956535,8210.957873393656,0.0
392154.6038362722,4735833.5216966402,-27500.0,2026.6280944237058,-713.38973672446093,-3673.7308136591605,955.73124494555282,3829.9746020869607,-2539.3420159575649,4673.1164288747332,-156.9122488588207,-4079.9922945526951,4079.9922945526951,156.9122488588207,8694.1166360984225,0.0
397154.6038362722,4735833.5216966402,-27500.0,1439.855448353678,-1511.2548285299561,-3783.2816920331634,1418.4006569185788,3821.6377826552925,-2506.0404511033703,4713.3842536628936,-1084.7244141118908,-3968.7482730234551,3968.7482730234551,1084.7244141118908,8885.0042981671049,0.0
402154.6038362722,4735833.5216966402,-27500.0,753.70448698030918,-2122.1645209245303,-3603.8721525453225,1773.2004643544328,3627.6311511037948,-2375.0265211734854,4628.3654750790784,-1840.7673658813655,-3688.6000816859023,3688.6000816859023,1840.7673658813655,8807.1752830053811,0.0
407154.6038362722,4735833.5216966402,-27500.0,62.678219548906782,-2516.7742658984184,-3237.7602724117928,2002.3736892182405,3311.1593044861274,-2178.4193189385983,4445.7050962015128,-2385.5665243641715,-3304.1518673742203,3304.1518673742203,2385.5665243641715,8511.2334561630432,0.0
412154.6038362722,4735833.5216966402,-27500.0,-562.27103986828104,-2708.5491836302631,-2778.9469560604475,2111.7614828591418,2931.1762471500501,-1946.7002569648378,4194.5023191307746,-2721.4260037237059,-2873.4400015825154,2873.4400015825154,2721.4260037237059,8057.5538328224038,1.0
417154.6038362722,4735833.5216966402,-27500.0,-1079.7797749469594,-2734.7659779707669,-2299.0978514048493,2121.0634902091438,2534.0072913744029,-1704.4470730069463,3900.8937859995949,-2876.5382461294421,-2440.5329760197683,2440.5329760197683,2876.5382461294421,7504.1603385092758,0.0
422154.6038362722,4735833.5216966402,-27500.0,-1474.5836188280234,-2640.4513612990631,-1844.8967421220041,2055.2464898808103,2151.2956052166414,-1469.0435604431154,3586.4042375957524,-2890.2712832440398,-2034.3063064863668,2034.3063064863668,2890.2712832440398,6900.1084757841363,0.0
427154.6038362722,4735833.5216966402,-27500.0,-1749.9875814563247,-2468.0541126657449,-1441.7348009429697,1938.7249863918,1801.6577834219313,-1251.2414356618717,3267.7218935230599,-2802.8258686765248,-1670.6470902149013,1670.6470902149013,2802.8258686765248,6283.1343246695442,0.0
432154.6038362722,4735833.5216966402,-27500.0,-1920.1192739576354,-2252.4329581224733,-1099.5802975200902,1792.2799271659399,1493.8097880504324,-1056.5493283764458,2956.9823614376364,-2649.4854857390001,-1355.8677238352213,1355.8677238352213,2649.4854857390001,5679.965864037883,0.0
437154.6038362722,4735833.5216966402,-27500.0,-2003.7952151519353,-2019.5300848218935,-818.60992796833762,1631.9873710220968,1229.7779327279061,-886.77129222524923,2662.3165801662763,-2458.3487463160104,-1090.0200448490405,1090.0200448490405,2458.3487463160104,5107.9586147466725,0.0
442154.6038362722,4735833.5216966402,-27500.0,-2020.4338094337534,-1787.0878653546952,-593.60551049868786,1469.347003837921,1007.553533152553,-741.34847926912096,2388.5776402778902,-2250.2029234536549,-869.54686201112327,869.54686201112327,2250.2029234536549,4577.1548439738972,0.0
447154.6038362722,4735833.5216966402,-27500.0,-1987.7422795311486,-1566.2158884269813,-416.96475118678569,1311.9811961817427,823.02416764838324,-618.38402291888553,2138.122241844771,-2039.4644365382187,-689.16051798438411,689.16051798438411,2039.4644365382187,4092.2626806268395,0.0
452154.6038362722,4735833.5216966402,-27500.0,-1920.6791689715151,-1363.0997102971078,-280.55033906535641,1164.5026306024863,671.24838171823114,-515.35480585593075,1911.5302999631467,-1835.486159351399,-543.04955193684395,543.04955193684395,1835.486159351399,3654.3249583876272,0.0
457154.6038362722,4735833.5216966402,-27500.0,-1831.2194588439725,-1180.5112329653457,-176.70073520580033,1029.337660110431,547.22495910150985,-429.56736033420543,1708.2032490441707,-1643.8503504365447,-425.58187390252192,425.58187390252192,1643.8503504365447,3262.0231464143312,0.0
462154.6038362722,4735833.5216966402,-27500.0,-1728.5539185831803,-1018.9997981248179,-98.695102103948088,907.41078260649886,446.30836090908258,-358.42402962867271,1526.8201570402384,-1467.4709790121387,-331.6632510189977,331.6632510189977,1467.4709790121387,2912.6303584537254,0.0
277154.6038362722,4740833.5216966402,-27500.0,393.6290359029972,191.4276734872671,73.337337614877669,60.613628209788082,51.725021041964602,-9.663585813413814,267.32373804794935,320.62492023137651,-167.13748912835399,167.13748912835399,-320.62492023137651,514.82284692547239,0.0
282154.6038362722,4740833.5216966402,-27500.0,472.47475161504968,175.27205050700266,95.541818911258758,83.481913529220549,44.0106863753171,-6.0653088701821289,290.39648294314247,343.81896064058139,-179.92832768282915,179.92832768282915,-343.81896064058139,556.39994887033379,0.0
287154.6038362722,4740833.5216966402,-27500.0,560.46538884894335,150.87680336655112,127.01479500687114,110.99282273564302,31.503675331805859,-0.83727539285714325,325.49424161939777,366.53019970531773,-191.00893825807944,191.00893825807944,-366.53019970531773,606.52305743745865,0.0
292154.6038362722,4740833.5216966402,-27500.0,656.84418123218836,116.68850273251391,171.14439166118152,143.47325417043066,12.64995913013988,6.4237059047662477,368.44575477499325,388.2335114966117,-199.09445691714524,199.09445691714524,-388.2335114966117,667.92544547267869,0.0
297154.6038362722,4740833.5216966402,-27500.0,759.8544664798618,71.376311159747686,232.29772025232822,180.92830050690014,-14.405274147508536,16.126473676944002,419.12689223498199,408.52003929762492,-202.53344314920577,202.53344314920577,-408.52003929762492,743.77425791328403,0.0
302154.6038362722,4740833.5216966402,-27500.0,866.37076358359343,14.232698019170334,315.9266546812982,222.80504692249707,-51.756865802426546,28.614056919794102,478.55079666807217,427.33118991324613,-199.32378400660286,199.32378400660286,-427.33118991324613,837.41093142084958,0.0
307154.6038362722,4740833.5216966402,-27500.0,971.52026296120198,-54.1927068252133,428.52646303245706,267.6662046819182,-101.56722340059265,44.037693205586919,548.03687760274317,445.34227984017537,-187.23046426411562,187.23046426411562,-445.34227984017537,951.91530161867536,0.0
312154.6038362722,4740833.5216966402,-27500.0,1068.4012609130882,-131.16409817611196,577.28373139651887,312.77274890557783,-165.70781458956802,62.153906328328887,628.8956113822037,464.53904021175413,-164.08300385596655,164.08300385596655,-464.53904021175413,1089.5017807760112,0.0
317154.6038362722,4740833.5216966402,-27500.0,1148.0991430696813,-210.5183048081866,769.15408592076415,353.6078268904073,-245.11543943285449,82.022413314466974,722.00570545149424,488.99962154034279,-128.35821088173364,128.35821088173364,-488.99962154034279,1250.7791709244436,0.0
322154.6038362722,4740833.5216966402,-27500.0,1200.3248064557595,-281.22192139573434,1009.0046687769052,383.43943938949838,-338.75045538978895,101.59199843027582,827.17474873578294,525.80533121877829,-80.169242711028573,80.169242711028573,-525.80533121877829,1433.9448377633644,0.0
327154.6038362722,4740833.5216966402,-27500.0,1215.1180113600831,-326.10768784231573,1296.4106603142441,393.13093299877818,-442.07196331482629,117.18835122350586,942.4189146600911,585.81373258755571,-22.752726984027788,22.752726984027788,-585.81373258755571,1634.1018847420673,0.0
332154.6038362722,4740833.5216966402,-27500.0,1186.043572655351,-321.6270763715122,1620.8612775287411,371.56584609249495,-545.0692160746529,122.97183526999677,1063.5215273950416,683.70205636156516,35.587089336192321,-35.587089336192321,-683.70205636156516,1843.1622776940756,0.0
337154.6038362722,4740833.5216966402,-27500.0,1114.9293029004614,-240.02405686099897,1955.777118919,307.21373092525107,-630.1899206464268,110.52777212352741,1184.308910053898,836.27596949306383,79.433960524196777,-79.433960524196777,-836.27596949306383,2051.2897892705901,0.0
342154.6038362722,4740833.5216966402,-27500.0,1017.1544350865545,-55.637366712934771,2253.1337797392453,191.38105867886935,-671.04765211134145,68.891839007578369,1298.0615232919902,1057.8003315897995,85.020103349774047,-85.020103349774047,-1057.8003315897995,2251.4354102195998,0.0
347154.6038362722,4740833.5216966402,-27500.0,924.76534346002825,243.75404707623522,2442.469587330068,23.275559980729195,-633.46466287709018,-14.531647663342611,1400.9185754301707,1351.6387030650849,21.347728671623372,-21.347728671623372,-1351.6387030650849,2448.4660173043426,0.0
352154.6038362722,4740833.5216966402,-27500.0,883.16811790816826,642.44253077098949,2439.3967254709792,-184.13566430113178,-480.72806218552995,-151.65437582326862,1501.9953947198776,1699.509509315867,-144.53174806708751,144.53174806708751,-1699.509509315867,2671.3926882760807,0.0
357154.6038362722,4740833.5216966402,-27500.0,937.95343381202372,1085.6089138399204,2166.9402913391273,-400.23161079616813,-183.98747644595727,-349.80281792459925,1656.4678878572374,2053.0800420914852,-437.34201850996533,437.34201850996533,-2053.0800420914852,2978.1052217270949,0.0
362154.6038362722,4740833.5216966402,-27500.0,1113.5194626490443,1481.0713440448624,1586.2359629936727,-578.70492744193905,264.14639249802883,-606.94760943731649,1947.7763165407641,2335.25537361242,-860.65975283604905,860.65975283604905,-2335.25537361242,3433.8747963058863,0.0
367154.6038362722,4740833.5216966402,-27500.0,1393.0166517058813,1720.4251061699201,723.78229943106157,-667.9004951950385,838.52017419445656,-908.04006950976134,2344.762725540817,2456.5693243996702,-1386.9718855841502,1386.9718855841502,-2456.5693243996702,4065.7102144648729,0.0
372154.6038362722,4740833.5216966402,-27500.0,1713.1584582660842,1715.0418717536031,-321.59434859077049,-627.42296474620662,1480.1139471301681,-1225.0426184421835,2781.1971627285811,2343.9315893123103,-1957.5865367380059,1957.5865367380059,-2343.9315893123103,4834.4625502101371,0.0
377154.6038362722,4740833.5216966402,-27500.0,1981.308993682296,1430.4276441971601,-1400.8785319153455,-443.74370463945195,2108.102869651681,-1522.0595504623827,3204.0875020696067,1969.2736435332235,-2495.4028374531708,2495.4028374531708,-1969.2736435332235,5650.232076296169,0.0
382154.6038362722,4740833.5216966402,-27500.0,2108.3305694236028,900.40466565303984,-2358.1910591068922,-136.47813653453591,2641.4377069573748,-1764.1922546421326,3568.7905462624262,1362.9010041750453,-2926.1884325958954,2926.1884325958954,-1362.9010041750453,6408.5244433197713,0.0
387154.6038362722,4740833.5216966402,-27500.0,2040.0953887697199,213.9371822883069,-3074.7290422873893,248.07383692062672,3020.2643268372549,-1926.3517752206428,3842.4184063816983,604.37659578633998,-3198.6822690011822,3198.6822690011822,-604.37659578633998,7020.9949621031519,0.0
392154.6038362722,4740833.5216966402,-27500.0,1772.2494379330556,-516.66746501307796,-3494.0780857055188,652.24940049165616,3218.0514204935043,-1998.281377383867,4007.6001490775752,-203.3719898133254,-3294.8918148803505,3294.8918148803505,203.3719898133254,7432.2907968143891,0.0
397154.6038362722,4740833.5216966402,-27500.0,1344.3561685469087,-1189.2386643826794,-3622.437418125623,1023.3280362950035,3241.3136092397253,-1984.3886338745119,4062.6077994950138,-963.20478304719609,-3228.177844010957,3228.177844010957,963.20478304719609,7623.5949858607419,0.0
402154.6038362722,4740833.5216966402,-27500.0,820.82752016016173,-1733.4533141059296,-3510.556253450914,1324.3671156868077,3120.2106008837654,-1899.6566239018748,4018.0533330783492,-1604.2799279189562,-3032.9305812977086,3032.9305812977086,1604.2799279189562,7606.7093426745532,0.0
407154.6038362722,4740833.5216966402,-27500.0,269.81471806817876,-2116.8452568468142,-3229.6565260092634,1537.5095368614761,2896.0371717885018,-1764.1385655809297,3891.9513909625548,-2089.4191994390112,-2751.9743447218534,2751.9743447218534,2089.4191994390112,7413.6027728447752,0.0
412154.6038362722,4740833.5216966402,-27500.0,-252.02432659959118,-2338.9813215922632,-2851.1719355155419,1661.441800260216,2610.515784139383,-1598.1537268797024,3705.0042698836232,-2411.6764219969054,-2426.387549817051,2426.387549817051,2411.6764219969054,7085.6819753749369,0.0
417154.6038362722,4740833.5216966402,-27500.0,-706.46833424845636,-2420.366175163128,-2434.5103171115002,1706.0748518326286,2299.0958610830621,-1419.1879575347295,3477.2181014985658,-2585.3770361007264,-2089.5860839214447,2089.5860839214447,2585.3770361007264,6665.3286285105169,0.0
422154.6038362722,4740833.5216966402,-27500.0,-1073.9253703157312,-2391.3874570613521,-2022.4596220834339,1687.0299777958903,1988.18876153166,-1240.5270390078092,3226.0347240328815,-2636.3448015409695,-1765.305040966894,1765.305040966894,2636.3448015409695,6190.5203299392269,0.0
427154.6038362722,4740833.5216966402,-27500.0,-1349.8086838210627,-2284.021820623514,-1641.761668565932,1621.3339172341723,1695.1751463453468,-1071.1564787647901,2965.5894804354252,-2594.0258209856756,-1468.1631771770997,1468.1631771770997,2594.0258209856756,5692.2342990070038,0.0
432154.6038362722,4740833.5216966402,-27500.0,-1539.6824189313793,-2126.8781625062352,-1306.2246027012454,1524.7012848000536,1429.8760240841495,-916.36775303543766,2706.6283550646917,-2486.3567135291478,-1205.4711198994398,1205.4711198994398,2486.3567135291478,5193.8537286641231,0.0
437154.6038362722,4740833.5216966402,-27500.0,-1654.7806534934009,-1942.9978195926617,-1020.4834959823803,1410.1971066795375,1196.5007348597544,-778.62942068435325,2456.7854953822948,-2337.1042526161455,-979.33533717354453,979.33533717354453,2337.1042526161455,4711.7687629706679,0.0
442154.6038362722,4740833.5216966402,-27500.0,-1708.5926190938951,-1749.4838587826682,-783.37544372496006,1287.864571040662,995.4938369467518,-658.45033613962994,2221.0507100419718,-2164.9772004384986,-788.53940320126935,788.53940320126935,2164.9772004384986,4256.5369344011397,0.0
447154.6038362722,4740833.5216966402,-27500.0,-1714.6118826858665,-1558.1226772756895,-590.53369853734375,1164.9159145788431,825.02778939886241,-555.10295350139609,2002.3087360782058,-1983.8000770050687,-630.0028376331245,630.0028376331245,1983.8000770050687,3834.1847484955756,0.0
452154.6038362722,4740833.5216966402,-27500.0,-1685.06138714441,-1376.4060521484741,-436.17629202182025,1046.1849047748053,682.08893594676135,-467.16895100830698,1801.8651514980406,-1803.2050143603415,-499.80341717397232,499.80341717397232,1803.2050143603415,3447.4184010061449,0.0
457154.6038362722,4740833.5216966402,-27500.0,-1630.3188049084911,-1208.6006079670458,-314.22678622013382,934.64888712900188,563.20346634763382,-392.91803625903765,1619.9063296314671,-1629.4882730912959,-393.83275581707619,393.83275581707619,1629.4882730912959,3096.6388128515114,0.0
282154.6038362722,4745833.5216966402,-27500.0,465.990845726815,116.08483499405907,117.12098117169259,88.545830028486023,21.082153135260306,-1.817017461377934,267.50831081609221,302.3880652903689,-153.64320826451171,153.64320826451171,-302.3880652903689,492.57673891757867,0.0
287154.6038362722,4745833.5216966402,-27500.0,538.63901790854811,88.68583579469788,154.43487978818527,111.90689293781388,6.3162428440870979,2.8540738522542144,299.87490965654297,319.26826371329332,-159.30604899579893,159.30604899579893,-319.26826371329332,538.62065372671771,0.0
292154.6038362722,4745833.5216966402,-27500.0,615.24191676757175,53.523661106692394,204.69904438213132,138.36045003346575,-14.232317799776673,8.9974190923235096,337.35445325897132,335.36048097055505,-161.62581398397393,161.62581398397393,-335.36048097055505,594.82884049916424,0.0
297154.6038362722,4745833.5216966402,-27500.0,693.47965590139268,10.373791602283092,271.60288646295049,167.41686102594736,-41.887707307528181,16.78583857198447,380.60272508194464,350.76432333796743,-159.31241849838227,159.31241849838227,-350.76432333796743,663.38897506981186,0.0
302154.6038362722,4745833.5216966402,-27500.0,769.93096302843401,-40.090491947782695,359.4010935240633,198.01308826735362,-77.97723421273281,26.270706399655019,430.45905971391016,366.09188420135905,-150.96352590443001,150.96352590443001,-366.09188420135905,746.29835998133456,0.0
307154.6038362722,4745833.5216966402,-27500.0,839.94406973536138,-95.736096395203973,472.64423488087334,228.27259684683915,-123.60736532649864,37.268118848127557,487.82853081033267,382.81025117371786,-135.25189391009764,135.25189391009764,-382.81025117371786,845.00460636363346,0.0
312154.6038362722,4745833.5216966402,-27500.0,897.69107364358251,-152.25318631696331,615.57862636079585,255.23992558107682,-179.28238226511942,49.192352021259346,553.48830294985783,403.68558981125864,-111.27032010642745,111.27032010642745,-403.68558981125864,959.98819652550173,0.0
317154.6038362722,4745833.5216966402,-27500.0,936.57071436253386,-202.35362299750821,791.03773701830346,274.64341145547235,-244.31193068407006,60.829645975261251,627.73315866127382,433.28149352691366,-79.092769002955151,79.092769002955151,-433.28149352691366,1090.3421464392854,0.0
322154.6038362722,4745833.5216966402,-27500.0,950.1700844280399,-235.08202881059904,998.63584610118482,280.79115181108313,-315.9697135861324,70.058125918375993,709.90355733674517,478.37463136311908,-40.593415949645987,40.593415949645987,-478.37463136311908,1233.4640486530209,0.0
327154.6038362722,4745833.5216966402,-27500.0,933.98482821993287,-235.6367449947092,1232.1551484401646,266.77501873630348,-388.42376415160271,73.545373085841248,798.02550167499908,548.00776515808639,-0.50368662590329905,0.50368662590329905,-548.00776515808639,1385.1061056802159,0.0
332154.6038362722,4745833.5216966402,-27500.0,887.94093873358599,-186.3420703941085,1476.2848060598571,225.22498708498767,-451.5862980404471,66.498253410924093,888.85717916203157,652.72126292103212,32.448720130029585,-32.448720130029585,-652.72126292103212,1540.2424801025209,0.0
337154.6038362722,4745833.5216966402,-27500.0,819.35385292535784,-69.575276811435515,1703.4245207717634,149.87209029764935,-490.25042407867318,42.600067962127483,978.53664264128724,802.3783609136467,44.702392827024994,-44.702392827024994,-802.3783609136467,1695.4575041369937,0.0
342154.6038362722,4745833.5216966402,-27500.0,745.26288856486633,126.74297769162037,1872.1022329227083,38.046407845762339,-484.16727436667975,-5.6631809575077341,1064.1528033231748,1002.1279086976781,17.993932639262084,-17.993932639262084,-1002.1279086976781,1853.5419318316576,0.0
347154.6038362722,4745833.5216966402,-27500.0,692.29836763791059,401.41053966448027,1929.337898634358,-106.15870809910437,-409.930164484687,-86.053007389112807,1148.1101580658014,1246.7071766673066,-68.688011761874918,68.688011761874918,-1246.7071766673066,2029.8466891390024,0.0
352154.6038362722,4745833.5216966402,-27500.0,692.03510501386893,732.06935455765199,1819.2273891832619,-269.00552116375979,-245.38589792223422,-204.84556495232573,1253.6944669672082,1514.6189250166244,-234.68180275988448,234.68180275988448,-1514.6189250166244,2256.4187555174749,0.0
357154.6038362722,4745833.5216966402,-27500.0,771.06808641393502,1071.3244489226749,1498.1076293952513,-426.17374281624069,23.553750837957534,-364.43176942422537,1442.2366109545844,1765.279082604513,-491.03068240403672,491.03068240403672,-1765.279082604513,2575.5085818577527,0.0
362154.6038362722,4745833.5216966402,-27500.0,938.14040268792917,1351.5102511060677,952.75101193045771,-545.52989440916838,395.38332109041022,-560.84983292986601,1728.1677265284238,1942.7672634111555,-833.47460018576078,833.47460018576078,-1942.7672634111555,3018.3801520645052,0.0
367154.6038362722,4745833.5216966402,-27500.0,1174.1220411843901,1499.9810946291427,213.99544080389418,-594.20285594385393,847.96556124418214,-782.33230270960757,2068.5980086204954,1987.867778976105,-1238.2512860405104,1238.2512860405104,-1987.867778976105,3582.9192796427601,0.0
372154.6038362722,4745833.5216966402,-27500.0,1431.4708720303749,1461.0236970735982,-642.43632530057675,-548.22803403171952,1339.3246575624073,-1009.9952565988721,2425.9081289743717,1855.6817497470759,-1663.7921558359155,1663.7921558359155,-1855.6817497470759,4229.0989609338449,0.0
377154.6038362722,4745833.5216966402,-27500.0,1645.9250010620278,1215.2584948976955,-1511.2522794059284,-400.88999947605197,1815.4758887656765,-1221.073823076593,2766.9444257218192,1531.767884237941,-2059.0930869607087,2059.0930869607087,-1531.767884237941,4892.482314591216,0.0
382154.6038362722,4745833.5216966402,-27500.0,1756.3171670832876,787.19646064166102,-2284.0747229085446,-165.79269366508541,2222.9634926474773,-1393.8480264283403,3062.1500498005353,1039.1189177344195,-2376.0802314832681,2376.0802314832681,-1039.1189177344195,5503.326448141509,0.0
387154.6038362722,4745833.5216966402,-27500.0,1723.5031480279104,237.45112704029077,-2876.1413712982098,126.86587283595705,2521.2057300334191,-1512.4280965997766,3288.8880439385039,432.52319514246028,-2581.0327714415607,2581.0327714415607,-432.52319514246028,6002.5591435308679,0.0
392154.6038362722,4745833.5216966402,-27500.0,1540.1921748039217,-356.01395215748846,-3242.8450379386413,438.92893496623384,2690.0022608287886,-1569.6202156638863,3434.1764257883065,-216.76238888550233,-2660.7393432531367,2660.7393432531367,216.76238888550233,6351.4234480286359,0.0
397154.6038362722,4745833.5216966402,-27500.0,1228.9979938442264,-918.73226889662897,-3381.8914483203207,733.91537871204866,2730.3055460084897,-1567.1181015774896,3495.2198185716074,-838.97520399388486,-2621.9847190762234,2621.9847190762234,838.97520399388486,6534.3547426088398,0.0
402154.6038362722,4745833.5216966402,-27500.0,831.93414146963778,-1394.877722933687,-3323.8280816860588,984.135572153304,2659.5178504004339,-1513.498961546584,3477.826690285036,-1379.704015285258,-2486.0298072434789,2486.0298072434789,1379.704015285258,6556.3770070380197,0.0
407154.6038362722,4745833.5216966402,-27500.0,397.25898944973596,-1753.441305098034,-3117.3595263103402,1173.7426748564219,2504.2796053040897,-1421.1955200432972,3393.61525608886,-1806.3592242971743,-2281.1922932705138,2281.1922932705138,1806.3592242971743,6437.3193241847584,0.0
412154.6038362722,4745833.5216966402,-27500.0,-31.369964319839902,-1986.6040105489228,-2815.4587954860394,1298.1599537857874,2293.5716134930917,-1303.5830742507171,3257.0394746023717,-2107.7394429159349,-2036.2412768833456,2036.2412768833456,2107.7394429159349,6205.2058004850296,0.0
417154.6038362722,4745833.5216966402,-27500.0,-421.15011968615954,-2103.659395757069,-2465.6412414240649,1361.3560020442615,2053.763043573977,-1172.8582589991515,3082.957948845522,-2289.2926352467757,-1776.0051578300945,1776.0051578300945,2289.2926352467757,5890.5004394396346,0.0
422154.6038362722,4745833.5216966402,-27500.0,-751.93495143950577,-2123.8083323027768,-2105.0564698489848,1372.4800703245,1805.9795015246352,-1038.8816079283836,2885.0216242863034,-2366.9159991280976,-1519.3419545640734,1519.3419545640734,2366.9159991280976,5521.9995055137051,0.0
427154.6038362722,4745833.5216966402,-27500.0,-1014.9732778535226,-2069.9761331959699,-1759.4080365779882,1342.8775481891118,1565.3745222422999,-908.82828370744835,2674.817620017046,-2361.2943751342764,-1278.9112263488942,1278.9112263488942,2361.2943751342764,5124.4535300689695,0.0
432154.6038362722,4745833.5216966402,-27500.0,-1210.1698730149524,-1964.5219421825557,-1444.197315310209,1283.9354266273624,1341.6111256566194,-787.36838747221748,2461.5652433229329,-2293.7158612572521,-1061.9983678102587,1061.9983678102587,2293.7158612572521,4717.5998400498111,0.0
437154.6038362722,4745833.5216966402,-27500.0,-1343.0682212359177,-1826.8276489499017,-1166.9732227158411,1205.7979974481771,1139.9192517534916,-677.11258349788363,2252.1646527587395,-2183.5042516805261,-871.76319027855129,871.76319027855129,2183.5042516805261,4316.1588030684461,0.0
442154.6038362722,4745833.5216966402,-27500.0,-1422.2388334960156,-1672.3368203025416,-929.7115128165251,1116.7837783518039,962.28560514307469,-579.13205608872977,2051.4473555435843,-2046.7859097961318,-708.50460296579968,708.50460296579968,2046.7859097961318,3930.3802843474887,0.0
447154.6038362722,4745833.5216966402,-27500.0,-1457.3355013843768,-1512.5277574484712,-730.86702201634728,1023.2771326196576,808.52789724655281,-493.44112684366229,1862.5218202825272,-1896.1781536939636,-570.73444948050178,570.73444948050178,1896.1781536939636,3566.8292557541304,0.0
452154.6038362722,4745833.5216966402,-27500.0,-1457.8205967627403,-1355.384708713176,-566.93952510217184,929.89228456752744,677.15156440957105,-419.3919128237107,1687.1403111987065,-1741.0189267142387,-455.99297344049012,455.99297344049012,1741.0189267142387,3229.2091274431114,0.0
287154.6038362722,4750833.5216966402,-27500.0,503.46682983363627,42.568336796670586,180.0169434295868,107.0456048228213,-12.994535551010971,4.8525307892992924,274.65823856042005,279.18186124828981,-130.8891813998178,130.8891813998178,-279.18186124828981,481.9526513383417,0.0
292154.6038362722,4750833.5216966402,-27500.0,562.04318074102457,9.8132003567378732,233.68966329296288,127.54409700399397,-33.615247151791372,9.7871047643202917,306.54715953913035,292.00518975494344,-129.32226161512844,129.32226161512844,-292.00518975494344,532.86857860389227,0.0
297154.6038362722,4750833.5216966402,-27500.0,618.86823017324718,-27.76681541750331,302.60439433320562,148.81155185464434,-60.020965629082994,15.709439380850306,342.7997105398594,305.09700257203724,-123.60870919907489,123.60870919907489,-305.09700257203724,593.81916349201197,0.0
302154.6038362722,4750833.5216966402,-27500.0,670.75404461603114,-68.553367622374566,389.71289839968273,169.55843846979087,-92.880136498725065,22.481304028662894,384.05301173020371,319.52871152714386,-112.92144940959818,112.92144940959818,-319.52871152714386,665.79231150102726,0.0
307154.6038362722,4750833.5216966402,-27500.0,713.79562651999674,-109.51966983272277,497.69262931429819,187.82793812676798,-132.47325869590554,29.727862739829444,430.98978935476271,337.19318024766335,-96.705659267395703,96.705659267395703,-337.19318024766335,749.19242312772542,0.0
312154.6038362722,4750833.5216966402,-27500.0,743.62172738871845,-145.76492125418741,628.270292512379,200.86109398953263,-178.34913237460825,36.712458633021676,484.15900280956009,361.08790682124561,-75.003048024325949,75.003048024325949,-361.08790682124561,843.61524547595184,0.0
317154.6038362722,4750833.5216966402,-27500.0,755.95215711244521,-170.11545510644535,781.16543826263808,205.03352778481857,-228.84733872442445,42.18171247515577,543.63576540478095,395.55026847009935,-48.914595964304027,48.914595964304027,-395.55026847009935,947.70660657771452,0.0
322154.6038362722,4750833.5216966402,-27500.0,747.56156835589081,-172.99143132261901,952.59977727138437,195.95014926933348,-280.49569239425472,44.195028854002842,608.65478726806157,446.30551282444213,-21.19323739399357,21.19323739399357,-446.30551282444213,1059.2370654206989,0.0
327154.6038362722,4750833.5216966402,-27500.0,717.6830284523611,-142.85178805693945,1133.4383682426151,168.81661658264537,-327.34901383785251,39.972625811559766,677.49802158856517,520.10579330033613,3.1032384289729862,-3.1032384289729862,-520.10579330033613,1175.6252769821065,0.0
332154.6038362722,4750833.5216966402,-27500.0,669.71096259781052,-67.61597487362171,1307.2673210796675,119.21775081866909,-360.43117651693206,25.82384942928331,747.80866899246621,623.67209992656092,16.069807224203828,-16.069807224203828,-623.67209992656092,1295.2487496274703,0.0
337154.6038362722,4750833.5216966402,-27500.0,612.7632686443302,62.580677716033918,1449.0817684496053,44.38964845198921,-367.57063028776275,-2.7512349234752707,817.41185647655823,761.67571794288108,6.8229833608231729,-6.8229833608231729,-761.67571794288108,1419.8724430528198,0.0
342154.6038362722,4750833.5216966402,-27500.0,562.28663724858086,251.25823692899039,1525.6639232694749,-55.072591007926462,-334.03754146132479,-50.672940821218674,886.33665959792347,933.72102026639686,-37.809339037683912,37.809339037683912,-933.72102026639686,1558.0631846499168,0.0
347154.6038362722,4750833.5216966402,-27500.0,538.64099977084277,490.75482503352254,1498.9088503085602,-173.40168490464228,-244.39982777477499,-122.50729149057646,963.69402814901946,1130.8072638205181,-131.38363978678831,131.38363978678831,-1130.8072638205181,1728.0133135088652,0.0
352154.6038362722,4750833.5216966402,-27500.0,562.83993804155318,758.33257638742316,1332.8977877709815,-298.41675442990589,-85.780050964220223,-221.293133208418,1084.6681661503962,1332.4945443694291,-284.6047939092947,284.6047939092947,-1332.4945443694291,1956.0467302038517,0.0
357154.6038362722,4750833.5216966402,-27500.0,649.6663764065936,1015.6416535473771,1004.1060869767102,-411.7655373043217,147.8766062353362,-347.1371712844109,1283.0607157335876,1506.6107777184416,-501.24182072409417,501.24182072409417,-1506.6107777184416,2267.4634578021783,0.0
362154.6038362722,4750833.5216966402,-27500.0,800.09164208978859,1213.6621724657275,512.02908035554765,-491.39074153084186,451.70001244883986,-495.9773667321308,1538.5129934178613,1613.1811279018671,-774.44202004050248,774.44202004050248,-1613.1811279018671,2672.9846331739641,0.0
367154.6038362722,4750833.5216966402,-27500.0,996.38140965700325,1303.322921557937,-114.15096790906188,-516.19056991121147,807.7088615425057,-659.07988082772329,1823.3310120325764,1612.8526296024352,-1085.1599386898829,1085.1599386898829,-1612.8526296024352,3160.3610118211027,0.0
372154.6038362722,4750833.5216966402,-27500.0,1203.1418950378256,1248.9853445101637,-816.91607308184973,-471.67805741744684,1186.0849707095238,-823.75517973585897,2114.5875514817226,1477.7490959316758,-1404.0632117230896,1404.0632117230896,-1477.7490959316758,3696.2444149453531,0.0
377154.6038362722,4750833.5216966402,-27500.0,1375.2269990443451,1039.6744389826245,-1520.9154440827419,-354.55952191414895,1550.2361896875732,-975.36958428739183,2390.2286550094568,1200.7569964747365,-1696.9654683653905,1696.9654683653905,-1200.7569964747365,4234.9599442272201,0.0
382154.6038362722,4750833.5216966402,-27500.0,1469.9604159042233,693.21326431328339,-2149.5290214640613,-174.2777005711342,1864.2619286349372,-1100.1463772946161,2630.0358628586714,799.24270038394229,-1932.1739418613204,1932.1739418613204,-799.24270038394229,4728.9372992943581,0.0
387154.6038362722,4750833.5216966402,-27500.0,1458.7815251172287,251.50326830869813,-2641.4809124960393,49.184299422280048,2100.2552359989377,-1187.8378405891037,2818.0745414079383,311.49461837682168,-2087.1547210811323,2087.1547210811323,-311.49461837682168,5137.6207809870803,0.0
392154.6038362722,4750833.5216966402,-27500.0,1333.8159911928622,-230.77600809333609,-2961.7535579897376,290.28699626693441,2243.0060246489452,-1233.393764687715,2944.5795134099085,-212.55479849283506,-2152.2781551675434,2152.2781551675434,212.55479849283506,5433.2914542661902,0.0
397154.6038362722,4750833.5216966402,-27500.0,1107.6033823705654,-699.2931704999678,-3104.1121165548075,523.70899012088387,2290.9672536343733,-1237.2169195591675,3006.5268393123097,-722.55366118643747,-2130.828404152242,2130.828404152242,722.55366118643747,5603.2537592007011,0.0
402154.6038362722,4750833.5216966402,-27500.0,807.34720838684257,-1110.4784508597354,-3086.2623181819495,728.97675313317802,2253.9386592292999,-1204.1810837035305,3006.9017329762055,-1177.0438259221846,-2036.0158582688146,2036.0158582688146,1177.0438259221846,5648.7841543312625,0.0
407154.6038362722,4750833.5216966402,-27500.0,466.80016447534962,-1436.8499883486506,-2940.9820382456828,892.90534160819186,2148.9319512987518,-1141.9644825832167,2953.1120775671643,-1548.6312162043903,-1886.5864794003498,1886.5864794003498,1548.6312162043903,5581.9318167102829,0.0
412154.6038362722,4750833.5216966402,-27500.0,118.79671909312927,-1667.3356092179047,-2706.8155342559589,1009.8448372599709,1995.8081191965011,-1059.3044587705979,2855.1215695695651,-1824.8233490888765,-1702.5826161484993,1702.5826161484993,1824.8233490888765,5421.4651064980299,0.0
417154.6038362722,4750833.5216966402,-27500.0,-209.79847659493046,-1804.2104770923022,-2420.7532458415972,1080.4005324936063,1813.7859214916627,-964.59609886513329,2723.7640500889411,-2005.7430440543483,-1502.215604547607,1502.215604547607,2005.7430440543483,5189.0266346642866,0.0
422154.6038362722,4750833.5216966402,-27500.0,-500.35277805882714,-1858.6206272116626,-2113.7999938586422,1109.469446420509,1619.256839801456,-865.00721145968669,2569.4823739395365,-2100.3581591424986,-1300.1282543439329,1300.1282543439329,2100.3581591424986,4906.1177624181355,0.0
427154.6038362722,4750833.5216966402,-27500.0,-742.48708380705034,-1846.2203545306779,-1809.1992853328823,1104.2690872794296,1424.8337928911303,-766.08589406230169,2401.5399357852903,-2122.5894731240687,-1106.8554997230904,1106.8554997230904,2122.5894731240687,4592.1163031651677,0.0
432154.6038362722,4750833.5216966402,-27500.0,-932.74291527213268,-1783.7531603180887,-1522.540766459839,1072.7436217190141,1239.3042481139112,-671.7346632437808,2227.6338339635213,-2088.103259955974,-929.09114717901343,929.09114717901343,2088.103259955974,4263.2401553174859,0.0
437154.6038362722,4750833.5216966402,-27500.0,-1072.7079293627733,-1686.8120395056005,-1262.9129232932535,1022.4769599633656,1068.1130575434304,-584.40491311481685,2053.800854111621,-2012.0823410029855,-770.37169379704096,770.37169379704096,2012.0823410029855,3932.2352332420128,0.0
442154.6038362722,4750833.5216966402,-27500.0,-1167.1589373084539,-1568.6520673001044,-1034.4405322029997,960.07694814532738,914.06749356088892,-505.38831759614595,1884.5110592009737,-1907.9295916689025,-631.88425082942922,631.88425082942922,1907.9295916689025,3608.536365223878,0.0
447154.6038362722,4750833.5216966402,-27500.0,-1222.5183996246112,-1439.780242405983,-837.79088724228166,890.92161896981941,778.06137546810237,-435.12170643276193,1722.8657741839593,-1786.6999715162401,-513.22174651099192,513.22174651099192,1786.6999715162401,3298.6875549073807,0.0
292154.6038362722,4755833.5216966402,-27500.0,503.92144219003922,-17.788707559564116,256.12391070136493,113.580655043237,-46.544243763029435,9.4157485031488104,276.60419405673088,257.2170709358021,-102.48621458926013,102.48621458926013,-257.2170709358021,479.11618354050154,0.0
297154.6038362722,4755833.5216966402,-27500.0,543.2238782028212,-48.065351040621842,323.83909584014128,128.10256631251181,-70.530966343743245,13.660823274994589,306.63665644790598,269.61546663429101,-95.17728623623762,95.17728623623762,-269.61546663429101,532.42288114226562,0.0
302154.6038362722,4755833.5216966402,-27500.0,576.0809752664735,-78.209925954734942,406.48839811428388,140.77273531707962,-99.114379441423125,18.14032384755189,340.57819314445828,284.51832687512172,-84.1075376401715,84.1075376401715,-284.51832687512172,593.89314440769044,0.0
307154.6038362722,4755833.5216966402,-27500.0,599.52505779726039,-104.86971188885525,505.16062721978705,149.77639348703352,-131.99752921565698,22.396094744372988,379.08423947708195,303.93124764951654,-69.299341351165893,69.299341351165893,-303.93124764951654,663.38823964136986,0.0
312154.6038362722,4755833.5216966402,-27500.0,610.62339707643332,-123.24314213103841,619.66427150703282,152.75829091193108,-168.14915989340003,25.669695779802574,422.63803061330128,330.69308494924383,-51.412759023013365,51.412759023013365,-330.69308494924383,740.22657715377954,0.0
317154.6038362722,4755833.5216966402,-27500.0,607.03594915555914,-126.98163265651189,747.64686034117074,146.86553103239612,-205.4547688939715,26.805093304499085,471.1528040390653,368.51432647691217,-32.086731393227751,32.086731393227751,-368.51432647691217,823.25118139105973,0.0
322154.6038362722,4755833.5216966402,-27500.0,587.82294998535406,-108.39391637093756,883.49744276849094,128.93394760657438,-240.32695101575834,24.156876609737051,523.73351865332199,421.80313753410587,-14.32145143332832,14.32145143332832,-421.80313753410587,911.15052011738157,0.0
327154.6038362722,4755833.5216966402,-27500.0,554.44871768565201,-59.159618519939606,1017.1707513781909,95.886489843960888,-267.3496982184696,15.532861461896989,578.8458259561495,495.13197167325814,-2.8230548707605863,2.8230548707605863,-495.13197167325814,1003.2048859238752,0.0
332154.6038362722,4755833.5216966402,-27500.0,511.79056288831669,28.244258175116439,1133.2406428846634,45.397730998724981,-279.09098807938659,-1.7850084073605716,634.84115396940012,592.19617569537047,-4.1700289602658813,4.1700289602658813,-592.19617569537047,1100.6239432274247,0.0
337154.6038362722,4755833.5216966402,-27500.0,468.78030366243968,158.31206902651365,1210.6967266255515,-23.176657550017332,-266.28036926881805,-30.884990075993883,690.98759617557209,714.19502190571848,-26.600882607593633,26.600882607593633,-714.19502190571848,1208.4413858255925,0.0
342154.6038362722,4755833.5216966402,-27500.0,438.14367978553634,329.66317613126262,1224.147178655805,-107.71822243661391,-218.57765945583691,-74.878943793393177,750.4985115695373,857.77014264218496,-79.203659099639708,79.203659099639708,-857.77014264218496,1337.3118352642739,0.0
347154.6038362722,4755833.5216966402,-27500.0,434.69545067989424,532.22198157876812,1147.0193886195236,-202.38552718419859,-126.10025330276336,-136.3354174869304,830.41937864728698,1012.9719512127856,-170.36582169876527,170.36582169876527,-1012.9719512127856,1503.5307915622116,0.0
352154.6038362722,4755833.5216966402,-27500.0,471.96297941916032,745.55055606176234,956.88572903693398,-297.20468167193411,18.322232705590064,-216.52843531925129,963.48264955929608,1162.0989741252495,-305.5654876332535,305.5654876332535,-1162.0989741252495,1725.2743338894402,0.0
357154.6038362722,4755833.5216966402,-27500.0,557.61306374960486,939.66548276335379,642.12793773052806,-378.68169533217201,216.54142536465216,-314.63965841603545,1150.1695731688237,1280.431318414888,-484.93685700774159,484.93685700774159,-1280.431318414888,2015.3088121846729,0.0
362154.6038362722,4755833.5216966402,-27500.0,689.05055963283201,1079.2286991127139,208.07665417970591,-431.71309140543326,462.88498896239088,-427.15745511372728,1369.7817925642096,1339.5752529103302,-701.39364526910651,701.39364526910651,-1339.5752529103302,2374.1333525349328,0.0
367154.6038362722,4755833.5216966402,-27500.0,851.12245351080264,1130.7882670648548,-319.86380803053947,-442.6067630779001,743.29558947695512,-547.76139951011135,1605.9556406593454,1313.2231185012827,-940.21237030435702,940.21237030435702,-1313.2231185012827,2787.6916329735755,0.0
372154.6038362722,4755833.5216966402,-27500.0,1017.5266422694925,1071.1796010754365,-898.1084301959836,-402.44639526050844,1036.5269853307093,-667.89723188436926,1843.5492938569844,1183.9035559560346,-1180.6601101894173,1180.6601101894173,-1183.9035559560346,3230.0132153814898,0.0
377154.6038362722,4755833.5216966402,-27500.0,1156.1497901909215,894.17740186793912,-1472.0880218366981,-309.66723613487108,1317.426846756395,-778.02471294498662,2067.3224435610923,948.43003519222532,-1399.5190938397081,1399.5190938397081,-948.43003519222532,3668.5659323576092,0.0
382154.6038362722,4755833.5216966402,-27500.0,1236.7642681708601,612.81360220237946,-1986.8240149729074,-170.85180537038488,1561.4814340478536,-869.24416754946458,2263.1033786060407,619.91591240244179,-1575.5436907785652,1575.5436907785652,-619.91591240244179,4070.2277812074749,0.0
387154.6038362722,4755833.5216966402,-27500.0,1238.3519304987904,256.45278133561959,-2397.4890607151324,0.59038674239500155,1749.2386801803532,-934.82821440584473,2419.4699812152035,225.48870063899471,-1693.4459657703549,1693.4459657703549,-225.48870063899471,4406.5323347291842,0.0
392154.6038362722,4755833.5216966402,-27500.0,1153.5253795990411,-136.15799576369579,-2676.6885474525825,187.36388800359899,1869.2944448253263,-971.21351196475564,2529.0319895231441,-199.44561037184837,-1746.2147310358705,1746.2147310358705,199.44561037184837,4657.3133278605155,0.0
397154.6038362722,4755833.5216966402,-27500.0,988.90466843180673,-525.25408645338587,-2816.759002749779,371.80028809473367,1919.1616507964209,-978.22765946238724,2588.9259924917069,-618.31698247258214,-1735.2915455774021,1735.2915455774021,618.31698247258214,4812.3141825193388,0.0
402154.6038362722,4755833.5216966402,-27500.0,761.99672225142012,-877.17232919040509,-2827.3932276580072,538.86541253179337,1904.1608594436661,-958.61053350568545,2600.50109022674,-999.65204296900129,-1668.9341614745595,1668.9341614745595,999.65204296900129,4870.8507028230579,0.0
407154.6038362722,4755833.5216966402,-27500.0,496.21900312687745,-1168.5933682419291,-2730.3255163325425,677.98713573027408,1835.0572615804672,-917.09443572915234,2568.4183893224131,-1321.0102179492246,-1559.599055525634,1559.599055525634,1321.0102179492246,4840.0477468168938,0.0
412154.6038362722,4755833.5216966402,-27500.0,215.86449874180209,-1387.6294727642021,-2553.1913913695989,783.57121163382794,1725.3314466683319,-859.36347199334091,2499.4834769935865,-1570.2303225498058,-1421.2309628848489,1421.2309628848489,1570.2303225498058,4732.3591749547695,0.0
417154.6038362722,4755833.5216966402,-27500.0,-57.740145558506327,-1532.4829172791026,-2324.2082728687592,854.4861517768428,1588.7883546594824,-791.14698030950137,2401.501178296885,-1744.501818428241,-1267.0883824971959,1267.0883824971959,1744.501818428241,4563.0271614088415,0.0
422154.6038362722,4755833.5216966402,-27500.0,-308.39907076464976,-1608.7937398438935,-2068.508045467584,892.9682179031513,1437.8708156826706,-717.58039810602725,2282.3372359266473,-1848.1707678367534,-1108.3690101629295,1108.3690101629295,1848.1707678367534,4347.9254006197243,0.0
427154.6038362722,4755833.5216966402,-27500.0,-525.6677172167532,-1626.6933884144814,-1806.2235109621784,903.36911677463456,1282.7388844939837,-642.85602579690317,2149.2609892795217,-1890.1606889833008,-953.60646811298943,953.60646811298943,1890.1606889833008,4101.9956891238498,0.0
432154.6038362722,4755833.5216966402,-27500.0,-704.37955529266731,-1598.2332669798129,-1551.990047742102,891.03401764391094,1130.9832529723199,-570.11510132612386,2008.5605575293962,-1881.6240464774685,-808.64934310237618,808.64934310237618,1881.6240464774685,3838.2961577768788,0.0
437154.6038362722,4755833.5216966402,-27500.0,-843.5866934994541,-1535.490957102729,-1315.3709195471802,861.44949731018232,987.76760235464633,-501.50515353937078,1865.3792816054788,-1834.1347881624415,-676.99351531554066,676.99351531554066,1834.1347881624415,3567.5659022040777,0.0
442154.6038362722,4755833.5216966402,-27500.0,-945.32518902299989,-1449.3863694738286,-1101.7509248271424,819.68764345965758,856.20302701245998,-438.32841841829958,1723.710051877584,-1758.4912840773325,-560.27135768919356,560.27135768919356,1758.4912840773325,3298.1660043248949,0.0
297154.6038362722,4760833.5216966402,-27500.0,471.14546346080863,-55.276309626590923,335.31510362876298,107.32725123100826,-75.158760930887254,11.182033191644948,272.89609274919883,242.23142912450652,-73.229550687828748,73.229550687828748,-242.23142912450652,477.71287549766879,0.0
302154.6038362722,4760833.5216966402,-27500.0,489.93911916254098,-75.164778820422214,410.93048440420802,113.70640687332329,-99.105447507874757,13.823672275229885,301.03045856447676,258.11882515736204,-63.00592574514954,63.00592574514954,-258.11882515736204,529.63515147680857,0.0
307154.6038362722,4760833.5216966402,-27500.0,499.87563238380977,-89.181592893403646,497.97963638169892,115.9245534188956,-125.39327651398595,15.813677151609024,333.21581862990814,279.21297630668613,-50.595232035290607,50.595232035290607,-279.21297630668613,587.15227066411899,0.0
312154.6038362722,4760833.5216966402,-27500.0,499.24133222502161,-93.032192393325943,594.96284882648001,112.09524790525579,-152.70511890946997,16.447404070207142,369.77100151577463,307.96955264633829,-36.996128545506565,36.996128545506565,-307.96955264633829,649.6798543201171,0.0
317154.6038362722,4760833.5216966402,-27500.0,487.13814399290487,-81.497749671567917,698.34373873169159,100.10115128372257,-178.82657914538311,14.729926575349209,410.26378646870836,347.31800950902164,-24.029759185012409,24.029759185012409,-347.31800950902164,716.57225242668369,0.0
322154.6038362722,4760833.5216966402,-27500.0,464.08746962240525,-48.802445342985116,801.81672940864132,77.802826252286522,-200.41987973497976,9.3352619709961786,453.61443988328733,400.38406782430582,-14.557592744624827,14.557592744624827,-400.38406782430582,787.56143231350757,0.0
327154.6038362722,4760833.5216966402,-27500.0,432.67522107253791,10.627944915966305,895.65634176420315,43.393736536036165,-212.87058230286536,-1.3984859754609511,498.5312161855893,469.93684909388236,-12.620782349398837,12.620782349398837,-469.93684909388236,863.52127698171978,0.0
332154.6038362722,4760833.5216966402,-27500.0,398.06260541978645,100.9394655272028,966.39956581141257,-4.0875578639299448,-210.30406437564284,-19.409789859354767,544.11474775826787,557.50430495886076,-23.401045332719207,23.401045332719207,-557.50430495886076,947.55207958033839,0.0
337154.6038362722,4760833.5216966402,-27500.0,368.09413155150128,223.19365162914988,997.20827239058031,-64.123973870808783,-185.89191763087615,-46.759363691412894,591.22345073606016,662.1838541646415,-52.884180315698018,52.884180315698018,-662.1838541646415,1046.1010995749214,0.0
342154.6038362722,4760833.5216966402,-27500.0,352.68834574035037,373.52392268122065,969.27783807386879,-134.07507490494189,-132.55959545367389,-85.357461489057172,647.18349039799887,779.32501017260142,-107.1249994755442,107.1249994755442,-779.32501017260142,1169.3442828372226,0.0
347154.6038362722,4760833.5216966402,-27500.0,362.27362454545096,541.60689110986641,864.51807188529824,-208.71580491345665,-44.140082690732186,-136.57331230003209,734.34696647115209,899.45613412918192,-191.09212036906729,191.09212036906729,-899.45613412918192,1329.7318644154916,0.0
352154.6038362722,4760833.5216966402,-27500.0,405.29523845644684,710.16076414724432,669.37145787661848,-280.21304772748704,83.121407878077818,-200.76955843007403,867.30876252002054,1007.9926358705875,-307.2221412478886,307.2221412478886,-1007.9926358705875,1538.3005501102425,0.0
357154.6038362722,4760833.5216966402,-27500.0,485.2520604552858,856.17105902036928,379.08543811086042,-338.77042176848641,249.00028427161214,-276.85850030514234,1033.2251727560276,1086.2660614752372,-454.00439286087521,454.00439286087521,-1086.2660614752372,1800.1553883049808,0.0
362154.6038362722,4760833.5216966402,-27500.0,598.16937820343117,954.16303385783806,1.2239635862627938,-374.0200410493955,448.12495334221722,-362.02149352186785,1219.0830940684814,1114.1367206692048,-625.06682621618847,625.06682621618847,-1114.1367206692048,2111.52337908663,0.0
367154.6038362722,4760833.5216966402,-27500.0,731.60359330562108,981.10613954138967,-442.98888785373532,-376.97168611628632,669.71364363149883,-451.73677977168683,1414.5043684887723,1073.8934152796714,-809.22991989032653,809.22991989032653,-1073.8934152796714,2459.5932695098081,0.0
372154.6038362722,4760833.5216966402,-27500.0,865.96294534218168,921.71850193888929,-920.48166715137768,-342.04217661265267,898.54228992275773,-540.20004531109134,1608.9503022931763,954.49625308297698,-991.7666216057836,991.7666216057836,-954.49625308297698,2824.6158488162459,0.0
377154.6038362722,4760833.5216966402,-27500.0,978.12532604420574,772.49210423957106,-1391.2845894140028,-268.53901095552357,1117.0873776857752,-621.10175987752223,1791.6096040141815,754.83473132077859,-1156.7003001117403,1156.7003001117403,-754.83473132077859,3183.1793050458373,0.0
382154.6038362722,4760833.5216966402,-27500.0,1046.3795632191216,543.02172915412689,-1815.4096423059852,-161.08068070200727,1308.3498070998155,-688.59120367362664,1952.3514631318294,484.83585232973513,-1289.561873443995,1289.561873443995,-484.83585232973513,3511.7854164994751,0.0
387154.6038362722,4760833.5216966402,-27500.0,1055.1253554133054,254.15550309513972,-2159.6969772053421,-28.788222578941728,1458.5932345333092,-738.17616416666112,2082.8597303828756,163.97099086823323,-1379.8274307599427,1379.8274307599427,-163.97099086823323,3790.0687608781191,0.0
392154.6038362722,4760833.5216966402,-27500.0,997.87379043598321,-66.362558982731414,-2402.7288326201224,116.48653517944078,1559.2672146918733,-767.32460838821851,2177.505436834103,-182.36008284132936,-1422.3795431243768,1422.3795431243768,182.36008284132936,4003.1421819202178,0.0
397154.6038362722,4760833.5216966402,-27500.0,877.81509067741581,-389.29198330724688,-2536.731609821094,262.33110225466106,1607.7063250067147,-775.64264104502581,2233.7415842640976,-527.40480341593775,-1417.7106734908309,1417.7106734908309,527.40480341593775,4142.764710557848,0.0
402154.6038362722,4760833.5216966402,-27500.0,706.14802857048426,-688.75933518391992,-2566.49677352248,397.73142983664673,1606.6261942153492,-764.64479465960903,2251.9908646053768,-847.28162938571472,-1371.0169974990306,1371.0169974990306,847.28162938571472,4207.3192607285037,0.0
407154.6038362722,4760833.5216966402,-27500.0,499.03730610861578,-945.49903130514815,-2506.2173960523041,514.39463248973527,1562.7758862243686,-737.24386566609894,2235.1358389507091,-1123.8989771020244,-1290.6227451390243,1290.6227451390243,1123.8989771020244,4200.8479305931533,0.0
412154.6038362722,4760833.5216966402,-27500.0,274.26161310821328,-1148.1254759125486,-2375.4776106270874,607.29254942689874,1485.2414055105683,-697.13121084876957,2187.7908328301796,-1346.213688509248,-1186.2460874112896,1186.2460874112896,1346.213688509248,4131.5371776081356,0.0
417154.6038362722,4760833.5216966402,-27500.0,48.397054018509984,-1292.7196397392202,-2195.4763092196658,674.52749871483968,1383.8375965673924,-648.19716829276979,2115.5329576131444,-1510.0112663492891,-1067.5066219154974,1067.5066219154974,1510.0112663492891,4010.0493365877196,0.0
422154.6038362722,4760833.5216966402,-27500.0,-165.02827435884947,-1381.3419073880304,-1986.1470321650456,716.75434480070862,1267.8622186075227,-594.08509475196524,2024.2237015784667,-1616.6958066110649,-942.88503042535126,942.88503042535126,1616.6958066110649,3848.0060349725682,0.0
427154.6038362722,4760833.5216966402,-27500.0,-356.36006320485546,-1420.1161487316951,-1764.3902066346586,736.41184758248392,1145.3088998836854,-537.91127352994113,1919.490532678047,-1671.6358615993299,-819.16827391656534,819.16827391656534,1671.6358615993299,3656.7983857422446,0.0
432154.6038362722,4760833.5216966402,-27500.0,-519.82355844782956,-1417.3778830086687,-1543.3143241809166,736.96181619502943,1022.5047753587926,-482.13809351412186,1806.3848280369161,-1682.5047905472911,-701.29936692004367,701.29936692004367,1682.5047905472911,3446.7797520844897,0.0
437154.6038362722,4760833.5216966402,-27500.0,-653.00481669705357,-1382.1700042325124,-1332.2223612885189,722.25557277492067,904.07062846546376,-428.5639018853135,1689.1979028599856,-1657.8846964353338,-592.50384988534597,592.50384988534597,1657.8846964353338,3226.8136926327315,0.0
302154.6038362722,4765833.5216966402,-27500.0,414.10057799114276,-64.287936043750335,405.05974795039225,89.461712766077866,-94.890262046301004,9.8653475915765743,266.18298509050015,237.85430796724899,-48.033199853259532,48.033199853259532,-237.85430796724899,472.49839354071241,0.0
307154.6038362722,4765833.5216966402,-27500.0,415.24775998767075,-67.893980891924315,479.56608722046934,86.972884440978305,-115.15855660245703,10.218937858993783,293.95900410429152,260.12302762140962,-38.371998441548016,38.371998441548016,-260.12302762140962,520.13659319225997,0.0
312154.6038362722,4765833.5216966402,-27500.0,407.90066614917242,-60.710599520352204,559.20122166774286,78.856035406272142,-134.88991202505269,9.0784107737839435,325.4157237183307,289.7832654291642,-28.890352321736174,28.890352321736174,-289.7832654291642,571.48149315190597,0.0
317154.6038362722,4765833.5216966402,-27500.0,392.1336557678664,-38.689424882625772,639.91446955160438,63.619307946930171,-151.98475184623859,5.6264248891445883,359.72070183523846,328.98964598349039,-21.364738191282555,21.364738191282555,-328.98964598349039,626.4848007787341,0.0
322154.6038362722,4765833.5216966402,-27500.0,369.28851890521872,2.2528188864780341,715.44667326228011,39.909289291077549,-163.52814066389809,-1.1679517655750558,395.81333863065754,379.76980606466117,-18.320835839652375,18.320835839652375,-379.76980606466117,685.79722273257869,0.0
327154.6038362722,4765833.5216966402,-27500.0,342.34462486515622,65.547575230914305,777.04144757616746,6.7974047367014352,-165.75749021965865,-12.529029579772509,432.82955587199041,443.53137236268498,-23.050926922429824,23.050926922429824,-443.53137236268498,751.4078739448928,0.0
332154.6038362722,4765833.5216966402,-27500.0,316.11032200563096,153.00839713074745,813.49018870144289,-35.850388128220388,-154.17438745596604,-29.806472381615336,470.73484363386302,520.37324057134686,-39.481361769236287,39.481361769236287,-520.37324057134686,827.34327489883128,0.0
337154.6038362722,4765833.5216966402,-27500.0,297.0606449458686,263.67246052601735,811.72452313203519,-86.96383987687291,-123.86764064132034,-54.344480867721764,512.38795301595246,608.26451796705305,-71.826923420016158,71.826923420016158,-608.26451796705305,920.05825884857757,0.0
342154.6038362722,4765833.5216966402,-27500.0,292.65401312158656,392.66867360738939,758.1366153680774,-143.90596033664599,-70.09419452199289,-87.281370496398537,569.83237835114846,702.2523368580712,-123.9959309697698,123.9959309697698,-702.2523368580712,1037.9357812731896,0.0
347154.6038362722,4765833.5216966402,-27500.0,310.05024691233041,530.46818493467163,640.67119403587947,-202.28619408335027,10.890458296618364,-129.29010219120977,661.56976099177155,793.96314424892012,-198.77246960121215,198.77246960121215,-793.96314424892012,1189.4913535781006,0.0
352154.6038362722,4765833.5216966402,-27500.0,354.34183656820613,662.94567496586706,451.48507198881936,-256.09269079546169,120.84982273945069,-180.29567234849077,784.87966831001631,871.72163772876797,-296.89579972059022,296.89579972059022,-871.72163772876797,1380.675861016957,0.0
357154.6038362722,4765833.5216966402,-27500.0,426.6623652723294,772.60156625569959,189.65392195492311,-298.249387476241,258.63395906391042,-239.23238623338014,928.60042169872486,921.55698630617132,-416.25577010810878,416.25577010810878,-921.55698630617132,1612.4634414752934,0.0
362154.6038362722,4765833.5216966402,-27500.0,522.75231623436116,841.01608237409357,-136.84321031654676,-321.59975621454754,419.57399190313572,-303.92093026976062,1084.9599784441516,929.15910040222354,-551.47938434892478,551.47938434892478,-929.15910040222354,1879.764694287604,1.0
367154.6038362722,4765833.5216966402,-27500.0,632.60047100290876,852.17048657188695,-510.65696435633743,-320.16689780614121,595.47376836147316,-371.13807026343403,1246.8560525298153,882.51243020040215,-694.14713773102562,694.14713773102562,-882.51243020040215,2171.8352240888489,0.0
372154.6038362722,4765833.5216966402,-27500.0,741.54366061995449,795.8426564206128,-906.60187398669484,-290.39663684276456,775.3453907024641,-436.91160014772481,1406.7082123927371,774.594642136522,-833.72569465134279,833.72569465134279,-774.594642136522,2473.750871684977,0.0
377154.6038362722,4765833.5216966402,-27500.0,832.73579362351779,670.09205493721913,-1295.0815417376939,-232.03127876346954,946.82061811082497,-497.0086370539546,1556.6929674751345,605.36013220619509,-959.07833215975791,959.07833215975791,-605.36013220619509,2768.459335130096,0.0
382154.6038362722,4765833.5216966402,-27500.0,890.3781458036226,482.0376893551055,-1646.6436384876433,-148.33678640785431,1097.9392312387829,-547.51822603071184,1689.4460319571463,382.35672018806423,-1060.2025513934886,1060.2025513934886,-382.35672018806423,3039.0056212792992,0.0
387154.6038362722,4765833.5216966402,-27500.0,902.7925422407651,246.66644647571638,-1936.5001240470503,-45.599155312835997,1218.8791322250861,-585.39198859786347,1798.8282543272051,119.73478666918686,-1129.7526412774803,1129.7526412774803,-119.73478666918686,3270.5740308756212,0.0
392154.6038362722,4765833.5216966402,-27500.0,864.47703471159844,-15.948962778694154,-2147.8824831594111,67.963877387848271,1303.2127190294302,-608.81637730044906,1880.5230488620227,-164.07505579855359,-1163.9762532601355,1163.9762532601355,164.07505579855359,3452.0319317389262,0.0
397154.6038362722,4765833.5216966402,-27500.0,776.67348172850791,-284.18093640794888,-2273.5454710017229,183.56399481991673,1348.4416006810859,-617.34502183756797,1932.3399842135386,-449.34748847523326,-1162.8965318742594,1162.8965318742594,449.34748847523326,3576.7736122968959,0.0
402154.6038362722,4765833.5216966402,-27500.0,646.49338861253352,-538.1793087382058,-2315.3534862587117,293.12629078946225,1355.7917857184229,-611.79186185056449,1954.1965299590056,-717.92956748389804,-1129.8054158803238,1129.8054158803238,717.92956748389804,3642.8237008835949,0.0
407154.6038362722,4765833.5216966402,-27500.0,485.06034954491389,-762.29048714142129,-2282.412069234766,390.22951684843525,1329.4474584328684,-593.94711108088359,1947.8318334711516,-955.37496882469463,-1070.3050930816971,1070.3050930816971,955.37496882469463,3652.3179658775639,0.0
412154.6038362722,4765833.5216966402,-27500.0,305.29509067869367,-946.25426678452357,-2188.465496309484,470.58433129980563,1275.4993745176316,-566.20744950152721,1916.3530182485445,-1152.0547283898602,-991.19376844426756,991.19376844426756,1152.0547283898602,3610.5783568007087,0.0
417154.6038362722,4765833.5216966402,-27500.0,119.89734388113202,-1085.2557789763505,-2049.2571871129644,532.07350811220465,1200.8755717576512,-531.20777934197577,1863.7224345809377,-1303.278569405343,-899.44778862503176,899.44778862503176,1303.278569405343,3525.0212794632453,0.0
422154.6038362722,4765833.5216966402,-27500.0,-60.131550469272476,-1179.1534128517847,-1880.3428568704994,574.47059643161128,1112.4458952884627,-491.51649591063546,1794.2756960713998,-1408.6776111985018,-801.45450227618983,801.45450227618983,1408.6776111985018,3404.1027800944303,0.0
427154.6038362722,4765833.5216966402,-27500.0,-226.31502465948546,-1231.2772672455567,-1695.5843340041706,598.98379313470434,1016.3928316417517,-449.42352901496827,1712.3263841487312,-1471.1771381612302,-702.54594846308976,702.54594846308976,1471.1771381612302,3256.4339812829057,0.0
432154.6038362722,4765833.5216966402,-27500.0,-372.94267824407876,-1247.1414852344165,-1506.333912307585,607.75580770068507,917.85735161710784,-406.82296324182005,1621.8809319324596,-1495.8577104955564,-606.80648193302136,606.80648193302136,1495.8577104955564,3090.129012978598,0.0
307154.6038362722,4770833.5216966402,-27500.0,344.7095836174023,-44.745435010015349,453.2274810312108,62.936121231787197,-103.12007754209775,5.6588066995938044,261.16279581434367,244.57842384141753,-30.778264889773467,30.778264889773467,-244.57842384141753,461.8606065925087,0.0
312154.6038362722,4770833.5216966402,-27500.0,334.07010362714766,-29.710068782188145,516.71191376460649,52.395483641542249,-116.62294915648725,3.4058368300095219,288.51798689401414,274.1141358873644,-24.911446958330487,24.911446958330487,-274.1141358873644,504.75406870224577,0.0
317154.6038362722,4770833.5216966402,-27500.0,317.62522435350314,-1.1310617666763942,577.51601031747975,35.870068183340059,-126.70871703564744,-0.97955662136350219,317.65448382952798,311.87366227134879,-21.744050544526999,21.744050544526999,-311.87366227134879,551.25655934737563,0.0
322154.6038362722,4770833.5216966402,-27500.0,297.08892876494468,43.698940229173424,629.85443533852094,12.574551727972194,-130.93649606322845,-8.2782781573708597,347.7985950911102,359.02021447244414,-23.394560714601994,23.394560714601994,-359.02021447244414,602.68892052206502,0.0
327154.6038362722,4770833.5216966402,-27500.0,275.40315499306922,106.64272012855983,666.20312975857155,-17.84748880091017,-126.33029091833022,-19.373189097464088,378.61486882613838,416.00512088199559,-32.447120126947084,32.447120126947084,-416.00512088199559,661.64033748965608,0.0
332154.6038362722,4770833.5216966402,-27500.0,256.74400873809537,188.00084180623926,677.52614077421731,-55.069115348427324,-109.52272425040692,-35.18648977653833,411.07593868651713,482.06273388965968,-51.791000102253008,51.791000102253008,-482.06273388965968,732.28178286248101,0.0
337154.6038362722,4770833.5216966402,-27500.0,246.24914755055951,285.73821928341926,653.91185544620453,-97.826556198944147,-77.044360135925302,-56.577452346113297,450.68539666301581,554.67186299276318,-84.316493181914495,84.316493181914495,-554.67186299276318,820.24419547338118,0.0
342154.6038362722,4770833.5216966402,-27500.0,249.38775499311794,394.82720540388436,585.69185235908787,-143.72971414216374,-25.771784809140559,-84.201036613484689,511.99996665860408,629.11085309158,-132.46311729360684,132.46311729360684,-629.11085309158,931.77358756480612,0.0
347154.6038362722,4770833.5216966402,-27500.0,270.97098453548506,506.94436469383476,465.00781350992264,-189.21678147994183,46.49171802256636,-118.33941866636488,601.78278892285982,698.28295258029243,-197.6593984129334,197.6593984129334,-698.28295258029243,1072.2054908286705,0.0
352154.6038362722,4770833.5216966402,-27500.0,313.92665105927045,610.76931724515691,287.63078436453509,-229.73099905640967,140.38336212872056,-158.73279431589006,711.63852058725342,752.99972736113614,-279.74848250612962,279.74848250612962,-752.99972736113614,1244.2822717030056,0.0
357154.6038362722,4770833.5216966402,-27500.0,378.10366626926913,693.04879673821233,54.662347442473482,-260.16319204182304,254.43051990457025,-204.44871336752857,834.75679188837785,782.84776636147785,-376.54179924536675,376.54179924536675,-782.84776636147785,1446.9862762401208,0.0
362154.6038362722,4770833.5216966402,-27500.0,459.47016991728202,740.39886423677297,-226.36359397424195,-275.53701925235083,384.74705031319735,-253.83482835832433,966.13449188470088,777.62097637350575,-483.65911007750674,483.65911007750674,-777.62097637350575,1675.227620381009,0.0
367154.6038362722,4770833.5216966402,-27500.0,550.05485069164126,741.56230628468734,-541.42734314212055,-271.8284468403719,525.12091250251808,-304.59100517190097,1100.656746596479,729.10332049183046,-594.77491408532353,594.77491408532353,-729.10332049183046,1920.3109588751995,0.0
372154.6038362722,4770833.5216966402,-27500.0,638.81504462341672,689.61270555499368,-871.25170189351184,-246.73910387945199,667.55682126540955,-353.97235730185525,1232.7481232450568,632.80684595806019,-702.29459169622601,702.29459169622601,-632.80684595806019,2170.9415234735693,0.0
377154.6038362722,4770833.5216966402,-27500.0,713.33664993418688,583.517406821912,-1193.6913215918667,-200.22189646458492,803.21533560334376,-399.09910426957111,1356.6544274553623,489.19987759212643,-798.35684600898924,798.35684600898924,-489.19987759212643,2414.5458441145233,0.0
382154.6038362722,4770833.5216966402,-27500.0,761.98189835263418,428.60186954814606,-1486.7979239696283,-134.60641138221348,923.56596513975546,-437.31542137487367,1466.9432694465931,304.05317905324381,-875.94846656622576,875.94846656622576,-304.05317905324381,2638.7017183476078,0.0
387154.6038362722,4770833.5216966402,-27500.0,775.93414011492041,235.76846234997359,-1731.8553022302774,-54.280048739633962,1021.5010000853518,-466.52121034966552,1559.0253004391673,87.772673333906141,-929.87405460671448,929.87405460671448,-87.772673333906141,2832.4686986217507,0.0
392154.6038362722,4770833.5216966402,-27500.0,750.6208268557948,19.689431213439246,-1915.6978733907524,34.992778325855383,1092.1680908060712,-485.40677361940243,1629.5673307930563,-146.11840834308833,-957.36624683859486,957.36624683859486,146.11840834308833,2987.4246527213654,0.0
397154.6038362722,4770833.5216966402,-27500.0,686.21044189022621,-203.53245647653111,-2031.8713208865111,126.93734657683345,1133.3692277344817,-493.54871939772249,1676.7214605661334,-382.95547162369883,-958.23396942018337,958.23396942018337,382.95547162369883,3098.2755459334421,0.0
402154.6038362722,4770833.5216966402,-27500.0,587.17344542807052,-418.65917026767437,-2080.5488188467598,215.61664955768993,1145.4995144980383,-491.36339858455887,1700.1475845582263,-608.8936977263794,-934.57674748463876,934.57674748463876,608.8936977263794,3162.9974053071846,0.0
407154.6038362722,4770833.5216966402,-27500.0,461.14948786293581,-613.10058714168576,-2067.4384262745693,296.09411399585048,1131.1138901641532,-479.94822222627658,1700.8552136297419,-812.45785152770839,-890.19510664050847,890.19510664050847,812.45785152770839,3182.5652395763409,0.0
412154.6038362722,4770833.5216966402,-27500.0,317.48915364121967,-777.94045370395122,-2002.1016699301626,364.82197675792224,1094.2757997702581,-460.86019933139426,1680.9207154883934,-985.46091691173058,-829.86995326039516,829.86995326039516,985.46091691173058,3160.3884473232019,0.0
417154.6038362722,4770833.5216966402,-27500.0,165.82884049153003,-908.1949751446266,-1896.1273780852355,419.74941104999999,1039.8509547998306,-435.88253622583966,1643.1469419061798,-1123.2663069291261,-758.66967277096353,758.66967277096353,1123.2663069291261,3101.5980688423201,0.0
422154.6038362722,4770833.5216966402,-27500.0,14.95215714351882,-1002.4625460285794,-1761.5082183657407,460.20477614677276,972.8750217596255,-406.81908614562553,1590.7243352105206,-1224.5147860046018,-681.39311019702438,681.39311019702438,1224.5147860046018,3012.3178362540543,0.0
427154.6038362722,4770833.5216966402,-27500.0,-127.94486031422278,-1062.1996575933099,-1609.4182949915175,486.63537655472823,898.07082166865393,-375.33937070195969,1526.9360378017473,-1290.5092259297965,-602.19666884005051,602.19666884005051,1290.5092259297965,2899.0169188046589,0.0
312154.6038362722,4775833.5216966402,-27500.0,274.96279551792685,-1.9190515171294074,470.9377736437641,31.796014436596039,-99.095784110944237,-0.81094312905442067,257.5869048017878,259.7524615513442,-23.477938472082897,23.477938472082897,-259.7524615513442,448.33696093652594,0.0
317154.6038362722,4775833.5216966402,-27500.0,259.53728033432958,30.188829773066175,514.86532203165609,15.247129567078767,-103.9171256187648,-5.5823452501172035,282.24721358671667,295.16296195985888,-23.620449067122536,23.620449067122536,-295.16296195985888,488.87741588555707,0.0
322154.6038362722,4775833.5216966402,-27500.0,242.20543107260153,75.847205023846968,548.52758003415124,-6.5948353920974254,-103.01942819081189,-12.823563498511223,307.49335055008254,337.93378500486995,-28.503091321889201,28.503091321889201,-337.93378500486995,534.99715469011767,0.0
327154.6038362722,4775833.5216966402,-27500.0,225.64661085884484,135.82996431230575,565.66408014345518,-33.735222093266088,-94.099812383655674,-23.160853543606507,333.54413314004256,387.88893136435456,-40.098199009094174,40.098199009094174,-387.88893136435456,589.44361516818617,0.0
332154.6038362722,4775833.5216966402,-27500.0,213.33178646793201,209.52159240211623,559.15676086318297,-65.621649692288813,-74.679590521523039,-37.214541417701973,362.66002024618086,443.79746405545745,-60.481881651346498,60.481881651346498,-443.79746405545745,656.01918588779085,0.0
337154.6038362722,4775833.5216966402,-27500.0,209.22869081192516,294.42200917828239,521.61836368287311,-100.9941547029976,-42.343058003166,-55.522788818988325,403.3050683449755,503.03709259170716,-91.587077366482504,91.587077366482504,-503.03709259170716,739.20058292631484,0.0
342154.6038362722,4775833.5216966402,-27500.0,217.27166284963832,385.79225052413005,446.28888915600299,-137.79685235838238,4.9295544298141811,-78.444462849569533,466.67188616289258,561.36757680384903,-134.87379964826147,134.87379964826147,-561.36757680384903,843.30587843260616,0.0
347154.6038362722,4775833.5216966402,-27500.0,240.62450248761351,476.59281482303055,328.17951376987401,-173.19938908244893,68.363357618826456,-106.05133366533434,549.68651679846857,612.9269523878761,-190.95392371021003,190.95392371021003,-612.9269523878761,971.41138899635052,0.0
352154.6038362722,4775833.5216966402,-27500.0,280.84422548215201,557.8535846780735,165.30295499667355,-203.7688891000648,147.9846697874261,-138.02772428435276,645.7166531598084,650.55514701820675,-259.23881989782683,259.23881989782683,-650.55514701820675,1124.3985201101405,0.0
357154.6038362722,4775833.5216966402,-27500.0,337.13061660134798,619.54251642583472,-40.264639966222468,-225.8067913818079,242.29871321023353,-173.60166097788849,750.73601927195875,666.49589196816487,-337.69972993287917,337.69972993287917,-666.49589196816487,1300.4297787488701,0.0
362154.6038362722,4775833.5216966402,-27500.0,405.88834968337665,651.87577160916192,-281.7888440474398,-235.82352856106687,348.14619905344972,-211.53236238319593,861.25664741837534,653.43386866391552,-422.83106576035635,422.83106576035635,-653.43386866391552,1494.9259909069917,0.0
367154.6038362722,4775833.5216966402,-27500.0,480.79882483946238,646.86125992169571,-548.00316242914221,-231.07571410512853,460.81602656252636,-250.17189101230787,973.47568653089706,605.70719662848092,-509.87551642515899,509.87551642515899,-605.70719662848092,1700.9580383001469,1.0
372154.6038362722,4775833.5216966402,-27500.0,553.48755753742819,599.7489159764217,-824.06508117768919,-210.05477504794965,574.43996056870992,-287.60378153650618,1083.2237043409968,520.44090020272915,-593.30959371149174,593.30959371149174,-520.44090020272915,1909.9338827967294,1.0
377154.6038362722,4775833.5216966402,-27500.0,614.70594887225207,510.03134982784599,-1093.2376873607698,-172.80954968346532,682.62442210438451,-321.84207022223893,1186.2090303552511,398.31987919334119,-667.51626065043047,667.51626065043047,-398.31987919334119,2112.4715588965219,0.0
382154.6038362722,4775833.5216966402,-27500.0,655.78221725631772,381.72592620623186,-1338.983850940303,-121.01689966362106,779.20655585993359,-351.05626397846873,1278.3712861604004,243.78407708893053,-727.51215965764561,727.51215965764561,-243.78407708893053,2299.3425242694707,0.0
387154.6038362722,4775833.5216966402,-27500.0,670.0042133902233,222.85428734083817,-1547.0364612394221,-57.776650839571737,858.98398646940234,-373.77897919453869,1356.2399746683982,64.572699030086824,-769.57658744953073,769.57658744953073,-64.572699030086824,2462.3586058832702,0.0
392154.6038362722,4775833.5216966402,-27500.0,653.61474166003984,44.249509807581241,-1707.0194625093843,12.821676977513407,918.27436273686385,-389.05653430439514,1417.2232554815059,-129.28430286882781,-791.65543625737575,791.65543625737575,129.28430286882781,2595.0804259607939,0.0
397154.6038362722,4775833.5216966402,-27500.0,606.2210770902575,-142.01402748008155,-1813.3327092697314,86.258842717587612,955.2093019903059,-396.5175222171585,1459.7793332259585,-326.79235909228379,-793.47636156879594,793.47636156879594,326.79235909228379,2693.2592516534851,0.0
402154.6038362722,4775833.5216966402,-27500.0,530.59126365373538,-324.21209719793541,-1865.2211207289211,158.15103895295238,969.73872971175365,-396.35539786349676,1483.4539500913729,-517.34519597291046,-776.38697084413025,776.38697084413025,517.34519597291046,2754.9795135567069,0.0
407154.6038362722,4775833.5216966402,-27500.0,431.9642474959835,-492.27710141404265,-1866.1452687335066,224.71546598714411,963.38808329269614,-389.23971564341178,1488.7951751280884,-691.84791502259657,-742.98783995998213,742.98783995998213,691.84791502259657,2780.5247360861194,0.0
412154.6038362722,4775833.5216966402,-27500.0,317.09141349227713,-638.63575320812151,-1822.6985103209838,283.07293252838588,938.85499041396861,-376.18290119379492,1477.1775336865419,-843.45006039876409,-696.66291149237497,696.66291149237497,843.45006039876409,2772.0340204885324,0.0
417154.6038362722,4775833.5216966402,-27500.0,193.23899722434018,-758.53600006760689,-1743.3518059555518,331.37162824806319,899.54431536066602,-358.39226944596226,1450.5762253101868,-967.84488637239531,-641.10701120865917,641.10701120865917,967.84488637239531,2733.0365785442973,0.0
422154.6038362722,4775833.5216966402,-27500.0,67.331569075956168,-849.9351965700256,-1637.266584982804,368.75565506081495,849.12677585702647,-337.13240532493148,1411.3304678840652,-1063.1880045512289,-579.92493839256133,579.92493839256133,1063.1880045512289,2667.9501472511242,0.0
317154.6038362722,4780833.5216966402,-27500.0,214.36213947102533,55.233382416161497,454.46093941820033,0.27607650436775871,-83.96830482528928,-8.6335276159644518,252.06796510152535,278.55703380614261,-26.027547997024342,26.027547997024342,-278.55703380614261,437.28701128257609,0.0
322154.6038362722,4780833.5216966402,-27500.0,200.42339152428909,99.69471350472179,473.46368271662874,-19.596129319379891,-79.631047657012758,-15.489234478589516,273.35747578822003,316.66746450060339,-32.983800828984698,32.983800828984698,-316.66746450060339,479.70256697866108,0.0
327154.6038362722,4780833.5216966402,-27500.0,188.42386492835575,155.25447701540773,476.36442398986776,-43.34161946690881,-68.212746976463279,-24.838033335355131,295.96374472082903,359.81314720687124,-45.835058713584345,45.835058713584345,-359.81314720687124,530.75741671739365,0.0
332154.6038362722,4780833.5216966402,-27500.0,181.16394558895027,220.79281191247293,457.65196075762054,-70.32585362901871,-47.912464769878284,-37.091248654424916,323.89598911075296,406.56320678656311,-66.041949916512721,66.041949916512721,-406.56320678656311,593.63143876171375,0.0
337154.6038362722,4780833.5216966402,-27500.0,181.64815286443482,293.71055726733351,411.89759495737627,-99.39027370785449,-17.069580874548382,-52.578047486191622,366.97290041693475,454.41324759963072,-94.86256845860342,94.86256845860342,-454.41324759963072,671.65038235439977,0.0
342154.6038362722,4780833.5216966402,-27500.0,192.66147263023015,369.76003701820355,334.44906872096539,-128.82040510088308,25.59458077791097,-71.479807387214549,428.58079736854137,499.68979776522559,-133.11809693703941,133.11809693703941,-499.68979776522559,767.62170909258089,0.0
347154.6038362722,4780833.5216966402,-27500.0,216.2324073685424,443.10419771809973,222.25208527576945,-156.39417583353912,80.706096835138979,-93.761748698787414,502.96215606402313,537.62794737369961,-180.94567026498137,180.94567026498137,-537.62794737369961,883.14240374918973,0.0
352154.6038362722,4780833.5216966402,-27500.0,253.06752555196078,506.67859249766462,74.676074181529671,-179.530582865215,147.98178032975059,-119.1139825705914,586.19785805724791,562.67766680450234,-237.58580395469221,237.58580395469221,-562.67766680450234,1018.0902151921073,0.0
357154.6038362722,4780833.5216966402,-27500.0,302.08354861522946,552.87654712448989,-105.8276106738744,-195.54027730322792,226.04230850856774,-146.91625707744785,675.70797734586881,569.05363594180085,-301.26020096177069,301.26020096177069,-569.05363594180085,1170.4063879934922,0.0
362154.6038362722,4780833.5216966402,-27500.0,360.17722913409881,574.49763732340296,-313.41958407524629,-201.95413150286035,312.35229637151343,-176.24033720934187,768.92296524649134,551.48261480395024,-369.19083688768831,369.19083688768831,-551.48261480395024,1336.1654836578307,0.0
367154.6038362722,4780833.5216966402,-27500.0,422.34469900745944,565.8110641215435,-539.06271865454562,-196.87877504199255,403.32869727992414,-205.89869843443907,862.95590447991208,506.03359314599214,-437.78819452925046,437.78819452925046,-506.03359314599214,1509.8769744415517,0.0
372154.6038362722,4780833.5216966402,-27500.0,482.18772970878149,523.52280374587679,-771.2554294750895,-179.31006521198609,494.62614493121487,-234.53908633467938,954.64677386367669,430.86634586683408,-502.99897449880859,502.99897449880859,-430.86634586683408,1684.9600897055941,1.0
377154.6038362722,4780833.5216966402,-27500.0,532.74378231015555,447.42687649491791,-997.22656528248808,-149.33482844980554,581.5669554970849,-260.77396515441785,1040.7548792245,326.72527338123439,-560.76262401931751,560.76262401931751,-326.72527338123439,1854.3345247601737,0.0
382154.6038362722,4780833.5216966402,-27500.0,567.48090747802883,340.57948226454414,-1204.3865609946592,-108.17131230476129,659.64466502684047,-283.32392445497811,1118.2088154388262,197.04934804344811,-607.49328450473058,607.49328450473058,-197.04934804344811,2011.056758543122,0.0
387154.6038362722,4780833.5216966402,-27500.0,581.24715177526718,208.94700824893684,-1381.7604696153323,-58.035418503142452,725.01011313919389,-301.15009189508237,1184.356157804637,47.656667930553112,-640.49481481392127,640.49481481392127,-47.656667930553112,2148.9232609586184,0.0
392154.6038362722,4780833.5216966402,-27500.0,570.97399632659506,60.606455930124667,-1521.1342572351446,-1.8604222269177426,774.85240841411189,-313.55226603167796,1237.1673981135616,-113.9362044098101,-658.23204063605033,658.23204063605033,113.9362044098101,2262.9621152242148,0.0
397154.6038362722,4780833.5216966402,-27500.0,536.00354423200872,-95.321663246855906,-1617.7258974514561,57.069942690806556,807.61466086967664,-320.21784810709738,1275.3641164234259,-279.41616858833459,-660.41843541832191,660.41843541832191,279.41616858833459,2349.7553647724517,0.0
402154.6038362722,4780833.5216966402,-27500.0,478.009602369736,-249.78541391075311,-1670.3157570849348,115.50172438287312,823.02479195088551,-321.21788696060253,1298.4588809722591,-440.61565054494241,-647.92402595239355,647.92402595239355,440.61565054494241,2407.5662763436039,0.0
407154.6038362722,4780833.5216966402,-27500.0,400.57891858690664,-394.75674993002491,-1680.8925888668025,170.5380937122672,821.96176488796289,-316.95754804952026,1306.7116457657212,-590.32712536242491,-622.5444298649478,622.5444298649478,590.32712536242491,2436.2804301459569,0.0
412154.6038362722,4780833.5216966402,-27500.0,308.58115569700908,-523.8966147107252,-1653.9581319039137,219.86949610185465,806.20585685402636,-308.09562490962685,1301.0205760672573,-722.8761387235088,-586.69213419509947,586.69213419509947,722.8761387235088,2437.197719301053,0.0
327154.6038362722,4785833.5216966402,-27500.0,160.30953446407017,166.95678702694516,398.24850696211234,-48.529963918486352,-47.709170444864043,-25.105646198275512,264.78052061592274,332.34546365241101,-49.770397374289217,49.770397374289217,-332.34546365241101,482.31619779590028,0.0
332154.6038362722,4785833.5216966402,-27500.0,156.92924991151276,224.50250583779069,371.56342988349837,-71.185032509931077,-27.631438934142018,-35.655290516038477,293.54393547127711,371.06202492909267,-69.058281351341662,69.058281351341662,-371.06202492909267,541.4687456624456,0.0
337154.6038362722,4785833.5216966402,-27500.0,160.57489840384531,286.6444021609525,321.61094572985644,-94.97380147737627,1.0003572607414333,-48.659717075995339,337.83596606682607,409.38623875535876,-95.20849187027278,95.20849187027278,-409.38623875535876,613.97407047024592,0.0
342154.6038362722,4785833.5216966402,-27500.0,173.18818532661891,349.68992750568327,245.24536776803291,-118.49352733757537,38.973314596792868,-64.196512445941906,394.93794492196287,444.20757691935086,-128.63464793017539,128.63464793017539,-444.20757691935086,701.55330999549585,0.0
347154.6038362722,4785833.5216966402,-27500.0,196.02615248334087,408.85792054293864,140.69934929356421,-140.01131636814767,86.552037843473428,-82.182688212475369,460.57495945047401,471.69126613925107,-169.21165024542685,169.21165024542685,-471.69126613925107,804.88910906271053,0.0
352154.6038362722,4785833.5216966402,-27500.0,229.28134363200499,458.59982021340517,8.1352369835296727,-157.5853421143571,143.31633003590679,-102.34026810647693,532.48405787517368,487.54493012145122,-216.14990601085336,216.14990601085336,-487.54493012145122,923.3640573216137,0.0
357154.6038362722,4785833.5216966402,-27500.0,271.79205601418334,493.12963954608148,-149.95049321160346,-169.24900076103495,208.05432149419127,-124.17918749275245,608.86012783679416,487.44116160017632,-267.93862409855649,267.93862409855649,-487.44116160017632,1054.9825026533713,0.0
362154.6038362722,4785833.5216966402,-27500.0,320.92973816672099,507.11049476749929,-328.58377111778424,-173.23898714079809,278.74484794646105,-147.00509144780904,687.7439272882624,467.55568215273757,-322.38662497404056,322.38662497404056,-467.55568215273757,1196.4594780797559,0.0
367154.6038362722,4785833.5216966402,-27500.0,372.72646857615865,496.39335560104217,-520.51212736243474,-168.23300181307772,352.65113148631269,-169.95634326931059,766.91116715032081,425.14015146196027,-376.77303132827126,376.77303132827126,-425.14015146196027,1343.4467504971813,0.0
372154.6038362722,4785833.5216966402,-27500.0,422.25684796304489,458.67025395246668,-716.76345512347666,-153.55379185549509,426.52684674835365,-192.06867360441507,843.93929666806923,359.02247401548647,-428.09652482013649,428.09652482013649,-359.02247401548647,1490.8657937843477,0.0
377154.6038362722,4785833.5216966402,-27500.0,464.22699072204153,393.90491071532119,-907.50306755835538,-129.29760093401438,496.91218503665993,-212.36047119376485,916.35368227990011,269.92695382903833,-473.3888256049762,473.3888256049762,-269.92695382903833,1633.3158272785436,0.0
382154.6038362722,4785833.5216966402,-27500.0,493.66640610054304,304.4418121710159,-1083.0528496743402,-96.357766113080118,560.47424374165576,-229.92570433757501,981.80541546356358,160.53573134712872,-510.03893075262488,510.03893075262488,-160.53573134712872,1765.5114222012817,0.0
387154.6038362722,4785833.5216966402,-27500.0,506.58905655841085,194.76472704500065,-1234.8968879184736,-56.336162025719503,614.33571192220188,-244.01974942866147,1038.2471618771228,35.26759261757249,-536.0712750149512,536.0712750149512,-35.26759261757249,1882.6997838199807,0.0
392154.6038362722,4785833.5216966402,-27500.0,500.49573036026095,70.952999147791459,-1356.5010662922516,-11.359106103373719,656.33765125340165,-254.12436574170817,1084.0788548723385,-100.18813052968548,-550.33052715271344,550.33052715271344,100.18813052968548,1981.0070420280611,0.0
397154.6038362722,4785833.5216966402,-27500.0,474.63097044367424,-60.052666275567667,-1443.8213557039148,36.166310611449354,685.19767979641017,-259.98255938494259,1118.2436129986897,-239.49305462434234,-552.54747619669695,552.54747619669695,239.49305462434234,2057.6748737918861,0.0
402154.6038362722,4785833.5216966402,-27500.0,429.96830511580589,-191.23360740962065,-1495.4496556228435,83.810616842955056,700.54867427806312,-261.60051666506394,1140.2648162935548,-376.32181034294962,-543.28675397182292,543.28675397182292,376.32181034294962,2111.1683020650776,0.0
342154.6038362722,4790833.5216966402,-27500.0,157.30447969279845,327.6194098415138,174.43492388474556,-107.84394572799823,47.130337897792629,-57.106958097899131,364.46882673483924,394.71691560529052,-122.47749362500284,122.47749362500284,-394.71691560529052,643.03722225016816,0.0
347154.6038362722,4790833.5216966402,-27500.0,178.86406695275292,375.33256411099404,78.260555975144683,-124.68157555879687,88.057039703401514,-71.647761990889862,421.98854918204734,414.22415655550992,-156.80273041623013,156.80273041623013,-414.22415655550992,734.9810112856045,0.0
352154.6038362722,4790833.5216966402,-27500.0,208.60609305738214,414.26203961133916,-40.167884357543514,-138.08238597752393,135.95782904233968,-87.734768919279745,484.07764108554568,423.40155042189906,-195.71737725516505,195.71737725516505,-423.40155042189906,838.73562317675965,0.0
357154.6038362722,4790833.5216966402,-27500.0,245.39977208203979,439.98856563030591,-178.4805633822597,-146.59909146577419,189.79726368078474,-104.98426437270754,549.39046433059696,419.00013019028898,-237.96123841465788,237.96123841465788,-419.00013019028898,952.48900639116482,0.0
362154.6038362722,4790833.5216966402,-27500.0,287.04292533485966,448.52779184732719,-332.48460506302803,-148.96070964677324,247.96859962832474,-122.87569420816962,616.40039445366176,398.22930704608746,-281.80847633049814,281.80847633049814,-398.22930704608746,1073.5252507407502,0.0
367154.6038362722,4790833.5216966402,-27500.0,330.38046011295779,436.847916401308,-496.34799478528856,-144.23316884498078,308.37056440662207,-140.77912971474709,683.3737978852123,359.15532987044486,-325.18532140052201,325.18532140052201,-359.15532987044486,1198.3928402954377,0.0
372154.6038362722,4790833.5216966402,-27500.0,371.59206096093573,403.31655357514489,-663.02461789394465,-131.95404449671273,368.55667907575491,-157.99984090357097,748.43464021136174,301.03977901146681,-365.84962243621618,365.84962243621618,-301.03977901146681,1323.1421140013792,0.0
377154.6038362722,4790833.5216966402,-27500.0,406.61442371287865,347.98947177459684,-824.87467967608404,-112.21568215844403,425.94127512898132,-173.83506878696005,809.67375397145281,224.54979789244399,-401.60838540352756,401.60838540352756,-224.54979789244399,1443.6117223713989,0.0
382154.6038362722,4790833.5216966402,-27500.0,431.6287556559941,272.67995293306512,-974.38956682558091,-85.67918203969073,478.03284055878765,-187.63521188731485,865.2764299921746,131.7918415595463,-430.53907584699306,430.53907584699306,-131.7918415595463,1555.7348510240013,0.0
387154.6038362722,4790833.5216966402,-27500.0,443.52724196365926,180.79083279516379,-1104.9067777300061,-53.514991873831462,522.65957728617025,-198.86037704393945,913.64779562417516,26.154637621279903,-451.17890144542378,451.17890144542378,-26.154637621279903,1655.8325891280506,0.0
392154.6038362722,4790833.5216966402,-27500.0,440.27538228929006,76.939759299874027,-1211.2020331530393,-17.280254548179261,558.15275401969052,-207.12397333332507,953.51789732904103,-88.014383863631167,-462.65228632515408,462.65228632515408,88.014383863631167,1740.8608952263824,0.0
352154.6038362722,4580833.5216966402,-32500.0,409.56339286325249,119.80811668894955,-953.0265116733907,58.626578105457675,-381.28793929135156,-112.47851234926318,766.66576339532185,-31.637394298028262,77.709330980809597,-77.709330980809597,31.637394298028262,1381.0737229986321,0.0
357154.6038362722,4580833.5216966402,-32500.0,406.86433544357402,206.49501421678207,-852.68125918796375,87.00346206177116,-338.73564640633509,-98.749665617579012,729.96121007510192,56.633382343769412,27.55562361985146,-27.55562361985146,-56.633382343769412,1303.8832883983534,0.0
362154.6038362722,4580833.5216966402,-32500.0,391.19531452629701,281.42975726460946,-732.29238056267366,110.3790934547301,-289.43622135042312,-83.339340660550747,686.99959951204983,137.65777602990744,-19.729946283930431,19.729946283930431,-137.65777602990744,1216.450833499023,0.0
367154.6038362722,4580833.5216966402,-32500.0,364.60196862069648,340.73985766191953,-596.57996531748495,127.54149992269014,-235.2353052105594,-66.810717293613578,638.97479869796518,208.1683178909062,-62.226142130540467,62.226142130540467,-208.1683178909062,1121.8020934116939,0.0
372154.6038362722,4580833.5216966402,-32500.0,330.03430284239187,381.65636789756059,-451.47516365923968,137.69325638665345,-178.35285604253758,-49.808669166639291,587.32042133119046,265.65498086741536,-98.341080458536467,98.341080458536467,-265.65498086741536,1023.4642753980686,0.0
377154.6038362722,4580833.5216966402,-32500.0,291.01919901046455,402.83068346717056,-303.61059407812274,140.54330230566845,-121.20187493747419,-33.008749537752209,533.61665555745037,308.60786547064384,-126.96089154010268,126.96089154010268,-308.60786547064384,925.22789183568386,0.0
382154.6038362722,4580833.5216966402,-32500.0,251.24399922056816,404.47164600153172,-159.70181127254043,136.33811941329751,-66.17646703112905,-17.060749474564631,479.47981514682238,336.6326762351149,-147.54027793970053,147.54027793970053,-336.6326762351149,830.8425512464562,0.0
387154.6038362722,4580833.5216966402,-32500.0,214.1242320511308,388.27746116993075,-25.917851085951185,125.82613711195528,-15.441331894428561,-2.5351039705171599,426.45498464883065,350.4207003632701,-160.12089661751776,160.12089661751776,-350.4207003632701,743.66943348753466,0.0
392154.6038362722,4580833.5216966402,-32500.0,182.43038844424649,357.17604647277841,92.661965073158399,110.16125942106493,29.246542496282103,10.120493852954363,375.93868144216185,351.58317330280545,-165.27728068891341,165.27728068891341,-351.58317330280545,666.31663384410103,0.0
397154.6038362722,4580833.5216966402,-32500.0,158.03437308874902,314.92491513607177,192.42496347128551,90.762726784261972,66.659198018601245,20.608668569284866,329.21263682659782,342.38560230333087,-164.00350784974086,164.00350784974086,-342.38560230333087,600.30971869816517,0.0
402154.6038362722,4580833.5216966402,-32500.0,141.80775577508678,265.646255039121,271.39304292253991,69.155867046823701,96.148872427801905,28.791467086632945,288.18641583642801,325.4347252012638,-157.56407309512781,157.56407309512781,-325.4347252012638,545.88963506680443,0.0
342154.6038362722,4585833.5216966402,-32500.0,415.8445876192734,-106.44242729331438,-1216.0453825109796,-19.079283406623677,-513.76262741616006,-158.03523018185038,926.88650129721577,-259.20691851892536,216.41299491733179,-216.41299491733179,259.20691851892536,1697.8905563375442,0.0
347154.6038362722,4585833.5216966402,-32500.0,449.0391188222755,6.8161621778270831,-1162.3057188387104,22.082192959321183,-485.21123847785645,-146.88141976840026,903.47590039175361,-152.896933454237,158.23340267942814,-158.23340267942814,152.896933454237,1642.9278981228897,0.0
352154.6038362722,4585833.5216966402,-32500.0,465.4736975882775,118.39414875320871,-1078.194723396073,61.306864420326171,-445.35408952880977,-132.54976443030941,870.56637082331849,-45.3593098167443,97.964857599816028,-97.964857599816028,45.3593098167443,1570.2682048540116,0.0
357154.6038362722,4585833.5216966402,-32500.0,464.61528653820534,222.23187439136993,-965.13593264202996,96.4499950016843,-395.05462752194779,-115.41326639787697,828.75433471341182,58.619880194966953,38.190042631484914,-38.190042631484914,-58.619880194966953,1481.755188626744,0.0
362154.6038362722,4585833.5216966402,-32500.0,447.43522276792623,312.39786202799866,-826.79198256888537,125.49811563059853,-335.959891246881,-96.052423382414787,779.10288318220898,154.26849474437557,-18.405492146286647,18.405492146286647,-154.26849474437557,1380.268378652718,0.0
367154.6038362722,4585833.5216966402,-32500.0,416.40379195927494,383.75536564596069,-668.94436098024141,146.79184756062145,-270.42936695771141,-75.223815942445455,723.10175511490752,237.32157499666494,-69.292594166831762,69.292594166831762,-237.32157499666494,1269.6201836874695,0.0
372154.6038362722,4585833.5216966402,-32500.0,375.2534588946055,432.58742696507022,-499.067378017811,159.22534390307015,-201.36340415683171,-53.803991261398615,662.57822317067394,304.48633318279172,-112.35881311802756,112.35881311802756,-304.48633318279172,1154.3347826425879,0.0
377154.6038362722,4585833.5216966402,-32500.0,328.53314686429519,457.06244671486422,-325.63580672894727,162.38553053228443,-131.94843428343202,-32.715027157731207,599.56827896850314,353.79417083006132,-146.12533178493402,146.12533178493402,-353.79417083006132,1039.3154060203783,0.0
382154.6038362722,4585833.5216966402,-32500.0,281.02626117079484,457.44435392038565,-157.26622181216104,156.60276542981572,-65.353806925480853,-12.841434165945902,536.16555530641381,384.77168776003271,-169.88146417568635,169.88146417568635,-384.77168776003271,929.41442349736928,0.0
387154.6038362722,4585833.5216966402,-32500.0,237.13951888249289,436.00057107523656,-1.8336993824367571,142.90056200752898,-4.4278109463446871,5.0490237944368648,474.37441638424656,398.39808587786945,-183.7127698535644,183.7127698535644,-398.39808587786945,828.92750391548259,0.0
392154.6038362722,4585833.5216966402,-32500.0,200.37981709009102,396.62903665703192,134.28397344451258,122.8537683306331,48.557687206931369,20.368582970127573,416.02304821912003,396.86451748194679,-188.42197521125425,188.42197521125425,-396.86451748194679,741.06084829114843,0.0
397154.6038362722,4585833.5216966402,-32500.0,173.01132218581984,344.28422830168682,246.71413964702313,98.382654750191705,92.075376601159789,32.747903131911336,362.93810534747547,383.19148052734351,-185.36354889405072,185.36354889405072,-383.19148052734351,667.46512715280676,0.0
402154.6038362722,4585833.5216966402,-32500.0,155.93826489599607,284.31872607858315,333.28819448285628,71.521552593708876,125.40423769803844,42.045809881757286,319.06692048481125,360.78521659073618,-176.22846254117798,176.22846254117798,-360.78521659073618,607.99620694692851,0.0
407154.6038362722,4585833.5216966402,-32500.0,148.80549083768145,221.86189424075258,393.93737936000986,44.202094585819673,148.58746356725652,48.331950561197552,296.91046999995359,333.01633699779234,-162.82095097332939,162.82095097332939,-333.01633699779234,560.87264380995668,0.0
412154.6038362722,4585833.5216966402,-32500.0,150.26378379379472,161.33130093733408,430.34984407181815,18.082612549183608,162.30824176312615,51.848632599241384,286.61710865056597,302.88540232747971,-146.86362268769051,146.86362268769051,-302.88540232747971,523.25391519355253,0.0
417154.6038362722,4585833.5216966402,-32500.0,158.32344039752579,106.12873349584989,445.48554587537382,-5.5588126921997718,167.71586060729652,52.960594630445087,276.49007413172046,272.80985078996474,-129.854543688283,129.854543688283,-272.80985078996474,492.02446670252027,0.0
332154.6038362722,4590833.5216966402,-32500.0,325.20902281198357,-395.40740065292368,-1372.0072481714474,-132.36707125453793,-621.49123823767513,-202.27347304541181,1068.8328427503225,-533.08423628170726,380.10438810391662,-380.10438810391662,533.08423628170726,1985.9222590645741,0.0
337154.6038362722,4590833.5216966402,-32500.0,400.85649568032039,-281.04396934669512,-1386.8767448174926,-86.016212277142301,-617.87073834017269,-197.34910395601443,1067.3812026651538,-430.08965350862229,326.3994316651515,-326.3994316651515,430.08965350862229,1972.0178234053374,0.0
342154.6038362722,4590833.5216966402,-32500.0,462.79222337789241,-154.38134988545491,-1369.5337489801605,-36.527049444083076,-600.84369867939256,-188.16526089050856,1054.6067129940989,-314.65335612032158,264.44807140729739,-264.44807140729739,314.65335612032158,1935.7016144814036,0.0
347154.6038362722,4590833.5216966402,-32500.0,507.06253910764337,-20.992700930781858,-1316.3085308824345,13.819130759506194,-569.44001798174622,-174.61561280270109,1029.9948314548383,-191.03917911803001,196.3413213376723,-196.3413213376723,191.03917911803001,1876.4582937731789,0.0
352154.6038362722,4590833.5216966402,-32500.0,530.87025748463077,112.16534465258783,-1225.6407374729306,62.341989394905035,-523.54262340483717,-156.86389598908386,993.56348161890298,-64.628106765859272,124.86268561550627,-124.86268561550627,64.628106765859272,1794.9902337310086,0.0
357154.6038362722,4590833.5216966402,-32500.0,533.09220034401619,237.31300097213986,-1098.6664232400344,106.1849811893191,-464.06033754799989,-135.37449801691869,945.94260840083177,58.494051635285487,53.302243385846722,-53.302243385846722,-58.494051635285487,1693.3817512499943,0.0
362154.6038362722,4590833.5216966402,-32500.0,514.61888275529952,346.64978263477951,-939.53187836897575,142.60868414906383,-392.99519614171919,-110.91061066924354,888.40005437996854,172.12742742994112,-14.834373497477046,14.834373497477046,-172.12742742994112,1575.1422134560107,0.0
367154.6038362722,4590833.5216966402,-32500.0,478.40996385675629,433.29302690719322,-755.31199997172314,169.31512642780547,-313.36879017569345,-84.493612294116843,822.79966098932528,270.64902160673006,-76.188375880826371,76.188375880826371,-270.64902160673006,1445.0934877165669,0.0
372154.6038362722,4590833.5216966402,-32500.0,429.20789400834059,492.18832520796605,-555.47661598769321,184.74754254249549,-228.99550317880522,-57.323968640532144,751.48718386370456,349.68468645323048,-127.92438726612201,127.92438726612201,-349.68468645323048,1309.082226636941,0.0
377154.6038362722,4590833.5216966402,-32500.0,372.92983890258137,520.8059354627195,-350.94652597621211,188.30584851164392,-144.12266955855114,-30.671974331713074,677.1139167281267,406.62892537539835,-168.05204973708908,168.05204973708908,-406.62892537539835,1173.5166715843156,0.0
382154.6038362722,4590833.5216966402,-32500.0,315.8433069723834,519.46706237266767,-152.8848073640161,180.43006323789834,-62.99084126268707,-5.7538983253092137,602.42557506379512,440.90239543225493,-195.62909734958339,195.62909734958339,-440.90239543225493,1044.7467655316791,0.0
387154.6038362722,4590833.5216966402,-32500.0,263.69052569841261,491.22077983289478,28.558839216016448,162.52978781060443,10.611439029396108,16.386595846567204,530.06249736889822,453.89232471076929,-210.80602256562946,210.80602256562946,-453.89232471076929,928.31908356957206,0.0
392154.6038362722,4590833.5216966402,-32500.0,220.94521015219257,441.30223257068621,185.31393042573654,136.77360980854482,73.718828719547332,34.971997111880817,462.48330937766985,448.59914407208248,-214.70962310601558,214.70962310601558,-448.59914407208248,828.18874663156168,0.0
397154.6038362722,4590833.5216966402,-32500.0,190.34408404952956,376.29764607189168,312.08039089020849,105.78229889056431,124.42539817150551,49.545210445806568,402.50908779750227,429.07786544538794,-209.19827910051492,209.19827910051492,-429.07786544538794,746.05553735295109,0.0
402154.6038362722,4590833.5216966402,-32500.0,172.75943662714687,303.20166533675592,406.55586530114618,72.288788495258558,161.9566681192216,59.978560278998664,358.02181498490518,399.80296381891316,-196.54775447605635,196.54775447605635,-399.80296381891316,681.10843901952614,0.0
407154.6038362722,4590833.5216966402,-32500.0,167.39028493107463,228.55363948235322,469.2215279742847,38.828000051903139,186.5855774936247,66.441221437744531,338.93289051627892,365.08424410595643,-179.13293471555829,179.13293471555829,-365.08424410595643,630.42689213524034,0.0
412154.6038362722,4590833.5216966402,-32500.0,172.18077247770327,157.79272662616242,502.79725327620071,7.5043191966094573,199.43042557988187,69.336033306434544,327.17328498128637,328.62751102382305,-159.16041082428558,159.16041082428558,-328.62751102382305,589.97332615409186,0.0
417154.6038362722,4590833.5216966402,-32500.0,184.34242603522213,94.897103367248477,511.52216046866863,-20.140211750292558,202.18885047230589,69.220582504439903,314.70421567972585,293.28243173180635,-138.48448914307966,138.48448914307966,-293.28243173180635,555.73321883095741,0.0
422154.6038362722,4590833.5216966402,-32500.0,200.86359654782422,42.300849843957337,500.41393758769328,-43.15819366903645,196.86188564565313,66.727259349485394,300.54911435554374,260.97180395391229,-118.51502912130053,118.51502912130053,-260.97180395391229,524.52200156186143,0.0
427154.6038362722,4590833.5216966402,-32500.0,218.92261133063514,1.0291124635248512,474.62384061443436,-61.14937031432801,185.51036311575157,62.493667098303071,284.80900139118785,232.76194063466656,-100.20558488885317,100.20558488885317,-232.76194063466656,494.28271742352155,0.0
322154.6038362722,4595833.5216966402,-32500.0,126.69716072756253,-685.01213672583117,-1374.6313749696203,-263.80030628689281,-679.38555828715857,-236.98887843595858,1171.2520293170958,-801.25356672021746,538.74349541660661,-538.74349541660661,801.25356672021746,2200.3257886399283,0.0
327154.6038362722,4595833.5216966402,-32500.0,234.37662815576587,-601.1410063984921,-1459.4919491690459,-224.09380235260201,-705.8366599856123,-241.10129796875162,1197.3226485646314,-727.27261191471882,504.00734002227716,-504.00734002227716,727.27261191471882,2240.3693209881749,0.0
332154.6038362722,4595833.5216966402,-32500.0,338.7487259748118,-493.69942238016205,-1521.3488667075655,-176.20832668965647,-720.88439301713231,-240.91468622777893,1212.7887121364631,-631.97696671598919,456.50396400122258,-456.50396400122258,631.97696671598919,2258.5682665334466,0.0
337154.6038362722,4595833.5216966402,-32500.0,433.95799003218548,-364.64900525809378,-1552.5773130149873,-121.38274618912214,-721.77773180464555,-235.72982450477204,1215.9355953483782,-516.73896184549471,396.59578904631508,-396.59578904631508,516.73896184549471,2251.7644371260062,0.0
342154.6038362722,4595833.5216966402,-32500.0,513.94972192999808,-218.19731951227234,-1546.0984213152983,-61.66622403253389,-706.15155962422932,-225.03601618648341,1205.3714342180647,-384.69354061107964,325.61638999209168,-325.61638999209168,384.69354061107964,2217.5979193040944,0.0
347154.6038362722,4595833.5216966402,-32500.0,573.18032838934164,-60.888564818279718,-1496.3505246573,0.10528624984229801,-672.38191419011923,-208.60702934520492,1180.2118551016561,-240.81113450150104,245.95594197324607,-245.95594197324607,240.81113450150104,2154.9085752983692,0.0
352154.6038362722,4595833.5216966402,-32500.0,607.43938766402414,98.660257297469144,-1400.3293365892348,60.45958569419448,-619.94088649579214,-186.58539859158208,1140.2527571824717,-91.705181388372168,161.01149962783001,-161.01149962783001,91.705181388372168,2064.1076064528347,0.0
357154.6038362722,4595833.5216966402,-32500.0,614.64138226200521,250.43946039082275,-1258.5140275546075,115.57703906951023,-549.68673353285078,-159.53800929871548,1086.1056036767739,54.86758689866916,74.972195510996002,-74.972195510996002,-54.86758689866916,1947.4616928404221,0.0
362154.6038362722,4595833.5216966402,-32500.0,595.4015146855337,384.12039034364437,-1075.4464757823864,161.69983749773488,-464.01168695578758,-128.46492756358711,1019.2602477676992,190.79557207164936,-7.5629022418790299,7.5629022418790299,-190.79557207164936,1809.2128993389067,0.0
367154.6038362722,4595833.5216966402,-32500.0,553.21559941153032,490.38419868067911,-859.75427677368702,195.60722356323836,-366.78359719270861,-94.749414807607806,942.05033364232429,308.58619619851061,-82.092498280986646,82.092498280986646,-308.58619619851061,1655.4741468629491,0.0
372154.6038362722,4595833.5216966402,-32500.0,494.13003398670804,562.26326657730885,-623.49760667538249,215.07179070881713,-263.05037555091428,-60.046862959201562,857.50931927869442,402.34914018297485,-144.76363130251542,144.76363130251542,-402.34914018297485,1493.858837699363,0.0
377154.6038362722,4595833.5216966402,-32500.0,425.90984428788005,596.19948842082363,-380.87567168102061,219.19889184392795,-158.52931897251179,-26.123776591653726,769.12817076119791,468.57711622534674,-192.85578443412197,192.85578443412197,-468.57711622534674,1332.8329499919789,0.0
382154.6038362722,4595833.5216966402,-32500.0,356.85659508284181,592.56111961798842,-146.50401375124588,208.56757317529099,-58.960980175469437,5.3288720984797822,680.55791084572911,506.54243962461373,-225.09398996464236,225.09398996464236,-506.54243962461373,1180.8111468935851,0.0
387154.6038362722,4595833.5216966402,-32500.0,294.53500810082903,555.48084872040977,66.397418423291953,185.13286795619504,30.553571756429125,32.876025452886367,595.33963116269945,518.21525874677297,-241.72252403902118,241.72252403902118,-518.21525874677297,1045.0444736589816,0.0
392154.6038362722,4595833.5216966402,-32500.0,244.7001262414876,492.0569934432886,247.53102379113551,151.9090610906556,106.10211391069046,55.479401652125425,516.88905922825029,507.73694486497072,-244.33162997657419,244.33162997657419,-507.73694486497072,930.43563975337554,0.0
397154.6038362722,4595833.5216966402,-32500.0,210.6514990493026,411.12190059132706,390.47047830658289,112.50627629898985,165.29771127715597,72.57538460716296,449.88481758451411,480.59311217641482,-235.49058215388013,235.49058215388013,-480.59311217641482,838.59121314096399,0.0
402154.6038362722,4595833.5216966402,-32500.0,193.10997694236644,321.87598106961866,492.90407155742355,70.624093269682547,207.35812650636728,84.080650330551705,407.04584816229067,442.69374446749492,-218.28302692756432,218.28302692756432,-442.69374446749492,767.60546414765736,0.0
407154.6038362722,4595833.5216966402,-32500.0,190.56544592069361,232.67880234006142,556.22729727294541,29.603622612355498,232.94704965985215,90.332808865324864,388.86154779054397,399.55851590483508,-195.84880035713067,195.84880035713067,-399.55851590483508,712.91430419317817,0.0
412154.6038362722,4595833.5216966402,-32500.0,199.9364856300771,150.20184500831905,584.67907052017563,-7.8892475549238723,243.84550231647469,91.985897644850496,374.7827304033529,355.74338385360369,-171.01600207018595,171.01600207018595,-355.74338385360369,668.92732396628321,0.0
417154.6038362722,4595833.5216966402,-32500.0,217.34203548031311,79.02037812192367,584.27382430384466,-40.020145734814136,242.54341177391342,89.885953088634281,359.23267512077638,314.55664995797366,-146.06740728708661,146.06740728708661,-314.55664995797366,630.61168348721742,0.0
422154.6038362722,4595833.5216966402,-32500.0,238.80974491047712,21.607214646054732,561.76183795044517,-65.793024847484205,231.8368280365751,84.950661529662085,341.54640214785678,278.03651527420436,-122.64555168711277,122.64555168711277,-278.03651527420436,594.38330308054117,0.0
427154.6038362722,4595833.5216966402,-32500.0,260.80853673893563,-21.382935688411564,523.77808568822365,-84.945823504665412,214.49174932518235,78.070037378980942,321.98188569282621,247.11457073262471,-101.77090244683099,101.77090244683099,-247.11457073262471,558.24743955492488,0.0
432154.6038362722,4595833.5216966402,-32500.0,280.564608855747,-50.672766871533263,476.25424486202689,-97.783207328548585,193.00543920871283,70.036789070885334,301.08180151982157,221.87720425072962,-83.934013037918376,83.934013037918376,-221.87720425072962,521.49368401985566,0.0
317154.6038362722,4600833.5216966402,-32500.0,-36.648234846922499,-874.51367247258236,-1358.3240281405706,-365.34862264436339,-728.13712370442818,-269.41624309537082,1272.8563936333749,-979.32857416625006,653.47965000196882,-653.47965000196882,979.32857416625006,2403.887758874303,0.0
322154.6038362722,4600833.5216966402,-32500.0,87.363286525406892,-817.62269485959814,-1484.8316999529732,-332.80439394153109,-775.26181450411104,-280.13428620998405,1319.3025732165595,-929.47169755172081,634.48306295456223,-634.48306295456223,929.47169755172081,2483.9410722660082,0.0
327154.6038362722,4600833.5216966402,-32500.0,216.58706685201747,-731.83822281174082,-1596.6854127714146,-289.03991853895076,-813.18306533186183,-286.65090365045376,1356.0894365729573,-854.01740660402459,600.5723981187142,-600.5723981187142,854.01740660402459,2543.5982087509019,0.0
332154.6038362722,4600833.5216966402,-32500.0,344.8730717919683,-616.12664138027026,-1684.6334842764818,-234.29626173552828,-838.14563104939441,-287.85607927563376,1380.727624847829,-751.95769068180073,550.71512365346268,-550.71512365346268,751.95769068180073,2578.003046044576,0.0
337154.6038362722,4600833.5216966402,-32500.0,464.83081395264225,-471.79850115436494,-1738.6726861778502,-169.77661395090766,-846.33009971986633,-282.731890175584,1390.8327677297127,-624.12442385746238,484.8406253991817,-484.8406253991817,624.12442385746238,2582.6533493020725,0.0
342154.6038362722,4600833.5216966402,-32500.0,568.43182840834629,-303.10385416992693,-1749.0066242671912,-97.802481032032432,-834.25608382868643,-270.48254481971725,1384.3518530671142,-473.64198187842402,404.12963840408128,-404.12963840408128,473.64198187842402,2553.9043317768374,0.0
347154.6038362722,4600833.5216966402,-32500.0,647.93535932248142,-117.54287958274486,-1707.3497253607936,-21.846812554670571,-799.28556598089813,-250.6773073660147,1359.8260490251282,-306.16371721487525,311.2064847652228,-311.2064847652228,306.16371721487525,2489.5454660118298,0.0
352154.6038362722,4600833.5216966402,-32500.0,697.05001814734896,74.300516920107555,-1608.4324965311989,53.613265110091881,-740.16374529889072,-223.38497391867068,1316.6557372519123,-129.75147588036202,210.15421414733225,-210.15421414733225,129.75147588036202,2389.3755202138741,0.0
357154.6038362722,4600833.5216966402,-32500.0,712.13955549682316,259.54284374226222,-1451.4504818801315,123.45840571649292,-657.50071098923934,-189.2725206008609,1255.3271939554284,45.70049898902468,106.28888243159585,-106.28888243159585,-45.70049898902468,2255.6848949374612,0.0
362154.6038362722,4600833.5216966402,-32500.0,693.18842341695574,424.42126739321964,-1241.0961025082283,182.49349513752489,-554.06882024075674,-149.63819703981787,1177.5449227592064,209.50686809535966,5.6686584344624293,-5.6686584344624293,-209.50686809535966,2093.5222678623059,0.0
367154.6038362722,4600833.5216966402,-32500.0,644.22306994572489,556.18195976852633,-987.81332787141218,226.14731696172728,-434.79968293952481,-106.35562626312664,1086.2237185140229,351.57070454825362,-85.61734458111701,85.61734458111701,-351.57070454825362,1910.6372414038492,0.0
372154.6038362722,4600833.5216966402,-32500.0,572.96782875722306,645.07908454305061,-707.03295481412351,251.175824593486,-306.41079606101516,-61.720355777826967,985.31270155323307,463.84056532167091,-162.26191029401451,162.26191029401451,-463.84056532167091,1717.0152627035402,0.0
377154.6038362722,4600833.5216966402,-32500.0,489.70706787444766,686.01142922018391,-417.39427140668869,256.2077286013772,-176.67874643122198,-18.212347182520425,879.46327725123274,541.50594385544275,-220.48125032234827,220.48125032234827,-541.50594385544275,1523.9714473182528,0.0
382154.6038362722,4600833.5216966402,-32500.0,405.56778972714267,679.35775492553785,-138.25600582697581,241.98858593828885,-53.476063184583069,21.788791189038299,773.60515454082429,583.62229591758,-258.50874907477709,258.50874907477709,-583.62229591758,1342.8171362466489,0.0
387154.6038362722,4600833.5216966402,-32500.0,330.63646937506797,630.76866035144758,112.96275909083191,211.24853022505573,56.232933642036386,56.282496908920372,672.5826909968888,593.00130270321802,-276.72094479590919,276.72094479590919,-593.00130270321802,1183.175329749705,0.0
392154.6038362722,4600833.5216966402,-32500.0,272.38367032112882,549.96988790838839,323.00523472034632,168.21950338533551,147.22178023945915,83.864434466470883,581.30643320572858,575.41259051331019,-277.37662340691577,277.37662340691577,-575.41259051331019,1051.1717168064906,0.0
397154.6038362722,4600833.5216966402,-32500.0,234.76608726537194,448.91865921088151,484.09210774301118,117.92492224495483,216.48917494001054,103.84112510769238,507.68718289665287,538.34145571760985,-264.0587875660442,264.0587875660442,-538.34145571760985,948.07871414788565,0.0
402154.6038362722,4600833.5216966402,-32500.0,218.14082931608243,339.79727210364547,594.14551859694632,65.413869311973855,263.33625661554532,116.22707709928511,467.18327041120097,489.63833471018683,-240.97670034411618,240.97670034411618,-489.63833471018683,870.25710075530185,0.0
407154.6038362722,4600833.5216966402,-32500.0,219.8837120647953,233.31120284065651,656.04413710168251,15.108181826421063,289.07535420505951,121.63875238754204,447.93283552341563,436.3771721721489,-212.29970560528557,212.29970560528557,-436.3771721721489,810.81400866931881,0.0
412154.6038362722,4600833.5216966402,-32500.0,235.4306976955356,137.58775222261747,676.25283375039123,-29.627406556566267,296.49363834036535,121.12121894833231,430.58456370216834,384.11675461766112,-181.65039348110514,181.65039348110514,-384.11675461766112,762.18823936861259,0.0
417154.6038362722,4600833.5216966402,-32500.0,259.4173797595127,57.754675899503368,663.23754483930031,-66.657915560003659,289.22393221339934,115.9511559458096,410.96997771707919,336.6099245407375,-151.8150906397089,151.8150906397089,-336.6099245407375,718.24503274605411,0.0
422154.6038362722,4600833.5216966402,-32500.0,286.65481766394288,-3.9035292020570891,626.01472771829583,-95.026541351173279,271.15733236787815,107.45534663363976,388.68714055936681,295.88616948673734,-124.66349350287419,124.66349350287419,-295.88616948673734,675.13365738574669,0.0
427154.6038362722,4600833.5216966402,-32500.0,312.79745028801102,-47.413887278498763,573.04811873461495,-114.75126572397956,245.98424895464285,96.869922727000613,364.2141970739313,262.57073467960487,-101.22540949468724,101.22540949468724,-262.57073467960487,631.12830093965067,0.0
432154.6038362722,4600833.5216966402,-32500.0,334.67584303104121,-74.422338442159713,511.56329408139942,-126.55040178505023,216.89759931987669,85.250527777217613,338.33646219327483,236.30038942412267,-81.85777088044739,81.85777088044739,-236.30038942412267,586.01803572662425,0.0
437154.6038362722,4600833.5216966402,-32500.0,350.34843925773635,-87.511338333592121,447.24367843088351,-131.56449679282562,186.44972279956107,73.430721095140399,311.93416075184734,216.12824210360205,-66.441725509212375,66.441725509212375,-216.12824210360205,540.45996095493001,0.0
312154.6038362722,4605833.5216966402,-32500.0,-245.62739392591672,-1041.9467469001661,-1275.1993382928174,-472.10736361024584,-752.9593890193546,-298.06522192600755,1358.0599853944896,-1138.0378328990439,758.40927182237533,-758.40927182237533,1138.0378328990439,2575.8956269402966,0.0
317154.6038362722,4605833.5216966402,-32500.0,-116.72186607208739,-1023.176025169125,-1435.7408985630248,-452.69593658333298,-820.95396191162922,-316.53890953597596,1426.9655769826552,-1121.5602692010725,760.82467675394719,-760.82467675394719,1121.5602692010725,2700.6555068653406,0.0
322154.6038362722,4605833.5216966402,-32500.0,27.303743859608133,-974.00494929851982,-1593.3146378282156,-420.05765266227712,-883.81652062147305,-331.51856973154258,1488.5327530987311,-1078.2453872374538,748.04204385148876,-748.04204385148876,1078.2453872374538,2809.3487678561014,0.0
327154.6038362722,4605833.5216966402,-32500.0,181.51065328059698,-889.95853361652166,-1738.7164383680119,-373.0623634098182,-937.28675609456593,-341.54122642111804,1539.6919367457817,-1004.3463429366093,717.47420993014384,-717.47420993014384,1004.3463429366093,2895.7903079677576,0.0
332154.6038362722,4605833.5216966402,-32500.0,338.75245761321287,-768.2950546153304,-1860.5848853022899,-311.45060784433264,-976.45136304140124,-345.07222864878634,1577.1553143720557,-897.49444283871753,667.1816125560631,-667.1816125560631,897.49444283871753,2953.463710688794,0.0
337154.6038362722,4605833.5216966402,-32500.0,489.86611197338698,-609.04161742686119,-1945.9726006514725,-236.18416057398105,-996.06121945030998,-340.64110320876256,1597.6290767560156,-757.49022870054523,596.32980910390233,-596.32980910390233,757.49022870054523,2976.0088456869544,0.0
342154.6038362722,4605833.5216966402,-32500.0,624.31634461189344,-415.9918832717471,-1981.4695036195124,-149.74228023713403,-991.04413821794594,-327.02104341044816,1598.1088048014933,-587.05830562790197,505.65494625881894,-505.65494625881894,587.05830562790197,2957.8882085187774,0.0
347154.6038362722,4605833.5216966402,-32500.0,731.35794136158529,-197.40639571733669,-1954.9098650327778,-56.271773873715674,-957.20456201891773,-303.43890568360075,1576.249355608659,-392.37386337710791,397.83862422680647,-397.83862422680647,392.37386337710791,2895.2075744951458,0.0
352154.6038362722,4605833.5216966402,-32500.0,801.64979672755669,33.903637586643477,-1857.5215757078154,38.511015529084176,-892.0381242026516,-269.78673225214999,1530.767756630989,-183.12653298165731,277.66308059813622,-277.66308059813622,183.12653298165731,2786.5981031244091,0.0
357154.6038362722,4605833.5216966402,-32500.0,829.07805852540048,261.39347212489611,-1686.1746244846177,127.7462170046024,-795.52438347654197,-226.79431581580695,1461.8195721252923,28.08125737888453,151.82301130595732,-151.82301130595732,-28.08125737888453,2634.0255829453959,0.0
362154.6038362722,4605833.5216966402,-32500.0,812.36217956096937,466.62395362682628,-1445.177029496303,204.20129309160404,-670.69739795786916,-176.11334510273275,1371.2588324712526,227.08314872934113,28.319738813787353,-28.319738813787353,-227.08314872934113,2443.329313589667,0.0
367154.6038362722,4605833.5216966402,-32500.0,755.93246571827603,631.94747804023427,-1147.0024435693485,261.30274313144332,-523.78504261629905,-120.26912306475418,1262.698038524318,400.10833236698511,-84.529844866415743,84.529844866415743,-400.10833236698511,2224.297289171765,0.0
372154.6038362722,4605833.5216966402,-32500.0,669.6556749466946,743.5215884502536,-811.47275876643164,294.23399425534831,-363.76623667371524,-62.455947583494961,1141.3083044738605,535.97013065949056,-179.3051806540085,179.3051806540085,-535.97013065949056,1990.1128452046082,0.0
377154.6038362722,4605833.5216966402,-32500.0,567.28460793990098,793.88502986008871,-463.30872312782185,300.83068993666598,-201.33606531286776,-6.1880335030928197,1013.3642331764131,627.93295552129439,-250.63897924160631,250.63897924160631,-627.93295552129439,1756.0873190767325,0.0
382154.6038362722,4605833.5216966402,-32500.0,463.92956385796316,783.33787159607539,-128.48130528573938,282.01538326772419,-47.449725924117629,45.139083279567231,885.63287007890608,674.7231884828368,-296.01571772890935,296.01571772890935,-674.7231884828368,1537.67590662463,0.0
387154.6038362722,4605833.5216966402,-32500.0,373.21987676548525,719.68336598423525,169.76427709548915,241.62571822383612,88.231609938345798,88.688417917682571,764.87842731627802,680.38479508261332,-315.99389917420172,315.99389917420172,-680.38479508261332,1347.8867420699576,0.0
392154.6038362722,4605833.5216966402,-32500.0,304.94910384199073,616.40614553644207,414.20175888130495,185.6695120483123,198.622082923135,122.52582630488992,658.36485141072444,653.04870200824359,-313.80946843834988,313.80946843834988,-653.04870200824359,1194.4814479868026,0.0
397154.6038362722,4605833.5216966402,-32500.0,263.8125801532683,489.85942116207843,595.46260861280655,121.21475345443746,279.93087058076554,145.79481983719751,578.78373023142387,603.02879962601492,-294.50970280677234,294.50970280677234,-603.02879962601492,1078.0121569239868,0.0
402154.6038362722,4605833.5216966402,-32500.0,249.43431360686986,356.28044475056612,712.15474582335446,55.21349361629639,331.71346325649262,158.69643070669892,539.53869485044777,540.81407972117108,-263.88828850626379,263.88828850626379,-540.81407972117108,992.16135525506843,0.0
407154.6038362722,4605833.5216966402,-32500.0,257.45352030280134,229.38326560507383,769.52837065389645,-6.4598181102035621,356.34447990770309,162.3018530841027,517.5619299040236,475.46334830756302,-227.50588370727212,227.50588370727212,-475.46334830756302,926.77865121038258,0.0
412154.6038362722,4605833.5216966402,-32500.0,281.17225753845111,118.95531391394231,777.29718218493258,-59.586455582248085,358.13698343051095,158.26311200648726,495.74604422320209,413.676080761435,-189.99288884790263,189.99288884790263,-413.676080761435,871.84512579360182,0.0
417154.6038362722,4605833.5216966402,-32500.0,313.23375667880259,30.508396214256567,747.28918524684718,-101.76663027170467,342.36968143159879,148.4992690419613,470.75594761852574,359.5566671263802,-154.70590234962884,154.70590234962884,-359.5566671263802,820.09639021123814,0.0
422154.6038362722,4605833.5216966402,-32500.0,346.94658218545726,-34.251934682245825,691.44410174860877,-132.24807281119121,314.43316222615221,134.92214273363663,442.48676147311085,314.90207105835611,-123.69826563590843,123.69826563590843,-314.90207105835611,767.63772789370466,0.0
427154.6038362722,4605833.5216966402,-32500.0,377.08574510883972,-76.495819981929756,620.42284023251329,-151.55411862362024,279.21381299606782,119.23883663647952,411.74006418386551,279.77255404401609,-97.903810707173136,97.903810707173136,-279.77255404401609,713.29063635319449,0.0
432154.6038362722,4605833.5216966402,-32500.0,400.18787909623842,-99.212650574408613,542.8635912460669,-161.04443640580419,240.7426267752777,102.84050299498234,379.64337991116241,253.12894407252813,-77.42203027297532,77.42203027297532,-253.12894407252813,657.57318086024679,0.0
437154.6038362722,4605833.5216966402,-32500.0,414.46695774627318,-106.26341677316547,465.17105335814063,-162.50752310138088,202.0725450147396,86.766381917019586,347.37852054867221,233.39201079102855,-61.815161740911876,61.815161740911876,-233.39201079102855,601.81068519287203,0.0
442154.6038362722,4605833.5216966402,-32500.0,419.50843643865142,-101.65976249752667,391.66543428339759,-157.83923723772182,165.31800282638284,71.721759300634346,316.00377793927902,218.85666901303662,-50.362425880294921,50.362425880294921,-218.85666901303662,547.52287888875287,0.0
447154.6038362722,4605833.5216966402,-32500.0,415.88016928978374,-89.094380562860422,324.92480679681438,-148.82389206906367,131.78836961865895,58.127409733688232,286.34116906669379,207.95288128052962,-42.248692237485642,42.248692237485642,-207.95288128052962,496.06852813252453,0.0
307154.6038362722,4610833.5216966402,-32500.0,-487.90310129430634,-1166.8672923384336,-1128.3427260220067,-575.65661666527444,-749.38026232516245,-320.45116536756768,1420.7166083888433,-1260.1063540854652,842.90565072683421,-842.90565072683421,1260.1063540854652,2703.5232024487268,0.0
312154.6038362722,4610833.5216966402,-32500.0,-369.1362486496713,-1192.9458677309283,-1309.3634431584626,-574.83542440300448,-835.7022339024993,-347.18640743789479,1512.4580479677848,-1282.7592241308482,870.38177276355805,-870.38177276355805,1282.7592241308482,2874.1969847505375,0.0
317154.6038362722,4610833.5216966402,-32500.0,-226.05706367254115,-1192.0109428165172,-1500.4055752545889,-560.55468448290765,-922.43523232348298,-371.79143526144333,1600.5353620826295,-1281.2486713264052,884.75225733882598,-884.75225733882598,1281.2486713264052,3036.030542711705,0.0
322154.6038362722,4610833.5216966402,-32500.0,-60.863892827897928,-1156.6699952555903,-1694.298700614597,-530.24388630759336,-1005.5936116130371,-392.61804173860412,1681.6853180919034,-1249.4693920050945,882.14987693755268,-882.14987693755268,1249.4693920050945,3182.3040423527327,0.0
327154.6038362722,4610833.5216966402,-32500.0,121.5826308666791,-1079.9925966402516,-1880.7225637098181,-481.81942273253821,-1079.9898367685021,-407.74669509942657,1752.0713200687524,-1181.7206020408164,858.76319938561323,-858.76319938561323,1181.7206020408164,3305.1887700798752,0.0
332154.6038362722,4610833.5216966402,-32500.0,313.33941760694023,-956.66856876259374,-2046.0788926243497,-414.15027476606542,-1139.3157350514052,-415.0840510712535,1807.4024351600481,-1073.6018786421464,811.32096115353511,-811.32096115353511,1073.6018786421464,3396.0457118276158,0.0
337154.6038362722,4610833.5216966402,-32500.0,503.34224669516448,-784.47498000124324,-2173.9103401279776,-327.59248552292826,-1176.4557024346007,-412.52948358841172,1843.1673127117879,-923.13349135306828,737.72498115579708,-737.72498115579708,923.13349135306828,3445.9802716663567,0.0
342154.6038362722,4610833.5216966402,-32500.0,677.98064827045221,-565.86557491531596,-2246.1067001950705,-224.508978576375,-1184.1003276642391,-398.21395063217255,1855.0043357759969,-731.95807474441347,637.76897131220801,-637.76897131220801,731.95807474441347,3446.6940354426356,0.0
347154.6038362722,4610833.5216966402,-32500.0,822.46910965432505,-309.32600128543822,-2245.0509149453906,-109.64015045913372,-1155.6873243079708,-370.79976413918985,1839.2097204860095,-506.35653153596206,513.8125067511827,-513.8125067511827,506.35653153596206,3391.6284774547007,0.0
352154.6038362722,4610833.5216966402,-32500.0,923.02988212256253,-29.987896672358303,-2156.6281196831869,9.8475958348404422,-1086.6074089192618,-329.80725037058323,1793.3428857924928,-257.70371669169572,371.21072951425981,-371.21072951425981,257.70371669169572,3277.3037880587631,0.0
357154.6038362722,4610833.5216966402,-32500.0,969.61745836905823,251.03474373349454,-1973.6768017279564,124.80091256739793,-975.49493820169823,-275.91113418456507,1716.8445563357484,-1.9755709138944155,218.27351332810215,-218.27351332810215,1.9755709138944155,3104.660637417116,0.0
362154.6038362722,4610833.5216966402,-32500.0,958.57205411451139,508.93627480923038,-1699.0668510966223,225.09441387433768,-825.29347599155199,-211.12868889075617,1611.5306483750292,241.93676531844466,65.574558392537313,-65.574558392537313,-241.93676531844466,2880.1008701222199,0.0
367154.6038362722,4610833.5216966402,-32500.0,894.34550334493258,719.02698716109126,-1347.3503355358728,301.14689576734111,-643.7185029372182,-138.81679941120652,1481.8039381337103,455.00914924775952,-75.41245867951443,75.41245867951443,-455.00914924775952,2615.870268051327,0.0
372154.6038362722,4610833.5216966402,-32500.0,789.49683511571584,861.32702293518207,-944.0651407176066,345.65623570456404,-442.80324319728328,-63.419485267583248,1334.4625095761394,621.41801254218103,-194.13713753619925,194.13713753619925,-621.41801254218103,2329.4702465935802,0.0
377154.6038362722,4610833.5216966402,-32500.0,662.60353605099272,924.69721233474115,-522.36698071888475,355.10158737261401,-237.43269147105676,10.037728395055673,1178.0788709335393,731.51933133538103,-282.81455837701878,282.81455837701878,-731.51933133538103,2041.8949730853585,0.0
382154.6038362722,4610833.5216966402,-32500.0,534.48495654367696,909.17090189193902,-117.59419510029339,330.53960508767926,-43.107376859216231,76.630031051096879,1022.1040682748949,783.52758006859403,-337.75273186447322,337.75273186447322,-783.52758006859403,1774.6548727484815,0.0
387154.6038362722,4610833.5216966402,-32500.0,423.83384243375866,825.65523757700964,238.80079284842165,277.40078786354621,126.5198221148885,132.24475765976229,876.1705875458465,783.33164060385559,-359.75716777617129,359.75716777617129,-783.33164060385559,1545.7370111754458,0.0
392154.6038362722,4610833.5216966402,-32500.0,343.62289359616102,693.09824217474591,524.22529758184805,204.32105437219812,261.67416560859073,174.14668373467291,751.18593923593016,742.55201380850156,-353.51728821533345,353.51728821533345,-742.55201380850156,1365.197469779049,0.0
397154.6038362722,4610833.5216966402,-32500.0,299.31699146678125,534.11328311624527,727.52936230968294,121.37117848785319,357.5450137014945,201.25901046112327,665.66195660204119,675.56094495879415,-326.23189867642861,326.23189867642861,-675.56094495879415,1232.2783937418308,0.0
402154.6038362722,4610833.5216966402,-32500.0,289.17052447160631,370.47795738234345,848.8295019871839,38.217032523836764,414.2561394235052,214.11164117102058,625.56498626958785,596.4553394313732,-285.95326565873029,285.95326565873029,-596.4553394313732,1136.5857677936776,0.0
407154.6038362722,4610833.5216966402,-32500.0,306.12891342898251,219.72217994236394,897.13624234879978,-37.311734390941666,435.91187361533105,214.50999512196103,599.1951108196829,516.79760299068516,-240.12951326865573,240.12951326865573,-516.79760299068516,1063.4371779931248,0.0
412154.6038362722,4610833.5216966402,-32500.0,340.44159792531536,93.409570835095906,886.88409028506055,-99.984163708085021,429.14072739062215,205.04801394464934,571.33732742475513,444.50233845442096,-194.65303722819328,194.65303722819328,-444.50233845442096,999.78370760051735,0.0
417154.6038362722,4610833.5216966402,-32500.0,382.11856953467759,-2.953840720967039,834.4650530689197,-147.25848258115542,401.58640356246485,188.60374161969193,539.24307389793023,383.78862805258734,-153.48583924837055,153.48583924837055,-383.78862805258734,937.28189883720177,0.0
422154.6038362722,4610833.5216966402,-32500.0,422.6831762167015,-68.879361263928459,755.51296015921889,-178.87856383958706,360.6756465460947,167.9239349184009,503.21585584952749,335.84455908785992,-118.75296375546817,118.75296375546817,-335.84455908785992,872.32785488452248,0.0
427154.6038362722,4610833.5216966402,-32500.0,456.06089835007708,-107.3407131390984,663.22914875431297,-196.22108731934847,312.81382152312921,145.35103760933313,464.53170111714041,299.79158690774136,-91.113742282910152,91.113742282910152,-299.79158690774136,804.6491235288795,0.0
432154.6038362722,4610833.5216966402,-32500.0,478.72806725305276,-123.21083989416175,567.67939405555444,-201.60855965212997,263.00464260016292,122.6948923385186,424.78197165823343,273.62644041204578,-70.228207859164755,70.228207859164755,-273.62644041204578,735.75585402972877,0.0
437154.6038362722,4610833.5216966402,-32500.0,489.37567028441441,-121.99147940858846,475.8044242806215,-197.72735209214935,214.79997008306844,101.21987701781565,385.51334852353023,254.96209872972884,-55.191017892047128,55.191017892047128,-254.96209872972884,667.78177774656876,0.0
442154.6038362722,4610833.5216966402,-32500.0,488.34627573134753,-108.94344971713662,391.84747559253452,-187.21022894727474,170.45702355885447,81.706032235416984,348.00142466505116,241.51473215406685,-44.868713962452489,44.868713962452489,-241.51473215406685,602.78008949455477,0.0
447154.6038362722,4610833.5216966402,-32500.0,477.03890982110721,-88.595545451533155,317.95328195167838,-172.38485708985766,131.19366526957126,64.5459100092325,313.13442409324347,231.36294633683485,-38.125407953028727,38.125407953028727,-231.36294633683485,542.37391744572517,0.0
452154.6038362722,4610833.5216966402,-32500.0,457.39544629899797,-64.546823121042124,254.77322922370507,-155.15766255642771,97.462943683949376,49.848470914199908,281.39426008958822,223.03910894293176,-33.950756976109119,33.950756976109119,-223.03910894293176,487.63703954130574,0.0
302154.6038362722,4615833.5216966402,-32500.0,-743.68778492945557,-1232.7992534999853,-930.33250673929092,-666.7606096403108,-716.19727166003565,-334.50065612983559,1456.1063235019906,-1331.2849691606921,897.73347311428188,-897.73347311428188,1331.2849691606921,2776.7876588193917,0.0
307154.6038362722,4615833.5216966402,-32500.0,-650.94952673744729,-1303.8802769722924,-1114.5565131189817,-688.27058814064947,-815.65281285223671,-369.1548413812086,1569.04343091538,-1393.5520227230782,950.78836077131655,-950.78836077131655,1393.5520227230782,2990.3696658180711,0.0
312154.6038362722,4615833.5216966402,-32500.0,-527.7789619082107,-1356.0188110966074,-1320.3927782639071,-698.27673678084193,-921.66327380310327,-403.59837207461641,1683.0316233479227,-1438.1302607144901,995.14375058624489,-995.14375058624489,1438.1302607144901,3204.6226851781626,0.0
317154.6038362722,4615833.5216966402,-32500.0,-372.70259774160519,-1380.4042898686234,-1544.3120764471139,-693.11725337204552,-1031.3704923759108,-436.25346492050056,1795.1267479520793,-1457.6955590750404,1026.3704059285833,-1026.3704059285833,1457.6955590750404,3413.3866692487882,0.0
322154.6038362722,4615833.5216966402,-32500.0,-186.5469676571951,-1367.1467620882768,-1779.4985365468883,-669.01816163290755,-1140.4188592060189,-465.09254098708345,1901.5283959644532,-1444.1267823832586,1039.3990661642674,-1039.3990661642674,1444.1267823832586,3608.7483926639106,0.0
327154.6038362722,4615833.5216966402,-32500.0,26.603732642285209,-1306.1058101550441,-2014.9931955381057,-622.51428669830887,-1242.7247187038147,-487.65782913260796,1997.5493765815033,-1389.1650230410005,1028.8380612488036,-1028.8380612488036,1389.1650230410005,3781.0146256129601,0.0
332154.6038362722,4615833.5216966402,-32500.0,258.53740522263615,-1188.2792004939361,-2235.1015567893487,-551.05649476344786,-1330.4061184474519,-501.15261670516287,2077.6838062717757,-1285.4929970270341,989.5321374649119,-989.5321374649119,1285.4929970270341,3918.918861216659,0.0
337154.6038362722,4615833.5216966402,-32500.0,496.42281950792227,-1007.7811940872277,-2419.4212490311297,-453.78703715778511,-1394.0034980693404,-502.62756922530866,2135.8285065498339,-1128.2513160679653,917.39164148391285,-917.39164148391285,1128.2513160679653,4010.1804510192046,0.0
342154.6038362722,4615833.5216966402,-32500.0,723.08604116016204,-764.25456889434622,-2543.9236456295134,-332.39667959477322,-1423.1342407365119,-489.27811267769823,2165.7122391737344,-916.86809533199482,810.45343928060663,-810.45343928060663,916.86809533199482,4042.5270188458003,0.0
347154.6038362722,4615833.5216966402,-32500.0,918.44973139516264,-465.27466308513942,-2583.4771086104356,-191.88410519220739,-1407.6891419248977,-458.85187311407026,2161.5651152345567,-656.86593673910818,670.02325453988681,-670.02325453988681,656.86593673910818,4005.2350834382505,0.0
352154.6038362722,4615833.5216966402,-32500.0,1062.3552288438932,-127.98470743479801,-2515.9338783051403,-40.943477728554122,-1339.5696844578206,-410.13693490157351,2119.0109508328933,-361.07798328166513,501.61308657497347,-501.61308657497347,361.07798328166513,3891.1301207249326,0.0
357154.6038362722,4615833.5216966402,-32500.0,1138.5612681174148,221.00151160539298,-2327.3535676687434,108.34192577489277,-1214.7617238736184,-343.46019011207096,2036.0746331393598,-49.564214875248041,315.27646031615006,-315.27646031615006,49.564214875248041,3698.7930670621326,0.0
362154.6038362722,4615833.5216966402,-32500.0,1139.0912069680435,548.24669585050913,-2017.2062178097694,241.75081183166495,-1035.2861857959888,-261.08066885412751,1914.0968025248028,252.35669906134373,124.95199990132321,-124.95199990132321,-252.35669906134373,3434.5075298644233,0.0
367154.6038362722,4615833.5216966402,-32500.0,1067.5227843475286,818.83313830374675,-1601.7826636302866,345.12590954306586,-810.358093210427,-167.32710533557531,1758.2691588080811,518.03694125723041,-53.36489193108747,53.36489193108747,-518.03694125723041,3113.3091413880329,0.0
372154.6038362722,4615833.5216966402,-32500.0,939.69887793685837,1003.4370920037077,-1114.0394032831982,407.14583485404779,-556.10227789296709,-68.342662091071148,1577.5373249223026,724.6507139403966,-204.38743352389486,204.38743352389486,-724.6507139403966,2758.522356286428,0.0
377154.6038362722,4615833.5216966402,-32500.0,780.98388350674202,1085.0842198156631,-598.99979916502616,421.90650072205597,-293.5073950282594,28.62261769883283,1383.7657315568056,858.06086668273133,-316.53812864180026,316.53812864180026,-858.06086668273133,2399.3404342822078,0.0
382154.6038362722,4615833.5216966402,-32500.0,620.53228508662005,1063.1773307541339,-105.50911124532456,390.42134311777187,-44.929771055361428,116.2821129001897,1190.3888166458546,915.68140415939729,-384.22222414455172,384.22222414455172,-915.68140415939729,2066.3200344037227,0.0
387154.6038362722,4615833.5216966402,-32500.0,484.40840020729843,953.19689073046936,323.24046132589092,320.43073920003968,169.91774943065542,188.4985014859152,1011.3645219714798,906.25053680518056,-408.58453785335053,408.58453785335053,-906.25053680518056,1785.0051042771111,0.0
392154.6038362722,4615833.5216966402,-32500.0,389.97763709592977,782.18129777588831,657.37315078391134,224.53175665728659,337.27946735488007,241.25485388876558,863.09970958640849,846.67035597482675,-396.53464766981335,396.53464766981335,-846.67035597482675,1568.8611239716677,0.0
397154.6038362722,4615833.5216966402,-32500.0,343.36785773267405,581.77220831521913,883.9522223384231,117.28463894011557,451.03129096760068,273.1364105847108,770.27020115542132,757.23155604001659,-358.50511067914766,358.50511067914766,-757.23155604001659,1414.9421813805905,0.0
402154.6038362722,4615833.5216966402,-32500.0,340.36767578673232,381.32878968636982,1006.0865283647751,12.273007119419153,512.44070747732974,285.22363345902556,726.83024021008328,656.97940262651491,-305.8160740392924,305.8160740392924,-656.97940262651491,1306.6775188809422,0.0
407154.6038362722,4615833.5216966402,-32500.0,369.76072689108969,203.11738207626908,1038.7215634772756,-80.044317996271033,528.43132980829807,280.5036089016146,694.11280051610402,560.56138313838289,-248.48458368566901,248.48458368566901,-560.56138313838289,1223.0679672541926,0.0
412154.6038362722,4615833.5216966402,-32500.0,417.47123800383014,60.364868097673238,1003.1063559295839,-153.301198162427,509.15111343921569,263.03724487721604,658.13062428624323,477.01818841083173,-193.94716443402135,193.94716443402135,-477.01818841083173,1147.3449404089538,0.0
417154.6038362722,4615833.5216966402,-32500.0,470.11559615282914,-42.197121228419782,921.72906482631163,-205.0995292908934,465.62919680406355,237.13862974856124,616.70002760692739,410.19558137867807,-146.72850199880409,146.72850199880409,-410.19558137867807,1070.2426904661463,0.0
422154.6038362722,4615833.5216966402,-32500.0,517.22763090079752,-106.29375899855913,814.74572335596667,-236.17214686681461,408.02272330514546,206.74522203069557,570.73161268265926,360.07161523904688,-108.79504509519744,108.79504509519744,-360.07161523904688,988.92115067738189,0.0
427154.6038362722,4615833.5216966402,-32500.0,552.09867292762408,-137.6086889363277,698.11942326035251,-249.27172565190136,344.61457687942152,175.04854928854911,522.17496688505162,324.31294935102846,-80.24383572823487,80.24383572823487,-324.31294935102846,904.45632866651124,0.0
432154.6038362722,4615833.5216966402,-32500.0,571.58301786365757,-143.55172598767956,583.16215071212173,-248.12277178804467,281.47390260787097,144.36613721445036,473.21299010939777,299.61025795443834,-60.03791358692834,60.03791358692834,-299.61025795443834,819.63030552480905,0.0
437154.6038362722,4615833.5216966402,-32500.0,575.33655464823175,-131.63453805833643,476.97198180973658,-236.6177097608165,222.57386067413159,116.18652858823987,425.79110099926743,282.60487061247579,-46.617733298411807,46.617733298411807,-282.60487061247579,737.4919568045716,0.0
442154.6038362722,4615833.5216966402,-32500.0,564.88384769088634,-108.4988122358257,383.29297581901426,-218.30350692306519,170.15282821939456,91.310286676313126,381.35645906835435,270.40754206139843,-38.327097325681763,38.327097325681763,-270.40754206139843,660.59951682298708,0.0
447154.6038362722,4615833.5216966402,-32500.0,542.76547170081199,-79.479059069784356,303.46149875072064,-196.12297081477328,125.15374368130529,70.024074623877098,340.77397005330994,260.8029366170789,-33.662502307035496,33.662502307035496,-260.8029366170789,590.72474612910264,0.0
452154.6038362722,4615833.5216966402,-32500.0,511.8811646393346,-48.530146700930743,237.24858961713352,-172.34070309864288,87.638723823598681,52.266772580702586,304.37979177301213,252.25396147755097,-31.386893138413058,31.386893138413058,-252.25396147755097,528.8236696979036,0.0
297154.6038362722,4620833.5216966402,-32500.0,-988.84719364677437,-1231.0804927456363,-701.30592596254928,-737.01085024589531,-655.96718503083639,-338.93666773061051,1461.6941381337961,-1343.4892292549468,916.98325919218382,-916.98325919218382,1343.4892292549468,2790.2148552259741,0.0
302154.6038362722,4620833.5216966402,-32500.0,-935.43392369392211,-1340.1819702893056,-871.18905458748293,-781.9298443293643,-761.48285659737803,-380.27791811009496,1592.2207979560551,-1440.046582794911,992.57902713767874,-992.57902713767874,1440.046582794911,3039.5285944253637,0.0
307154.6038362722,4620833.5216966402,-32500.0,-850.28877880924642,-1441.4770702264404,-1070.4049774619971,-819.36739513488055,-879.17366673299216,-423.63794577704834,1728.9947877066454,-1527.976006866362,1065.4720338257091,-1065.4720338257091,1527.976006866362,3300.1350062053289,0.0
312154.6038362722,4620833.5216966402,-32500.0,-728.40103558966803,-1526.750146804673,-1299.6600459053923,-845.28777125632519,-1007.9478492455324,-467.78914109744602,1869.9004897847285,-1600.2976596043754,1131.6338891035884,-1131.6338891035884,1600.2976596043754,3567.5539506430273,0.0
317154.6038362722,4620833.5216966402,-32500.0,-565.93194751218823,-1585.4796592675041,-1557.1920880978616,-854.9268936652079,-1145.3175424335477,-510.95953106940755,2011.8536501438841,-1648.2474989762218,1185.8580377627068,-1185.8580377627068,1648.2474989762218,3835.2711309035367,0.0
322154.6038362722,4620833.5216966402,-32500.0,-361.34670369236443,-1604.9958372150452,-1837.5016675640402,-843.00133639669286,-1286.9133859638659,-550.76082150831985,2150.6157698927564,-1661.4293289117354,1221.7673420573424,-1221.7673420573424,1661.4293289117354,4094.3538508537881,0.0
327154.6038362722,4620833.5216966402,-32500.0,-116.82679009996041,-1571.1839480418953,-2129.9211412332443,-804.14245542415802,-1426.0021191789842,-584.16396982044887,2280.6479308753696,-1628.3872446407131,1232.0395666499398,-1232.0395666499398,1628.3872446407131,4333.1740632996925,0.0
332154.6038362722,4620833.5216966402,-32500.0,160.20469361788346,-1469.98519180321,-2417.283824143939,-733.62280418944647,-1553.1271982981116,-607.55440428971838,2395.0610021273146,-1537.7854518359363,1208.9661716824803,-1208.9661716824803,1537.7854518359363,4537.3780714717223,0.0
337154.6038362722,4620833.5216966402,-32500.0,455.80618527185163,-1289.890638786482,-2675.1745357393575,-628.4087447963891,-1656.065054723033,-616.90386617149272,2485.7477914936917,-1380.3371244333518,1145.4517993297488,-1145.4517993297488,1380.3371244333518,4690.2999123327418,0.0
342154.6038362722,4620833.5216966402,-32500.0,749.07677684055272,-1025.4099453190995,-2872.4653419781389,-488.4886641846557,-1720.3546065477153,-608.0954043708573,2543.8058449905257,-1151.4586577065484,1036.4933154999603,-1036.4933154999603,1151.4586577065484,4774.0493860960723,0.0
347154.6038362722,4620833.5216966402,-32500.0,1013.296378541915,-681.07022158813538,-2973.9433594379252,-318.27835198926181,-1730.6748076405861,-577.42940152669041,2560.3612691226945,-854.30157383425978,881.02061447770359,-881.02061447770359,854.30157383425978,4771.4843948843154,0.0
352154.6038362722,4620833.5216966402,-32500.0,1219.2958716505912,-274.88690253139856,-2945.5976836495711,-127.70246021709556,-1673.2336884286035,-522.31029814544081,2527.8391619243316,-502.35384328887193,683.7258104403046,-683.7258104403046,502.35384328887193,4669.1188864775668,0.0
357154.6038362722,4620833.5216966402,-32500.0,1341.152826799429,160.32745760115401,-2762.3630242774097,67.630249856005875,-1539.0349194755458,-442.05796408738075,2441.58719643528,-120.38541973508407,456.22790700943119,-456.22790700943119,120.38541973508407,4460.7141806804148,0.0
362154.6038362722,4620833.5216966402,-32500.0,1363.2331596167003,579.55066784744599,-2416.7972943930604,247.75703919091492,-1327.3922481244851,-338.69480969910364,2301.542152831456,257.53174687894466,216.77681471892313,-216.77681471892313,-257.53174687894466,4150.8490232471786,0.0
367154.6038362722,4620833.5216966402,-32500.0,1286.3421699398832,932.88885012849278,-1925.7866814638041,391.4744543737234,-1048.541360251261,-217.45076105717112,2113.4353566758668,593.50209093234866,-12.07368716921502,12.07368716921502,-593.50209093234866,3757.3536957519191,0.0
372154.6038362722,4620833.5216966402,-32500.0,1130.108988692753,1176.5652067956303,-1331.8675358308533,480.80627502139498,-724.00056983196828,-86.672411511831982,1888.997700013032,853.8873884814609,-207.68921795859887,207.68921795859887,-853.8873884814609,3311.369761229565,0.0
377154.6038362722,4620833.5216966402,-32500.0,929.5642986820767,1284.1938531328624,-697.041371182739,505.55313894796876,-383.80548573434334,43.092487687728038,1644.8657616325727,1017.4603469156327,-352.36746636208954,352.36746636208954,-1017.4603469156327,2854.097342733367,0.0
382154.6038362722,4620833.5216966402,-32500.0,726.28931998621033,1253.8947950022236,-90.005475096304281,466.2019108804032,-60.929347718909476,160.78683392193622,1400.4823370298695,1080.4164045859864,-437.35976907625394,437.35976907625394,-1080.4164045859864,2429.9053089390491,0.0
387154.6038362722,4620833.5216966402,-32500.0,557.29112042394638,1108.0865978658887,429.01661320683411,373.88779685139548,215.45736248271876,256.897965710123,1176.3794010198492,1056.0866145019961,-464.31649741844598,464.31649741844598,-1056.0866145019961,2076.1423883890061,0.0
392154.6038362722,4620833.5216966402,-32500.0,446.03794018407325,886.04894724171709,820.31712096479589,247.32039822906432,425.57032349274192,325.21852033173371,997.18311517316783,969.60403514838481,-443.67408501474051,443.67408501474051,-969.60403514838481,1811.624431399136,0.0
397154.6038362722,4620833.5216966402,-32500.0,398.87952339967376,632.59712179834059,1069.6970072935953,107.91290029351374,561.6389554046134,363.7334833397627,894.15377836605228,850.03762186239544,-390.86752751455663,390.86752751455663,-850.03762186239544,1629.9066860858482,0.0
402154.6038362722,4620833.5216966402,-32500.0,407.24961755329491,387.42360354751901,1185.9355203802452,-25.023476622550721,627.15231770549178,374.41842088494627,844.70064235996233,723.20955678221969,-322.02978852943295,322.02978852943295,-723.20955678221969,1505.0330795264483,0.0
407154.6038362722,4620833.5216966402,-32500.0,453.53341342196654,178.42281645846131,1193.3051065692382,-137.51976496483502,633.65572555454355,362.17056327046828,803.14733431929881,607.38974142601501,-250.67190549860771,250.67190549860771,-607.38974142601501,1407.1229071648804,0.0
412154.6038362722,4620833.5216966402,-32500.0,517.62565732372457,19.872696614785198,1122.7763573105628,-222.07559230153495,596.65477740917186,333.35520348810132,756.30587149830819,512.2959719201142,-186.03713393724223,186.03713393724223,-512.2959719201142,1314.8393865765099,0.0
417154.6038362722,4620833.5216966402,-32500.0,581.9477888932787,-85.657897461252318,1004.7667696539628,-277.01657933370456,531.99075034266968,294.4515015235811,702.74358835679243,440.49173559971479,-133.00222363050779,133.00222363050779,-440.49173559971479,1218.3011738322989,0.0
422154.6038362722,4620833.5216966402,-32500.0,634.06622793303177,-143.59625293886683,864.68723218397076,-304.86924607389466,453.40973534166221,251.09631801901205,644.27102704774597,389.82865025091689,-92.944978595577055,92.944978595577055,-389.82865025091689,1116.0687667928714,0.0
427154.6038362722,4620833.5216966402,-32500.0,667.17826549422591,-163.50939720068092,721.18853676714389,-310.52239087405479,371.41933811440674,207.60461027282412,583.73917912135585,355.84734647262712,-64.954001456933469,64.954001456933469,-355.84734647262712,1011.0797004006006,0.0
432154.6038362722,4620833.5216966402,-32500.0,679.2475175952527,-156.06076425927571,586.31779413866332,-299.67643666901228,293.14425996131479,166.88659935752688,524.01862306910891,333.57017809362469,-46.945680778534069,46.945680778534069,-333.57017809362469,907.64505372397934,0.0
437154.6038362722,4620833.5216966402,-32500.0,671.58102850141142,-131.07224237027495,466.68295669180594,-277.78317398239091,222.7745847438886,130.6160986888714,467.41775752506612,318.56260225789993,-36.486793698005926,36.486793698005926,-318.56260225789993,809.7526933019235,0.0
442154.6038362722,4620833.5216966402,-32500.0,647.40549255103167,-96.570499726774912,364.93126666626478,-249.46643874006597,162.25690988659088,99.511769819651178,415.43480514406377,307.39174733994298,-31.295073285093537,31.295073285093537,-307.39174733994298,720.32865786750813,0.0
447154.6038362722,4620833.5216966402,-32500.0,610.72732188475015,-58.532065885677206,281.12691767491555,-218.31115715684962,111.9956397784516,73.632383890489848,368.77037862932735,297.68945441540563,-29.478970137965234,29.478970137965234,-297.68945441540563,641.0671200650977,0.0
452154.6038362722,4620833.5216966402,-32500.0,565.55620806867103,-21.037253753735534,213.84613673703589,-186.88614124313222,71.445128484605291,52.63141912689639,327.50366321606447,288.00762144857788,-29.6030927618514,29.6030927618514,-288.00762144857788,572.54799443878846,0.0
457154.6038362722,4620833.5216966402,-32500.0,515.4568876651457,13.389794412888788,160.95650814236777,-156.88762383554169,39.554127082836786,35.950905350021372,291.32638594618356,277.59817621381683,-30.655952993935813,30.655952993935813,-277.59817621381683,514.47456659492207,0.0
292154.6038362722,4625833.5216966402,-32500.0,-1199.5127564499955,-1162.9038729626484,-464.96918280209053,-780.41156599659064,-574.61384159017905,-333.51735220367806,1437.5228460729293,-1296.5878620564351,899.32631308822579,-899.32631308822579,1296.5878620564351,2743.7377851910037,0.0
297154.6038362722,4625833.5216966402,-32500.0,-1193.1100946098738,-1297.308730885658,-606.28119337935993,-846.80630313269251,-678.50904014315688,-379.57873276830998,1580.492146481364,-1417.29633444509,991.34658113160378,-991.34658113160378,1417.29633444509,3018.3097667856027,0.0
302154.6038362722,4625833.5216966402,-32500.0,-1158.9213511127725,-1435.575891525406,-779.41653274389455,-911.13180893600747,-798.64634591898198,-429.86387449917743,1734.7068682854597,-1539.062083893509,1087.0578819459381,-1087.0578819459381,1539.062083893509,3314.4371746089537,0.0
307154.6038362722,4625833.5216966402,-32500.0,-1089.6172944121158,-1571.8712185764698,-988.6820300675588,-969.84578069651502,-935.89832554415034,-483.71736707602224,1899.2509022489801,-1656.6772799798337,1183.7071132579849,-1183.7071132579849,1656.6772799798337,3630.1519122266686,0.0
312154.6038362722,4625833.5216966402,-32500.0,-977.57633559156,-1697.6058110422371,-1237.3488405359378,-1018.2729609021628,-1090.221454410118,-539.96560309284814,2072.3370030651463,-1762.7408934783462,1277.1937169633566,-1277.1937169633566,1762.7408934783462,3961.6472003990575,0.0
317154.6038362722,4625833.5216966402,-32500.0,-815.72744095190865,-1800.9033973562766,-1526.4764994598627,-1050.5253339351616,-1260.0948854176629,-596.77785672239895,2251.0221425623067,-1847.2706703965939,1361.7686004456966,-1361.7686004456966,1847.2706703965939,4302.6513091081633,0.0
322154.6038362722,4625833.5216966402,-32500.0,-598.8901418182669,-1866.3301997593042,-1853.2469204163522,-1059.5757088523546,-1441.8006452186646,-651.53565770878595,2430.8874084446543,-1897.5264968467827,1429.8125980809064,-1429.8125980809064,1897.5264968467827,4643.724885506017,0.0
327154.6038362722,4625833.5216966402,-32500.0,-325.67630440548771,-1875.2062243010398,-2208.8243589296294,-1037.5967588837866,-1628.5814668569544,-700.73517567838121,2605.7111079881079,-1898.2908512283107,1471.8248040903331,-1471.8248040903331,1898.2908512283107,4971.5664939824883,0.0
332154.6038362722,4625833.5216966402,-32500.0,-0.87415119806770303,-1806.9370157482879,-2575.95905415881,-976.70618623071493,-1809.7935010881204,-739.9559633527025,2767.1960271719054,-1832.9431258909904,1476.8156387345616,-1476.8156387345616,1832.9431258909904,5268.5000118660191,0.0
337154.6038362722,4625833.5216966402,-32500.0,362.04451365949876,-1641.8508156226533,-2926.8993574886158,-870.25914322477081,-1970.3005986426081,-763.94221345431822,2904.8663154538331,-1685.6963346286304,1433.3468713529635,-1433.3468713529635,1685.6963346286304,5512.442229219243,0.0
342154.6038362722,4625833.5216966402,-32500.0,739.0759230599491,-1365.8610797563515,-3222.6406336006025,-714.75774493167705,-2090.5217092131743,-766.85708604444289,3006.3224582256512,-1445.2292883006924,1331.4355353273479,-1331.4355353273479,1445.2292883006924,5677.7778212353223,0.0
347154.6038362722,4625833.5216966402,-32500.0,1095.7429412555377,-976.72510196724932,-3414.9684172837697,-512.25042644808809,-2147.6941921714151,-742.79255825230462,3058.111107283089,-1109.5118222305371,1165.3591932975626,-1165.3591932975626,1109.5118222305371,5737.6454303299643,0.0
352154.6038362722,4625833.5216966402,-32500.0,1390.5182930137541,-490.6275127329518,-3452.7666091129327,-272.72506404572039,-2118.9046108655211,-686.62455822931213,3047.4369080907309,-690.812197303674,936.9834588246855,-936.9834588246855,690.812197303674,5668.0057918920538,0.0
357154.6038362722,4625833.5216966402,-32500.0,1582.5329102667547,53.507517896557971,-3293.1311055841802,-15.52306748354189,-1986.0692683974057,-595.2587679194894,2964.7273775769077,-218.87705823096769,658.61514350760694,-658.61514350760694,218.87705823096769,5453.3862091908641,0.0
362154.6038362722,4625833.5216966402,-32500.0,1642.7885260797259,595.40571988501824,-2915.6247867769962,231.52251875245753,-1742.1694544585482,-469.15256992773254,2806.6425186331562,260.29415470879786,353.84249955435183,-353.84249955435183,-260.29415470879786,5093.3409353639363,0.0
367154.6038362722,4625833.5216966402,-32500.0,1565.4989100411849,1063.1044246945671,-2335.0484590863316,436.24344413285053,-1396.8293892166084,-313.7101237209194,2578.6350796469283,691.89536804477416,54.882505732548964,-54.882505732548964,-691.89536804477416,4607.6726910121506,0.0
372154.6038362722,4625833.5216966402,-32500.0,1374.1766350751182,1390.1287993675528,-1606.2412854570289,569.37612271294017,-978.48055972809038,-139.85324403680568,2295.9395974731069,1025.19321950732,-203.89903450572388,203.89903450572388,-1025.19321950732,4037.938834737844,0.0
377154.6038362722,4625833.5216966402,-32500.0,1117.8242309734258,1534.7028604380787,-815.98630362339225,612.79776491122618,-530.8629583482018,36.940141697887718,1982.2049681487981,1227.5664612105786,-394.60780436057354,394.60780436057354,-1227.5664612105786,3443.204454114973,0.0
382154.6038362722,4625833.5216966402,-32500.0,856.99082566889751,1492.5965521310011,-62.749505406262841,565.33316646164656,-103.8966715192131,199.32980757918529,1666.0927026122527,1293.5069524961029,-503.18096060956645,503.18096060956645,-1293.5069524961029,2889.3398300426702,0.0
387154.6038362722,4625833.5216966402,-32500.0,645.24412678665954,1297.1756124934459,568.28000384950758,443.23330861506156,258.06309230691511,331.84786535846206,1378.206145799682,1244.1689829315255,-532.18391017822341,532.18391017822341,-1244.1689829315255,2432.5236093156173,0.0
392154.6038362722,4625833.5216966402,-32500.0,514.49164169228959,1006.6883543421317,1024.4447639764119,274.93088175452954,525.9505551282025,424.29150377669851,1155.7154746692956,1117.949547390368,-497.96551429215344,497.96551429215344,-1117.949547390368,2100.2579247840026,0.0
397154.6038362722,4625833.5216966402,-32500.0,470.08917586701807,685.33993331366742,1292.145811498852,92.546569715088864,690.13386790694358,473.46551352577825,1038.462846678995,957.14106590502911,-423.97686658055585,423.97686658055585,-957.14106590502911,1880.5941383625629,0.0
402154.6038362722,4625833.5216966402,-32500.0,495.85362255504526,386.67775720479489,1390.6606671732804,-76.150131514501879,758.40263591279768,482.79608600086169,980.03673219876612,796.72003487675329,-333.56423220067194,333.56423220067194,-796.72003487675329,1733.2089856308689,0.0
407154.6038362722,4625833.5216966402,-32500.0,564.4269977303228,144.69401915206055,1358.8083720337193,-212.60210829781437,749.94830780650454,460.32031795883069,926.31431195844186,658.77713545724919,-244.94082623414164,244.94082623414164,-658.77713545724919,1615.6286132657212,0.0
412154.6038362722,4625833.5216966402,-32500.0,647.53953845522688,-26.888445708155064,1241.127497337902,-308.4965121133144,688.42397947399445,416.07885473838974,865.05972831473184,552.52722251987871,-169.26477113549245,169.26477113549245,-552.52722251987871,1500.9247062683423,0.0
417154.6038362722,4625833.5216966402,-32500.0,722.79484593652933,-130.01116137998557,1077.8829411113857,-363.97904812205911,596.41223248944755,359.84671807153086,796.00908013345429,477.66586156760707,-111.21202023372646,111.21202023372646,-477.66586156760707,1379.1196685136706,0.0
422154.6038362722,4625833.5216966402,-32500.0,776.30452897682187,-175.89638661770118,900.04848327885077,-384.63905010956177,492.22129123991601,299.69161661367531,722.23387585285104,428.59592652595404,-70.81229485396878,70.81229485396878,-428.59592652595404,1250.9820193102398,0.0
427154.6038362722,4625833.5216966402,-32500.0,802.22762368838391,-179.3804755026633,728.31157766984165,-378.56074498904394,388.81344522284343,241.39824938260878,647.67890473997522,397.93324499984499,-45.478687401670499,45.478687401670499,-397.93324499984499,1121.8392677100949,0.0
432154.6038362722,4625833.5216966402,-32500.0,800.74513369209899,-155.03125303923608,574.44210696216282,-354.12263768967011,294.15634859829026,188.53287360486644,575.89213114475672,378.72660179983467,-31.629111391537265,31.629111391537265,-378.72660179983467,997.68125768753589,0.0
437154.6038362722,4625833.5216966402,-32500.0,775.69647903802149,-115.08072292493809,443.57473591232764,-318.69367076777826,212.25872689163404,142.85328108664316,509.38361597927707,365.49756573491209,-25.722286565056294,25.722286565056294,-365.49756573491209,883.2912127805871,0.0
442154.6038362722,4625833.5216966402,-32500.0,732.57386844830933,-68.719717742309243,336.4895143139716,-278.07468949242201,144.35882057153094,104.82583102244681,449.48957869410674,354.47232355307062,-24.779102428025368,24.779102428025368,-354.47232355307062,781.64662282785798,0.0
447154.6038362722,4625833.5216966402,-32500.0,677.12043104720772,-22.214104067891007,251.46208089878104,-236.43466759088574,89.972069343116544,74.103268263650293,396.57101442933549,343.37964161995768,-26.548517971136164,26.548517971136164,-343.37964161995768,693.97753148187769,0.0
452154.6038362722,4625833.5216966402,-32500.0,614.50959951020593,20.592609623955564,185.5787294027906,-196.51207435004099,47.687936747532667,49.899400632812906,350.35171431859504,331.08600178560948,-29.472117975504688,29.472117975504688,-331.08600178560948,620.10740591822048,0.0
457154.6038362722,4625833.5216966402,-32500.0,548.96986283675176,57.672014356910388,135.57544353885999,-159.91755449100435,15.713337597562305,31.250140660409556,310.24268877815621,317.22461718867294,-32.559901243395529,32.559901243395529,-317.22461718867294,558.87923211307566,0.0
462154.6038362722,4625833.5216966402,-32500.0,483.70105989001877,88.249480985688464,98.316611491465366,-127.44066852466781,-7.7920693120584863,17.176997621994829,275.59590316100508,301.88895091198776,-35.245526875018271,35.245526875018271,-301.88895091198776,508.57073159784409,0.0
287154.6038362722,4630833.5216966402,-32500.0,-1356.7724723683637,-1038.8115858223402,-243.8141911130015,-794.41879927496029,-480.24868402612685,-319.05546839229288,1386.1412655546731,-1198.2131868258552,848.16396485133839,-848.16396485133839,1198.2131868258552,2642.5755612561693,0.0
292154.6038362722,4630833.5216966402,-32500.0,-1397.9303974969989,-1182.9766994365227,-348.15438748341552,-877.72856548238587,-575.62046030024703,-367.44756911102667,1535.5631367242793,-1330.3386433773785,948.66482412320113,-948.66482412320113,1330.3386433773785,2930.1346453699284,0.0
297154.6038362722,4630833.5216966402,-32500.0,-1419.4242534440307,-1340.6679653731603,-481.74717777589223,-964.74543849369502,-689.13836380141061,-421.91431214332079,1700.3996297488031,-1471.807263719603,1058.3820335970447,-1058.3820335970447,1471.807263719603,3247.7731283640824,0.0
302154.6038362722,4630833.5216966402,-32500.0,-1413.4334264735337,-1509.3577661605066,-650.95905447294456,-1053.1459371485571,-823.34376011795621,-482.47194089115203,1881.0759220185648,-1619.97652852806,1176.3189322342259,-1176.3189322342259,1619.97652852806,3596.3507500102737,0.0
307154.6038362722,4630833.5216966402,-32500.0,-1370.6233727982124,-1684.178338138827,-862.58018626736373,-1139.421486746252,-980.54493395757311,-548.75782851549866,2077.4244148311159,-1770.2683130849787,1300.3757125832699,-1300.3757125832699,1770.2683130849787,3975.5058498406379,0.0
312154.6038362722,4630833.5216966402,-32500.0,-1280.4045322756197,-1857.0008569462261,-1123.1458354085305,-1218.5683162868213,-1162.3867069143089,-619.87619289990687,2288.3870201564982,-1915.455128522924,1426.8859239046092,-1426.8859239046092,1915.455128522924,4382.9973192633115,0.0
317154.6038362722,4630833.5216966402,-32500.0,-1131.6334180400775,-2015.408166205413,-1437.7116580118709,-1283.7927793143792,-1369.1866774199914,-694.22118345077092,2511.6275880288722,-2044.8708471059037,1550.0626687626707,-1550.0626687626707,2044.8708471059037,4813.8232333159749,0.0
322154.6038362722,4630833.5216966402,-32500.0,-913.98715133247163,-2141.7511009365326,-1807.874296051516,-1326.3144617812511,-1598.9733674469799,-769.28541700800463,2743.0469175328922,-2143.698094118155,1661.4140485692947,-1661.4140485692947,2143.698094118155,5259.0960077407472,0.0
327154.6038362722,4630833.5216966402,-32500.0,-620.25488709884894,-2212.6739181630555,-2228.8767491349909,-1335.41335266537,-1846.1896558055118,-841.46504864210681,2976.2072186115615,-2192.6412456938469,1749.2735576916366,-1749.2735576916366,2192.6412456938469,5704.7145008339785,0.0
332154.6038362722,4630833.5216966402,-32500.0,-249.68773218289581,-2199.757880605006,-2685.8372501685303,-1298.9517135655865,-2100.1106348896046,-905.87409138190878,3201.700647591475,-2168.5030141575567,1798.7225635619836,-1798.7225635619836,2168.5030141575567,6129.9968864604452,0.0
337154.6038362722,4630833.5216966402,-32500.0,187.77013764102801,-2072.1984364378418,-3149.608018032508,-1204.6907786841541,-2343.2150424031383,-956.193965299208,3406.5704873810928,-2046.3906216824494,1792.3460784864983,-1792.3460784864983,2046.3906216824494,6506.6684959550985,0.0
342154.6038362722,4630833.5216966402,-32500.0,667.20784436709471,-1802.4905431414518,-3573.5714953855431,-1042.7473780631647,-2550.0745897232418,-984.62303504769966,3574.0496526672678,-1804.3040401036208,1712.3784842654666,-1712.3784842654666,1804.3040401036208,6798.9137657162401,0.0
347154.6038362722,4630833.5216966402,-32500.0,1146.2653477465287,-1375.5779067531973,-3893.716298588572,-809.36279093148698,-2687.7579676778482,-982.08426369068388,3684.126602779209,-1430.4066591320254,1544.6924681862927,-1544.6924681862927,1430.4066591320254,6965.5165550298316,0.0
352154.6038362722,4630833.5216966402,-32500.0,1567.2468730408309,-800.38146713789217,-4035.0686745146681,-511.59468242423304,-2719.0818669332457,-938.98823866435612,3715.6048338723035,-932.01315547926981,1284.5114263761116,-1284.5114263761116,932.01315547926981,6965.1756209526966,0.0
357154.6038362722,4630833.5216966402,-32500.0,1866.6224157268941,-119.98094865572807,-3926.8640897470109,-171.50453968941846,-2609.8067635050156,-846.93501006642725,3650.0504815822396,-343.2495004709935,942.5228262159701,-942.5228262159701,343.2495004709935,6765.4728732038357,0.0
362154.6038362722,4630833.5216966402,-32500.0,1992.3923515312176,585.93160614390194,-3525.484452499089,172.75620204125596,-2339.4831829043528,-701.54496693749502,3477.1893590209911,273.59632955269728,548.56894041747012,-548.56894041747012,-273.59632955269728,6354.4059364937584,0.0
367154.6038362722,4630833.5216966402,-32500.0,1924.7470878128738,1212.7391761213564,-2838.2330762630486,471.81269876806164,-1912.9986921073935,-505.92237297805463,3200.1838900427115,837.71986120136057,149.42168391418437,-149.42168391418437,-837.71986120136057,5751.1412978554763,0.0
372154.6038362722,4630833.5216966402,-32500.0,1690.0896851469515,1657.8235090879496,-1935.7312231239987,676.79186432464337,-1367.2481066114144,-273.25043817279266,2838.4601956787569,1270.6912526740496,-201.19194116615563,201.19194116615563,-1270.6912526740496,5010.9821621426245,0.0
377154.6038362722,4630833.5216966402,-32500.0,1358.0078873704174,1854.0065344321138,-941.83774547617429,754.65903017694404,-767.3408799119286,-26.483715461338303,2426.1597271115697,1521.3480923121163,-457.91290318299593,457.91290318299593,-1521.3480923121163,4220.068422352364,0.0
382154.6038362722,4630833.5216966402,-32500.0,1018.7716882122651,1793.2280438128892,-0.5477353863807739,700.13915055332529,-191.18152788162178,205.98536843504255,2006.3514757417095,1582.3361709588912,-597.70131409005307,597.70131409005307,-1582.3361709588912,3478.2726859076702,0.0
387154.6038362722,4630833.5216966402,-32500.0,751.43221030023187,1527.016431074137,766.28203991744692,537.56551493140853,291.85620531126415,397.54590407273605,1625.116609231181,1489.0132778173386,-625.25450121240306,625.25450121240306,-1489.0132778173386,2872.0234872131546,0.0
392154.6038362722,4630833.5216966402,-32500.0,599.24836130558606,1143.7400877886848,1290.0719593783276,311.44010691595582,638.4041423915794,530.32158852032285,1339.5631557082897,1301.9034358323013,-567.51107020727659,567.51107020727659,-1301.9034358323013,2442.8861859980443,0.0
397154.6038362722,4630833.5216966402,-32500.0,563.60824477728352,736.16374861267116,1562.8510617341874,71.007973693682132,837.46715692902023,598.74263171955693,1204.1463611517195,1083.3839810177417,-461.26303065292865,461.26303065292865,-1083.3839810177417,2170.1622420244262,0.0
402154.6038362722,4630833.5216966402,-32500.0,615.11228659368646,375.64640339193386,1623.0207243299869,-143.45499366504916,905.27604186916403,608.6950627928353,1133.0717181567586,880.29698189351939,-340.78818258170219,340.78818258170219,-880.29698189351939,1991.4897379474912,0.0
407154.6038362722,4630833.5216966402,-32500.0,711.86618926292238,101.38132023350921,1531.694729617024,-307.71525262915821,873.77321453217814,573.54171008482581,1062.4209856311427,717.68648289150428,-230.40132414280845,230.40132414280845,-717.68648289150428,1846.6169853706213,0.0
412154.6038362722,4630833.5216966402,-32500.0,815.12599154313159,-76.901374805700598,1351.5677221070039,-413.70635781165231,778.88929680079445,509.30573448562859,982.15232325589079,601.69207057826839,-142.78723371276169,142.78723371276169,-601.69207057826839,1701.9272703877134,0.0
417154.6038362722,4630833.5216966402,-32500.0,897.7286200342387,-169.35276602687242,1134.1299949779211,-465.36181658966126,652.37731850005787,430.83386652301931,893.81321812976671,526.54556980639791,-81.198874444999888,81.198874444999888,-526.54556980639791,1548.1489976088651,0.0
422154.6038362722,4630833.5216966402,-32500.0,945.75221907136381,-195.67473426212385,915.18285833925165,-473.24693791741561,518.00568164108608,349.67318635199211,802.03194298171059,481.43658871012701,-43.03261257933184,43.03261257933184,-481.43658871012701,1389.1603220488312,0.0
427154.6038362722,4630833.5216966402,-32500.0,956.10062215218738,-177.34867538522622,715.81538963795902,-450.02423148185557,391.09289380484546,273.5009776459936,711.84121980963732,455.24585421437752,-23.06876569841944,23.06876569841944,-455.24585421437752,1233.063134170035,0.0
432154.6038362722,4630833.5216966402,-32500.0,932.6812702842625,-133.17529762741231,545.82922164236959,-407.51858002775157,279.88297629100134,206.5512444240947,627.22213596851429,438.9426182572447,-15.68129570353895,15.68129570353895,-438.9426182572447,1087.4001260162711,0.0
437154.6038362722,4630833.5216966402,-32500.0,882.85691412560652,-77.500097277603729,407.5479831269837,-355.29177925207091,187.53395820280173,150.4708452547973,550.54905024249831,426.27651012823503,-16.009559099264123,16.009559099264123,-426.27651012823503,957.29869485645634,0.0
442154.6038362722,4630833.5216966402,-32500.0,814.86985035943303,-20.119688727497181,299.00003360421653,-300.28396864076353,113.9948904509217,105.21570915060114,482.71596978024058,413.52699748845748,-20.377580265808774,20.377580265808774,-413.52699748845748,845.19335801169962,0.0
447154.6038362722,4630833.5216966402,-32500.0,736.30509683377022,32.995499923705424,216.18298690678211,-247.05411944070104,57.466862095672013,69.791287171639354,423.59376530148086,398.88714999154433,-26.278899836874757,26.278899836874757,-398.88714999154433,751.2521163292397,0.0
452154.6038362722,4630833.5216966402,-32500.0,653.37164246130362,78.731836394437352,154.48746210875314,-198.26775956891422,15.401950894031488,42.780285303421806,372.52157176750245,381.81556364997004,-32.168066182716643,32.168066182716643,-381.81556364997004,674.04075693496225,0.0
457154.6038362722,4630833.5216966402,-32500.0,570.72065155573443,115.91972898203039,109.48840360175546,-155.21997504873553,-14.885712559086929,22.676375688903928,328.72250960617487,362.5046825116039,-37.204777003160132,37.204777003160132,-362.5046825116039,611.20262393585836,0.0
462154.6038362722,4630833.5216966402,-32500.0,491.5610347287855,144.59990064580154,77.315966426756404,-118.29022813747569,-35.889839574216829,8.0700798851857787,291.9600808227604,341.50207950818071,-41.022695893145482,41.022695893145482,-341.50207950818071,560.04295030675303,0.0
467154.6038362722,4630833.5216966402,-32500.0,417.90558624568837,165.48945511541663,54.774352370929883,-87.294715132007084,-49.764858456286092,-2.265132780948397,266.55368868519469,319.46876942397978,-43.548662691424141,43.548662691424141,-319.46876942397978,517.95909013089863,0.0
282154.6038362722,4635833.5216966402,-32500.0,-1449.9502167779347,-875.89797735302091,-55.082370583876646,-780.14117366069706,-381.58536270736556,-297.21924118296857,1312.1063358663941,-1061.7236570650966,770.65995318828664,-770.65995318828664,1061.7236570650966,2496.1595215622315,0.0
287154.6038362722,4635833.5216966402,-32500.0,-1532.4978215230785,-1014.8262383750139,-120.61654525208783,-874.14978612416007,-463.38691678789166,-345.51067066596801,1461.9431479498435,-1192.6034287888522,871.46695762457716,-871.46695762457716,1192.6034287888522,2784.3625900897914,0.0
292154.6038362722,4635833.5216966402,-32500.0,-1605.579669420395,-1173.2540326997148,-209.22740455559742,-976.96725653013914,-563.03446893085049,-401.1378521012449,1630.0939626201421,-1338.2997582837543,985.22128344082137,-985.22128344082137,1338.2997582837543,3108.4800555473867,0.0
297154.6038362722,4635833.5216966402,-32500.0,-1662.6120614316635,-1351.8177867148604,-327.55858649923454,-1087.8509426895782,-684.09228729356516,-464.74638419814073,1818.222419696845,-1498.7085660664427,1112.6487031295562,-1112.6487031295562,1498.7085660664427,3471.9555016304298,0.0
302154.6038362722,4635833.5216966402,-32500.0,-1694.9256332357616,-1549.7880202729314,-483.65705363123436,-1205.1574308431043,-830.5380891468659,-536.80796299374697,2027.7783956730327,-1672.5038398938486,1253.8921556825508,-1253.8921556825508,1672.5038398938486,3877.8523875825554,0.0
307154.6038362722,4635833.5216966402,-32500.0,-1691.4580097912612,-1764.17793484763,-686.89858322224836,-1325.9567839954561,-1006.591958456317,-617.50343492022716,2259.7689998297428,-1856.4140640207361,1408.0864673816877,-1408.0864673816877,1856.4140640207361,4328.3720412493085,0.0
312154.6038362722,4635833.5216966402,-32500.0,-1638.6345242592245,-1988.5073479726707,-947.55944583932251,-1445.5429991192225,-1216.3542753121428,-706.57721192350448,2514.421349651228,-2044.2241994939557,1572.7397200885737,-1572.7397200885737,2044.2241994939557,4824.1077197984896,0.0
317154.6038362722,4635833.5216966402,-32500.0,-1520.6641582951067,-2211.2026598965049,-1275.7612183004446,-1556.8467057411651,-1463.137788173261,-803.16139768225935,2790.7019341144833,-2225.4899265185923,1742.8788855249186,-1742.8788855249186,2225.4899265185923,5362.9238566708946,0.0
322154.6038362722,4635833.5216966402,-32500.0,-1320.6083572475291,-2413.7380085988129,-1679.4098116613036,-1649.7986397057216,-1748.3385835266486,-905.56177399986973,3085.6589071512362,-2384.0573887255955,1909.9580262003115,-1909.9580262003115,2384.0573887255955,5938.3402607804373,0.0
327154.6038362722,4635833.5216966402,-32500.0,-1022.7171387612644,-2568.8786764136685,-2160.6872286334738,-1710.7797642523612,-2069.6651893585531,-1010.9796191333897,3393.557051783037,-2496.7007827932712,2060.63315778579,-2060.63315778579,2496.7007827932712,6537.3333857872776,0.0
332154.6038362722,4635833.5216966402,-32500.0,-616.5826412835977,-2639.8338946576719,-2710.7553611380445,-1722.4570297433261,-2418.585432776521,-1115.1128774761291,3704.7752700020633,-2532.5662006988241,2175.7246568112423,-2175.7246568112423,2532.5662006988241,7137.6111882987298,0.0
337154.6038362722,4635833.5216966402,-32500.0,-103.44519541256923,-2581.7547947581006,-3302.8238207262912,-1664.5593316344296,-2777.0565855116906,-1211.5584927007485,4004.4439638407466,-2454.627771749661,2230.0449849991387,-2230.0449849991387,2454.627771749661,7704.7674380046174,0.0
342154.6038362722,4635833.5216966402,-32500.0,495.82703333600779,-2347.6105645093953,-3884.8942748379973,-1516.441278861,-3114.1191881364766,-1290.9840371022742,4270.9849886747534,-2224.8095954230621,2194.20394292941,-2194.20394292941,2224.8095954230621,8190.3427980536208,0.0
347154.6038362722,4635833.5216966402,-32500.0,1133.2919339010343,-1900.423533420317,-4375.4768305174766,-1262.3806481816923,-3383.8707554897092,-1340.2619184687762,4475.4206984140683,-1814.2628810070164,2039.7419010224135,-2039.7419010224135,1814.2628810070164,8532.6521757765531,0.0
352154.6038362722,4635833.5216966402,-32500.0,1731.7302095822206,-1232.0354722157842,-4667.8661905636745,-899.95434969117071,-3527.5305901167571,-1342.2500589809829,4583.229400606685,-1218.6128114981955,1748.3960791591646,-1748.3960791591646,1218.6128114981955,8662.9013394512422,0.0
357154.6038362722,4635833.5216966402,-32500.0,2194.1937165606346,-383.94906972605588,-4649.2177452562282,-449.90504624466513,-3482.8707513140803,-1277.4990951123193,4560.2573588600671,-474.09566406951819,1324.2300767172892,-1324.2300767172892,474.09566406951819,8518.6483295447251,0.0
362154.6038362722,4635833.5216966402,-32500.0,2429.6793140405402,540.78369824726053,-4236.3916471783132,37.253921260380345,-3202.5571878982191,-1129.2259328982836,4382.3735675800826,334.54580291743252,803.7919975256799,-803.7919975256799,-334.54580291743252,8064.0570378959401,0.0
367154.6038362722,4635833.5216966402,-32500.0,2390.2510447401437,1389.1512802587811,-3419.3048593962699,484.99310932527794,-2677.5393016069297,-891.45804122641766,4046.1061911188644,1085.4443134130138,256.50128896252875,-256.50128896252875,-1085.4443134130138,7311.484859707266,0.0
372154.6038362722,4635833.5216966402,-32500.0,2101.7708625620166,2000.3112813560685,-2289.1884814992959,809.57006772128523,-1954.3832241799964,-577.22827567904449,3575.5452340279144,1654.19834183284,-230.74287350337579,230.74287350337579,-1654.19834183284,6334.2696624460423,0.0
377154.6038362722,4635833.5216966402,-32500.0,1664.9856621093336,2265.0633532979004,-1027.079322035974,949.44764682966013,-1132.8759398889815,-221.18837335202932,3020.9493369342449,1959.4064084180091,-581.86402352669393,581.86402352669393,-1959.4064084180091,5260.5394654112106,0.0
382154.6038362722,4635833.5216966402,-32500.0,1218.0741372177538,2170.2844783290625,152.20565761635282,890.44078611310465,-338.83840904753748,127.53434303742166,2448.3576327441674,1993.6209755801522,-758.98512953392196,758.98512953392196,-1993.6209755801522,4244.581675479667,0.0
387154.6038362722,4635833.5216966402,-32500.0,879.66710187264061,1799.4622741578517,1073.7849652261345,670.74264327646426,316.3915983260444,420.34643736376739,1927.3121379611189,1819.6885993588639,-772.72700928286906,772.72700928286906,-1819.6885993588639,3420.8202237271753,0.0
392154.6038362722,4635833.5216966402,-32500.0,707.05456267186867,1289.8038202020768,1652.9738525228183,362.62447526299053,768.13269232785387,624.24905204165054,1547.4888074191974,1536.1335379038112,-670.34131855554074,670.34131855554074,-1536.1335379038112,2852.2450978808492,0.0
397154.6038362722,4635833.5216966402,-32500.0,690.77913679203391,775.42134322997458,1899.5489551638182,43.184557088661784,1007.1240195496359,729.19219324025823,1393.6362325886071,1235.5148347895374,-511.53174247822216,511.53174247822216,-1235.5148347895374,2503.6959404508839,0.0
402154.6038362722,4635833.5216966402,-32500.0,778.84866720699029,348.34769308578774,1886.003993317539,-229.19841481034422,1066.4451705235465,745.72226930227612,1303.9191916267846,978.45562206201373,-346.99348010083088,346.99348010083088,-978.45562206201373,2279.7184767721742,0.0
407154.6038362722,4635833.5216966402,-32500.0,908.60847901497152,48.698195913113004,1706.3279027490248,-424.22851940120626,999.27310507099878,696.63189878388982,1208.8155323978951,789.41359126545024,-208.17745527739521,208.17745527739521,-789.41359126545024,2095.9609856641914,0.0
412154.6038362722,4635833.5216966402,-32500.0,1029.2624178275696,-124.28653109638078,1445.5679941712965,-536.70830021039944,859.5327904448352,607.87318988425898,1103.5100967541223,666.44232527910663,-107.61632545808976,107.61632545808976,-666.44232527910663,1911.335809651275,0.0
417154.6038362722,4635833.5216966402,-32500.0,1110.5573688584111,-194.24308408778148,1165.871788054588,-577.69275023462274,690.72296327998811,502.13246066865827,991.96717409678286,594.40086549849366,-44.675750839183536,44.675750839183536,-594.40086549849366,1718.3037358026409,0.0
422154.6038362722,4635833.5216966402,-32500.0,1141.413971943844,-192.25187331188206,905.08207243768516,-565.40533043699998,522.40485955369263,395.89543944265841,880.17061366173368,555.20728119651812,-12.044526658078155,12.044526658078155,-555.20728119651812,1524.5042674309911,0.0
427154.6038362722,4635833.5216966402,-32500.0,1124.1096049939893,-147.27728116011448,681.59582074407069,-518.69582745473213,371.45245962126324,299.20798478005878,773.68881104923594,533.46031347903931,-0.5752033052062302,0.5752033052062302,-533.46031347903931,1340.6675430018608,0.0
432154.6038362722,4635833.5216966402,-32500.0,1068.0438471021807,-81.938689980067338,500.78399371310911,-453.50006404186087,245.26447698978171,216.88236384473595,676.30306003735495,518.3595938830407,-2.006711140061725,2.006711140061725,-518.3595938830407,1175.1691944860702,0.0
437154.6038362722,4635833.5216966402,-32500.0,984.96856849863548,-11.759868507590861,360.56267930701978,-381.61394089513806,145.14251264080357,150.13086376701077,589.7712922366635,503.50327588264179,-10.035693514728223,10.035693514728223,-503.50327588264179,1032.5021348407283,0.0
442154.6038362722,4635833.5216966402,-32500.0,886.06419114406651,53.845186792624268,255.35765793835495,-310.83930384597306,69.013789609264961,98.041078227104634,514.31567534041187,485.83079777444073,-20.40752460975034,20.40752460975034,-485.83079777444073,913.56974130228116,0.0
447154.6038362722,4635833.5216966402,-32500.0,780.53933296921832,110.01831199020982,178.55580418543511,-245.7423708728449,13.308537764364518,58.671811854473582,449.30374012031109,464.45589797379574,-30.563706472857405,30.563706472857405,-464.45589797379574,816.66143919661693,0.0
452154.6038362722,4635833.5216966402,-32500.0,675.23432800088779,154.95641536587576,123.8256560392707,-188.54804461578129,-25.898428365074565,29.759971984850988,393.91067489053091,439.71215072473603,-39.173804506698048,39.173804506698048,-439.71215072473603,738.55687898934411,0.0
457154.6038362722,4635833.5216966402,-32500.0,574.77801530103216,188.71154926331479,85.70625663520363,-139.93554600439734,-52.279289190815327,9.1202901000999752,348.79497187233028,412.48975061995577,-45.711115973827816,45.711115973827816,-412.48975061995577,675.49538751546322,0.0
462154.6038362722,4635833.5216966402,-32500.0,481.9819800255562,212.33409141527969,59.773102767373238,-99.653160906143256,-68.987332620613259,-5.1646481184533783,323.66131631246952,383.82813201215356,-50.126782458093743,50.126782458093743,-383.82813201215356,623.87647428993273,0.0
467154.6038362722,4635833.5216966402,-32500.0,398.28678180927284,227.31138560331615,42.588422384664121,-66.951158502922198,-78.588914705498496,-14.681740949937593,310.08768538550294,354.69613511944704,-52.624323963227681,52.624323963227681,-354.69613511944704,580.65439044317964,0.0
282154.6038362722,4640833.5216966402,-32500.0,-1590.662072814833,-815.77352170883739,60.942179841984334,-839.77776654719298,-351.98522736422581,-316.24705411634267,1366.0843710265397,-1022.4011543931402,770.18283762335534,-770.18283762335534,1022.4011543931402,2594.4018947184804,0.0
287154.6038362722,4640833.5216966402,-32500.0,-1704.2202992869452,-959.08681973051966,15.134700630847965,-950.32158803258972,-433.32606690118581,-370.2222188808679,1530.7275324531472,-1158.7070139427267,878.85063820088362,-878.85063820088362,1158.7070139427267,2911.0662326706652,0.0
292154.6038362722,4640833.5216966402,-32500.0,-1813.999749457281,-1126.6051788040736,-51.53564575271001,-1074.1353729344198,-534.30070852930123,-433.23328966318047,1717.7451716089859,-1313.793398711422,1004.0466386335866,-1004.0466386335866,1313.793398711422,3271.8029033927542,0.0
297154.6038362722,4640833.5216966402,-32500.0,-1913.7692197079584,-1320.8795394443803,-146.30759403178169,-1211.5743658743338,-659.5901375614244,-506.43524673681634,1929.9127517157085,-1489.0171998284409,1147.7553504454277,-1147.7553504454277,1489.0171998284409,3682.4154806301253,0.0
302154.6038362722,4640833.5216966402,-32500.0,-1994.7303250449718,-1543.5903970087459,-278.48828590865151,-1362.2660545925601,-814.8067280517746,-590.96784502579567,2170.0661229528323,-1684.8341798330796,1311.7055878966919,-1311.7055878966919,1684.8341798330796,4148.9625233268762,0.0
307154.6038362722,4640833.5216966402,-32500.0,-2044.8208268627686,-1794.6152396148618,-459.72922662835043,-1524.663780546887,-1006.5101188192191,-687.89571484891269,2440.9047812481413,-1899.9926919188342,1496.9374363865186,-1496.9374363865186,1899.9926919188342,4677.3741466031934,0.0
312154.6038362722,4640833.5216966402,-32500.0,-2048.0318784847327,-2070.5731954619596,-704.03702363676018,-1695.4002624106911,-1242.0557637063739,-798.14198286398437,2744.6570023336335,-2130.2844720984285,1703.0751114417599,-1703.0751114417599,2130.2844720984285,5272.7388628021345,0.0
317154.6038362722,4640833.5216966402,-32500.0,-1983.961336909578,-2362.6825330518664,-1027.1849137300881,-1868.3732906131145,-1529.1133277969921,-922.41430935991968,3082.5417876219617,-2366.718276420514,1927.1713158253929,-1927.1713158253929,2366.718276420514,5938.0523128825353,0.0
322154.6038362722,4640833.5216966402,-32500.0,-1828.0451298490366,-2653.8396002876452,-1444.9718656547441,-2033.5074137061483,-1874.5844340961796,-1061.096394682284,3453.958605155326,-2593.0591126849204,2161.9886667940527,-2161.9886667940527,2593.0591126849204,6672.1367950072563,0.0
327154.6038362722,4640833.5216966402,-32500.0,-1553.2359341749379,-2915.0854162788914,-1969.5246185762082,-2175.2122965032363,-2282.5132644952387,-1214.0128329018744,3855.3559724797428,-2782.9270292523206,2393.6733431891362,-2393.6733431891362,2782.9270292523206,7466.3912491054043,0.0
332154.6038362722,4640833.5216966402,-32500.0,-1134.2775471918351,-3102.2279819053347,-2602.6865571807334,-2270.7843518595728,-2750.4720232354443,-1379.8526172907095,4278.7243951140863,-2897.2101184762864,2599.0615837747059,-2599.0615837747059,2897.2101184762864,8300.123891545938,0.0
337154.6038362722,4640833.5216966402,-32500.0,-555.9132745587375,-3154.4939713046101,-3325.8241047966039,-2289.4945497056669,-3263.9819512899367,-1554.8798499979455,4709.3582104319621,-2883.5273485207945,2743.4811959602757,-2743.4811959602757,2883.5273485207945,9134.6526452507042,0.0
342154.6038362722,4640833.5216966402,-32500.0,174.23141959338648,-2998.6503325389995,-4086.7248339071457,-2193.9447162737169,-3789.143391458992,-1730.5050097906303,5121.9911043058592,-2680.7571269026585,2780.9333023653053,-2780.9333023653053,2680.7571269026585,9907.3954744640505,0.0
347154.6038362722,4640833.5216966402,-32500.0,1009.7426840674517,-2563.3248260568294,-4787.4146557058857,-1946.2224533704268,-4265.2946411389248,-1889.6646476540059,5476.172673836596,-2232.4455236126469,2659.6680966888471,-2659.6680966888471,2232.4455236126469,10528.947655681412,0.0
352154.6038362722,4640833.5216966402,-32500.0,1853.1517527949031,-1807.1700070837821,-5281.7707769532053,-1521.4327745924049,-4602.4525872784689,-2003.2100679092355,5716.3176200195257,-1511.3437940401222,2336.2880585016701,-2336.2880585016701,1511.3437940401222,10888.221892533675,0.0
357154.6038362722,4640833.5216966402,-32500.0,2560.2606619835883,-757.67707737790784,-5396.2077856610013,-928.32293743873186,-4691.3514385859826,-2029.6395872489024,5780.8234973206318,-550.83739137401619,1798.525447578234,-1798.525447578234,550.83739137401619,10871.388457582521,0.0
362154.6038362722,4640833.5216966402,-32500.0,2975.1366727686559,456.57720533081681,-4983.3972337078649,-229.39689502562064,-4433.1624668622571,-1923.0111901088458,5619.2401808490031,532.50543452809586,1089.2126314611123,-1089.2126314611123,-532.50543452809586,10396.638110173682,0.0
367154.6038362722,4640833.5216966402,-32500.0,2995.6158448418491,1610.8640069137334,-3999.5702527657613,455.81861803778355,-3785.9924574485613,-1651.4257372516076,5212.9893240970559,1549.7887120221717,314.76694120129252,-314.76694120129252,-1549.7887120221717,9456.7373011697946,0.0
372154.6038362722,4640833.5216966402,-32500.0,2638.7439192474499,2449.7544561773439,-2564.6700724466255,980.18833617174835,-2806.6317373916877,-1220.0179395799073,4590.874982933723,2298.5971723651583,-378.72613717518948,378.72613717518948,-2298.5971723651583,8148.8998118179879,0.0
377154.6038362722,4640833.5216966402,-32500.0,2054.401744780806,2795.1978637764023,-951.16647788595287,1227.2113010762132,-1654.3132643587944,-683.06591770349939,3828.8559062637996,2649.061566635085,-860.15179825136397,860.15179825136397,-2649.061566635085,6668.3818788863009,0.0
382154.6038362722,4640833.5216966402,-32500.0,1460.265093390321,2631.0370866349367,514.94431839900028,1165.4055655680227,-539.87139692470384,-131.43694517698313,3030.4739225302301,2602.3092136813684,-1068.8253293309365,1068.8253293309365,-2602.3092136813684,5257.227403177857,0.0
387154.6038362722,4640833.5216966402,-32500.0,1035.9754416575768,2100.458882014093,1586.0738223049361,859.7212829420024,354.95688155884466,341.238412930283,2299.4587978620693,2277.2421013274502,-1032.9030116044778,1032.9030116044778,-2277.2421013274502,4122.9321172411101,0.0
392154.6038362722,4640833.5216966402,-32500.0,852.02529062922281,1420.591214728845,2171.746053181867,432.60105937116356,937.23531959076502,672.5310100892624,1776.7428082613208,1838.4233374392493,-840.78241971485022,840.78241971485022,-1838.4233374392493,3355.8401000813224,0.0
397154.6038362722,4640833.5216966402,-32500.0,872.90011698302692,782.08846044645031,2326.4190809279771,6.3203057565617158,1210.4862263791067,845.47952704065767,1617.2144556491464,1421.3547428696959,-591.87410934889658,591.87410934889658,-1421.3547428696959,2895.5592285825965,0.0
402154.6038362722,4640833.5216966402,-32500.0,1009.3521730197518,294.86876515865686,2180.864131791715,-336.45504624435426,1241.5266374234518,880.85105162713887,1494.5001773599313,1097.9564405098647,-360.13064166482405,360.13064166482405,-1097.9564405098647,2600.7897536895061,0.0
407154.6038362722,4640833.5216966402,-32500.0,1171.7717414384304,-11.425094941092372,1873.695751515879,-561.72059999403768,1117.9928584405545,818.79676849973396,1361.5829150609229,882.79430937173777,-182.94913262225339,182.94913262225339,-882.79430937173777,2358.3375598575503,0.0
412154.6038362722,4640833.5216966402,-32500.0,1298.7366060712343,-158.84331361501458,1512.868302622564,-672.76413384204511,918.45187397164523,701.81042462953724,1223.1899767789425,757.14106932314735,-68.111662847443199,68.111662847443199,-757.14106932314735,2119.9490404502471,0.0
417154.6038362722,4640833.5216966402,-32500.0,1361.7080086130634,-190.79314489530117,1166.0825042279773,-692.9166792723114,699.60545646346031,564.50364883283555,1085.108720583389,691.37227257101847,-6.5351967778693734,6.5351967778693734,-691.37227257101847,1880.3724774728234,0.0
422154.6038362722,4640833.5216966402,-32500.0,1357.2153802318637,-151.69660411640936,867.09026117615997,-651.3382029331101,495.54739810267034,430.15474811058897,952.84002070085478,658.35934691994976,16.906904472522626,-16.906904472522626,-658.35934691994976,1650.3787321305688,0.0
427154.6038362722,4640833.5216966402,-32500.0,1296.1327017504548,-77.336207326645265,626.72905316069512,-574.5170999750444,322.63053793971068,311.60102082172472,830.82238323985234,638.6288352864035,16.874591924914228,-16.874591924914228,-638.6288352864035,1441.7969793101067,0.0
432154.6038362722,4640833.5216966402,-32500.0,1194.8871573439201,7.5608076218941314,442.87458206880785,-482.715125010527,185.52255964667313,213.96219794365575,721.62818808087184,620.58870976500509,4.7812982202336798,-4.7812982202336798,-620.58870976500509,1261.9579303871906,0.0
437154.6038362722,4640833.5216966402,-32500.0,1069.9085409539143,88.074693477877403,307.47731324580292,-389.54334889092445,82.321547895316712,137.53422100899834,626.02640131058422,598.70681338435566,-11.684113447667016,11.684113447667016,-598.70681338435566,1112.9177780370408,0.0
442154.6038362722,4640833.5216966402,-32500.0,934.8922038114564,156.59577188616589,210.79983074307233,-303.03677608086031,8.1249384959003628,80.087933219434504,543.61618182090706,571.34577014440401,-27.969561663593765,27.969561663593765,-571.34577014440401,992.62352738749803,0.0
447154.6038362722,4640833.5216966402,-32500.0,799.95110020496907,210.34181905835308,143.61033848113541,-227.16441531609325,-42.80676110764675,38.406204757464685,473.77816350979543,538.99339202388535,-41.774664042667524,41.774664042667524,-538.99339202388535,896.62711324110614,0.0
452154.6038362722,4640833.5216966402,-32500.0,671.80098009872518,249.38517754600008,98.096535358268454,-163.22766595607078,-75.910646147925135,9.1747322341132111,420.66640558821416,503.05948309925742,-52.239142898751595,52.239142898751595,-503.05948309925742,819.66743402895247,0.0
457154.6038362722,4640833.5216966402,-32500.0,554.38589117305878,275.27290598299817,68.074864269063795,-110.94695635728013,-95.831518374064032,-10.578948707183402,397.62342720492177,465.1648075681959,-59.329003128830976,59.329003128830976,-465.1648075681959,756.79541037453214,0.0
462154.6038362722,4640833.5216966402,-32500.0,449.59753775502037,290.14970672439614,48.862951455905034,-69.21847730046666,-106.29838689875477,-23.322989555683822,381.12449159910568,426.77844833611135,-63.423693945072387,63.423693945072387,-426.77844833611135,703.95924090242613,0.0
467154.6038362722,4640833.5216966402,-32500.0,357.92168407814,296.24885878698558,37.026224914013973,-36.598310846045095,-110.18240812934168,-31.008401427204973,364.39443825426287,389.07212589406981,-65.062869250341777,65.062869250341777,-389.07212589406981,658.15162842922246,0.0
472154.6038362722,4640833.5216966402,-32500.0,278.95202633163541,295.62795152612421,30.106287458833688,-11.587923548175651,-109.62766473722291,-35.125639031115995,347.18187632577076,352.89476559782992,-64.804640868807553,64.804640868807553,-352.89476559782992,617.29835950576773,0.0
277154.6038362722,4645833.5216966402,-32500.0,-1577.017768825642,-608.83469336136693,190.66251864157564,-781.30717850245276,-249.56933462843475,-282.48843879434753,1255.3096704592886,-838.83618492301332,656.36321891348996,-656.36321891348996,838.83618492301332,2375.3741048911256,0.0
282154.6038362722,4645833.5216966402,-32500.0,-1716.2017577901993,-726.51547219593624,180.08385862146486,-891.85469298912801,-311.15477624467849,-332.57555879751754,1410.8552456178418,-956.12465382207745,753.11147919833331,-753.11147919833331,956.12465382207745,2673.3332370822395,0.0
287154.6038362722,4645833.5216966402,-32500.0,-1862.0998802881902,-867.77822179661246,157.88847000653936,-1018.7768979294766,-388.94115961440127,-391.91211334662694,1589.4160435671824,-1092.4666385270818,866.66226993282658,-866.66226993282658,1092.4666385270818,3016.4059326104875,0.0
292154.6038362722,4645833.5216966402,-32500.0,-2011.6099972824604,-1036.930465372114,118.87781718132432,-1164.0616329669942,-487.41437664312178,-462.08284749818614,1794.622689215586,-1250.7714859340053,1000.064177658563,-1000.064177658563,1250.7714859340053,3412.0778353466835,0.0
297154.6038362722,4645833.5216966402,-32500.0,-2159.6578419096486,-1238.5778086792741,55.873053083178867,-1329.6235206586832,-612.30829233890245,-544.88602561808125,2030.5983569947348,-1433.970534095482,1156.7551819362575,-1156.7551819362575,1433.970534095482,3869.001646048398,0.0
302154.6038362722,4645833.5216966402,-32500.0,-2298.3551105691213,-1477.2134454562026,-40.904478363712848,-1517.0686254665195,-770.90660316778497,-642.36971079414946,2301.9409770412358,-1644.5958385059159,1340.4231584010038,-1340.4231584010038,1644.5958385059159,4397.0361630676862,0.0
307154.6038362722,4645833.5216966402,-32500.0,-2415.8864923808892,-1756.4045102702873,-184.51730585501608,-1727.2862155078096,-972.3567688863692,-756.90551222203942,2613.6215337972917,-1883.9811822592983,1554.6538235746971,-1554.6538235746971,1883.9811822592983,5007.1233037431502,0.0
312154.6038362722,4645833.5216966402,-32500.0,-2495.1237050395443,-2077.3169652270308,-391.91529978524557,-1959.7508217823117,-1227.9154212277538,-891.32856512404453,2970.7240719943647,-2150.8498796611943,1802.193273539016,-1802.193273539016,2150.8498796611943,5710.8199976648621,0.0
317154.6038362722,4645833.5216966402,-32500.0,-2512.0882634924214,-2436.2240664048654,-684.1211345221451,-2211.3508967536959,-1550.9411874621867,-1049.1666875089927,3377.9147861898064,-2438.9783681044323,2083.560284788668,-2083.560284788668,2438.9783681044323,6519.1616010592415,0.0
322154.6038362722,4645833.5216966402,-32500.0,-2434.6657154736636,-2820.5896986087132,-1085.3271361636159,-2474.4831987281136,-1956.2570472892305,-1234.931954893163,3838.5051237893631,-2733.6130271427737,2394.6507899936278,-2394.6507899936278,2733.6130271427737,7440.3248316925919,0.0
327154.6038362722,4645833.5216966402,-32500.0,-2222.5179235231612,-3203.4551631128188,-1619.7316475095101,-2734.1276525338894,-2458.1883758219528,-1454.2988484170587,4353.0732324719402,-3006.523817609097,2722.9720581540205,-2722.9720581540205,3006.523817609097,8475.331687126707,0.0
332154.6038362722,4645833.5216966402,-32500.0,-1830.0188007118022,-3536.4731099122364,-2304.3568108919048,-2963.801950448239,-3066.1552078092091,-1713.6708400488494,4917.9837126072453,-3210.276387898492,3042.4179020439929,-3042.4179020439929,3210.276387898492,9610.9280044628031,0.0
337154.6038362722,4645833.5216966402,-32500.0,-1215.1008329585645,-3743.4905663265449,-3135.8107356096466,-3121.0153273981978,-3776.3507946445525,-2018.1172661975179,5523.7998095187795,-3273.8762426840644,3307.3983853936938,-3307.3983853936938,3273.8762426840644,10809.137392114539,0.0
342154.6038362722,4645833.5216966402,-32500.0,-357.34921050314489,-3719.5205512876996,-4069.9713788455338,-3144.547826138531,-4558.3757297700804,-2366.1579296791647,6147.441092085829,-3104.5896140100044,3449.0733664936383,-3449.0733664936383,3104.5896140100044,11994.429474575913,0.0
347154.6038362722,4645833.5216966402,-32500.0,713.52382243394982,-3343.8975606998683,-4997.6537796415032,-2958.732808313795,-5337.9758863292955,-2740.1510811612425,6734.0444278001014,-2603.7055461846421,3379.3966182078138,-3379.3966182078138,2603.7055461846421,13042.62554316993,0.0
352154.6038362722,4645833.5216966402,-32500.0,1885.7720735964213,-2518.4401742427785,-5728.3018478269787,-2492.5366678434202,-5982.8585033559084,-3093.604549881909,7193.7863791495765,-1704.0734600659721,3011.0314997218106,-3011.0314997218106,1704.0734600659721,13780.587760123186,0.0
357154.6038362722,4645833.5216966402,-32500.0,2952.4730436159698,-1233.9938160304443,-6005.9901828473767,-1718.8578852502499,-6307.6374165935522,-3342.7691760568819,7419.2248827128424,-427.96427939053183,2298.2398163087096,-2298.2398163087096,427.96427939053183,14009.958989887404,0.0
362154.6038362722,4645833.5216966402,-32500.0,3652.1707711892523,357.29901282233016,-5585.3764840643398,-704.89413820857783,-6118.9538706967405,-3376.7913857729141,7313.1733605265081,1060.0159334967532,1289.109453831659,-1289.109453831659,-1060.0159334967532,13564.904077205998,0.0
367154.6038362722,4645833.5216966402,-32500.0,3781.5550643399333,1924.2024820882289,-4365.8779054423994,361.40878005755252,-5306.1387220635988,-3098.4737440126496,6826.7603217616597,2457.1534748450786,154.80211018237082,-154.80211018237082,-2457.1534748450786,12394.58453370315,0.0
372154.6038362722,4645833.5216966402,-32500.0,3332.2477402752643,3056.9974636897286,-2513.5550370792662,1215.2109335751645,-3937.5427351008157,-2485.4452891900014,5993.0481172906557,3426.4452818246873,-848.59569447557351,848.59569447557351,-3426.4452818246873,10629.605727300721,0.0
377154.6038362722,4645833.5216966402,-32500.0,2536.57944431958,3468.2691101678192,-452.94664016474712,1634.1647252334062,-2281.8037331057612,-1629.7132955457917,4930.9452018313295,3764.8230912869021,-1491.0306628935534,1491.0306628935534,-3764.8230912869021,8576.5995779861551,0.0
382154.6038362722,4645833.5216966402,-32500.0,1747.6350134683628,3154.4405794813633,1316.9169806060809,1558.5552237173185,-705.02666667832682,-712.1409852062327,3807.4941753000039,3512.5274911542901,-1683.6680232538426,1683.6680232538426,-3512.5274911542901,6618.6481380117057,0.0
387154.6038362722,4645833.5216966402,-32500.0,1234.8952034324122,2375.7168969841805,2462.6489294923144,1112.2159603389214,497.26572291567516,80.237902956634969,2777.7349409896924,2906.0695124474978,-1506.3550226333628,1506.3550226333628,-2906.0695124474978,5063.9147351712227,0.0
392154.6038362722,4645833.5216966402,-32500.0,1067.3877614572291,1477.6071828729441,2928.1568612677993,511.03454387085077,1207.8777198927673,631.9371345134241,2075.5115477825066,2221.8393650634084,-1132.6395593196689,1132.6395593196689,-2221.8393650634084,4021.5290123020154,0.0
397154.6038362722,4645833.5216966402,-32500.0,1151.9768482371805,716.68714194898769,2866.9097241289064,-53.092757513132277,1475.5808096116052,921.34883743922705,1907.8206843804846,1646.905700924447,-727.95879466992847,727.95879466992847,-1646.905700924447,3386.8997156818791,0.0
402154.6038362722,4645833.5216966402,-32500.0,1343.0168255731285,201.42558181559039,2500.9797776460196,-471.75944319005868,1432.6921884026265,993.9964733650877,1712.38392687133,1248.5755598428377,-393.53566074419905,393.53566074419905,-1248.5755598428377,2968.8473308476291,0.0
407154.6038362722,4645833.5216966402,-32500.0,1523.2717949904236,-72.812642640536879,2019.196167319144,-717.05895917636053,1218.5129753712774,922.12411263422052,1516.59874299945,1011.9162919396564,-164.55221765381532,164.55221765381532,-1011.9162919396564,2630.2453526536037,0.0
412154.6038362722,4645833.5216966402,-32500.0,1629.5972915281141,-164.09683979214259,1542.4597014496687,-811.12720585763259,940.3062311292731,774.77225585933706,1334.4530381504858,888.8087748213004,-33.856497987632224,33.856497987632224,-888.8087748213004,2317.525443938438,0.0
417154.6038362722,4645833.5216966402,-32500.0,1644.6933866018815,-140.2748465838321,1130.7834574986944,-796.20917352055937,665.21468415216964,603.62042087768953,1168.2780099054075,830.25419772530358,23.548856097848784,-23.548856097848784,-830.25419772530358,2025.1737137757559,0.0
422154.6038362722,4645833.5216966402,-32500.0,1578.9464584927803,-57.767519869917606,803.4391827534705,-715.25332912657291,427.25661683733017,440.56244744066151,1017.2474722455631,799.87852289845785,34.665992202970642,-34.665992202970642,-799.87852289845785,1762.6464454385189,0.0
427154.6038362722,4645833.5216966402,-32500.0,1454.5473863176517,44.336035006668688,557.44034786688974,-602.77245679758073,238.23998132956635,301.31119004025794,881.65819243410965,775.75798203315219,21.250121452013332,-21.250121452013332,-775.75798203315219,1538.2959001112431,0.0
432154.6038362722,4645833.5216966402,-32500.0,1295.2438754587261,142.69182336772244,380.17913022226719,-482.5537948558287,97.364081023334592,190.72587149823329,762.10652741429328,747.29705973580667,-1.9123384275109743,1.9123384275109743,-747.29705973580667,1354.5090181029434,0.0
437154.6038362722,4645833.5216966402,-32500.0,1121.1834416772572,225.61631613535928,256.67575697894586,-368.88027179082894,-2.0291614872554034,107.54456763696686,658.58331373416274,711.13857127166307,-26.088032109501398,26.088032109501398,-711.13857127166307,1208.0882382132734,0.0
442154.6038362722,4645833.5216966402,-32500.0,947.19085647799909,288.97701995180125,173.09543278823685,-268.96701112331255,-68.384245115616977,47.733485105235168,571.29535702855412,667.79793586169558,-46.887229631134403,46.887229631134403,-667.79793586169558,1092.5033552576158,0.0
447154.6038362722,4645833.5216966402,-32500.0,782.93199391549899,332.97152332181849,118.06242199595367,-185.38201856854823,-109.81534248793963,6.5041611753044819,515.1279929317285,619.41630277386412,-62.655659217046832,62.655659217046832,-619.41630277386412,1000.2781108923441,0.0
452154.6038362722,4645833.5216966402,-32500.0,633.88209370442723,359.93041792648836,82.838881341945438,-117.96265415858416,-133.21310052857652,-20.648521526644863,493.12192854784519,568.47717061341632,-73.268502677018461,73.268502677018461,-568.47717061341632,924.67116662678518,0.0
457154.6038362722,4645833.5216966402,-32500.0,502.46693998625545,372.9669470398303,61.009324041771102,-65.145957609633541,-144.02577988764585,-37.521058515832934,472.30134496790868,517.18429567172234,-79.338023133451401,79.338023133451401,-517.18429567172234,860.44485278971263,0.0
462154.6038362722,4645833.5216966402,-32500.0,389.08178414137979,375.22825553786885,48.014408690907125,-24.806632756066048,-146.36256689165972,-47.111358005642792,450.14629524091697,467.23544783845398,-81.743657380156463,81.743657380156463,-467.23544783845398,803.94092008094276,0.0
467154.6038362722,4645833.5216966402,-32500.0,292.88553345365068,369.53232374170733,40.695126194031246,5.2615834555809569,-143.218029793802,-51.686829998301469,427.06980429078203,419.80295279041275,-81.380580457556732,81.380580457556732,-419.80295279041275,752.80273001932721,0.0
472154.6038362722,4645833.5216966402,-32500.0,212.3684532349566,358.23238422433263,36.909234030658098,27.098704679561411,-136.71557269233654,-52.909984566248049,403.6345672125326,375.60574831381723,-79.042712278269363,79.042712278269363,-375.60574831381723,705.60670756063132,0.0
272154.6038362722,4650833.5216966402,-32500.0,-1504.0386056317429,-413.05642469446292,270.85288223589362,-706.77421536573786,-161.43543188814107,-246.95055485168942,1136.7951149470141,-658.43674386622206,540.56268723014637,-540.56268723014637,658.43674386622206,2141.9467035287703,0.0
277154.6038362722,4650833.5216966402,-32500.0,-1653.7052671512795,-500.52871910800587,285.43374460760185,-811.0837963089424,-204.29700948515944,-291.67162402010899,1279.2856105205897,-751.76214829901369,621.44755365136371,-621.44755365136371,751.76214829901369,2413.419307401196,0.0
282154.6038362722,4650833.5216966402,-32500.0,-1817.2723526406348,-607.70669216343072,296.15638968115394,-932.74774337274312,-259.24327197106874,-345.16487249252162,1443.9474541854606,-861.64151452710144,717.43262428566663,-717.43262428566663,861.64151452710144,2728.0186533886181,0.0
287154.6038362722,4650833.5216966402,-32500.0,-1994.4544911542216,-739.16121149811943,300.14543615516607,-1074.7509340651336,-329.96728891566289,-409.17583934454206,1634.7578095397625,-991.3749356333177,831.8160689893499,-831.8160689893499,991.3749356333177,3093.8162173792634,0.0
292154.6038362722,4650833.5216966402,-32500.0,-2183.9093475583004,-900.397411149552,293.12161825545553,-1240.5331248560433,-421.37832506259946,-485.80177127637097,1856.465745357134,-1144.825671638514,968.65103486130999,-968.65103486130999,1144.825671638514,3520.5936389479061,0.0
297154.6038362722,4650833.5216966402,-32500.0,-2382.5916185089704,-1097.8856609711211,268.79454458024196,-1434.0005857095646,-540.02174757485341,-577.59763697448977,2114.7297930944078,-1326.3484212964609,1132.855394190477,-1132.855394190477,1326.3484212964609,4020.2136844703055,0.0
302154.6038362722,4650833.5216966402,-32500.0,-2584.7719213753799,-1338.9169392189822,218.04050504254184,-1659.4715960600431,-694.63434516369739,-687.75683661738651,2416.2493370053267,-1540.5074008279648,1330.2448159737564,-1330.2448159737564,1540.5074008279648,4607.0197028052653,0.0
307154.6038362722,4650833.5216966402,-32500.0,-2780.5739390201911,-1631.0907644670153,127.84666166714318,-1921.471034723075,-896.85225086113792,-820.42757310160789,2768.8449133916242,-1791.3794982961338,1567.3638507699277,-1567.3638507699277,1791.3794982961338,5298.17987922064,0.0
312154.6038362722,4650833.5216966402,-32500.0,-2953.8624052585396,-1981.098185076879,-19.91889356167135,-2224.2004966594909,-1162.0441410626777,-981.25536335041556,3181.3890276104339,-2081.0965783473021,1850.872546058182,-1850.872546058182,2081.0965783473021,6113.7696065504269,0.0
317154.6038362722,4650833.5216966402,-32500.0,-3079.3702454909549,-2392.246041453956,-249.65392690386614,-2570.3544190761072,-1510.1230846762894,-1178.2550870002499,3663.4010001995084,-2407.0921410502783,2186.0611591875236,-2186.0611591875236,2407.0921410502783,7076.1586176535111,0.0
322154.6038362722,4650833.5216966402,-32500.0,-3119.2069641757994,-2859.911039151802,-592.41834010216803,-2958.7067027366006,-1965.9144295608842,-1423.0542868371408,4224.0061120433784,-2757.3425252265856,2573.8139863911179,-2573.8139863911179,2757.3425252265856,8207.8830104302324,0.0
327154.6038362722,4650833.5216966402,-32500.0,-3019.5906772938479,-3363.9567554260111,-1084.157522752434,-3379.6038872488516,-2558.1077440334184,-1732.2859484423905,4870.0082777348953,-3102.9300816553191,3005.1201196988,-3005.1201196988,3102.9300816553191,9526.6516079841513,0.0
332154.6038362722,4650833.5216966402,-32500.0,-2710.1122240570971,-3857.5019158163132,-1759.182358641634,-3807.3858453739585,-3314.8848341460871,-2128.2318595150982,5604.2222902208941,-3387.9635950722154,3452.3223346089221,-3452.3223346089221,3387.9635950722154,11035.598459532379,0.0
337154.6038362722,4650833.5216966402,-32500.0,-2110.3063117813394,-4253.1508386942078,-2635.0869900262419,-4189.4367836270549,-4253.0797325809363,-2636.5117761797896,6432.4509172182934,-3519.0911208458119,3857.3712981647705,-3857.3712981647705,3519.0911208458119,12706.857360798094,0.0
342154.6038362722,4650833.5216966402,-32500.0,-1151.1481069156328,-4412.2039447443749,-3685.1638484120995,-4434.2706213589163,-5356.97620647451,-3276.8256486941746,7355.7688422447527,-3361.4687662059409,4120.4986322449031,-4120.4986322449031,3361.4687662059409,14458.067694133864,0.0
347154.6038362722,4650833.5216966402,-32500.0,180.67922950660386,-4150.410809494555,-4798.3871188138319,-4407.2635349398415,-6544.9296699135148,-4041.9019926266251,8289.9918873826919,-2754.9611684277666,4098.8697317878159,-4098.8697317878159,2754.9611684277666,16126.212829632304,0.0
352154.6038362722,4650833.5216966402,-32500.0,1777.6568928089375,-3283.0339755385971,-5740.1579748483091,-3951.8616517573992,-7631.4802036438514,-4863.7915498115262,9091.6599784855989,-1569.1779523508287,3632.453333042984,-3632.453333042984,1569.1779523508287,17452.857532478207,0.0
357154.6038362722,4650833.5216966402,-32500.0,3356.8513103761829,-1729.6576754595815,-6152.1621717508997,-2957.8390914991464,-8313.5431765539033,-5581.1270548004377,9586.1358472194297,194.49988974225016,2614.8344088276817,-2614.8344088276817,-194.49988974225016,18107.568075915762,0.0
362154.6038362722,4650833.5216966402,-32500.0,4490.2612785901647,341.41592743389288,-5651.9606203179865,-1474.6782770455216,-8232.4017954806404,-5944.5964068720714,9598.8493406893958,2290.6190727226485,1101.406579161755,-1101.406579161755,-2290.6190727226485,17779.463388095897,0.0
367154.6038362722,4650833.5216966402,-32500.0,4792.2073087606996,2438.5643971437585,-4058.4497482418883,198.68708181258427,-7146.9545429293285,-5704.6126209023978,9024.7807875145172,4214.5266534168022,-613.23561021956402,613.23561021956402,-4214.5266534168022,16334.279963698045,0.0
372154.6038362722,4650833.5216966402,-32500.0,4201.4570374030291,3900.7373350936109,-1627.5082030962603,1574.1365564607408,-5149.3835758631094,-4769.8268079341369,7901.12446443519,5396.2347651819537,-2061.1410487529256,2061.1410487529256,-5396.2347651819537,13956.965806108328,0.0
377154.6038362722,4650833.5216966402,-32500.0,3101.461831199214,4279.3813401176012,954.88235667392394,2229.3177520757399,-2726.6663704797952,-3320.7400283278844,6422.7612203976196,5540.1991797646224,-2839.5484606197747,2839.5484606197747,-5540.1991797646224,11145.390475051299,0.0
382154.6038362722,4650833.5216966402,-32500.0,2079.6492754776482,3643.5654228063477,2933.444437422967,2076.8023776742025,-531.67293980698457,-1743.5281109980888,4870.6112181096341,4819.8843023700238,-2852.3928660353722,2852.3928660353722,-4819.8843023700238,8498.4658336767534,0.0
387154.6038362722,4650833.5216966402,-32500.0,1519.6191614636848,2487.4856402635246,3918.1753580559971,1383.8823518044112,978.41958403222111,-412.87959212025885,3517.6384421387179,3716.0140310818397,-2325.9313126491679,2325.9313126491679,-3716.0140310818397,6426.7324738814768,0.0
392154.6038362722,4650833.5216966402,-32500.0,1432.4432198034854,1346.622063938999,3997.9862669787676,538.87651889023914,1715.0964625995296,480.17486307901856,2732.4460425153675,2674.3014779190125,-1603.624102042362,1603.624102042362,-2674.3014779190125,5006.7869833784307,0.0
397154.6038362722,4650833.5216966402,-32500.0,1609.5515304947128,519.32518122848273,3518.1673351348063,-176.83641785529542,1854.1969213171719,936.52044473306512,2330.3379230260289,1911.9638109860343,-944.54851013994903,944.54851013994903,-1911.9638109860343,4073.9895503182283,0.0
402154.6038362722,4650833.5216966402,-32500.0,1836.5307208001609,56.609802152506319,2818.9643838832471,-649.51818678540928,1643.4638770065249,1061.0502234910239,1974.5243756631787,1445.4928586480855,-463.35921987048073,463.35921987048073,-1445.4928586480855,3421.4850911200529,0.0
407154.6038362722,4650833.5216966402,-32500.0,1987.279211483338,-119.37556130623946,2120.2849788368567,-882.59460196134353,1285.2426220457712,980.97292861507742,1672.1578143268821,1198.4860123051717,-169.09733808992701,169.09733808992701,-1198.4860123051717,2915.3738129354379,0.0
412154.6038362722,4650833.5216966402,-32500.0,2019.4530604099341,-115.29705008619591,1525.4041453305233,-931.89904263299081,907.0387831874674,802.88542795702779,1433.7556902350236,1081.2420884591993,-21.681216140889205,21.681216140889205,-1081.2420884591993,2497.2831206662004,0.0
417154.6038362722,4650833.5216966402,-32500.0,1940.8763719815051,-20.30994084228923,1062.9726064798003,-863.63022015966692,573.82755936298349,599.38760693655558,1240.4262342336169,1024.7573955908883,29.51487935803425,-29.51487935803425,-1024.7573955908883,2149.2445757233627,0.0
422154.6038362722,4650833.5216966402,-32500.0,1780.8587995841069,105.22787517478626,724.35914116557149,-734.22099543686465,309.48191784090363,411.41827946978316,1073.1666197742852,986.74941402728359,27.281350193683977,-27.281350193683977,-986.74941402728359,1866.1572079055782,0.0
427154.6038362722,4650833.5216966402,-32500.0,1572.6704567835152,226.38451118833666,486.9233102578807,-583.92519862986956,114.96072834150588,256.74719750808214,925.72826952357741,946.29958275969852,1.3179556108530619,-1.3179556108530619,-946.29958275969852,1642.572563806785,0.0
432154.6038362722,4650833.5216966402,-32500.0,1344.9028395945513,326.40167259957803,326.00958573686813,-437.54085209468263,-19.30926474412259,138.98826286011433,797.28301390326317,896.14168633963413,-30.611002696764615,30.611002696764615,-896.14168633963413,1469.2630440705423,0.0
437154.6038362722,4650833.5216966402,-32500.0,1118.4905700313827,399.86891024561572,220.06882123289017,-307.97148031559681,-106.13567433792265,54.588446768949275,690.25621484003614,836.26180697683526,-59.414096523458284,59.414096523458284,-836.26180697683526,1334.6294012842957,0.0
442154.6038362722,4650833.5216966402,-32500.0,906.81612906806254,447.60991443810337,152.15702872233442,-200.1820022608884,-157.84974456885087,-2.7005384617778514,640.38573970493644,769.67103252293077,-81.447454058529047,81.447454058529047,-769.67103252293077,1227.3499624640247,0.0
447154.6038362722,4650833.5216966402,-32500.0,717.13911349448324,473.32262157138678,109.76909624033306,-114.45673476247769,-184.79205594962343,-39.392399791639619,616.84397080545489,700.0384643008299,-96.081704040623492,96.081704040623492,-700.0384643008299,1138.2407331815875,0.0
452154.6038362722,4650833.5216966402,-32500.0,552.33316230078344,481.59898378040913,84.063000023121646,-48.690946824662966,-194.97926714655389,-61.177067214174286,590.17100522352257,630.58797200778986,-104.12264364400983,104.12264364400983,-630.58797200778986,1060.8294510236344,0.0
457154.6038362722,4650833.5216966402,-32500.0,412.43079192507872,476.88465027380573,68.980916358798311,0.17241192844947301,-194.3128482150012,-72.587772609062526,560.63397141269809,563.72296563070688,-106.89563981079812,106.89563981079812,-563.72296563070688,991.03516913118267,0.0
462154.6038362722,4650833.5216966402,-32500.0,295.81106921307844,463.01816397023686,60.475879934600428,35.330722361256079,-186.97523623000907,-77.035455461774234,529.5004632011229,501.01598308244769,-105.77098134628494,105.77098134628494,-501.01598308244769,926.51752926498307,0.0
467154.6038362722,4650833.5216966402,-32500.0,200.02833475870497,443.09532182219004,55.903366127933296,59.716860595998881,-175.84020545986596,-76.986709568791341,497.84872589023479,443.34695872319423,-101.95233226040367,101.95233226040367,-443.34695872319423,866.04999471254166,0.0
472154.6038362722,4650833.5216966402,-32500.0,122.34702311373526,419.49755734532624,53.572132048990348,75.836814699577573,-162.82698898893554,-74.171960585988444,466.48971179257717,391.07805072999747,-96.408506586028096,96.408506586028096,-391.07805072999747,809.04899677106403,0.0
477154.6038362722,4650833.5216966402,-32500.0,60.060929568246806,393.98965197912759,52.425769481387952,85.739401664393156,-149.17941336622141,-69.774296589114442,435.99772329551013,344.21412112810532,-89.875496481174721,89.875496481174721,-344.21412112810532,755.26481024494763,0.0
272154.6038362722,4655833.5216966402,-32500.0,-1535.5236493912109,-299.11515552077333,338.94819686980162,-717.8999105384421,-116.7758430169453,-250.53566060158275,1143.9684622690013,-561.79278415900149,494.76857689014395,-494.76857689014395,561.79278415900149,2147.4695089723568,0.0
277154.6038362722,4655833.5216966402,-32500.0,-1700.291904641497,-371.15341814169767,370.20946341818546,-828.36407879106764,-151.65752867405288,-297.00365529134137,1291.4039461815569,-642.96763715152929,570.82868690398936,-570.82868690398936,642.96763715152929,2427.2431531140733,0.0
282154.6038362722,4655833.5216966402,-32500.0,-1884.1628415142873,-461.32369149500425,402.06850655828657,-958.77137966243924,-197.2918538572612,-352.99119111743329,1463.0053130942244,-739.60559643756517,662.09665106777845,-662.09665106777845,739.60559643756517,2753.8493641900504,0.0
287154.6038362722,4655833.5216966402,-32500.0,-2088.547642485833,-574.49200269156711,432.85680725768776,-1113.1997369235735,-257.306958327698,-420.58252801193805,1663.5465712815926,-855.27069104939903,772.34265122745262,-772.34265122745262,855.27069104939903,3136.9345098962935,0.0
292154.6038362722,4655833.5216966402,-32500.0,-2314.3011227903025,-716.82673269232544,459.77597476587215,-1296.6683885147063,-336.69146401775049,-502.39397323810988,1898.9122566205533,-994.35763424294919,906.4047782191476,-906.4047782191476,994.35763424294919,3588.5641954084249,0.0
297154.6038362722,4655833.5216966402,-32500.0,-2561.1556573381863,-896.05538326660587,478.29089945771813,-1515.3725118228424,-442.35819768554165,-601.79864270744463,2176.3857972376613,-1162.1542755832975,1070.458576491194,-1070.458576491194,1162.1542755832975,4123.9306461596407,0.0
302154.6038362722,4655833.5216966402,-32500.0,-2826.7493071206895,-1121.6472152878907,481.23806580604793,-1776.94362441115,-583.95158674459412,-723.31775751154657,2504.994206199679,-1364.722710037129,1272.2659573098638,-1272.2659573098638,1364.722710037129,4762.2412227953364,0.0
307154.6038362722,4655833.5216966402,-32500.0,-3104.9871253962278,-1404.7442038191421,457.55965596642926,-2090.6647875976309,-774.98535091348242,-873.31259729351268,2895.8778403908668,-1608.3565801266489,1521.2666017903668,-1521.2666017903668,1608.3565801266489,5527.7508392493946,0.0
312154.6038362722,4655833.5216966402,-32500.0,-3383.3497814742886,-1757.4712914530303,390.61124775112421,-2467.4415283875705,-1034.3835350832512,-1061.1891853386282,3362.5817282485341,-1898.1573958807669,1828.2055091234986,-1828.2055091234986,1898.1573958807669,6450.7546142115752,0.0
317154.6038362722,4655833.5216966402,-32500.0,-3638.661455158127,-2190.9228771657881,256.14343563792806,-2919.0597265496494,-1388.3974161806811,-1301.4018323111245,3921.0142670841033,-2234.9413799532549,2203.6847857107014,-2203.6847857107014,2234.9413799532549,7568.0392341850529,0.0
322154.6038362722,4655833.5216966402,-32500.0,-3830.9129536429414,-2710.6075421761871,20.478140391639684,-3455.7626946723731,-1872.550657905731,-1616.5163236638016,4588.5435158920318,-2609.2690655067777,2654.5446654862521,-2654.5446654862521,2609.2690655067777,8921.6962166818212,0.0
327154.6038362722,4655833.5216966402,-32500.0,-3895.3870233095622,-3307.5178241164167,-359.67666418299279,-4080.3963506031259,-2532.4813261199902,-2041.224967089435,5381.2609702821992,-2991.104273591417,3176.3737072317253,-3176.3737072317253,2991.104273591417,10554.226418393398,0.0
332154.6038362722,4655833.5216966402,-32500.0,-3735.2939906648839,-3942.7256201028117,-932.61759358057054,-4776.5039062786309,-3420.9445858153936,-2626.0061277566519,6308.0718305159662,-3314.1297075713201,3740.0982194863691,-3740.0982194863691,3314.1297075713201,12496.613535778939,0.0
337154.6038362722,4655833.5216966402,-32500.0,-3221.382567731649,-4524.7445777460152,-1736.6024547617048,-5487.7251924926413,-4585.569249473464,-3436.3814790477868,7395.6387466036786,-3456.5293315676772,4271.5997665321865,-4271.5997665321865,3456.5293315676772,14745.090114855242,0.0
342154.6038362722,4655833.5216966402,-32500.0,-2211.8802582251587,-4884.3734611358987,-2766.6937787361353,-6089.0888687132619,-6038.8795344925811,-4539.0622125719201,8742.0138185506094,-3227.3373765851411,4627.8854199396483,-4627.8854199396483,3227.3373765851411,17223.209981050786,0.0
347154.6038362722,4655833.5216966402,-32500.0,-612.60967470905268,-4764.7504788805927,-3918.2852090476558,-6361.6635002543098,-7702.0538108377177,-5961.5544668783541,10149.77032962297,-2380.7721760787977,4584.5081556092991,-4584.5081556092991,2380.7721760787977,19731.765069514175,0.0
352154.6038362722,4655833.5216966402,-32500.0,1508.9813751227741,-3865.4962127116069,-4917.9779716692674,-6004.3177509902462,-9326.1299298168578,-7615.1699853724422,11437.813564267883,-695.66871278049848,3867.0668997984963,-3867.0668997984963,695.66871278049848,21904.957678712228,0.0
357154.6038362722,4655833.5216966402,-32500.0,3787.8490723945347,-1994.0210822469744,-5293.8592141481513,-4740.6049567570608,-10434.154622892203,-9200.7412188163125,12341.772448007925,1849.5484048918665,2271.6872481281566,-2271.6872481281566,-1849.5484048918665,23220.366695151271,0.0
362154.6038362722,4655833.5216966402,-32500.0,5540.5432384737524,671.52168214779078,-4496.7344970169243,-2554.8337788295257,-10394.929731799506,-10184.510643570238,12564.523576459054,4853.9183021155641,-118.20590209506508,118.20590209506508,-4853.9183021155641,23136.239411823375,0.0
367154.6038362722,4655833.5216966402,-32500.0,6064.9111995665871,3388.0405148608047,-2265.1801194137138,62.558011121208857,-8748.4349680751093,-9983.7146859944423,11906.065807782419,7439.7249140790555,-2751.242732434308,2751.242732434308,-7439.7249140790555,21384.944103354017,0.0
372154.6038362722,4655833.5216966402,-32500.0,5217.2629769158193,5089.3136201442885,944.08378937041186,2189.3948373785197,-5676.1844632766197,-8373.0713609870454,10415.493672085429,8644.9603985371978,-4743.4606860489885,4743.4606860489885,-8644.9603985371978,18265.382907515224,0.0
377154.6038362722,4655833.5216966402,-32500.0,3688.7201628144621,5131.2000375489479,3994.0428569697874,3045.383109473215,-2133.2763216325529,-5785.160295082339,8429.5057575434857,8128.1202705017513,-5423.1428599501724,5423.1428599501724,-8128.1202705017513,14601.491139720332,0.0
382154.6038362722,4655833.5216966402,-32500.0,2467.8460782546022,3841.1352383501717,5806.1318369486862,2594.4723392422907,714.51500383357291,-3088.7152690096518,6431.6314231377419,6459.1127692635109,-4823.1954331778816,4823.1954331778816,-6459.1127692635109,11249.770238221276,0.0
387154.6038362722,4655833.5216966402,-32500.0,2015.1879588240661,2165.8563241650509,6101.1212210783842,1467.5400963635889,2270.0638340907849,-989.73615827579056,4849.9746954760485,4585.9024745923716,-3553.3372402580885,3553.3372402580885,-4585.9024745923716,8602.0771363872227,0.0
392154.6038362722,4655833.5216966402,-32500.0,2122.9122516615125,857.56116436731588,5350.0750658450061,339.67273138230348,2678.2042049162865,297.68612350912372,3774.7988224179876,3126.8005101443409,-2247.7346955573307,2247.7346955573307,-3126.8005101443409,6611.1293718478555,0.0
397154.6038362722,4655833.5216966402,-32500.0,2389.1173273155309,132.67544511541988,4196.7931512743762,-460.12311020347676,2408.2958491003769,905.45269733981161,2957.2527252399868,2211.6757514944529,-1236.2210893189861,1236.2210893189861,-2211.6757514944529,5122.3580646473965,0.0
402154.6038362722,4655833.5216966402,-32500.0,2565.5106128046818,-127.96602901873752,3069.89940636355,-893.78935549960238,1867.8658124878702,1060.4812315468055,2306.1567279928054,1716.4259634616842,-581.1611994720829,581.1611994720829,-1716.4259634616842,4023.8182957913386,0.0
407154.6038362722,4655833.5216966402,-32500.0,2579.3708115088211,-115.78243070280053,2148.0338084629425,-1041.2808877705527,1295.6820705261434,962.36730083307418,1836.1752650631158,1474.1240050971141,-219.49841304343238,219.49841304343238,-1474.1240050971141,3229.9642373655679,0.0
412154.6038362722,4655833.5216966402,-32500.0,2447.1222282601393,20.585254151839226,1461.182188433007,-1001.9617473231915,800.31741246829904,754.57624411365339,1529.7912624535143,1356.5186443962853,-57.425973773531382,57.425973773531382,-1356.5186443962853,2665.0737297546311,0.0
417154.6038362722,4655833.5216966402,-32500.0,2213.1705830918531,190.50217754201307,977.80881774590512,-860.49782570031198,415.97567628848304,526.38688727546116,1307.6498258164413,1284.9433172464292,-12.060046476439652,12.060046476439652,-1284.9433172464292,2266.4774202208123,0.0
422154.6038362722,4655833.5216966402,-32500.0,1923.2821492126031,346.7118841480447,650.73993590957275,-678.4240990278056,140.22980817387645,324.11750976605634,1122.8390916783358,1219.4012077672874,-24.070355218346435,24.070355218346435,-1219.4012077672874,1985.468479359999,0.0
427154.6038362722,4655833.5216966402,-32500.0,1614.9797307121619,469.20932106208517,435.94964805825515,-494.83097771006891,-44.468443771703484,165.12989263977147,963.91775322456976,1144.5505021860104,-56.908989212445363,56.908989212445363,-1144.5505021860104,1784.3030830654127,0.0
432154.6038362722,4655833.5216966402,-32500.0,1314.9631885563292,553.45412259980912,298.31089840537481,-330.83942544368159,-159.39063848250393,50.38716183631022,839.31520603594674,1058.3018970805133,-91.131339178078633,91.131339178078633,-1058.3018970805133,1634.2016379409058,0.0
437154.6038362722,4655833.5216966402,-32500.0,1039.7301170675664,602.69433801153991,211.96127484085892,-195.13467073785537,-224.11899872095364,-26.582402469813832,804.84626522661949,964.24624806062457,-118.24259056493003,118.24259056493003,-964.24624806062457,1514.6634467374809,0.0
442154.6038362722,4655833.5216966402,-32500.0,797.62353569444736,623.32879383751765,158.7962650553616,-88.888003803943249,-254.54090378163085,-74.375601676794986,778.23112450501014,867.39992230857206,-135.88322929153941,135.88322929153941,-867.39992230857206,1412.4867258835841,0.0
447154.6038362722,4655833.5216966402,-32500.0,591.21901932854121,622.34191646187833,126.58604744209923,-9.3801964698250089,-262.60379099041347,-101.10018769995131,743.72390199284064,772.22016314238704,-144.66401864008554,144.66401864008554,-772.22016314238704,1320.0719498081362,0.0
452154.6038362722,4655833.5216966402,-32500.0,419.4550719493385,606.06105519213929,107.29379080788169,47.674062647642572,-256.83454852318886,-113.38946526509574,704.03312872368429,681.93972444865381,-146.33436647556795,146.33436647556795,-681.93972444865381,1233.5618936446631,0.0
457154.6038362722,4655833.5216966402,-32500.0,279.26248271130737,579.68649366652937,95.758367361061957,86.80833386890086,-243.07973242563452,-116.25184025138142,661.71835783305289,598.54538196913779,-142.84114537475855,142.84114537475855,-598.54538196913779,1151.3064128759613,0.0
462154.6038362722,4655833.5216966402,-32500.0,166.68509760918644,547.231732979968,88.734845696966147,112.15580513944602,-225.21267828302308,-113.27351068110774,618.67512627137842,523.00968350766766,-135.91339203786498,135.91339203786498,-523.00968350766766,1072.8079763341805,0.0
467154.6038362722,4655833.5216966402,-32500.0,77.581481702224366,511.65175875630632,84.226731171992867,127.19901856183314,-205.71434118824007,-106.9225853921041,576.22095398248894,455.57558476913891,-126.92706244441592,126.92706244441592,-455.57558476913891,998.08240835362528,0.0
472154.6038362722,4655833.5216966402,-32500.0,8.0228287124496429,475.03576462680911,81.035748912714539,134.73280213723604,-186.11358507612397,-98.84144604513628,535.22719484399977,396.00946257218436,-116.90313737473207,116.90313737473207,-396.00946257218436,927.3100070038173,0.0
477154.6038362722,4655833.5216966402,-32500.0,-45.511493979431897,438.80199393150281,78.465087741073845,136.92715673241639,-167.30477044710872,-90.087364437577719,496.23513995040196,343.79636741101871,-106.55900710307003,106.55900710307003,-343.79636741101871,860.66540079124741,0.0
272154.6038362722,4660833.5216966402,-32500.0,-1535.9124300889744,-172.92660314701428,393.53638870094079,-716.92509047411113,-68.189540127312867,-250.58196421146008,1140.1222320038671,-450.57044190272518,437.09774539335081,-437.09774539335081,450.57044190272518,2130.8385269960741,0.0
277154.6038362722,4660833.5216966402,-32500.0,-1710.1325803605498,-225.06669630844732,439.50934154582711,-830.78420798024501,-93.413868206612278,-297.85833591850599,1290.2299107302244,-515.29036384286917,505.07906525593978,-505.07906525593978,515.29036384286917,2414.1967026777393,0.0
282154.6038362722,4660833.5216966402,-32500.0,-1907.7490953225217,-292.1551194808315,490.49463239061828,-966.55026576463581,-127.3521850854742,-355.14728859760447,1465.9987763098507,-592.99356618682464,587.39036652297705,-587.39036652297705,592.99356618682464,2746.9993867037083,0.0
287154.6038362722,4660833.5216966402,-32500.0,-2131.8693471402025,-378.77066338062031,546.24491144009585,-1129.2979661129107,-173.26213135870785,-424.81408390533346,1672.9050811882935,-687.03562441708755,687.96173294898381,-687.96173294898381,687.03562441708755,3140.2304448396253,0.0
292154.6038362722,4660833.5216966402,-32500.0,-2385.6785062483582,-490.96595438572155,605.84009617453137,-1325.5655820432437,-235.77279020298599,-509.93962906394654,1917.8776302111135,-801.71255046432589,812.01127296799336,-812.01127296799336,801.71255046432589,3607.9847016622894,0.0
297154.6038362722,4660833.5216966402,-32500.0,-2672.0636260470546,-636.70456630817887,667.20006742107694,-1563.8748131080574,-321.53818110390631,-614.68850849025625,2209.7622124776049,-942.41329798842071,966.45604519317885,-966.45604519317885,942.41329798842071,4168.5498879312099,0.0
302154.6038362722,4660833.5216966402,-32500.0,-2992.8227700594971,-826.34038878210049,726.30795444657815,-1855.4267965619638,-440.22890288468034,-744.96931378563397,2559.9330452055278,-1115.615898426892,1160.363326772673,-1160.363326772673,1115.615898426892,4845.8707391794433,0.0
307154.6038362722,4660833.5216966402,-32500.0,-3347.0947713552382,-1073.0080503439126,776.00736116044754,-2214.9595977103986,-606.02660872643389,-909.63340795271677,2983.057360996625,-1328.4496048249418,1405.2996023654607,-1405.2996023654607,1328.4496048249418,5671.443254242793,0.0
312154.6038362722,4660833.5216966402,-32500.0,-3728.3859331241288,-1392.5851220126995,804.22357015203409,-2661.6009743931136,-839.82328198541541,-1122.6239242753034,3497.9479680591548,-1587.2548777847428,1715.208539408583,-1715.208539408583,1587.2548777847428,6686.538084321649,0.0
317154.6038362722,4660833.5216966402,-32500.0,-4119.2277618117269,-1802.4659478367348,791.5373850429371,-3219.1711935359003,-1172.286301616904,-1406.6908736150644,4128.2726952861285,-1894.0753540647074,2105.0008460105132,-2105.0008460105132,1894.0753540647074,7944.2711815093044,0.0
322154.6038362722,4660833.5216966402,-32500.0,-4482.2153745887554,-2317.6190029578534,708.38372621438384,-3914.56482353819,-1647.6495989094619,-1799.3989773621574,4902.5761711002615,-2239.2802348319169,2586.2433345894165,-2586.2433345894165,2239.2802348319169,9510.2141338375404,0.0
327154.6038362722,4660833.5216966402,-32500.0,-4746.4624131569226,-2941.2284662066932,513.1017681911577,-4771.3099760952555,-2327.1326965463272,-2361.7662619910875,5852.8092181010852,-2587.7555857203079,3157.1639010390845,-3157.1639010390845,2587.7555857203079,11458.736394047613,0.0
332154.6038362722,4660833.5216966402,-32500.0,-4790.6121486444263,-3645.9950907935004,154.18906152122833,-5793.1515532679359,-3288.5474373778816,-3188.0291175023517,7013.8011395545018,-2856.2086040354261,3783.05532206716,-3783.05532206716,2856.2086040354261,13860.020381489159,0.0
337154.6038362722,4660833.5216966402,-32500.0,-4429.6942680304819,-4342.4780411260417,-416.1622378577166,-6930.6027717359566,-4614.0335738556232,-4410.0118710488978,8463.2699801237177,-2882.4665152612401,4363.713680531082,-4363.713680531082,2882.4665152612401,16750.189826895279,0.0
342154.6038362722,4660833.5216966402,-32500.0,-3425.7478917395788,-4836.7445797473347,-1205.802820809502,-8025.8686061835133,-6351.027189565707,-6179.4949343261978,10249.764752245077,-2398.6586513635984,4690.8854622582458,-4690.8854622582458,2398.6586513635984,20076.281533052879,0.0
347154.6038362722,4660833.5216966402,-32500.0,-1559.8127962599822,-4797.9617817108383,-2112.3703777139731,-8747.5736501877891,-8426.7763585858756,-8598.0039307730931,12221.615490907168,-1043.6192172890917,4417.7105498402234,-4417.7105498402234,1043.6192172890917,23613.673452497434,0.0
352154.6038362722,4660833.5216966402,-32500.0,1190.05556861526,-3793.5084090831756,-2825.3814801506978,-8570.1933654731347,-10509.114404519773,-11559.276544639582,14134.56664668162,1517.9212708955697,3099.0361810555301,-3099.0361810555301,-1517.9212708955697,26875.942426789377,0.0
357154.6038362722,4660833.5216966402,-32500.0,4374.8527015392465,-1493.4097204080563,-2764.2955696938334,-6924.8512472722387,-11870.478564915977,-14518.87243623104,15602.108800984655,5296.7419187592805,400.12026556599312,-400.12026556599312,-5296.7419187592805,29091.776822940144,0.0
362154.6038362722,4660833.5216966402,-32500.0,6923.1192673454898,1889.2067531248877,-1226.7539406944322,-3661.2668164477559,-11464.608563040663,-16376.439109651481,16154.23109619997,9559.2361253011441,-3477.029480179463,3477.029480179463,-9559.2361253011441,29404.677967585794,0.0
367154.6038362722,4660833.5216966402,-32500.0,7607.4120603198007,5189.373114150394,2043.8529463940977,353.06460790037596,-8535.1018646660359,-15874.344556497839,15463.338430493579,12725.943019345998,-7411.6742778239222,7411.6742778239222,-12725.943019345998,27411.869292615887,0.0
372154.6038362722,4660833.5216966402,-32500.0,6224.0539861348234,6711.1590370600161,6140.2101007346882,3329.4098947025304,-3608.5685368543341,-12642.204653557768,13638.066379170439,13249.718169767762,-9722.6516568167608,9722.6516568167608,-13249.718169767762,23702.322727700557,0.0
377154.6038362722,4660833.5216966402,-32500.0,4148.4038550109281,5710.6610240912705,9211.1964426117738,3934.0455437282508,1332.31850583244,-7914.8827158249487,11264.530094764486,11080.676552275841,-9478.113195533273,9478.113195533273,-11080.676552275841,19540.188799693537,0.0
382154.6038362722,4660833.5216966402,-32500.0,3001.1937987401361,3253.8694126298901,9969.9322250675268,2584.0545945855183,4331.3319127952718,-3663.9918704745592,9012.9076769242747,7826.5732404930204,-7367.5364299583125,7367.5364299583125,-7826.5732404930204,15732.522749847742,0.0
387154.6038362722,4660833.5216966402,-32500.0,3034.9659285765988,1046.8161123393597,8721.0880325681992,787.80088121038295,5012.8682154840935,-950.57076137380113,7074.4112043728819,5119.1995862935191,-4851.7098369267505,4851.7098369267505,-5119.1995862935191,12305.065680415466,0.0
392154.6038362722,4660833.5216966402,-32500.0,3467.3226171690349,-118.08818405422218,6649.828820332853,-461.38146542636565,4290.6850041466932,392.79345435093416,5331.4828876964257,3450.8681267873703,-2845.2887649961926,2845.2887649961926,-3450.8681267873703,9234.5097260578132,0.0
397154.6038362722,4660833.5216966402,-32500.0,3691.4713745266154,-417.2664972578641,4676.8163809394609,-1057.0027812709243,3139.7864371589612,906.06579789768193,3850.1837718079732,2564.5317924455644,-1521.8626727598021,1521.8626727598021,-2564.5317924455644,6702.4510236697033,0.0
402154.6038362722,4660833.5216966402,-32500.0,3595.094652974733,-279.03445193529615,3150.7639036429432,-1223.3500586986106,2064.3729193890872,976.27000871235555,2740.1553538275275,2115.1702931452401,-747.03379918512167,747.03379918512167,-2115.1702931452401,4837.3847728932315,0.0
407154.6038362722,4660833.5216966402,-32500.0,3280.4258379004355,-0.14583826636803954,2081.1055617644001,-1155.4392239532363,1218.4468597805146,826.20794697261067,2042.7818469502076,1878.4056793360085,-346.80821807118332,346.80821807118332,-1878.4056793360085,3602.3768566236977,0.0
412154.6038362722,4660833.5216966402,-32500.0,2858.3187551002579,277.88167452371562,1368.325593890323,-971.18418816231735,607.75949739532552,592.21322963706916,1646.982277904006,1730.6135495319579,-176.68777911041184,176.68777911041184,-1730.6135495319579,2854.5048282683706,0.0
417154.6038362722,4660833.5216966402,-32500.0,2401.6449066105179,502.32900472853817,906.99848179511991,-742.44593737547132,193.32355766458471,356.42570124912118,1379.3839747989093,1608.6501456471719,-131.15888481201091,131.15888481201091,-1608.6501456471719,2425.4511230965563,0.0
422154.6038362722,4660833.5216966402,-32500.0,1953.9622285237335,661.06084544035912,614.117585442512,-514.24250564342822,-71.298333013310298,159.72919317022459,1171.8605043866867,1485.3123861697195,-141.49670277279972,141.49670277279972,-1485.3123861697195,2174.8685194087584,0.0
427154.6038362722,4660833.5216966402,-32500.0,1540.8721398593998,758.86249230701105,430.70493337400893,-312.14445127579319,-228.04178299410077,14.646319519337725,1043.1106418112918,1353.665567147083,-168.48519674437648,168.48519674437648,-1353.665567147083,2010.8205071678776,0.0
432154.6038362722,4660833.5216966402,-32500.0,1176.0824301176992,806.71936616563744,316.85672829156385,-147.22264648571613,-310.81446968385137,-81.998200542583575,1021.9954089008944,1216.3618904746966,-193.14100340526943,193.14100340526943,-1216.3618904746966,1883.4248859292584,0.0
437154.6038362722,4660833.5216966402,-32500.0,864.83864361100473,816.82810079322303,246.38565143543576,-20.978016911177704,-345.1716195662961,-139.75276859341068,990.79446022020261,1079.0780135310624,-208.46692819617613,208.46692819617613,-1079.0780135310624,1769.3983314655586,0.0
442154.6038362722,4660833.5216966402,-32500.0,606.57913578366038,800.29959492125022,202.49990812962548,70.356185353570353,-349.37022493338736,-169.17041652041826,945.38923825196014,947.19414176099974,-213.59148410551268,213.59148410551268,-947.19414176099974,1659.5391154562617,0.0
447154.6038362722,4660833.5216966402,-32500.0,397.18376671800951,766.26857585066796,174.64160128574281,132.7317809701506,-335.89566978730591,-179.39462519493438,891.42204352987847,824.55942728714581,-210.22091155442894,210.22091155442894,-824.55942728714581,1551.2859583362388,0.0
452154.6038362722,4660833.5216966402,-32500.0,230.73917707519234,721.75007310991873,156.28936196141476,172.42672006536688,-312.96742304811835,-177.45641082647262,833.38892672015072,713.35274302786263,-200.76369641142219,200.76369641142219,-713.35274302786263,1444.8475961330607,0.0
457154.6038362722,4660833.5216966402,-32500.0,100.77076629706326,671.85746535332873,143.48419741881395,195.10918840072773,-285.80357151266071,-168.37654925926444,774.4228066531989,614.39201126787043,-187.47780617161831,187.47780617161831,-614.39201126787043,1341.339670594416,0.0
462154.6038362722,4660833.5216966402,-32500.0,1.0029235929417852,620.15101547490679,133.86559088928351,205.48229148585222,-257.58772078864018,-155.5519860823045,716.58857462123001,527.54472005296418,-172.16836409882987,172.16836409882987,-527.54472005296418,1241.9530164269813,0.0
467154.6038362722,4660833.5216966402,-32500.0,-74.236637951445829,568.99805411712327,126.05482194318463,207.24587250709047,-230.16618143852685,-141.17772152656616,661.17554747955307,452.09366679771279,-156.14834324284598,156.14834324284598,-452.09366679771279,1147.6340139382396,0.0
472154.6038362722,4660833.5216966402,-32500.0,-129.85071393529927,519.88881478023961,119.26690072144038,203.20455839939123,-204.52980601055989,-126.60686430558503,608.92832507721641,387.01272856906735,-140.30504583319541,140.30504583319541,-387.01272856906735,1059.0036590656605,0.0
477154.6038362722,4660833.5216966402,-32500.0,-169.95015048063101,473.69078649842345,113.06981715717973,195.42555711674026,-181.13723104297486,-112.62599660221279,560.21835727612404,331.15485071716716,-125.19531436199938,125.19531436199938,-331.15485071716716,976.37948498391131,0.0
267154.6038362722,4665833.5216966402,-32500.0,-1347.5813898933077,-18.565618463774413,381.50034977679161,-607.3091616236801,-7.5484141815184795,-208.019265136868,996.22785313477152,-291.19242082559379,321.98402363098262,-321.98402363098262,291.19242082559379,1850.8397210771468,0.0
272154.6038362722,4665833.5216966402,-32500.0,-1501.75181063532,-39.803909572185681,431.17581572629501,-702.7078597197501,-17.634592352233188,-246.79927481506542,1124.6113559410883,-328.67670378546524,369.13629698928759,-369.13629698928759,328.67670378546524,2091.0436743845926,0.0
277154.6038362722,4665833.5216966402,-32500.0,-1678.1961692355226,-68.687868959315921,488.55385543900599,-816.61163526512485,-32.021840259517006,-293.79284581995381,1274.7853160717659,-373.38120596463114,425.97317074272769,-425.97317074272769,373.38120596463114,2372.6601630826603,0.0
282154.6038362722,4665833.5216966402,-32500.0,-1880.7265966213054,-107.89002371715239,554.78004476482965,-953.46122798223155,-52.486581032996575,-350.95645687097954,1451.4530481028705,-427.28013268022426,495.21733876621283,-495.21733876621283,427.28013268022426,2704.9166679523432,0.0
287154.6038362722,4665833.5216966402,-32500.0,-2113.8398976136914,-161.07393702263238,631.02551311229047,-1119.0748532547832,-81.609791295184095,-420.83278907086384,1660.615390576078,-492.99597026367809,580.56297182198875,-580.56297182198875,492.99597026367809,3099.7230578642548,0.0
292154.6038362722,4665833.5216966402,-32500.0,-2382.7486673657204,-233.27370602653406,718.34849981648858,-1321.207972389097,-123.19076820818754,-506.8391186336795,1910.0268337217944,-573.97896851377459,687.05161663816102,-687.05161663816102,573.97896851377459,3572.6757155758401,0.0
297154.6038362722,4665833.5216966402,-32500.0,-2693.261911853132,-331.39901410841753,817.42817064855262,-1570.3766813243296,-182.89951445920474,-613.7850710925286,2209.8384623015668,-674.65512086648846,821.55806268965239,-821.55806268965239,674.65512086648846,4144.4965249775723,0.0
302154.6038362722,4665833.5216966402,-32500.0,-3051.3011291772386,-464.86705975751295,928.0809340362481,-1881.0472053842132,-269.31300087475546,-748.83120560616851,2573.4957156613336,-800.4056101847915,993.35100452298673,-993.35100452298673,800.4056101847915,4843.0723959839688,0.0
307154.6038362722,4665833.5216966402,-32500.0,-3461.614649602493,-646.28693883718029,1048.4233841076323,-2273.2737933527692,-395.55759971938681,-923.28013747408136,3018.9585079193248,-957.05310972696748,1214.5693164337429,-1214.5693164337429,957.05310972696748,5706.2578853090099,0.0
312154.6038362722,4665833.5216966402,-32500.0,-3924.8507067643341,-891.92706729254644,1173.4969833200287,-2774.7221665613142,-581.86998026178628,-1155.8880540330726,3570.2699360982665,-1149.1598611211161,1500.1633084438181,-1500.1633084438181,1149.1598611211161,6785.4799390642766,0.0
317154.6038362722,4665833.5216966402,-32500.0,-4431.5026535271509,-1221.2386887042931,1293.1756961662581,-3422.5480263938603,-859.42454465013452,-1478.7993706335587,4259.3830887695503,-1375.7597368914114,1866.228478031376,-1866.228478031376,1375.7597368914114,8149.7687546784309,0.0
322154.6038362722,4665833.5216966402,-32500.0,-4950.4103779930929,-1653.760457469612,1389.3952396391842,-4263.4194559316566,-1275.5461050758104,-1947.5924628459545,5127.9968794645556,-1621.0509693878873,2324.4750858754533,-2324.4750858754533,1621.0509693878873,9888.8234758213803,0.0
327154.6038362722,4665833.5216966402,-32500.0,-5409.0251487361711,-2200.020667283502,1433.5774536740216,-5347.4546943457153,-1899.3748082258398,-2656.6730730378649,6229.554768816357,-1836.2218785670989,2868.6428437269883,-2868.6428437269883,1836.2218785670989,12111.662262762362,0.0
332154.6038362722,4665833.5216966402,-32500.0,-5664.3088133818601,-2840.6769855265784,1387.3743400510086,-6707.4376466121366,-2823.9784116294672,-3758.6947279280439,7635.0742085100446,-1908.1057688852175,3446.3701234803707,-3446.3701234803707,1908.1057688852175,14933.916845947289,0.0
337154.6038362722,4665833.5216966402,-32500.0,-5471.0413504304361,-3486.8300930761548,1214.5662201799621,-8309.2579653579942,-4153.9054375499172,-5478.2959880918415,9438.7702180244996,-1614.4097499314419,3909.7635874351936,-3909.7635874351936,1614.4097499314419,18442.232785899414,0.0
342154.6038362722,4665833.5216966402,-32500.0,-4474.710353075654,-3920.2515147916874,918.67483208147519,-9959.06932867465,-5955.0551841446077,-8091.0612132749002,11682.657496573072,-581.9550620264331,3946.8705352980237,-3946.8705352980237,581.9550620264331,22621.081289134079,0.0
347154.6038362722,4665833.5216966402,-32500.0,-2291.5497095998899,-3737.6210221388524,622.5393187960716,-11174.291411967823,-8131.844648903937,-11806.535458009585,14259.014429360794,1695.2091300234897,3028.760413790138,-3028.760413790138,-1695.2091300234897,27233.047475604009,0.0
352154.6038362722,4665833.5216966402,-32500.0,1230.2401993699812,-2380.7312357427004,682.76560145607243,-11101.181997684953,-10209.218715126428,-16469.37212305922,16879.201191930504,5658.5350734379354,477.98378073914364,-477.98378073914364,-5658.5350734379354,31674.638527815216,0.0
357154.6038362722,4665833.5216966402,-32500.0,5525.3213628978647,584.23481055814671,1754.8205888498353,-8721.0646712177295,-11095.291605062594,-21063.266168750135,19033.366403676373,11166.228686781562,-4146.4411248971101,4146.4411248971101,-11166.228686781562,34920.320137288094,0.0
362154.6038362722,4665833.5216966402,-32500.0,8911.174395567461,4779.8728932081522,4573.3264970943283,-3722.6533069526154,-9187.9210798965523,-23384.763668003397,20081.276343939197,16747.020190843708,-10218.406633853388,10218.406633853388,-16747.020190843708,35848.561360342086,0.0
367154.6038362722,4665833.5216966402,-32500.0,9338.304117450487,8304.7763774234281,9121.74475112047,2154.1977620669054,-3527.9108789771672,-20968.937427077326,19633.25591258816,19561.151002861112,-15344.736908026969,15344.736908026969,-19561.151002861112,34207.902194006761,0.0
372154.6038362722,4665833.5216966402,-32500.0,6812.5328052604555,8606.8859469683848,13643.195592185486,5382.7863191522583,4240.6363565357269,-13779.554740710104,18001.508018912871,17543.117100061118,-16528.713342151383,16528.713342151383,-17543.117100061118,31216.297708495218,0.0
377154.6038362722,4665833.5216966402,-32500.0,4257.9701012979485,5380.1391567448036,15504.695124064465,4140.3813206211917,10089.85721316013,-5567.6860373404315,15933.495468619076,12210.805077898807,-13323.028779794626,13323.028779794626,-12210.805077898807,27878.673126175679,0.0
382154.6038362722,4665833.5216966402,-32500.0,4014.8097900142611,1352.6528904392271,13910.500226338403,685.59003311145148,11421.946679215325,-413.7759667484288,13552.084207642176,7326.6300056071113,-8572.2918563121202,8572.2918563121202,-7326.6300056071113,23656.768231760976,0.0
387154.6038362722,4665833.5216966402,-32500.0,5179.09548674504,-953.81439680489893,10487.800493727178,-1738.8605645079258,9342.5333863125561,1246.7684352697279,10603.348498939347,4690.7313317590424,-4942.0813456581664,4942.0813456581664,-4690.7313317590424,18389.401657485603,0.0
392154.6038362722,4665833.5216966402,-32500.0,5894.7959971236114,-1371.7764436096186,7128.6134225534006,-2376.5760751055627,6349.6760257470869,1302.8393810988182,7562.0391180619408,3602.4483259173094,-2826.8328073723542,2826.8328073723542,-3602.4483259173094,13107.96770457869,0.0
397154.6038362722,4665833.5216966402,-32500.0,5666.6138162104116,-884.74360722566303,4627.0367682038141,-2091.5403315247231,3855.8782014229796,1042.776264855057,5045.077231677853,3082.4662232758469,-1640.7532957323297,1640.7532957323297,-3082.4662232758469,8816.4100113003115,0.0
402154.6038362722,4665833.5216966402,-32500.0,4897.6841317794388,-232.01981004489417,2976.0258939477235,-1601.0097691934116,2130.7638304461302,781.35989547756071,3314.4188579624029,2727.8440873991767,-961.70373695133981,961.70373695133981,-2727.8440873991767,5847.9387091903836,0.0
407154.6038362722,4665833.5216966402,-32500.0,3996.8969775870173,303.05543924295813,1937.5834408153914,-1150.5401071783208,1021.7427570300781,524.56495286713164,2333.8742444287855,2442.1143260418994,-594.30975341721364,594.30975341721364,-2442.1143260418994,4065.2025517835013,0.0
412154.6038362722,4665833.5216966402,-32500.0,3155.3434039582685,671.68362852823907,1294.5310226745169,-773.57306020821147,335.43266329775082,277.24761648582546,1801.5894566032428,2195.9174933164468,-422.68469347585255,422.68469347585255,-2195.9174933164468,3142.726451366002,0.0
417154.6038362722,4665833.5216966402,-32500.0,2427.4260638638157,898.08023171270861,897.27006322929935,-462.36630125108911,-72.516841210984239,64.33839734901963,1475.4854971972709,1969.6996016101818,-360.07775026163949,360.07775026163949,-1969.6996016101818,2717.7998651711059,0.0
422154.6038362722,4665833.5216966402,-32500.0,1816.6455205126781,1017.8584140650152,650.85534258823691,-211.64240597514939,-299.91078577784674,-96.308281541781056,1336.1731782225841,1752.7222871513472,-346.2673521548636,346.2673521548636,-1752.7222871513472,2510.1156248326006,0.0
427154.6038362722,4665833.5216966402,-32500.0,1313.4004180604818,1062.1288744638944,496.43580766777097,-18.342635992408741,-412.40970276518209,-202.2226894091653,1314.8776234429156,1543.0911174614794,-346.29741336956931,346.29741336956931,-1543.0911174614794,2371.0634788283924,0.0
432154.6038362722,4665833.5216966402,-32500.0,905.71702317242205,1055.2720534293489,397.83598191438006,122.54515451310562,-453.99391912981622,-261.45282899196832,1274.3915429318904,1343.8466209021672,-343.87387756811142,343.87387756811142,-1343.8466209021672,2243.1285912269973,0.0
437154.6038362722,4665833.5216966402,-32500.0,581.2390483379354,1015.6251463438344,332.97029597637987,218.60460052758523,-453.71870416641428,-285.86053241641713,1212.4251893603432,1159.1095718041672,-333.7800287829923,333.7800287829923,-1159.1095718041672,2110.3683423897969,0.0
442154.6038362722,4665833.5216966402,-32500.0,327.64290464752668,956.54934375626374,288.46351475998875,278.66884712906182,-430.334122628655,-286.83527696744221,1137.6972959526718,991.97182927663437,-316.17403697978523,316.17403697978523,-991.97182927663437,1971.9368325369808,0.0
447154.6038362722,4665833.5216966402,-32500.0,133.08148003248277,887.45534030954138,256.28635732135422,311.37658194432328,-395.58796154755134,-273.50462342514743,1057.2354758765459,843.88127997102515,-293.19062122556466,293.19062122556466,-843.88127997102515,1831.2978099539916,0.0
452154.6038362722,4665833.5216966402,-32500.0,-13.34083651753876,814.72330470681209,231.65981968431365,324.27564270283341,-356.5849489753507,-252.44452344692527,975.85578817168494,714.81726857402259,-267.24920799765539,267.24920799765539,-714.81726857402259,1692.3419274472813,0.0
457154.6038362722,4665833.5216966402,-32500.0,-121.23265643829302,742.49181960696808,211.76158405105511,323.4790526188624,-317.4323314279257,-228.04513263592185,896.63291619364168,603.73346528543709,-240.37224376415395,240.37224376415395,-603.73346528543709,1558.1881345856345,0.0
462154.6038362722,4665833.5216966402,-32500.0,-198.77383532671311,673.29544446562397,194.93465646175915,313.67687922537294,-280.35248803192127,-203.04922059935521,821.39688719595642,508.994724479654,-214.01200035560592,214.01200035560592,-508.994724479654,1430.9648087379196,0.0
467154.6038362722,4665833.5216966402,-32500.0,-252.73483255715263,608.55900880200818,180.20934752146408,298.3231283175005,-246.4156776207694,-179.05098501473927,751.12836339539376,428.71501793628426,-189.09602737837241,189.09602737837241,-428.71501793628426,1311.9273250736449,0.0
472154.6038362722,4665833.5216966402,-32500.0,-288.59848440663603,548.96361893333028,167.01705765250065,279.87717204672157,-216.01030818041022,-156.88691910132957,686.24633192081694,360.98202886158845,-166.14201416355593,166.14201416355593,-360.98202886158845,1201.6579551333712,0.0
477154.6038362722,4665833.5216966402,-32500.0,-310.73051051127061,494.70912887113042,155.02069599846553,260.03703609984615,-189.13827821875952,-136.91665578660846,626.81023144530832,303.98973874291687,-145.3766322349467,145.3766322349467,-303.98973874291687,1100.2592611617263,0.0
267154.6038362722,4670833.5216966402,-32500.0,-1283.5035144592662,94.575022984898879,394.81415172751662,-582.81193399371966,33.659431602992385,-201.54061697550634,971.50946122681376,-182.15488877875686,257.5268983017167,-257.5268983017167,182.15488877875686,1794.6470079941234,0.0
272154.6038362722,4670833.5216966402,-32500.0,-1431.56654251745,93.790918701904772,449.56664703252159,-674.81565643663339,32.571736145602387,-239.08700137647625,1097.2568880469707,-201.14597902958405,293.35129476072302,-293.35129476072302,201.14597902958405,2028.0922473995372,0.0
277154.6038362722,4670833.5216966402,-32500.0,-1601.9418718633738,89.861483038377486,513.96545047939469,-785.04031503814986,29.509945795346276,-284.61961381893474,1244.693449640826,-223.50247756970779,336.51173394569321,-336.51173394569321,223.50247756970779,2302.34067296988,0.0
282154.6038362722,4670833.5216966402,-32500.0,-1798.9022986732307,81.256041063287185,589.95920843627778,-918.08479293149594,23.390020148443099,-340.08435532018217,1418.6686434087744,-250.25703157115606,389.19820774025288,-389.19820774025288,250.25703157115606,2626.7818778941737,0.0
287154.6038362722,4670833.5216966402,-32500.0,-2027.7132025759884,65.765069022118368,679.88385839486364,-1080.1058326298844,12.554320659253611,-408.05577710400559,1625.4537981632745,-282.82827882585048,454.45263502814964,-454.45263502814964,282.82827882585048,3013.6897866788404,0.0
292154.6038362722,4670833.5216966402,-32500.0,-2294.8296911766242,40.199755297231718,786.4992923231531,-1279.5231441211622,-5.5592950492623405,-492.08513901234755,1873.2855949895406,-323.11380903596785,536.52095734431316,-536.52095734431316,323.11380903596785,3479.3830478650902,0.0
297154.6038362722,4670833.5216966402,-32500.0,-2608.0140343819653,-0.027837120801996518,912.98519024454254,-1528.0973998767556,-34.959023179521175,-597.3472703372197,2173.1573061209688,-373.51092416819387,641.30676033873192,-641.30676033873192,373.51092416819387,4045.9327294742343,0.0
302154.6038362722,4670833.5216966402,-32500.0,-2976.1634539266565,-61.460616514955213,1062.8461812692026,-1842.5590086550244,-81.99239754261032,-731.87456774669045,2539.9683027723449,-436.69356525003741,776.87440329634455,-776.87440329634455,436.69356525003741,4743.658776243391,0.0
307154.6038362722,4670833.5216966402,-32500.0,-3408.3671449732819,-153.2489540373071,1239.6392470621895,-2246.9823640468658,-156.81839151869349,-908.92764547626143,2994.1697098848044,-514.74736722615387,953.79246724622146,-953.79246724622146,514.74736722615387,5614.6924621380203,0.0
312154.6038362722,4670833.5216966402,-32500.0,-3911.1752035797758,-287.69026557400196,1446.3855940280052,-2775.9811348819189,-275.79781925538578,-1151.5022771231759,3564.0491224493794,-606.80524818203526,1184.7303812795283,-1184.7303812795283,606.80524818203526,6717.8003124367215,0.0
317154.6038362722,4670833.5216966402,-32500.0,-4482.0929043693714,-480.00423254308612,1684.4952047205693,-3478.2709883473021,-465.22169833643795,-1500.6546573574137,4288.7553464756074,-703.45696121124342,1481.890866979413,-1481.890866979413,703.45696121124342,8134.2543829553115,0.0
322154.6038362722,4670833.5216966402,-32500.0,-5095.8184627742658,-745.67905464731246,1952.1262952185104,-4418.5983631900344,-766.62269397847899,-2030.0924390238413,5222.1062797513878,-774.75222255646997,1849.2149145022145,-1849.2149145022145,774.75222255646997,9973.3851331345468,0.0
327154.6038362722,4670833.5216966402,-32500.0,-5678.1408027618891,-1091.6593051799764,2242.4788559815324,-5672.3203332448566,-1242.8031182569277,-2869.4863743827341,6437.3363599454642,-746.68598753121273,2263.4475582084906,-2263.4475582084906,746.68598753121273,12373.882364614781,0.0
332154.6038362722,4670833.5216966402,-32500.0,-6062.9460180067617,-1494.2416272574226,2544.4589822971593,-7299.5215313779199,-1979.9833808502385,-4235.5092014071706,8031.9689916801217,-460.11051691711327,2634.4384134486409,-2634.4384134486409,460.11051691711327,15492.119861831288,0.0
337154.6038362722,4670833.5216966402,-32500.0,-5937.0463390983778,-1853.3501941108609,2853.0108899959696,-9274.4596143585277,-3071.8454749083453,-6456.1329981855515,10117.390453355893,388.49010380255299,2733.9246177253717,-2733.9246177253717,-388.49010380255299,19461.695368002012,0.0
342154.6038362722,4670833.5216966402,-32500.0,-4808.7673477165445,-1918.2151013759697,3204.7825344133944,-11339.766954214892,-4552.3577795725596,-9938.6201780384017,12755.94095546903,2298.8856300891871,2095.9182860350934,-2095.9182860350934,-2298.8856300891871,24302.719572730384,0.0
347154.6038362722,4670833.5216966402,-32500.0,-2101.1954992882547,-1215.53627084863,3757.7003611245655,-12784.991055380629,-6223.2989392696018,-14966.640754489144,15867.756523489752,5916.4772009989447,-50.38491998156087,50.38491998156087,-5916.4772009989447,29769.32262353439,0.0
352154.6038362722,4670833.5216966402,-32500.0,2457.7010333616231,896.26844838185832,4895.9719299604676,-12282.824729779017,-7344.8478215076966,-21150.459373208036,19150.799367624008,11670.05235657266,-4617.4841126083465,4617.4841126083465,-11670.05235657266,35181.061711871727,0.0
357154.6038362722,4670833.5216966402,-32500.0,8031.7391882342763,4806.4180711288027,7225.2325295656447,-8227.5717434861454,-6331.0087009294302,-26470.826601373519,22052.574473670615,18861.051518014334,-11895.149177337269,11895.149177337269,-18861.051518014334,39444.641434876925,0.0
362154.6038362722,4670833.5216966402,-32500.0,11913.58132990468,9659.9572340346967,11183.610661093642,-387.8532460863272,-1064.020440245326,-26672.04965881215,23969.683179900421,24488.048110702457,-19987.404716600973,19987.404716600973,-24488.048110702457,41773.30998758458,0.0
367154.6038362722,4670833.5216966402,-32500.0,10910.720785031412,12429.357447483771,16041.013598272208,7354.0340179098184,8958.9398777532369,-17682.827717582939,24800.202286179203,23902.420742815542,-23948.99166424726,23948.99166424726,-23902.420742815542,43094.132275638643,0.0
372154.6038362722,4670833.5216966402,-32500.0,6254.0578479134592,9898.72365495755,19149.547548285002,8298.8928697583178,19415.409966850628,-2252.1428785711737,25033.989119782509,16028.848810209174,-19704.56001804347,19704.56001804347,-16028.848810209174,44494.766213508607,0.0
377154.6038362722,4670833.5216966402,-32500.0,3986.2084950309877,3581.598638043321,18105.146045125046,1671.6533155783934,23526.987687030582,9297.4493717075038,24186.074644147669,7094.9208212568665,-10571.883039383381,10571.883039383381,-7094.9208212568665,43127.588254548311,0.0
382154.6038362722,4670833.5216966402,-32500.0,6246.580846341064,-1399.7578433028957,13918.508731394722,-5176.494981822987,20017.859206277302,11000.466377060391,20745.476960812568,3174.2889937767031,-3898.3934151618942,3898.3934151618942,-3174.2889937767031,36515.705753885828,0.0
387154.6038362722,4670833.5216966402,-32500.0,9074.0856351207312,-2804.2599812149215,9393.0056565890063,-7093.1312829999106,13455.537192491838,7076.3582043207653,15449.321658692515,3269.9641889205423,-1744.9892753760057,1744.9892753760057,-3269.9641889205423,26877.748043296378,0.0
392154.6038362722,4670833.5216966402,-32500.0,9537.3030128987666,-2019.3593583012075,6032.8579043357595,-5550.8605752921876,7814.8500024253208,3294.4053651891518,10283.678989161983,3961.2681269112281,-1561.4050399179841,1561.4050399179841,-3961.2681269112281,17811.857066236269,0.0
397154.6038362722,4670833.5216966402,-32500.0,8145.4960421715305,-770.51890088479047,3895.7707682403052,-3418.2678685427404,4115.4853616382734,1271.5250078852109,6397.7580220130121,4010.1823792795544,-1502.7002004799911,1502.7002004799911,-4010.1823792795544,11124.098944462588,0.0
402154.6038362722,4670833.5216966402,-32500.0,6239.8822298099203,211.70474532138942,2597.2956070617574,-1862.1089332673228,1937.7605325143641,400.88589582372225,3974.107905828826,3628.2329101049354,-1271.7918321743671,1271.7918321743671,-3628.2329101049354,6920.608277877187,0.0
407154.6038362722,4670833.5216966402,-32500.0,4537.3201014806236,827.8057394253326,1805.1524574153625,-911.80652146777675,705.22897951641676,6.0381014218518452,2684.1169227011642,3145.3222948060265,-1019.9703386267054,1019.9703386267054,-3145.3222948060265,4653.9272338249139,0.0
412154.6038362722,4670833.5216966402,-32500.0,3208.8105457193769,1164.5312180019223,1311.6562520286943,-342.28817138724247,24.981335342364343,-218.32882558662283,2026.4571022702037,2697.8377080140135,-837.37346254600425,837.37346254600425,-2697.8377080140135,3642.0353049276646,0.0
417154.6038362722,4670833.5216966402,-32500.0,2212.4596266873673,1317.8674273904346,996.22051211813823,13.972709298019677,-333.3327324102703,-362.43986188428272,1781.0476838504753,2308.4757155607931,-724.22476305494206,724.22476305494206,-2308.4757155607931,3243.7467527233466,0.0
422154.6038362722,4670833.5216966402,-32500.0,1468.7780676675193,1356.797338215187,788.59652299357072,244.05386746634071,-503.17841031125823,-447.73677458905627,1723.7321251585802,1968.8262378630145,-651.95963885727065,651.95963885727065,-1968.8262378630145,3048.4500172969115,0.0
427154.6038362722,4670833.5216966402,-32500.0,912.49249403546492,1326.5548062623834,647.09867307528532,390.41037819423366,-563.89243205367575,-484.73604507686161,1658.675254898983,1670.1313829576607,-596.55432711275796,596.55432711275796,-1670.1313829576607,2888.3028627561184,0.0
432154.6038362722,4670833.5216966402,-32500.0,497.18986819331963,1256.4958817569866,546.68504944181666,476.76689373785985,-563.50643693936502,-485.31013421978474,1568.5532938589104,1407.8866827925622,-545.35265004892563,545.35265004892563,-1407.8866827925622,2717.9531402014813,0.0
437154.6038362722,4670833.5216966402,-32500.0,189.76024152397639,1165.7062239946188,472.2386185612703,519.44612300694723,-531.08393055423335,-461.69262076542338,1462.4127851604817,1179.7684456089823,-494.03802458290329,494.03802458290329,-1179.7684456089823,2533.8592033721025,0.0
442154.6038362722,4670833.5216966402,-32500.0,-34.494856556371531,1066.4726004064644,414.6137808668949,531.09008825817511,-483.91445745661707,-424.27958269662878,1349.5059087715426,983.70193426044796,-442.50698394929975,442.50698394929975,-983.70193426044796,2342.9612592579674,0.0
447154.6038362722,4670833.5216966402,-32500.0,-194.7067356161416,966.49255357139987,368.25552643135518,521.65959362171998,-431.97012216104906,-380.73526176929528,1236.4748633151139,817.11551715553617,-392.12026479785334,392.12026479785334,-817.11551715553617,2152.850316074022,0.0
452154.6038362722,4670833.5216966402,-32500.0,-305.95295654564296,870.36200214481164,329.75891093115803,498.78437304162952,-380.73262062006336,-336.12417140143742,1127.5446022957774,676.93668969871305,-344.33893826337032,344.33893826337032,-676.93668969871305,1969.273892050968,0.0
457154.6038362722,4670833.5216966402,-32500.0,-380.13318035389864,780.6104410844157,297.00211958661941,468.07899684735992,-332.98506650849566,-293.46843719377114,1025.1439707261495,559.85234783622536,-300.22098148065038,300.22098148065038,-559.85234783622536,1795.9198820911968,0.0
462154.6038362722,4670833.5216966402,-32500.0,-426.57445263894527,698.42322084864509,268.6287904379144,433.5077214223424,-289.93200657768512,-254.35545110367858,930.47225783917179,462.57774757256186,-260.33940425587332,260.33940425587332,-462.57774757256186,1634.8067930071297,0.0
467154.6038362722,4670833.5216966402,-32500.0,-452.51548235201778,624.14070314510127,243.74146082597713,397.75558519363102,-251.88808613963502,-219.44343425159045,843.93085617074951,382.04750731336571,-224.86541183422923,224.86541183422923,-382.04750731336571,1486.7563590654281,0.0
472154.6038362722,4670833.5216966402,-32500.0,-463.515700785099,557.59494085476592,221.72030099016135,362.5589767856452,-218.6926123373091,-188.82995333527026,765.42639489154271,315.51955622385196,-193.68958710862481,193.68958710862481,-315.51955622385196,1351.7909749183293,0.0
477154.6038362722,4670833.5216966402,-32500.0,-463.80349056265226,498.33276496091884,202.11669353678221,328.97690855587217,-189.95395248583651,-162.30098063074806,694.5770243615957,260.6130290230135,-166.53147920082679,166.53147920082679,-260.6130290230135,1229.4341842289325,0.0
267154.6038362722,4675833.5216966402,-32500.0,-1191.0443354874164,201.63329637599455,392.00497741035429,-547.91683695686811,72.375561583162124,-192.13128569298416,937.49422642050195,-73.675303816894427,189.64834606077522,-189.64834606077522,73.675303816894427,1720.7164194085749,0.0
272154.6038362722,4675833.5216966402,-32500.0,-1326.304140751088,220.78580454159371,447.94712957337345,-633.66602563430331,79.93858552484312,-227.56659012329862,1058.4111275561174,-73.762732979343056,212.95826354679923,-212.95826354679923,73.762732979343056,1943.1322197449324,0.0
277154.6038362722,4675833.5216966402,-32500.0,-1482.0171299543574,241.45575623500883,514.37627275912917,-736.41989443721286,87.869161878920792,-270.45986599082755,1200.2846925153347,-73.047514909686655,240.77179393637715,-240.77179393637715,73.047514909686655,2204.4775099165913,0.0
282154.6038362722,4675833.5216966402,-32500.0,-1662.291246324035,263.43385444260315,593.69146233375466,-860.57972027316748,95.840621172129204,-322.6279321714847,1367.892981015046,-71.432520599855707,274.51734638608195,-274.51734638608195,71.432520599855707,2513.8495043923294,0.0
287154.6038362722,4675833.5216966402,-32500.0,-1872.3039582279655,286.27151885436473,688.92088373832371,-1012.127527422337,103.24525046333783,-386.50385638332563,1567.4712430413101,-68.832806589887483,316.23255617371797,-316.23255617371797,68.832806589887483,2883.2352992351639,0.0
292154.6038362722,4675833.5216966402,-32500.0,-2118.5759337479994,309.14405795789264,803.89511264951216,-1199.3975638928366,108.99826544379783,-465.51400454170181,1807.3008795796065,-65.115276689228779,368.81953084108818,-368.81953084108818,65.115276689228779,3328.7295914437223,0.0
297154.6038362722,4675833.5216966402,-32500.0,-2409.2049632824865,330.65548255187497,943.46011953306322,-1434.2869969509622,111.20351766145983,-564.80262866179294,2098.5856799034495,-59.88616638661307,436.34703728519054,-436.34703728519054,59.88616638661307,3872.3578352022309,0.0
302154.6038362722,4675833.5216966402,-32500.0,-2753.8491301262275,348.5849847345014,1113.7264895526491,-1734.1356643984261,106.58248896836218,-692.65372686958642,2456.7571158703036,-51.899967847275775,524.3010371925343,-524.3010371925343,51.899967847275775,4544.7917486434972,0.0
307154.6038362722,4675833.5216966402,-32500.0,-3162.9390079836171,359.62359947960454,1322.3361770490637,-2124.5491598479825,89.505020910880319,-863.29046811105218,2903.4027499929548,-37.593492536770214,639.47826181594758,-639.47826181594758,37.593492536770214,5389.3105872890628,0.0
312154.6038362722,4675833.5216966402,-32500.0,-3644.9425591529148,359.29862676679238,1578.697805282568,-2643.3335355471486,50.38093338055473,-1102.31829631549,3469.0549182306377,-7.7029769835083357,788.72808996924596,-788.72808996924596,7.7029769835083357,6467.313185037322,0.0
317154.6038362722,4675833.5216966402,-32500.0,-4199.2398845515409,342.67328193160552,1894.1008239771936,-3345.1048407368312,-26.870774284778719,-1457.0008635965503,4197.0839354895106,60.09721701362173,974.68388361850316,-974.68388361850316,-60.09721701362173,7865.2971600509045,0.0
322154.6038362722,4675833.5216966402,-32500.0,-4799.994898146183,307.34953315509131,2281.6082636641909,-4304.1807937339145,-168.33837487822618,-2014.6565191618949,5148.8409167615109,216.29615682673386,1184.500309901061,-1184.500309901061,-216.29615682673386,9702.0035921908566,0.0
327154.6038362722,4675833.5216966402,-32500.0,-5363.5493991756784,262.34023319628784,2755.8357999241471,-5608.277716008135,-413.48468511005024,-2932.5957532869174,6409.6309856878861,568.32821331874391,1363.9132316249243,-1363.9132316249243,-568.32821331874391,12131.521559789468,0.0
332154.6038362722,4675833.5216966402,-32500.0,-5690.8103993287732,250.09485740244511,3333.7545292081459,-7324.4219850075142,-813.07962043246278,-4478.0755512543583,8091.8296691065279,1329.5601089341512,1364.1313467280775,-1364.1313467280775,-1329.5601089341512,15332.367838906524,0.0
337154.6038362722,4675833.5216966402,-32500.0,-5386.3891851114504,393.18365357515319,4040.9330638392089,-9399.5181003789476,-1404.9133125176916,-7055.4440162028104,10320.222358003726,2885.82995558009,848.5111854758261,-848.5111854758261,-2885.82995558009,19463.627938286714,0.0
342154.6038362722,4675833.5216966402,-32500.0,-3802.1430306263524,971.82659166542942,4934.4710409926583,-11442.293944373339,-2125.8051273473525,-11136.868255765161,13177.014577827093,5834.8691551289849,-829.15972354793166,829.15972354793166,-5834.8691551289849,24563.713855962553,0.0
347154.6038362722,4675833.5216966402,-32500.0,-167.16067891348686,2488.7604550933088,6155.5824522191742,-12379.789140058585,-2590.3429136256968,-16891.190444717933,16613.969705070991,10836.991227686973,-4657.1843049136514,4657.1843049136514,-10836.991227686973,30395.738996319167,0.0
352154.6038362722,4675833.5216966402,-32500.0,5793.7152462338363,5533.7495157260892,7972.6675201235275,-10236.798043488212,-1723.4817270435085,-23197.258589711579,20388.202739189779,17929.308525464425,-11535.692144669709,11535.692144669709,-17929.308525464425,36380.609763701286,0.0
357154.6038362722,4675833.5216966402,-32500.0,12586.359758582241,10128.120998795937,10611.783869472398,-2872.7418733257796,2418.5684122548273,-26040.156295030811,24160.6055571541,25029.467032565492,-20754.415350325184,20754.415350325184,-25029.467032565492,42067.547671660221,0.0
362154.6038362722,4675833.5216966402,-32500.0,15886.133007006774,14569.835512227171,13682.374331688805,8930.1934748059375,11680.298182163215,-18029.642327481382,27924.142644379761,26665.207495267387,-27470.607938195571,27470.607938195571,-26665.207495267387,48639.157770670739,0.0
367154.6038362722,4675833.5216966402,-32500.0,11443.30721604807,15036.669505667238,15709.896844133131,16845.491388622788,24609.609949520211,5317.509278592318,32188.514258556177,17305.520288401491,-23229.940970220374,23229.940970220374,-17305.520288401491,58552.371333804855,0.0
372154.6038362722,4675833.5216966402,-32500.0,3985.8440990345257,9223.9855923156374,14917.272544809797,10168.206713243439,33608.410198385951,32033.134649891101,36355.844111328042,1749.9064054555151,-6907.1853024084394,6907.1853024084394,-1749.9064054555151,67479.985236032138,0.0
377154.6038362722,4675833.5216966402,-32500.0,3973.4616922223295,1561.527368547024,11492.933212078344,-5873.631959954535,31874.447937665431,40763.685292708949,35933.61803394914,-6043.3297813633017,7623.6085182780462,-7623.6085182780462,6043.3297813633017,65514.693163463162,0.0
382154.6038362722,4675833.5216966402,-32500.0,10255.051231844944,-2248.5481330995281,7773.4366137503703,-15352.357127751822,22814.695990966247,29988.4953926981,29249.786260964931,-2918.3936926359693,9978.2177448127168,-9978.2177448127168,2918.3936926359693,52233.338078209214,0.0
387154.6038362722,4675833.5216966402,-32500.0,14315.224380858595,-2225.1377343231397,5242.8437363844005,-14255.181062969779,13610.401417370316,15064.838307140682,20310.443682650883,2652.0920207532313,5127.6305946093034,-5127.6305946093034,-2652.0920207532313,35635.433909558167,0.0
392154.6038362722,4675833.5216966402,-32500.0,13555.261553948163,-884.12221670514509,3775.1600627466273,-8963.7059325436967,7267.8848104866474,5484.9215707762642,12668.910031556668,5353.7467439239481,666.02936843190582,-666.02936843190582,-5353.7467439239481,21993.352763763472,0.0
397154.6038362722,4675833.5216966402,-32500.0,10412.308816037536,329.10675017907442,2878.1784984036585,-4430.6385006568689,3534.7643885011535,1226.0719744957039,7497.5163369265665,5533.303888995717,-1348.4922471254213,1348.4922471254213,-5533.303888995717,12986.148221676889,0.0
402154.6038362722,4675833.5216966402,-32500.0,7171.4987927596358,1091.7283993523868,2265.0445052075615,-1721.0309702782906,1464.128812287589,-288.89974116761852,4545.2991819940517,4753.1746460366248,-1803.5409034802419,1803.5409034802419,-4753.1746460366248,7875.227655120083,0.0
407154.6038362722,4675833.5216966402,-32500.0,4661.7971984449523,1485.3205327831433,1816.5199729855387,-326.18942471239865,345.61989139539116,-760.4603676953908,3081.2350511783675,3866.7367962726212,-1680.0708266727954,1680.0708266727954,-3866.7367962726212,5418.924510035069,0.0
412154.6038362722,4675833.5216966402,-32500.0,2907.4425458990354,1641.9852382978561,1479.9918684910681,355.72543373058613,-237.32304177252908,-893.20955664056066,2499.2026571512624,3123.0703625865053,-1442.2371787107622,1442.2371787107622,-3123.0703625865053,4437.8219232017527,0.0
417154.6038362722,4675833.5216966402,-32500.0,1715.4563931954247,1658.2812876381006,1224.5219853149256,685.72722414909231,-517.57789708371922,-912.45137347347702,2315.0987104761803,2535.5906185882914,-1228.698981483313,1228.698981483313,-2535.5906185882914,4039.9012466673066,0.0
422154.6038362722,4675833.5216966402,-32500.0,904.41784311790184,1594.8582407584875,1028.0475012273569,839.26355890856541,-627.53773343200487,-881.17949992210811,2186.4007003295492,2067.7362272614241,-1056.3584204017748,1056.3584204017748,-2067.7362272614241,3788.0884574942684,0.0
427154.6038362722,4675833.5216966402,-32500.0,348.63974070988962,1488.9621725458392,874.33601427131532,897.15821656446167,-644.19031535977138,-820.61991065618327,2044.8149891694873,1687.8538320965672,-914.2296315744029,914.2296315744029,-1687.8538320965672,3545.2570123437567,0.0
432154.6038362722,4675833.5216966402,-32500.0,-32.486875592339736,1363.6024628163952,751.73934885126425,899.06570901154794,-612.58588865542106,-743.34090190245354,1889.7279404015317,1375.7189626699314,-791.94571644603309,791.94571644603309,-1375.7189626699314,3287.3654310264133,0.0
437154.6038362722,4675833.5216966402,-32500.0,-291.06961223709715,1232.9126126240528,652.09932145291646,867.22258393050731,-558.77132921830491,-659.14324134654021,1729.6551859100389,1118.4870894606588,-684.00853652690705,684.00853652690705,-1118.4870894606588,3020.8149898031184,0.0
442154.6038362722,4675833.5216966402,-32500.0,-462.17204727441521,1105.3085618915695,569.75440924193401,815.69971537552783,-497.38956055719848,-575.26612389196646,1572.170459337583,906.991798995713,-588.13494745982121,588.13494745982121,-906.991798995713,2756.4062662058245,0.0
447154.6038362722,4675833.5216966402,-32500.0,-570.38632635573651,985.48254713113522,500.75143280448208,753.93342767457295,-436.29692683832877,-496.37011635889701,1422.3656391749894,733.84776391669322,-503.39803760014354,503.39803760014354,-733.84776391669322,2502.6730426535628,0.0
452154.6038362722,4675833.5216966402,-32500.0,-633.46313028885652,875.73031154127534,442.28073005724752,688.26983948276768,-379.38616197936818,-424.9642063759913,1283.1312547585007,592.71817338287053,-429.19210269224311,429.19210269224311,-592.71817338287053,2264.9643812305026,0.0
457154.6038362722,4675833.5216966402,-32500.0,-664.40438397023377,776.84798032656772,392.2950067504413,622.8458233793134,-328.2960681806731,-362.01549746453907,1155.7608333922853,478.09243343762131,-364.83258323576689,364.83258323576689,-478.09243343762131,2046.0064825812647,0.0
462154.6038362722,4675833.5216966402,-32500.0,-672.77648392213973,688.7353042462106,349.26139334117596,560.21266658971638,-283.43182776344321,-307.51338880337528,1040.499761948503,385.22585078959349,-309.48172089350584,309.48172089350584,-385.22585078959349,1846.6862996120526,0.0
467154.6038362722,4675833.5216966402,-32500.0,-665.60489938409,610.78983585821868,312.00099947492384,501.80923381172943,-244.56113776460975,-260.89747121250042,936.95429536425263,310.09841234976989,-262.19632688656566,262.19632688656566,-310.09841234976989,1666.7086335955762,0.0
472154.6038362722,4675833.5216966402,-32500.0,-648.0215906949843,542.16011525829231,279.58566804772744,448.3210974627001,-211.15555299989191,-221.34759201607969,844.37566456703121,249.35770271613259,-222.00162477196713,222.00162477196713,-249.35770271613259,1505.0808028271072,0.0
477154.6038362722,4675833.5216966402,-32500.0,-623.74741820876443,481.90151523479631,251.27020802231524,399.94377240484744,-182.57960560825873,-187.96316149036625,761.84541370219199,200.243958043883,-187.95228241271096,187.95228241271096,-200.243958043883,1360.4422333643254,0.0
482154.6038362722,4675833.5216966402,-32500.0,-595.4554771337182,429.06828507285576,226.44688447080424,356.56931678101972,-158.19116153006911,-159.86499943270056,688.39138771382386,160.50742488458428,-159.17205905916597,159.17205905916597,-160.50742488458428,1231.2785458594717,0.0
267154.6038362722,4680833.5216966402,-32500.0,-1073.2029255969608,297.24627630374329,373.993767549626,-503.69946012748693,106.78485697449736,-180.06791054010469,894.93396035768046,29.58341044603732,121.22926820773627,-121.22926820773627,-29.58341044603732,1630.932520129511,0.0
272154.6038362722,4680833.5216966402,-32500.0,-1189.5198274378708,334.20629957144683,427.3117990309072,-580.58030870902178,122.0380933705588,-212.59236212305473,1008.9773125741813,47.469948764584423,131.66869202205453,-131.66869202205453,-47.469948764584423,1838.4739550647439,0.0
277154.6038362722,4680833.5216966402,-32500.0,-1322.6012208827767,376.93960311734094,490.79689354074975,-672.36256704381992,139.77505513969555,-251.76603797416436,1142.6389765885701,70.183929171499074,143.57325462921932,-143.57325462921932,-70.183929171499074,2081.9044321973161,0.0
282154.6038362722,4680833.5216966402,-32500.0,-1475.7347269468244,426.50679313757604,566.88176899093185,-782.88674201006017,160.38365046880855,-299.15985980971089,1300.4044994396625,98.959779174432356,157.48594552256367,-157.48594552256367,-98.959779174432356,2369.5879741785689,0.0
287154.6038362722,4680833.5216966402,-32500.0,-1653.0797877611355,484.19120706269518,658.69763508763174,-917.41815460115572,184.27007227681355,-356.88793587733983,1488.153106019829,135.42305600478107,174.23728521562549,-174.23728521562549,-135.42305600478107,2712.5779390819916,0.0
292154.6038362722,4680833.5216966402,-32500.0,-1859.8897234493425,551.55855917421979,770.30419015286839,-1083.3805440347617,211.81877426065108,-427.97283146965759,1713.7391206234911,181.82813013816599,195.05110738467113,-195.05110738467113,-181.82813013816599,3125.7765812962002,0.0
297154.6038362722,4680833.5216966402,-32500.0,-2102.6713895633675,630.54863745739669,906.99976245196149,-1291.5258719828164,243.31239193680452,-517.07225828671073,1987.8670418468164,241.54220689167073,221.60712377378809,-221.60712377378809,-241.54220689167073,3629.6842605281449,0.0
302154.6038362722,4680833.5216966402,-32500.0,-2389.0466508904715,723.63511213378911,1075.7350363710532,-1557.77298403893,278.78258049143125,-631.94409264175204,2325.4120970033978,320.05740554152828,255.89407780000352,-255.89407780000352,-320.05740554152828,4253.0244875413246,0.0
307154.6038362722,4680833.5216966402,-32500.0,-2726.7284984911225,834.14150434336887,1285.6518365678965,-1905.9849740739069,317.7499912968849,-786.3900279991235,2747.399200046415,427.11686474822403,299.4211766440871,-299.4211766440871,-427.11686474822403,5036.6001324085346,0.0
312154.6038362722,4680833.5216966402,-32500.0,-3120.2682277008294,966.92734459589428,1548.7489194354257,-2371.808337503287,358.81264037173588,-1006.0660438915168,3283.9104326067381,581.12994227487502,350.75514946961522,-350.75514946961522,-581.12994227487502,6038.6948189953746,0.0
317154.6038362722,4680833.5216966402,-32500.0,-3562.7217953470504,1129.9591980272123,1880.6202907252543,-3006.9371214310622,399.11647991468709,-1339.5618855217217,3978.2026759815917,818.11008926179397,399.08428242571432,-399.08428242571432,-818.11008926179397,7341.9555274734093,0.0
322154.6038362722,4680833.5216966402,-32500.0,-4016.6952629057928,1337.9701562261046,2301.0748963547953,-3880.7045452505936,434.09422124937987,-1878.2886708674548,4892.1308128109149,1209.0050912837055,409.06382522104707,-409.06382522104707,-1209.0050912837055,9060.4884129266411,0.0
327154.6038362722,4680833.5216966402,-32500.0,-4375.4152433340896,1620.8720893059053,2834.1911942646702,-5069.3467378859896,459.10565953024735,-2788.3806065566223,6112.0160257653315,1890.9445278418682,288.15757094667174,-288.15757094667174,-1890.9445278418682,11343.017713362284,0.0
332154.6038362722,4680833.5216966402,-32500.0,-4392.3785864280726,2042.2067745044171,3507.0302293141381,-6608.3325185910835,478.47913345110425,-4350.0979680856517,7750.6331099351692,3116.299917668116,-176.66958659532543,176.66958659532543,-3116.299917668116,14362.356484971011,0.0
337154.6038362722,4680833.5216966402,-32500.0,-3580.608072731648,2735.4128701861914,4346.2484751248849,-8356.0547710333813,537.94933229183221,-6967.7743288001657,9933.7200640612573,5306.3816436887391,-1421.6476239733511,1421.6476239733511,-5306.3816436887391,18274.137576508234,0.0
342154.6038362722,4680833.5216966402,-32500.0,-1148.1556504502676,3957.2621290738221,5372.9519924883098,-9693.1440678799536,818.92847548496059,-11017.212241436555,12758.611497832168,9029.7269794672447,-4208.6144091924416,4208.6144091924416,-9029.7269794672447,23133.16085690563,0.0
347154.6038362722,4680833.5216966402,-32500.0,3778.2203046457444,6095.9276464745217,6593.4493258358661,-9064.6342524441916,1850.9217419757488,-16199.542773082279,16244.895004073449,14647.987640920206,-9500.930482541311,9500.930482541311,-14647.987640920206,28836.43577691479,0.0
352154.6038362722,4680833.5216966402,-32500.0,11158.052158325159,9389.2421559443937,7939.0179089107478,-3861.1715194419003,4767.6969158133443,-19962.031170693732,20385.005167173058,21151.182712029273,-17472.794053015576,17472.794053015576,-21151.182712029273,35440.619305578526,0.0
357154.6038362722,4680833.5216966402,-32500.0,18247.366855148546,13067.171045593301,8980.4788898787447,7867.951204749932,10932.814662306655,-15522.77398539185,25466.619337662079,24254.235620040865,-24926.299500903497,24926.299500903497,-24254.235620040865,44383.55177784359,0.0
362154.6038362722,4680833.5216966402,-32500.0,19057.480147833725,14789.744331770054,8541.948104166926,22493.325375185173,19934.028611502075,6667.5696802469674,32309.683943480573,16689.313952282915,-22851.619927977197,22851.619927977197,-16689.313952282915,59160.417143288469,0.0
367154.6038362722,4680833.5216966402,-32500.0,9943.7056062656302,12393.674515099667,5721.9147978042793,26229.806440437973,27589.696979265806,46618.803429135733,40981.932386754357,-3308.4790334855747,-2271.3073936984715,2271.3073936984715,3308.4790334855747,79536.864338027925,0.0
372154.6038362722,4680833.5216966402,-32500.0,1021.076960591722,7057.1979011664598,2104.1531505021762,7846.6544922365119,28318.309386196634,77999.889921688242,48847.675356813081,-20252.965148076164,26506.546996624213,-26506.546996624213,20252.965148076164,92646.849950628326,0.0
377154.6038362722,4680833.5216966402,-32500.0,5057.9353276471847,2974.9665933663109,314.6071165506832,-16495.137496740383,21950.560138407625,73447.480092183687,46246.957197580559,-17881.254347636743,37400.406657556538,-37400.406657556538,17881.254347636743,85512.129464877711,0.0
382154.6038362722,4680833.5216966402,-32500.0,14749.26275576003,1803.79670920323,571.03333518739259,-25016.7259102069,14064.214054359254,45432.126929110542,35202.447924845619,-4517.1989724047653,26923.554948465084,-26923.554948465084,4517.1989724047653,63703.737373225333,0.0
387154.6038362722,4680833.5216966402,-32500.0,18654.716810306873,1920.6731900313239,1474.4752871695785,-19394.952656560978,8259.5767799344212,20022.531449949951,22997.950766065842,5152.3951610700187,11808.992421831217,-11808.992421831217,-5152.3951610700187,40801.376808387715,0.0
392154.6038362722,4680833.5216966402,-32500.0,16189.900225690959,2100.7286629407677,2117.0578008551961,-10655.975120732624,4592.7479798689428,6080.0911844171114,13711.564637638203,8059.453977701357,2227.8506138779512,-2227.8506138779512,-8059.453977701357,23982.243124214732,0.0
397154.6038362722,4680833.5216966402,-32500.0,11489.971558433232,2147.5149335570636,2333.4331024610187,-4364.3883182250784,2314.938020426157,429.29827471539772,7961.062633905105,7379.0327984831729,-1710.3502977605112,1710.3502977605112,-7379.0327984831729,13854.932016257426,0.0
402154.6038362722,4680833.5216966402,-32500.0,7257.1822598100553,2116.796312978991,2257.5746531558052,-954.37796116466086,919.92877225517384,-1357.5447255231595,4945.663258329153,5801.4795869567752,-2688.005697445029,2688.005697445029,-5801.4795869567752,8651.7709918539331,0.0
407154.6038362722,4680833.5216966402,-32500.0,4220.5081491414057,2042.1251685919924,2044.4990968793081,627.31916620610082,103.11811828897888,-1741.4132054427171,3652.5787397094264,4385.0268946205742,-2582.1075314077698,2582.1075314077698,-4385.0268946205742,6405.4383501631291,0.0
412154.6038362722,4680833.5216966402,-32500.0,2231.1365252125456,1933.9397278677509,1792.2381682498242,1278.6799528056956,-339.55125313900214,-1698.311082724586,3177.2347332021372,3325.0303344387526,-2213.5155001798953,2213.5155001798953,-3325.0303344387526,5511.7949173653615,0.0
417154.6038362722,4680833.5216966402,-32500.0,967.86036892704146,1799.807382832088,1548.0964668001723,1499.2434091014513,-549.7385906718805,-1542.7607280013094,2910.2417523471977,2556.9910366572658,-1846.0710708351762,1846.0710708351762,-2556.9910366572658,5046.2258183172144,0.0
422154.6038362722,4680833.5216966402,-32500.0,170.90937136932243,1649.3319790047478,1329.9977199183747,1525.0135105638424,-622.92531507049648,-1363.4042222033383,2676.2927654117084,1989.775364712772,-1535.700141376205,1535.700141376205,-1989.775364712772,4666.6908414926593,0.0
427154.6038362722,4680833.5216966402,-32500.0,-330.03285364132381,1492.4851951202461,1141.9469479733195,1461.7234193444699,-620.42761992928808,-1185.3215229668979,2445.376406866867,1558.6718337223222,-1280.5171952361022,1280.5171952361022,-1558.6718337223222,4290.0401422001041,0.0
432154.6038362722,4680833.5216966402,-32500.0,-640.15799555289652,1337.5919134678124,982.29601617925516,1357.9557947861447,-579.74543479890656,-1017.7918351557879,2217.8491761713512,1223.8864987461191,-1069.3673029323784,1069.3673029323784,-1223.8864987461191,3910.9538971000766,0.0
437154.6038362722,4680833.5216966402,-32500.0,-824.68544643067276,1190.5038157448753,847.55088732390584,1237.7993110503,-522.75719024728039,-865.50992828699987,1999.3079876502466,960.82033190147513,-893.07998436025537,893.07998436025537,-960.82033190147513,3540.405884245401,0.0
442154.6038362722,4680833.5216966402,-32500.0,-925.3021953311636,1054.7006805296708,733.95152423356365,1114.196212296152,-461.59745515268662,-730.74620450319196,1794.5724937002126,753.11989077632256,-745.28069337003922,745.28069337003922,-753.11989077632256,3188.8640602628957,0.0
447154.6038362722,4680833.5216966402,-32500.0,-969.59121700118874,931.79788068385392,638.05257506077669,994.38285054087589,-402.56720305285859,-613.96654970518398,1606.5044376202022,588.97011953878291,-621.37064110079746,621.37064110079746,-588.97011953878291,2862.967755332535,0.0
452154.6038362722,4680833.5216966402,-32500.0,-976.3031739971932,822.11926259578172,556.88752834584864,882.31119429116256,-348.60060294049572,-514.36709951882199,1436.2139717728005,459.31616097552984,-517.71895279200612,517.71895279200612,-459.31616097552984,2565.8232771973162,0.0
457154.6038362722,4680833.5216966402,-32500.0,-958.39325398173526,725.18224547526063,487.97119519589205,779.90661921373578,-300.76188015545051,-430.39236223210821,1283.571711200341,357.0086308454126,-431.25640203567224,431.25640203567224,-357.0086308454126,2298.0159572497105,0.0
462154.6038362722,4680833.5216966402,-32500.0,-924.87128472012694,640.05629695991547,429.24706574317571,687.82380064221331,-259.12679142094021,-360.149980313789,1147.6833677991913,276.34592972422735,-359.31217408943184,359.31217408943184,-276.34592972422735,2058.5451638567001,0.0
467154.6038362722,4680833.5216966402,-32500.0,-881.99876815080893,565.60552722673037,379.0222318389898,605.94058898504807,-223.28760658007522,-301.6927208563128,1027.2449382084458,212.78026443119708,-299.55613976956835,299.55613976956835,-212.78026443119708,1845.5199413894445,0.0
472154.6038362722,4680833.5216966402,-32500.0,-834.09790037534253,500.64117566570479,335.90478429854841,533.68703427423281,-192.63408365763414,-253.18402135177169,920.78047116953326,162.69710947129153,-249.97336795632367,249.97336795632367,-162.69710947129153,1656.6262105548642,0.0
477154.6038362722,4680833.5216966402,-32500.0,-784.11666013722265,444.01126238456084,298.74963516718941,470.26279721406081,-166.5041631931916,-212.97983876511492,826.79110808863788,123.23590866419374,-208.8423776056581,208.8423776056581,-123.23590866419374,1489.4234039211121,0.0
482154.6038362722,4680833.5216966402,-32500.0,-734.03002636096846,394.64839115219314,266.6132334876807,414.77656265917858,-144.26009905151943,-179.65691568599064,743.84183369930713,92.140945174802326,-174.70922505801718,174.70922505801718,-92.140945174802326,1341.5217254774277,0.0
267154.6038362722,4685833.5216966402,-32500.0,-934.78171017893953,376.75331728478119,342.96540764934491,-451.83978034616854,135.31997686057306,-165.77968957010543,844.95984226409905,123.28845369016628,55.23563533086557,-55.23563533086557,-123.28845369016628,1527.9571084816525,0.0
272154.6038362722,4685833.5216966402,-32500.0,-1027.2263233542433,427.94990995290607,390.38381460107956,-517.7276619986344,156.76014259773714,-194.7359027961372,950.37513750444998,156.9438792299793,53.343314660363788,-53.343314660363788,-156.9438792299793,1717.4930401094689,0.0
277154.6038362722,4685833.5216966402,-32500.0,-1131.262605026664,488.23219359256871,446.62946838349905,-595.68574545244746,182.35191918484352,-229.30398164870485,1073.5487002461773,198.85324890653709,49.993892743913975,-49.993892743913975,-198.85324890653709,1938.9359466269123,0.0
282154.6038362722,4685833.5216966402,-32500.0,-1248.8075832753777,559.64328663273182,513.78435867565827,-688.6849522116612,213.04708076632096,-270.71135533629206,1218.4788298074629,251.20174811032518,44.858320379243025,-44.858320379243025,-251.20174811032518,2199.5563066259529,0.0
287154.6038362722,4685833.5216966402,-32500.0,-1382.209142614907,644.81272293025916,594.52602458890669,-800.80316977991242,250.0602329676546,-320.60074883022418,1390.4030349723935,316.90017985886107,37.56345841011742,-37.56345841011742,-316.90017985886107,2508.9387219906012,0.0
292154.6038362722,4685833.5216966402,-32500.0,-1534.2936893195956,747.17575226530278,692.32404562573254,-937.81810331137933,294.96496458170446,-381.34145088537997,1596.3193458600811,399.96636765168421,27.636736534534862,-27.636736534534862,-399.96636765168421,2879.9787655551168,0.0
297154.6038362722,4685833.5216966402,-32500.0,-1708.2659711843389,871.29855595674474,811.70379129802359,-1108.1587929062712,349.84235728225644,-456.67520059549122,1845.7728969568755,506.22032048210019,14.311705163601829,-14.311705163601829,-506.22032048210019,3330.3838278091157,0.0
302154.6038362722,4685833.5216966402,-32500.0,-1907.1724879170508,1023.3722894262326,958.59380545291458,-1324.3927576501017,417.52244727438972,-553.05512227107965,2152.0440559932522,644.60148892114466,-4.0359559519633876,4.0359559519633876,-644.60148892114466,3884.9147254737572,0.0
307154.6038362722,4685833.5216966402,-32500.0,-2132.2486550510475,1211.9815509233349,1140.7615944930583,-1605.4113517369926,501.9988386554453,-682.38039256487593,2533.9256479434216,829.71469212409886,-31.360969792168589,31.360969792168589,-829.71469212409886,4578.6486603371668,0.0
312154.6038362722,4685833.5216966402,-32500.0,-2378.645434519467,1449.3259027230224,1368.3030579446029,-1979.2188457043412,609.17781598382101,-867.42572177032673,3018.3210755277569,1086.7526431385204,-77.525407793420186,77.525407793420186,-1086.7526431385204,5461.4830284327363,0.0
317154.6038362722,4685833.5216966402,-32500.0,-2625.4020538935874,1753.1997571837385,1654.0320326884487,-2485.2226212695236,748.30065237774943,-1152.1331975412181,3643.8803854738308,1460.8244241580533,-166.48952099410394,166.48952099410394,-1460.8244241580533,6603.7341299107093,0.0
322154.6038362722,4685833.5216966402,-32500.0,-2813.6797812222558,2150.2381102856848,2013.3133323684447,-3171.8961763882335,934.76951185170276,-1619.6326869786672,4465.6639561374805,2033.7952714672249,-353.96780707349876,353.96780707349876,-2033.7952714672249,8101.6469841448252,0.0
327154.6038362722,4685833.5216966402,-32500.0,-2803.4052003162283,2681.1993332250991,2462.1669790484284,-4077.8585839145439,1196.0054973036963,-2419.1691741223626,5559.9386078394373,2951.7820299447158,-762.65690479228101,762.65690479228101,-2951.7820299447158,10079.446120869286,0.0
332154.6038362722,4685833.5216966402,-32500.0,-2297.3537522572383,3409.0475494126417,3010.9284863893281,-5166.8284204843421,1584.0330503425084,-3791.1884573588263,7025.9242268668258,4460.3645795209104,-1644.2002768566465,1644.2002768566465,-4460.3645795209104,12681.47247602724,0.0
337154.6038362722,4685833.5216966402,-32500.0,-740.25850982498855,4428.3475298292269,3647.9334772922334,-6155.9852402621509,2202.866244369337,-6034.706895134691,8979.2262122718439,6915.9138437913352,-3460.8898552099436,3460.8898552099436,-6915.9138437913352,16049.846604958122,0.0
342154.6038362722,4685833.5216966402,-32500.0,2708.1047946103618,5860.9195332695854,4304.2838748133545,-6158.0915643374601,3264.469695271895,-9231.2432376038378,11542.672709758775,10648.175455823392,-6894.3693017899468,6894.3693017899468,-10648.175455823392,20320.946146659091,0.0
347154.6038362722,4685833.5216966402,-32500.0,8766.810756165889,7767.3730736714742,4792.6058388679785,-3217.9371435649145,5167.8739943697501,-12291.501071313669,14893.627843774382,15340.692825640182,-12409.391138303681,12409.391138303681,-15340.692825640182,25840.648830378126,0.0
352154.6038362722,4685833.5216966402,-32500.0,16572.461453737989,9783.1346665417041,4736.6193987158176,5347.4867373373127,8404.6032124005524,-10967.571634082693,19493.764811959627,18530.15591943563,-18540.343663643325,18540.343663643325,-18530.15591943563,34020.716897427468,0.0
357154.6038362722,4685833.5216966402,-32500.0,21797.310424901938,10513.648254972524,3585.792495695478,19637.816284984932,12521.890608930642,3151.0168797851238,26270.849443971838,14457.22980305887,-18939.643670167919,18939.643670167919,-14457.22980305887,47944.775070165117,0.0
362154.6038362722,4685833.5216966402,-32500.0,18506.391021801672,8486.1342486197482,1025.0941684748959,31783.474808076917,14160.90775503564,36359.553131299152,35588.243270381667,-1642.7657920430706,-3453.0560934024138,3453.0560934024138,1642.7657920430706,69171.039640968753,0.0
367154.6038362722,4685833.5216966402,-32500.0,6899.954556009784,5743.1553224811314,-1965.1452088113026,27287.671590691691,9581.3631702520106,78830.238556242708,47256.856777834517,-22911.568268158087,29338.629456546929,-29338.629456546929,22911.568268158087,92186.956866293709,0.0
372154.6038362722,4685833.5216966402,-32500.0,-194.56827274662646,6124.2167276647151,-3231.4905554469415,1949.4271362520383,2196.5037714359978,99868.244013104239,53991.819048780293,-29934.139785782219,57549.711949786433,-57549.711949786433,29934.139785782219,102294.01282733909,0.0
377154.6038362722,4685833.5216966402,-32500.0,6728.5440154858115,8353.6957978585397,-2142.7896308775539,-22436.656146798858,-1241.0006703570539,81554.687921428354,48307.853319337693,-16203.149652008113,56479.085407905644,-56479.085407905644,16203.149652008113,89808.928432246335,0.0
382154.6038362722,4685833.5216966402,-32500.0,16861.694887931197,8860.5341343918553,-172.11994097368168,-27424.186308301152,-470.42867419886716,45834.755155415005,35108.972300689675,1342.5101113994533,34504.393728617026,-34504.393728617026,-1342.5101113994533,64152.629730835106,0.0
387154.6038362722,4685833.5216966402,-32500.0,19658.625432444158,7340.0758129831866,1390.651487059213,-19232.243160854599,1030.9055273262809,18288.503054698565,22167.94076152502,10031.984059993652,13439.813206352706,-13439.813206352706,-10031.984059993652,39812.343763400444,0.0
392154.6038362722,4685833.5216966402,-32500.0,16173.129090868168,5318.2019275667699,2261.6988517626341,-9510.5788067152534,1543.624495494754,4227.8217943957579,13028.067344215442,10931.046118823062,1663.6502882735367,-1663.6502882735367,-10931.046118823062,23095.311672669093,0.0
397154.6038362722,4685833.5216966402,-32500.0,10907.364072485563,3756.4157393486093,2592.3777712718011,-3001.1938370035023,1228.2097599241863,-1173.6583588832887,7780.5554317110546,8778.5914796498255,-2884.5916282248181,2884.5916282248181,-8778.5914796498255,13730.095875867804,0.0
402154.6038362722,4685833.5216966402,-32500.0,6413.5389680478074,2789.1150477856936,2585.7021518565994,363.67554379877765,650.60345479147384,-2687.0446021487123,5342.6892629459853,6347.7661159839172,-3898.2145336041576,3898.2145336041576,-6347.7661159839172,9361.7054904372126,0.0
407154.6038362722,4685833.5216966402,-32500.0,3282.4624538351522,2230.7595647454687,2401.6955433457169,1810.4431823357709,144.37443781254376,-2811.6719442857598,4371.6195644596355,4478.0172008040126,-3637.6687082418912,3637.6687082418912,-4478.0172008040126,7574.379359288967,0.0
412154.6038362722,4685833.5216966402,-32500.0,1292.5861888294653,1891.9451486175938,2144.8862204306974,2296.7662270632077,-194.26926056638447,-2535.453149287368,3868.4181225564835,3189.0920905368807,-3069.8252306630197,3069.8252306630197,-3189.0920905368807,6732.008232701115,0.0
417154.6038362722,4685833.5216966402,-32500.0,82.307173542161948,1656.8956566656914,1874.3655088919045,2350.3525502705966,-381.06618299648397,-2182.754725901229,3487.5876690131572,2313.8676856040524,-2514.2702775348321,2514.2702775348321,-2313.8676856040524,6135.561655869913,0.0
422154.6038362722,4685833.5216966402,-32500.0,-633.96723493535751,1469.4185124916992,1619.2328321462544,2222.5047995611944,-461.24993852127386,-1845.2790728876223,3146.6913747142553,1705.457759813127,-2045.4480533651833,2045.4480533651833,-1705.457759813127,5586.4053191409148,0.0
427154.6038362722,4685833.5216966402,-32500.0,-1043.583648692827,1306.3806361806094,1391.3506772560381,2025.9935427954733,-476.20421583185868,-1545.1162185662786,2827.8327075105676,1268.7395248489149,-1664.2170005064961,1664.2170005064961,-1268.7395248489149,5051.315762445668,0.0
432154.6038362722,4685833.5216966402,-32500.0,-1262.3400295571232,1159.69001562464,1193.6238811273533,1811.0384177623591,-455.40112804341203,-1285.6180191144535,2529.6498329468927,946.91369405907483,-1355.9780305514237,1355.9780305514237,-946.91369405907483,4537.164787482393,0.0
437154.6038362722,4685833.5216966402,-32500.0,-1361.3994275787436,1027.0063429924496,1024.7317931585781,1600.3440746911654,-417.48033004515457,-1065.036750885231,2254.4928074960258,705.70050594369911,-1106.3010771612724,1106.3010771612724,-705.70050594369911,4055.2055236394663,0.0
442154.6038362722,4685833.5216966402,-32500.0,-1385.253528318347,907.68612175259045,881.6357378595776,1404.1377944502717,-373.35820111504592,-879.90677803532492,2004.3217989506675,523.23665821657175,-903.62015420764521,903.62015420764521,-523.23665821657175,3612.9319565302098,0.0
447154.6038362722,4685833.5216966402,-32500.0,-1362.348260262183,801.27993795408418,760.82866577969514,1226.6158364664457,-329.00738116185124,-726.05977863586418,1779.6964454062108,384.64065527462935,-738.90032710788591,738.90032710788591,-384.64065527462935,3213.4771956437808,0.0
452154.6038362722,4685833.5216966402,-32500.0,-1311.20027235831,707.11616595078294,658.91589963863601,1068.8736071187182,-287.42820420369145,-599.14178626848923,1579.9004199606129,279.23769008106603,-604.97336250587375,604.97336250587375,-279.23769008106603,2856.7296298512792,0.0
457154.6038362722,4685833.5216966402,-32500.0,-1243.9821617170364,624.28368941446445,572.85367732914574,930.37014710203061,-249.91457410202446,-494.95896140461389,1403.3603071856646,199.11031133364125,-496.05485427823021,496.05485427823021,-199.11031133364125,2540.5519312843799,0.0
462154.6038362722,4685833.5216966402,-32500.0,-1168.701717807025,551.72430417462022,500.01818649376747,809.72762574905994,-216.82344911299958,-409.69038071227664,1248.0405613080375,138.28015061073049,-407.43457661591128,407.43457661591128,-138.28015061073049,2261.7161259668173,0.0
467154.6038362722,4685833.5216966402,-32500.0,-1090.5842856181894,488.33132055116147,438.19709868344711,705.19467313951691,-188.02674599247186,-339.99117646822407,1111.7361562197189,92.196170088882297,-335.26972880833341,335.26972880833341,-92.196170088882297,2016.5398465265721,0.0
472154.6038362722,4685833.5216966402,-32500.0,-1012.9771273221165,433.02202245714909,385.54792556461513,614.91656201633407,-163.16857670825738,-283.01501129564338,992.25979627119625,57.383176167725225,-276.43078265675911,276.43078265675911,-57.383176167725225,1801.2801034997433,0.0
477154.6038362722,4685833.5216966402,-32500.0,-937.95723680583649,384.78304931306599,340.5467718238379,537.08966479292792,-141.80753949125048,-236.38821856009145,887.55115186006674,31.185379413795175,-228.37754045055308,228.37754045055308,-31.185379413795175,1612.3618791247463,0.0
267154.6038362722,4690833.5216966402,-32500.0,-782.01107875920661,436.6889723339828,302.14556238518799,-394.49821103395362,156.81810562719053,-149.81816927594207,789.01528225562379,203.85586805137649,-5.5570327132993071,5.5570327132993071,-203.85586805137649,1415.0693982969642,0.0
272154.6038362722,4690833.5216966402,-32500.0,-847.39373477781123,497.49326112481805,341.32020612273141,-447.95524663745181,182.54328396231176,-174.74350630055886,884.45092699832821,250.04057623045696,-18.398920047347644,18.398920047347644,-250.04057623045696,1584.4137573071216,0.0
277154.6038362722,4690833.5216966402,-32500.0,-918.29037644284631,569.35650393561173,387.27906319248086,-510.17885420940229,213.4746174187012,-204.09280865052767,995.39800771102637,306.94034247240006,-35.193052997209605,35.193052997209605,-306.94034247240006,1781.071958566924,0.0
282154.6038362722,4690833.5216966402,-32500.0,-994.92429702173604,654.8382991609742,441.49348324130096,-583.07172624275699,250.89429647569989,-238.68755204035998,1125.2265532107658,377.34593950374585,-56.988775422373806,56.988775422373806,-377.34593950374585,2010.9996268830264,0.0
287154.6038362722,4690833.5216966402,-32500.0,-1077.3687143098161,757.25461989048188,505.81092084738441,-669.21830685469035,296.48697552585321,-279.59902750286557,1278.3252619881707,464.95740791899289,-85.146976623150977,85.146976623150977,-464.95740791899289,2281.9855813217264,0.0
292154.6038362722,4690833.5216966402,-32500.0,-1165.3535052797574,880.96068488290791,582.55620992902948,-772.26592751893429,352.51575217280362,-328.37309328265542,1460.5244386788495,574.82518375445875,-121.52030856266842,121.52030856266842,-574.82518375445875,2604.4230894685511,0.0
297154.6038362722,4690833.5216966402,-32500.0,-1257.8097444710893,1031.7571122584598,674.65034512855129,-897.53327374033938,422.10618677094322,-387.52714171186773,1679.7294926123691,714.11178831184111,-168.83820839315638,168.83820839315638,-714.11178831184111,2992.4562582078861,0.0
302154.6038362722,4690833.5216966402,-32500.0,-1351.8096059897384,1217.4699473648966,785.73253200856777,-1052.9270840771387,509.71958229743251,-461.61810215189382,1946.8671793250805,893.45416306049947,-231.55678049306272,231.55678049306272,-893.45416306049947,3465.6620094830364,0.0
307154.6038362722,4690833.5216966402,-32500.0,-1440.1542841741891,1448.7570107958654,920.23933684596147,-1250.1551084789248,621.95962886448956,-559.45533322047527,2277.2768420683792,1129.4415852537254,-317.73700910433956,317.73700910433956,-1129.4415852537254,4051.4377518435886,0.0
312154.6038362722,4690833.5216966402,-32500.0,-1506.0482185795215,1740.1556675277075,1083.3206846515329,-1505.8271170269859,768.95871335134291,-698.47450382765373,2692.6962741304069,1449.1010996894513,-443.1184000501201,443.1184000501201,-1449.1010996894513,4788.1900575329637,0.0
317154.6038362722,4690833.5216966402,-32500.0,-1511.7761290053738,2111.2255406507588,1280.2992073079502,-1840.7880939717734,966.7317715185053,-912.80417514339399,3223.957256308709,1897.7441437550608,-639.64788816464556,639.64788816464556,-1897.7441437550608,5729.1457034224431,0.0
322154.6038362722,4690833.5216966402,-32500.0,-1375.8621290467024,2587.1467482583871,1515.0006498574303,-2272.6449872536568,1240.9976574669033,-1266.4533873926628,3914.3538453959877,2551.5883506607979,-972.34325095068482,972.34325095068482,-2551.5883506607979,6946.0584782395554,0.0
327154.6038362722,4690833.5216966402,-32500.0,-930.62897106314892,3196.8248083247317,1785.4926553652874,-2788.2768784573477,1632.7282402915278,-1869.5469706985432,4823.3016645094758,3534.2439883663146,-1569.4662236634306,1569.4662236634306,-3534.2439883663146,8531.6489685149063,0.0
332154.6038362722,4690833.5216966402,-32500.0,145.26842177174669,3963.4236799795244,2074.3082232077682,-3266.1410368555325,2203.9635045359018,-2879.6814746309683,6029.9838637547437,5025.0114441294972,-2665.9976825397043,2665.9976825397043,-5025.0114441294972,10602.280140881145,0.0
337154.6038362722,4690833.5216966402,-32500.0,2396.237382128269,4875.6549721827578,2328.3016150842659,-3292.9869125444725,3035.7861809542192,-4417.8816045042913,7641.993247186756,7209.457084518338,-4628.701488052805,4628.701488052805,-7209.457084518338,13321.757627416921,0.0
342154.6038362722,4690833.5216966402,-32500.0,6524.2846984425978,5817.5677585616322,2424.4961652799843,-1827.8638618289076,4189.5167384385932,-6191.8952052892455,9841.3038008386011,10024.953731538131,-7812.4788128080245,7812.4788128080245,-10024.953731538131,17046.62849595931,0.0
347154.6038362722,4690833.5216966402,-32500.0,12770.538220463859,6433.6862288487564,2141.060082130507,3072.0901495996832,5548.4027003122374,-6417.994438609463,13058.173145932669,12410.971025838486,-11796.043413834939,11796.043413834939,-12410.971025838486,22848.763410859854,0.0
352154.6038362722,4690833.5216966402,-32500.0,19232.487884654107,6000.904944862833,1250.3207671394746,13208.036581105034,6375.9872438157636,-98.222777697790235,18232.651428133344,11115.500377886516,-13375.60333212029,13375.60333212029,-11115.500377886516,33208.064544297435,0.0
357154.6038362722,4690833.5216966402,-32500.0,20831.535768163099,3805.7892051996528,2.2977777432929596,25866.239871826834,4623.473924122638,19748.896585257415,26290.947730285312,1636.9390980612645,-5111.2059997611668,5111.2059997611668,-1636.9390980612645,50271.735963545529,0.0
362154.6038362722,4690833.5216966402,-32500.0,14227.237678828031,918.76440801424428,-267.62953833214664,30898.425115502308,-2473.4993304342697,51957.72055378824,36748.455965769819,-14575.303085751559,18149.250977788088,-18149.250977788088,14575.303085751559,71173.125951533453,0.0
367154.6038362722,4690833.5216966402,-32500.0,4189.2533629107829,1438.9914069873998,1624.440127042529,19830.185762871755,-13722.663999363698,80266.494837128601,46114.261967594,-25777.433707161479,47535.529131895593,-47535.529131895593,25777.433707161479,87978.99900453056,0.0
372154.6038362722,4690833.5216966402,-32500.0,799.31211992774126,7260.9035551068282,4214.7036877236878,-2895.717776857301,-20767.463882843465,85091.816552527613,48433.201735068338,-20955.024209860876,62700.047326369924,-62700.047326369924,20955.024209860876,91138.244816480161,0.0
377154.6038362722,4690833.5216966402,-32500.0,7665.7770108667501,12947.001379464758,5233.1247420164545,-20252.261887012486,-17917.338279667434,63314.362133976989,41378.507205148817,-4353.7924773527084,52427.47582146636,-52427.47582146636,4353.7924773527084,77035.617619302197,0.0
382154.6038362722,4690833.5216966402,-32500.0,15607.713790509237,13602.815587308438,4783.0831788444566,-22114.986472555116,-9927.1816765383282,33352.31971817762,29429.948806634668,9400.3588072623861,29063.177714174297,-29063.177714174297,-9400.3588072623861,54241.100060670287,0.0
387154.6038362722,4690833.5216966402,-32500.0,17273.478095331451,10577.368007996887,4040.416442471128,-14564.817531473136,-3354.4711553429679,11724.092847130221,18488.559471360819,13919.089984761364,9608.8406476453802,-9608.8406476453802,-13919.089984761364,33738.339341432176,0.0
392154.6038362722,4690833.5216966402,-32500.0,13877.646432165451,6990.4174937407224,3527.9030635143677,-6343.0643214225774,-70.230708860441922,922.74272001714849,11175.707124021546,12363.25029367919,-758.61126473502281,758.61126473502281,-12363.25029367919,20203.53413209067,0.0
397154.6038362722,4690833.5216966402,-32500.0,9081.8118388643215,4349.1992906286168,3208.3502386881023,-911.49021991021459,914.22744972688656,-3075.5572749517228,7419.8991400083169,9062.4559933122982,-4566.2051007771806,4566.2051007771806,-9062.4559933122982,13139.24717974502,0.0
402154.6038362722,4690833.5216966402,-32500.0,4989.1484755160782,2772.938698243297,2944.5337219791481,1854.5762771071743,866.77696732358106,-3988.363975451955,5827.555186068982,6135.3225842371039,-5194.2074416225032,5194.2074416225032,-6135.3225842371039,10102.497631728293,0.0
407154.6038362722,4690833.5216966402,-32500.0,2119.7087274420605,1922.8473897228134,2669.3967963147152,2965.8462985494275,531.48191068156984,-3788.3382512643307,5025.2916709096507,4059.2211962765614,-4672.7908198103069,4672.7908198103069,-4059.2211962765614,8762.5873534414168,0.0
412154.6038362722,4690833.5216966402,-32500.0,301.00019345953785,1473.7271566011364,2377.2296804189555,3230.608573979654,211.29189806554038,-3283.3819053586581,4459.2734471353551,2696.8564355768517,-3889.4202161182025,3889.4202161182025,-2696.8564355768517,7909.5238155423713,0.0
417154.6038362722,4690833.5216966402,-32500.0,-781.07075207354626,1221.4066434025749,2084.6001323824748,3112.5253910489173,-14.255417270730955,-2751.2142245444093,3981.5180843804055,1813.8967020840823,-3149.8740478226796,3149.8740478226796,-1813.8967020840823,7160.9268152649393,0.0
422154.6038362722,4690833.5216966402,-32500.0,-1388.1008560059786,1059.6318277808941,1808.1543039227511,2842.145495863726,-149.26986416683744,-2272.474123061877,3552.4797579790652,1231.1864677814829,-2529.1758636972454,2529.1758636972454,-1231.1864677814829,6441.5465618393218,0.0
427154.6038362722,4690833.5216966402,-32500.0,-1699.1854978278145,939.10926301099016,1558.0318838067917,2526.43904157201,-218.5673706729998,-1863.726925151766,3160.2642019574037,836.02966438392252,-2027.4304714247569,2027.4304714247569,-836.02966438392252,5754.1517665189112,0.0
432154.6038362722,4690833.5216966402,-32500.0,-1828.5851490023099,838.86264240486616,1338.2064835920662,2213.1722344120044,-245.73554667359682,-1522.5719941371171,2802.2889427313698,561.51184124644124,-1626.3911102520501,1626.3911102520501,-561.51184124644124,5112.7054373991086,0.0
437154.6038362722,4690833.5216966402,-32500.0,-1847.7406800771316,750.61938440215033,1148.5683413167346,1922.6659550778136,-248.01819803262805,-1241.4500618693621,2478.6880795063007,367.62431322941819,-1306.659452636861,1306.659452636861,-367.62431322941819,4526.9838304685063,0.0
442154.6038362722,4690833.5216966402,-32500.0,-1801.3655698864879,671.31937380298734,986.81259498209954,1662.4497884710279,-236.71455361760661,-1011.7537281557161,2189.3370959534941,229.48283216521003,-1051.7253361389305,1051.7253361389305,-229.48283216521003,4000.8966727461197,0.0
447154.6038362722,4690833.5216966402,-32500.0,-1717.6357961128028,599.82087789625939,849.70893113026216,1433.9851975426532,-218.78643029592538,-825.16018989436861,1933.0125157978164,130.83374716135808,-848.28227468105138,848.28227468105138,-130.83374716135808,3533.8898564640804,0.0
452154.6038362722,4690833.5216966402,-32500.0,-1614.3825135265531,535.56793246706889,733.83849398736027,1235.8586136462118,-198.33409885572155,-674.13780225237019,1707.5237106409729,60.591845398428234,-685.73880097295432,685.73880097295432,-60.591845398428234,3122.6346965230073,0.0
457154.6038362722,4690833.5216966402,-32500.0,-1502.8596139846468,478.10856006708292,635.97084860919563,1065.3735964359009,-177.66581698516194,-552.13746456202205,1510.0996881625422,10.955051515599848,-555.68071957565223,555.68071957565223,-10.955051515599848,2762.3461715769677,0.0
462154.6038362722,4690833.5216966402,-32500.0,-1390.0809694267259,426.95740520669636,553.22738608766042,919.37751887221987,-158.00397624792157,-453.62322041751025,1337.7449233119505,-23.679424308870352,-451.4269421922794,451.4269421922794,23.679424308870352,2447.6750245470735,0.0
467154.6038362722,4690833.5216966402,-32500.0,-1280.3033791835103,381.58297047024621,483.12713300753302,794.694981337066,-139.92975761622293,-374.01158074318693,1187.4892198969515,-47.382545773233744,-367.67772249685237,367.67772249685237,47.382545773233744,2173.2573308915012,0.0
472154.6038362722,4690833.5216966402,-32500.0,-1175.9864905667666,341.43100647179273,423.57380392615681,688.34690572088698,-123.65585392467284,-309.56415933020509,1056.5376961844343,-63.131271315078749,-300.23428054282897,300.23428054282897,63.131271315078749,1934.0238177160052,0.0
477154.6038362722,4690833.5216966402,-32500.0,-1078.4240847763112,305.95202809005104,372.81730839391611,597.65033303716632,-109.19100827220862,-257.26433602260829,942.34828077796942,-73.109474115685913,-245.77417283725489,245.77417283725489,73.109474115685913,1725.3549250821777,0.0
267154.6038362722,4695833.5216966402,-32500.0,-621.98130743178069,475.13425785486851,255.42646046182747,-334.13069691829151,170.63267766225422,-132.81277107001543,728.75795620680458,268.78050021607237,-58.822430151724774,58.822430151724774,-268.78050021607237,1295.941419742099,0.0
272154.6038362722,4695833.5216966402,-32500.0,-659.15948019994494,540.39820493873015,285.18914369002636,-374.52404093677666,198.54020851667718,-153.47121135436993,813.34130228432832,323.60061321107207,-80.551035277862042,80.551035277862042,-323.60061321107207,1443.9941144286825,0.0
277154.6038362722,4695833.5216966402,-32500.0,-695.58226262505707,617.18091569814248,319.41474527139889,-420.221054951116,232.0182053051833,-177.30903336269353,910.97068075421998,390.42220457344524,-108.05700765344207,108.05700765344207,-390.42220457344524,1614.5499946401349,0.0
282154.6038362722,4695833.5216966402,-32500.0,-729.75247001018772,708.02032253281141,358.88578781664796,-472.00189893708438,272.4086398446895,-204.72423413827769,1024.318398008993,472.21500109227964,-142.85256743647494,142.85256743647494,-472.21500109227964,1812.2023041599596,0.0
287154.6038362722,4695833.5216966402,-32500.0,-759.44828849431633,816.15095743900645,404.51655032872799,-530.8752948910842,321.46764934382082,-236.18716042012622,1156.825950571488,572.8529644407281,-186.90879486846671,186.90879486846671,-572.8529644407281,2042.8842454861274,0.0
292154.6038362722,4695833.5216966402,-32500.0,-781.30672360164147,945.73398631980876,457.35157679150984,-598.22885148110151,381.5474536602328,-272.36400535375884,1313.0131864836128,697.51186148718341,-242.88937505108024,242.88937505108024,-697.51186148718341,2314.4109242453214,0.0
297154.6038362722,4695833.5216966402,-32500.0,-790.05762546291407,1102.1600487795874,518.53244666030287,-676.06293888553955,455.88982466202617,-314.43082178803184,1498.934414801035,853.32504472712424,-314.59969066806173,314.59969066806173,-853.32504472712424,2637.2691421205054,0.0
302154.6038362722,4695833.5216966402,-32500.0,-777.05194498299045,1292.4197904218304,589.19489643322254,-767.28898722527731,549.10916618416877,-364.79339498999093,1722.8451311429908,1050.4946749270721,-407.88787757961427,407.88787757961427,-1050.4946749270721,3025.7473696399975,0.0
307154.6038362722,4695833.5216966402,-32500.0,-727.36566027333788,1525.472529467844,670.22099603595814,-875.91528497155821,667.98838140190662,-428.60953721452864,1996.1542487144325,1304.1835686762249,-532.475400734083,532.475400734083,-1304.1835686762249,3499.4961949927224,0.0
312154.6038362722,4695833.5216966402,-32500.0,-614.08758464774678,1812.3606266146596,761.70341720818681,-1006.4594707318921,822.75121496538839,-516.75371432515749,2334.7378988013083,1637.6507578516703,-705.62401108897382,705.62401108897382,-1637.6507578516703,4085.5792131229291,0.0
317154.6038362722,4695833.5216966402,-32500.0,-387.28522800367517,2165.3444556333561,861.86727373265433,-1160.6262089227837,1028.9220267766457,-650.97647269929109,2760.688736381423,2087.040230371812,-959.17584393960612,959.17584393960612,-2087.040230371812,4821.0638514565408,0.0
322154.6038362722,4695833.5216966402,-32500.0,46.242090101025845,2594.2118857171376,965.04843324001649,-1326.1245464978797,1309.4215236164312,-871.15264433808659,3304.6585072853036,2707.2517843856849,-1351.9593444331867,1351.9593444331867,-2707.2517843856849,5756.5706230467431,0.0
327154.6038362722,4695833.5216966402,-32500.0,856.36458985985143,3095.4942830648324,1058.2881125396509,-1445.673319350389,1694.7091579447001,-1239.8721345842705,4009.5832558304392,3574.1805579614479,-1987.9118051135106,1987.9118051135106,-3574.1805579614479,6963.5154208245258,0.0
332154.6038362722,4695833.5216966402,-32500.0,2332.2166890474846,3625.8969309174681,1116.8045914047293,-1342.3685552849195,2212.9277301492593,-1823.2571014423218,4939.8293592512618,4765.5078873934717,-3029.5835124380783,3029.5835124380783,-4765.5078873934717,8557.6263628589968,0.0
337154.6038362722,4695833.5216966402,-32500.0,4893.6492653676924,4046.3455764298947,1102.2774720360969,-568.23704395080676,2846.0955258458739,-2580.5822154948564,6212.9958563820728,6268.5561720303413,-4656.6101401883643,4656.6101401883643,-6268.5561720303413,10783.749009698289,0.0
342154.6038362722,4695833.5216966402,-32500.0,8921.2943942604579,4032.3053036772035,980.80801594485922,1810.193060815863,3394.4401435318096,-2997.8507025006566,8107.5487883621918,7703.4818991150687,-6806.6034095477726,6806.6034095477726,-7703.4818991150687,14270.566249535783,0.0
347154.6038362722,4695833.5216966402,-32500.0,14065.676110460117,3030.0956978697695,809.57719962874467,7173.0182866369141,3162.6115489444524,-1247.2776202319894,11305.295379292087,7764.3559291795045,-8355.9487568981476,8355.9487568981476,-7764.3559291795045,20472.616595970401,0.0
352154.6038362722,4695833.5216966402,-32500.0,17948.9295259051,606.38695575908628,965.76997857146227,15933.135221934368,576.19895375788531,6613.2074678243198,16924.662695435447,3928.0231546350933,-5729.916040028349,5729.916040028349,-3928.0231546350933,31434.112865106388,0.0
357154.6038362722,4695833.5216966402,-32500.0,16515.385944227615,-2370.491353085054,2382.4164284041767,24035.424745369815,-6249.4712245083729,24050.379609015417,25186.386471026119,-5176.9192209974017,6281.1376276349301,-6281.1376276349301,5176.9192209974017,47224.348383265053,0.0
362154.6038362722,4695833.5216966402,-32500.0,9455.4840879281182,-3018.5674867112466,5975.5811821543984,23379.689256010141,-16702.431396427877,45939.071540111989,33610.7473434321,-14582.547663070545,26841.865075382455,-26841.865075382455,14582.547663070545,63041.254122979473,0.0
367154.6038362722,4695833.5216966402,-32500.0,2772.5085128764649,1107.4376395281861,10807.546588393452,11676.141543532054,-25804.304659436832,58934.115169636039,38476.631991152244,-15635.818578027624,44505.334375005441,-44505.334375005441,15635.818578027624,71956.165590973033,0.0
372154.6038362722,4695833.5216966402,-32500.0,2133.7567726128059,8483.4232434093683,13657.177149873321,-4018.7380487910814,-27559.107250563706,55102.870215807838,37434.739389046859,-6394.1442446603724,47820.412432203841,-47820.412432203841,6394.1442446603724,69792.551096599651,0.0
377154.6038362722,4695833.5216966402,-32500.0,7374.7429123253796,13834.846443756269,12607.083123347287,-13948.463431162107,-20941.771759606694,37940.919951680975,30735.67982154353,6244.257388337679,35686.369881627645,-35686.369881627645,-6244.257388337679,57230.211982812019,0.0
382154.6038362722,4695833.5216966402,-32500.0,12558.275519256869,13962.616676658428,9352.5423600698832,-14166.829417563702,-11256.110451639974,18384.836545076043,21638.900353085781,13944.402923287549,17722.462924153551,-17722.462924153551,-13944.402923287549,40372.827080543953,0.0
387154.6038362722,4695833.5216966402,-32500.0,13421.680346399531,10593.198771076759,6347.6171921933956,-8717.3385934816051,-3809.0195485143058,4647.933109130965,13866.344606471284,14783.125250667104,3724.073082546106,-3724.073082546106,-14783.125250667104,25944.255912849494,0.0
392154.6038362722,4695833.5216966402,-32500.0,10712.872198512219,6719.5988060900017,4475.7406858761669,-2879.8023468786901,57.167445541031711,-2220.0187695196182,9302.5429628051879,11829.936658740095,-3608.6479520148287,3608.6479520148287,-11829.936658740095,16906.979323844087,0.0
397154.6038362722,4695833.5216966402,-32500.0,6881.3709472310529,3840.6151247562957,3499.8578532230663,1061.6204122700337,1394.3845479619754,-4650.0602256038328,7239.2564913958122,8186.6726412826101,-6136.5287250683759,6136.5287250683759,-8186.6726412826101,12604.755543315134,0.0
402154.6038362722,4695833.5216966402,-32500.0,3499.4398918984948,2113.0577223373662,2983.0118272055047,3085.2041345574171,1500.1661610432084,-4973.4917988173784,6198.4496726511306,5245.2827316546009,-6264.1696786768171,6264.1696786768171,-5245.2827316546009,10788.122990951868,0.0
407154.6038362722,4695833.5216966402,-32500.0,1051.0076258511053,1204.3021514160273,2642.640025967713,3844.7673161409548,1181.4783742047214,-4509.1262379498694,5481.2197078023437,3228.4619014125446,-5502.093655015623,5502.093655015623,-3228.4619014125446,9756.2022885317347,0.0
412154.6038362722,4695833.5216966402,-32500.0,-532.35710217069004,767.28170223098402,2355.4553031762571,3921.4578973571715,804.91739740293735,-3838.690012825808,4879.1349066499151,1938.6012115477322,-4551.5013188665907,4551.5013188665907,-1938.6012115477322,8869.1996709990435,0.0
417154.6038362722,4695833.5216966402,-32500.0,-1473.575358682468,569.2091380607842,2085.1100344292581,3677.7114557838586,494.70356053103376,-3179.3351125015674,4343.3972160622616,1131.914267388099,-3671.8759060312104,3671.8759060312104,-1131.914267388099,7995.4360111217866,0.0
422154.6038362722,4695833.5216966402,-32500.0,-1982.7650030230755,480.69829466576601,1828.8517178495435,3308.164046055676,271.75738251460024,-2598.8424928459176,3858.4943576907312,626.74861021309675,-2932.4616482067386,2932.4616482067386,-626.74861021309675,7141.6273779193953,0.0
427154.6038362722,4695833.5216966402,-32500.0,-2215.7074280066477,437.57081557070876,1592.0007432138266,2909.2726650613963,122.76662914597885,-2110.2211453801979,3417.1039103632534,307.39372105942687,-2333.7585915717118,2333.7585915717118,-307.39372105942687,6333.982144222281,0.0
432154.6038362722,4695833.5216966402,-32500.0,-2277.7243329943799,410.72645119656937,1378.9714786969867,2525.9551028575038,28.033427858974761,-1707.9127700148881,3017.0879217063152,104.00644095091252,-1856.3479055603223,1856.3479055603223,-104.00644095091252,5591.2678113350694,0.0
437154.6038362722,4695833.5216966402,-32500.0,-2237.3126168446993,388.21279490527473,1191.4314208215098,2177.2226071813293,-29.504151318312143,-1380.7951371409213,2658.1570108552778,-25.393327611621089,-1478.0040748472491,1478.0040748472491,25.393327611621089,4922.2720889912616,0.0
442154.6038362722,4695833.5216966402,-32500.0,-2138.2833021019078,365.85563859081913,1028.7933478986067,1869.2771133176338,-62.494780118736408,-1116.839680546781,2339.43926556222,-106.57206117975011,-1178.8304053332845,1178.8304053332845,106.57206117975011,4328.3472541475476,0.0
447154.6038362722,4695833.5216966402,-32500.0,-2008.3903817793339,342.7301472413921,889.12073007661979,1602.0900851557515,-79.696427371778398,-904.81920935890787,2058.8493729219817,-155.82844472651084,-942.32159953741927,942.32159953741927,155.82844472651084,3806.2257666970963,0.0
452154.6038362722,4695833.5216966402,-32500.0,-1865.031193056853,319.0995473003656,769.86497452361027,1372.7477862968938,-86.965330245439091,-734.91117472818075,1813.3567700239137,-183.77724222718825,-755.19064450289852,755.19064450289852,183.77724222718825,3350.1600093372094,0.0
457154.6038362722,4695833.5216966402,-32500.0,-1718.9255223091648,295.5360939670897,668.3397217699586,1177.1758895930366,-88.140710943848845,-598.83400235782608,1599.44030733012,-197.4928862367459,-606.88782197193552,606.88782197193552,197.4928862367459,2953.3447362768165,0.0
462154.6038362722,4695833.5216966402,-32500.0,-1576.486973687721,272.58188268916291,581.98489484927222,1011.0307696535382,-85.706823135447834,-489.77169163602252,1413.4654919101717,-201.76557778964064,-489.09860477074352,489.09860477074352,201.76557778964064,2608.7920240138233,0.0
467154.6038362722,4695833.5216966402,-32500.0,-1441.3585343690872,250.64432477095914,508.49164959313811,870.14622812768459,-81.253613231677491,-402.20595101116572,1251.9319826928331,-199.86899991427157,-395.29859170115009,395.29859170115009,199.86899991427157,2309.8267320635746,0.0
472154.6038362722,4695833.5216966402,-32500.0,-1315.4133575502196,229.98664886774526,445.84505625783777,750.73902807501929,-75.786642138256326,-331.71909552916441,1111.612073240932,-194.04908121055604,-320.38120126864311,320.38120126864311,194.04908121055604,2050.3378970112776,0.0
477154.6038362722,4695833.5216966402,-32500.0,-1199.4082545391273,210.75086596861712,392.32178000132996,649.48232660303643,-69.93172918401217,-274.80062309020531,989.61189211655767,-185.84578035510623,-260.35446287147971,260.35446287147971,185.84578035510623,1824.877814627004,0.0
267154.6038362722,4700833.5216966402,-32500.0,-461.96669417601549,491.86420895123462,206.90412290150891,-273.26887289802147,176.68112782525134,-115.41801325574184,665.94264812951224,316.82255051389103,-102.88400511199858,102.88400511199858,-316.82255051389103,1174.3744515428634,0.0
272154.6038362722,4700833.5216966402,-32500.0,-471.87606934834469,556.51891122487359,227.31339860579317,-300.79037588400161,204.68700506208401,-131.80681627287126,739.30788785873779,376.182144919667,-131.00258383519707,131.00258383519707,-376.182144919667,1301.1513844706269,0.0
277154.6038362722,4700833.5216966402,-32500.0,-475.2831552854712,631.71511490330352,250.02453036651997,-330.31270423603695,237.96066943748653,-150.16965030492651,823.21327891682859,447.63700092370914,-165.92065726312697,165.92065726312697,-447.63700092370914,1445.8042584123891,0.0
282154.6038362722,4700833.5216966402,-32500.0,-469.23575663593908,719.48220333685572,275.23828801292433,-361.58655403182775,277.64958952026234,-170.50977728027092,919.6399928008168,533.92288335741023,-209.30754018577201,209.30754018577201,-533.92288335741023,1611.6920892071012,0.0
287154.6038362722,4700833.5216966402,-32500.0,-449.62907662834419,822.29213944062747,303.10977087773648,-394.19158403602978,325.21003828826355,-192.74071068323843,1031.0995866372227,638.50468421719063,-263.29836438626933,263.29836438626933,-638.50468421719063,1803.1018723649224,0.0
292154.6038362722,4700833.5216966402,-32500.0,-410.66071908085331,943.14770364387709,333.68963967007028,-427.49112612584327,382.52899354085031,-216.71447343107874,1160.8387896435572,765.84706784520722,-330.70150595576115,330.70150595576115,-765.84706784520722,2025.6166220091536,0.0
297154.6038362722,4700833.5216966402,-32500.0,-343.92282232095886,1085.650654278553,366.81992783832067,-460.55646444829318,452.11606526167145,-242.35968551818826,1313.1371845298468,921.83508606905912,-415.37593033747817,415.37593033747817,-921.83508606905912,2286.6483494713307,0.0
302154.6038362722,4700833.5216966402,-32500.0,-236.82638620377793,1253.9726526395375,401.95453383885547,-491.97489622571686,537.40544356709484,-270.06141766313317,1493.7326964917411,1114.4348399729809,-522.94617730671052,522.94617730671052,-1114.4348399729809,2596.1990493178564,0.0
307154.6038362722,4700833.5216966402,-32500.0,-69.79848215826496,1452.5303330442216,437.86492150861801,-519.27939577434518,643.20892702203878,-301.50860499553107,1710.4171578191508,1354.7042321200972,-662.16491373511121,662.16491373511121,-1354.7042321200972,2967.9423867962892,0.0
312154.6038362722,4700833.5216966402,-32500.0,188.7182286482217,1684.8795607890686,472.19698974756199,-537.27903059265191,776.2989349174909,-341.30965721603252,1973.8570612096023,1658.1900112938965,-847.43112391609884,847.43112391609884,-1658.1900112938965,3420.8076821886925,0.0
317154.6038362722,4700833.5216966402,-32500.0,590.92885001039031,1950.7215159673581,500.93486557238202,-533.49366733962574,945.81702697377648,-399.50792843793766,2298.7935060001591,2046.3309161976006,-1103.0888487829413,1103.0888487829413,-2046.3309161976006,3981.6365857145452,0.0
322154.6038362722,4700833.5216966402,-32500.0,1223.5282061179528,2238.6525770677345,518.18551683603073,-476.60843157603983,1162.2390689263168,-493.95163953546751,2706.2334899675898,2546.0247658287949,-1469.5406044861065,1469.5406044861065,-2546.0247658287949,4690.8842780470222,0.0
327154.6038362722,4700833.5216966402,-32500.0,2225.7728729606351,2510.1286023621183,517.87260370923786,-289.81210385626991,1430.8228187464561,-647.14367930835522,3229.087303308916,3181.3756740624599,-2007.812699575165,2007.812699575165,-3181.3756740624599,5617.8189430244011,0.0
332154.6038362722,4700833.5216966402,-32500.0,3799.7239884194346,2667.8248938785773,502.2306958616972,203.44450986761871,1728.2982735214425,-859.75140551745073,3930.2661006606004,3941.8554174131232,-2787.2231246563815,2787.2231246563815,-3941.8554174131232,6903.3808288818909,0.0
337154.6038362722,4700833.5216966402,-32500.0,6166.9930504159984,2505.2055401254429,509.87121537370001,1366.5069163104265,1936.5715533030398,-1014.8235735758035,4961.700781616506,4694.2411026577538,-3808.1446770246057,3808.1446770246057,-4694.2411026577538,8867.5939145457942,0.0
342154.6038362722,4700833.5216966402,-32500.0,9356.3818962939822,1667.401739911242,689.16259632907622,3810.0260260559512,1689.6660485260898,-629.90706475082197,6710.9802711742823,5001.625571978112,-4750.3324088859326,4750.3324088859326,-5001.625571978112,12196.220558027349,0.0
347154.6038362722,4700833.5216966402,-32500.0,12673.084763313525,-229.02796070028816,1437.4177837875295,8143.7567243262929,133.47155562793793,1557.9788949265023,9866.0392055062694,3933.4359374731002,-4433.4892912331206,4433.4892912331206,-3933.4359374731002,18002.035693352937,0.0
352154.6038362722,4700833.5216966402,-32500.0,14142.30355991031,-2998.273851602909,3492.8724980870647,13841.238069766481,-4073.8787056889173,7604.9577957618585,14890.091950522352,443.10607645053182,-400.03017224376373,400.03017224376373,-443.10607645053182,27166.638986879254,0.0
357154.6038362722,4700833.5216966402,-32500.0,11605.06590191863,-4939.3914531418559,7503.0020998513819,17614.256859891993,-11557.908420535374,18276.471693658896,21135.421367183495,-4740.3037457487771,9430.8506397238816,-9430.8506397238816,4740.3037457487771,38644.99649391642,0.0
362154.6038362722,4700833.5216966402,-32500.0,6192.4367897079173,-3480.089846158467,12818.880707522179,15110.028603472239,-19982.218144358736,29391.889459321224,26423.555229719397,-7554.0418434243675,22236.766698175583,-22236.766698175583,7554.0418434243675,48451.352780266643,0.0
367154.6038362722,4700833.5216966402,-32500.0,2341.8232807014547,1795.1086891480663,17088.097958992079,6592.3837941211477,-24724.773432284834,33901.165052423377,28375.850100198499,-4332.059406263048,30333.144317465194,-30333.144317465194,4332.059406263048,52173.278881416649,0.0
372154.6038362722,4700833.5216966402,-32500.0,2783.1402344081507,8124.0938922108426,17929.519801170976,-2764.7041801149644,-23034.406981072858,29170.145513560641,26189.51345441577,3486.5904143333446,28770.580965013374,-28770.580965013374,-3486.5904143333446,48360.153548374481,0.0
377154.6038362722,4700833.5216966402,-32500.0,6322.5383882003125,11867.425916978726,15082.979340231806,-7942.2270594727142,-16181.02678045336,18460.563167610508,20870.168224708497,10961.255838299629,19228.937849198919,-19228.937849198919,-10961.255838299629,38922.534739558403,0.0
382154.6038362722,4700833.5216966402,-32500.0,9438.6384852318643,11551.482480419723,10631.816349798957,-7617.9054624445234,-8108.7079294973673,7356.1859630929393,14611.158121049921,14228.856666048714,7579.3082625795087,-7579.3082625795087,-14228.856666048714,27926.799752659103,0.0
387154.6038362722,4700833.5216966402,-32500.0,9829.587848704492,8621.353836887869,6802.3979374105966,-4107.6309758930756,-2069.3380329372894,-393.36289069471701,10130.112938941378,13165.261253785267,-1188.8477539039868,1188.8477539039868,-13165.261253785267,19213.885332377566,0.0
392154.6038362722,4700833.5216966402,-32500.0,7854.8389167851956,5267.4747402800631,4397.2060668751856,-298.03611111769862,1137.364384224983,-4295.3593801296865,8111.1841845739073,9969.1543940609336,-5738.7468958840709,5738.7468958840709,-9969.1543940609336,14316.345868669261,0.0
397154.6038362722,4700833.5216966402,-32500.0,4983.9413313888335,2699.2363931528839,3152.8138680264869,2386.8907700242962,2265.7657070003552,-5568.5311952416114,7056.934118501099,6618.6001765922783,-7150.3439881789773,7150.3439881789773,-6618.6001765922783,12236.635102918655,0.0
402154.6038362722,4700833.5216966402,-32500.0,2315.4690954879998,1121.6766834926116,2560.0889772482924,3807.0460155808942,2304.4148035689218,-5498.7163817432165,6331.5887102401866,3991.5251190813733,-6902.283521731345,6902.283521731345,-3991.5251190813733,11234.727201337104,0.0
407154.6038362722,4700833.5216966402,-32500.0,286.24454549488627,299.71822667795828,2250.5166664684002,4314.3227011362796,1924.5690455926569,-4892.1837785735688,5693.0395357258185,2200.3099087758133,-6005.5207289718546,6005.5207289718546,-2200.3099087758133,10395.569221969727,0.0
412154.6038362722,4700833.5216966402,-32500.0,-1077.6972945772952,-59.50764062058586,2036.2158587590295,4285.7888110493441,1464.7326354539114,-4146.2487448078555,5097.7032119089281,1067.1275839426057,-4975.3152709421011,4975.3152709421011,-1067.1275839426057,9498.3457301000781,0.0
417154.6038362722,4700833.5216966402,-32500.0,-1906.5331536800122,-173.09215181953169,1844.3052438262087,3987.2401553610994,1058.2157628557916,-3428.0670304579212,4548.9509888182929,380.15766708060096,-4023.656078401209,4023.656078401209,-380.15766708060096,8557.7145524620537,0.0
422154.6038362722,4700833.5216966402,-32500.0,-2352.749586230872,-172.23409157749339,1656.1208100297429,3577.2784849187456,739.41116099801252,-2796.7315035797169,4045.429002598742,-24.070873293920613,-3215.7335063287042,3215.7335063287042,24.070873293920613,7626.793046871001,0.0
427154.6038362722,4700833.5216966402,-32500.0,-2543.2053659914291,-127.11470111148424,1472.6133582885907,3142.1216154531389,503.63054684196777,-2265.224020370189,3583.2225811935637,-254.19843005842586,-2555.9113628645368,2555.9113628645368,254.19843005842586,6746.5503278187753,0.0
432154.6038362722,4700833.5216966402,-32500.0,-2570.8031252482169,-71.742280710500992,1299.0327720483053,2725.1539033047275,334.74533443235129,-1828.1698772774705,3162.2730654626994,-378.13934498084404,-2027.2458850972196,2027.2458850972196,378.13934498084404,5940.0556211925777,0.0
437154.6038362722,4700833.5216966402,-32500.0,-2499.5221724340413,-20.777329050983035,1139.6295980050309,2345.9072808020719,216.05650635029426,-1473.7312921750274,2783.782753315108,-437.5000804301078,-1607.7504202432585,1607.7504202432585,437.5000804301078,5216.6889005090597,0.0
442154.6038362722,4700833.5216966402,-32500.0,-2371.9204256066969,20.70728061187738,996.57110508996345,2011.1006383532247,133.6999687437484,-1188.6757231636045,2447.5872180196761,-457.77127179836646,-1276.4560521403014,1276.4560521403014,457.77127179836646,4577.0672063456786,0.0
447154.6038362722,4700833.5216966402,-32500.0,-2215.6218787355024,52.028352301364897,870.26888725271647,1720.8246367451304,77.135689801871365,-960.50622095948927,2151.7684683932484,-454.69898704422019,-1015.3138698088923,1015.3138698088923,454.69898704422019,4016.7860534223,0.0
452154.6038362722,4700833.5216966402,-32500.0,-2048.1495014464281,74.283920194648587,759.99167860514706,1471.9646212186062,38.684055498901827,-778.27625315149658,1893.1894606201167,-438.09863213304538,-809.49226794726405,809.49226794726405,438.09863213304538,3528.9282793872994,0.0
457154.6038362722,4700833.5216966402,-32500.0,-1880.3086342547795,89.115839541441062,664.38963600892794,1260.0721066139827,12.870838855693272,-632.78986121472678,1668.1099167647174,-414.1220182329082,-647.09531557299033,647.09531557299033,414.1220182329082,3105.6240158048454,0.0
462154.6038362722,4700833.5216966402,-32500.0,-1718.4938909656214,98.16452759880211,581.85734499277737,1080.3689406217804,-4.1614098982019661,-516.51988348157408,1472.6463610929245,-386.62210434214427,-518.713901542239,518.713901542239,386.62210434214427,2738.9682087878627,0.0
467154.6038362722,4700833.5216966402,-32500.0,-1566.2386003814725,102.85994211342128,510.75593389054393,928.26039961265428,-15.114986787175573,-423.40765539614154,1303.0573646899668,-357.99022601088501,-416.96684267063239,416.96684267063239,357.99022601088501,2421.5167226139547,0.0
472154.6038362722,4700833.5216966402,-32500.0,-1425.2472340280954,104.367786922714,449.53530130096459,799.57340772860584,-21.877689390726236,-348.62960737951806,1155.8970643227178,-329.68037910698791,-336.09144848929731,336.09144848929731,329.68037910698791,2146.5222693645578,0.0
477154.6038362722,4700833.5216966402,-32500.0,-1296.0791235363888,103.60204305904523,396.79250019034089,690.64264556899104,-25.766745660168827,-288.37183388267545,1028.0816739768354,-302.54339788572969,-271.59959990216822,271.59959990216822,302.54339788572969,1908.015450021943,0.0
267154.6038362722,4705833.5216966402,-32500.0,-308.74859985576529,488.27063598493311,160.40861179047715,-214.29838310717923,175.42197107613922,-98.259873230937615,602.29981131953696,348.02520649967181,-136.82708403375619,136.82708403375619,-348.02520649967181,1054.0286172209499,0.0
272154.6038362722,4705833.5216966402,-32500.0,-294.16095190161178,547.8768797490726,172.60616581428116,-229.8854927042631,201.66540837353855,-110.59089401791691,664.56619360545005,408.06945287598631,-168.69152982415875,168.69152982415875,-408.06945287598631,1160.5779153838387,0.0
277154.6038362722,4705833.5216966402,-32500.0,-268.43309196670435,615.90666470532688,185.46300426921871,-244.60485238957324,232.32045464833388,-123.81397254533651,734.99005997935569,479.27124688505637,-207.56755972494992,207.56755972494992,-479.27124688505637,1280.9099669379209,0.0
282154.6038362722,4705833.5216966402,-32500.0,-227.63966289655184,693.54790444077594,198.8412791179683,-257.38974645721902,268.1488202105586,-137.6050964661942,814.93449937022649,563.81797151946569,-254.99250393517491,254.99250393517491,-563.81797151946569,1417.4202241030214,0.0
287154.6038362722,4705833.5216966402,-32500.0,-166.51107316320187,782.07277421036861,212.50501348560005,-266.71800625531182,310.03804554425585,-151.42608602013038,906.09722642080692,664.34522640746525,-312.85515899175005,312.85515899175005,-664.34522640746525,1573.1697378547562,0.0
292154.6038362722,4705833.5216966402,-32500.0,-77.892632873964899,882.75605475198643,226.07605491852547,-270.44375193628446,359.02577071743292,-164.48062514677156,1010.6393295762909,784.04589464992262,-383.51678000015261,383.51678000015261,-784.04589464992262,1752.1721432438126,0.0
297154.6038362722,4705833.5216966402,-32500.0,48.088524829390444,996.68379049708346,238.97716534645195,-265.54003579713384,416.33208301557363,-175.71695506389295,1131.3737635298799,926.81681644170953,-470.02303325976459,470.02303325976459,-926.81681644170953,1959.8256979390801,0.0
302154.6038362722,4705833.5216966402,-32500.0,225.344796319805,1124.3279974895561,250.37281460370363,-247.65083556689581,483.39222312314769,-183.94522896548725,1272.0389584403542,1097.4442875298262,-576.48952022167032,576.48952022167032,-1097.4442875298262,2203.5711279078105,0.0
307154.6038362722,4705833.5216966402,-32500.0,473.9507443933461,1264.6260593269699,259.15632417502155,-210.20542259546215,561.84166306506665,-188.17113149983558,1437.6989769934476,1301.7816089114212,-708.7902960835695,708.7902960835695,-1301.7816089114212,2493.9358991293734,0.0
312154.6038362722,4705833.5216966402,-32500.0,823.49704686078314,1413.0257804428732,264.13985279997922,-142.51961745652756,653.27006364745455,-188.22815770513694,1635.3676573535517,1546.7030811807988,-875.68605912614453,875.68605912614453,-1546.7030811807988,2846.3483640196314,0.0
317154.6038362722,4705833.5216966402,-32500.0,1318.0247239123012,1557.4472489072923,264.90328848832036,-25.641933711141455,758.16594711548464,-185.53208365305616,1875.1953815732863,1839.1400702945703,-1090.3067429303005,1090.3067429303005,-1839.1400702945703,3284.7625581885582,0.0
322154.6038362722,4705833.5216966402,-32500.0,2021.9623179155626,1670.3132353131016,264.51653090592362,176.43917638831616,872.42486265277137,-182.7652615382126,2173.4888163852265,2182.3094344877518,-1370.8665894152862,1370.8665894152862,-2182.3094344877518,3849.8515402377911,0.0
327154.6038362722,4705833.5216966402,-32500.0,3022.9692207190296,1694.0869990855783,277.12376345593628,533.84484939089521,977.31294350017538,-178.35576446572242,2562.3966581479744,2564.7398798015015,-1736.1642414323492,1736.1642414323492,-2564.7398798015015,4618.2237156533411,0.0
332154.6038362722,4705833.5216966402,-32500.0,4417.8123075948815,1519.2401503605017,346.95373127795335,1178.3514520703218,1013.8578707582213,-144.88099265503919,3124.1498812363016,2933.9205039721642,-2182.9289835822542,2182.9289835822542,-2933.9205039721642,5743.6497309270626,0.0
337154.6038362722,4705833.5216966402,-32500.0,6247.3077070865847,964.52741082665398,590.24221591376715,2329.9256270256788,826.45090042350671,29.907609071580268,4075.5726365767578,3146.1188509802942,-2616.1312526705769,2616.1312526705769,-3146.1188509802942,7524.0864790666446,0.0
342154.6038362722,4705833.5216966402,-32500.0,8326.856915733184,-193.53598112437024,1268.8253284377392,4262.0380115669359,67.101776290042835,659.16377796012853,5737.8041246733173,2908.8416353833381,-2693.3476932611047,2693.3476932611047,-2908.8416353833381,10445.634881780004,0.0
347154.6038362722,4705833.5216966402,-32500.0,9980.9920143282798,-2024.18859078579,2856.3974419005103,7050.9548785920979,-1875.2870025800109,2368.9772721608088,8356.1918996046425,1832.6522654738424,-1619.6295296949479,1619.6295296949479,-1832.6522654738424,15048.591755321131,0.0
352154.6038362722,4705833.5216966402,-32500.0,10022.651602922713,-3980.3824301644563,5903.620559807021,9980.1029876141583,-5641.8464872272616,5878.6904812287939,11927.862641990738,-134.99876770903074,1735.8398394831061,-1735.8398394831061,134.99876770903074,21421.921509708136,0.0
357154.6038362722,4705833.5216966402,-32500.0,7717.3931659419068,-4588.7044965080522,10401.944418709983,11157.625690461542,-10995.264602940018,10972.57783992646,15800.81715262901,-1907.4057400781285,7664.7016522329459,-7664.7016522329459,1907.4057400781285,28432.346432823742,0.0
362154.6038362722,4705833.5216966402,-32500.0,4295.2833000767241,-2421.8935370157014,15020.266446142961,8825.3724857223788,-15914.106828680504,15443.740998342517,18616.722877843869,-1415.6005659867878,13947.769238812405,-13947.769238812405,1415.6005659867878,33627.087943026112,0.0
367154.6038362722,4705833.5216966402,-32500.0,2296.7318819310444,2073.2157916193341,17618.440003911885,3680.1237316067486,-17662.290185024536,16394.897749665706,19128.572471405943,2231.7227190104559,16794.82245139579,-16794.82245139579,-2231.7227190104559,34740.453725654406,0.0
372154.6038362722,4705833.5216966402,-32500.0,2939.3094275214926,6604.4423542495024,16948.349086454178,-1421.4757137360275,-15198.768348378959,13006.646518856978,17121.472569492089,7364.3067480345289,14337.750835447298,-14337.750835447298,-7364.3067480345289,31408.536700598794,0.0
377154.6038362722,4705833.5216966402,-32500.0,5195.4395875214022,8937.4129838665995,13577.983543978629,-3998.2350811274036,-9879.8044589185884,7023.5258417506693,13453.048729140197,11221.066111028911,8028.7635594324747,-8028.7635594324747,-11221.066111028911,25272.638196603188,0.0
382154.6038362722,4705833.5216966402,-32500.0,7027.7180472858163,8454.1812391462026,9301.657463833606,-3559.4920117318525,-4178.87798917705,1070.5788513608732,9555.1034883852553,12165.243456429289,1035.481917306075,-1035.481917306075,-12165.243456429289,18947.903225957722,0.0
387154.6038362722,4705833.5216966402,-32500.0,7168.7906750790953,6177.6482298200517,5730.3869362807973,-1334.2301719494508,52.070751697091154,-3115.8325786281521,8068.3309730752226,10525.556242873557,-4145.841322761572,4145.841322761572,-10525.556242873557,14590.671600210326,0.0
392154.6038362722,4705833.5216966402,-32500.0,5759.2039252247741,3552.058453841923,3456.7445352935997,1136.4085775455851,2334.58324428995,-5236.1609975248193,7276.1800824333641,7699.4503634311113,-6809.3689856491219,6809.3689856491219,-7699.4503634311113,12607.912425618089,0.0
397154.6038362722,4705833.5216966402,-32500.0,3641.8009722754759,1462.9164705651162,2280.9588003497629,2976.5584129040449,3111.7582615107922,-5833.5747742414496,6742.4107494905375,4902.5907975362015,-7501.1281081237839,7501.1281081237839,-4902.5907975362015,11865.468310772812,0.0
402154.6038362722,4705833.5216966402,-32500.0,1556.9513658950052,134.696055592867,1767.5089539227099,4003.9685990887233,3034.3992790623975,-5576.2806789997676,6224.4490809583694,2704.5931277200484,-7067.4052179781575,7067.4052179781575,-2704.5931277200484,11322.621149820847,0.0
407154.6038362722,4705833.5216966402,-32500.0,-122.80232042259782,-560.48239149887149,1564.8068677546626,4377.2905632384609,2594.4723991272576,-4943.2726479260318,5673.7270014458372,1189.6744784132243,-6155.4186120501954,6155.4186120501954,-1189.6744784132243,10622.538755612128,0.0
412154.6038362722,4705833.5216966402,-32500.0,-1311.6656584418845,-837.28027268790868,1471.2519686973408,4326.0801019102473,2070.2227088781492,-4205.1209781685538,5121.0561901107512,232.37696937939381,-5136.1295941412527,5136.1295941412527,-232.37696937939381,9760.8631852872913,0.0
417154.6038362722,4705833.5216966402,-32500.0,-2066.0265553041149,-877.00123506246644,1396.5308132982752,4039.2548419866243,1587.7054430472263,-3492.8994194690913,4598.727797112555,-331.55009070097185,-4183.4139159364013,4183.4139159364013,331.55009070097185,8819.4363259401107,0.0
422154.6038362722,4705833.5216966402,-32500.0,-2486.2980094234817,-800.91597014274646,1311.0670322041808,3644.2842979802767,1188.9583694960768,-2860.5700823591787,4111.2766790188471,-638.77370056277437,-3361.1359308920755,3361.1359308920755,638.77370056277437,7873.3092058021712,0.0
427154.6038362722,4705833.5216966402,-32500.0,-2670.1319221990043,-679.98281782310437,1211.8170307896039,3218.2289841150496,877.12783793745666,-2323.4468982584099,3655.2968482488477,-786.11930059331507,-2680.1383757002563,2680.1383757002563,786.11930059331507,6972.0934894896554,0.0
432154.6038362722,4705833.5216966402,-32500.0,-2696.454743693881,-551.57832755514141,1104.4365654791748,2803.8000075541149,640.63353513699633,-1878.8604267392686,3234.0675541373607,-837.20669875147291,-2128.9431629968876,2128.9431629968876,837.20669875147291,6142.921247901113,0.0
437154.6038362722,4705833.5216966402,-32500.0,-2623.5986796000143,-433.18661794103463,995.62131505196601,2422.282372897635,464.41006916537435,-1516.6718691342926,2851.90103516507,-832.27964209928791,-1688.6293959585075,1688.6293959585075,832.27964209928791,5397.236926931274,0.0
442154.6038362722,4705833.5216966402,-32500.0,-2492.454420170031,-331.44336777365078,890.54433301785332,2082.3261192544655,334.43425236824186,-1224.480583955851,2510.4998977129917,-796.27857026007064,-1339.4902686966855,1339.4902686966855,796.27857026007064,4736.6901347660341,0.0
447154.6038362722,4705833.5216966402,-32500.0,-2330.6375398518144,-247.50740547143062,792.45081647201562,1785.500754618741,239.13419254003546,-990.10067957345859,2208.9565869560415,-744.44778685267613,-1063.7105915700818,1063.7105915700818,744.44778685267613,4157.3403713503421,0.0
452154.6038362722,4705833.5216966402,-32500.0,-2156.2092816286895,-180.04016690896191,702.99203745627597,1529.6653145075124,169.49709854509874,-802.62952632764245,1944.6663208490831,-685.97154149338576,-846.20363857111488,846.20363857111488,685.97154149338576,3652.4118637886568,0.0
457154.6038362722,4705833.5216966402,-32500.0,-1980.5867262811116,-126.76886750243789,622.70384626066971,1310.9517082698878,118.71757713900726,-652.79631297553703,1714.1619965736468,-626.26755807188533,-674.6386289489667,674.6386289489667,626.26755807188533,3214.0007299932872,0.0
462154.6038362722,4705833.5216966402,-32500.0,-1810.6780251991961,-85.257568706736876,551.42165248107108,1124.89357766022,81.745434472324561,-532.95655158951661,1513.689899564622,-568.42068882283309,-539.14623583181276,539.14623583181276,568.42068882283309,2834.0768798432618,0.0
467154.6038362722,4705833.5216966402,-32500.0,-1650.3921870678519,-53.253219173075479,488.58447813261012,967.0378874217671,54.868644742943907,-436.92811762165701,1339.5575547950586,-514.07774035668785,-431.92702643274924,431.92702643274924,514.07774035668785,2505.0291697336647,0.0
472154.6038362722,4705833.5216966402,-32500.0,-1501.6836831842766,-28.813724011407366,433.43875593259997,833.25180470637542,35.372324588454987,-359.77361820195665,1188.3230522098029,-464.00767185556913,-346.86480929923766,346.86480929923766,464.00767185556913,2219.9305545297502,0.0
477154.6038362722,4705833.5216966402,-32500.0,-1365.2623187087725,-10.329705431958695,385.16587120161699,719.8531087089433,21.274939101802275,-297.58040158957562,1056.8817374901521,-418.45255626334597,-279.18427962614089,279.18427962614089,418.45255626334597,1972.6343985876747,0.0
267154.6038362722,4710833.5216966402,-32500.0,-168.04237488020345,467.08383262547193,119.1076901286264,-159.26795457779164,167.76801311015183,-81.888843357614206,539.42515104668837,363.57135562776847,-160.51018153140711,160.51018153140711,-363.57135562776847,938.17785173505479,0.0
272154.6038362722,4710833.5216966402,-32500.0,-133.10922560100829,518.24311050453537,125.02319306084942,-164.44459986985197,190.76931529517486,-90.548748970858611,591.13218896220451,421.04645128156994,-193.6052098586365,193.6052098586365,-421.04645128156994,1026.3966776900381,0.0
277154.6038362722,4710833.5216966402,-32500.0,-83.873755774286849,575.00545188698766,130.68582012163196,-166.50944449617833,216.94832073983969,-99.203660408660298,648.86692725095008,487.99936996555323,-233.22056867673436,233.22056867673436,-487.99936996555323,1125.0909791904276,0.0
282154.6038362722,4710833.5216966402,-32500.0,-16.016691464377399,637.59066820044643,135.91691003459923,-163.8595942996125,246.58053836718958,-107.29443652339384,713.49373615239767,565.9027783308353,-280.54272459248489,280.54272459248489,-565.9027783308353,1236.0440804099042,0.0
287154.6038362722,4710833.5216966402,-32500.0,76.064895253327663,705.94925755863278,140.51920986554495,-154.29481583772807,279.85978993838785,-113.97329948619677,786.0775534900738,656.3749962869864,-336.92177755951786,336.92177755951786,-656.3749962869864,1361.6151787943215,0.0
292154.6038362722,4710833.5216966402,-32500.0,199.67488772162511,779.54627972469268,144.30994883286553,-134.80960732491548,316.82327406787363,-118.01920183662816,867.97262415324076,761.14627549261593,-403.88253893972535,403.88253893972535,-761.14627549261593,1505.0364631785742,0.0
297154.6038362722,4710833.5216966402,-32500.0,364.4001811658062,856.98978308398466,147.20272164437165,-101.29385766316955,357.23010212870128,-117.76208856481307,960.9615479975821,881.98449958039419,-483.14643347953916,483.14643347953916,-881.98449958039419,1670.8819856723219,0.0
302154.6038362722,4710833.5216966402,-32500.0,582.92839923731765,935.38015739128844,149.39777539662254,-48.066341766718743,400.35281479544068,-111.04624899051602,1067.4766645001987,1020.5378764243824,-576.67753246238544,576.67753246238544,-1020.5378764243824,1865.8179753435936,0.0
307154.6038362722,4710833.5216966402,-32500.0,872.17026035771528,1009.1551444231757,151.81588489547602,32.91989088109969,444.58495736153645,-95.268755733411965,1190.9724926420718,1177.9925487820726,-686.75317645753864,686.75317645753864,-1177.9925487820726,2099.8453693068591,0.0
312154.6038362722,4710833.5216966402,-32500.0,1254.6630321874484,1068.0363656801524,157.07887991726392,153.52716025989787,486.62561786613253,-67.485116166744746,1336.643368079669,1354.3007740057108,-815.975990476589,815.975990476589,-1354.3007740057108,2388.4782018836067,0.0
317154.6038362722,4710833.5216966402,-32500.0,1759.8436283429794,1093.4611679414372,171.70653850632073,332.12873831753876,519.66378911480456,-24.367024340659718,1513.2032330943371,1546.4325910976722,-966.84072531358106,966.84072531358106,-1546.4325910976722,2756.8220455162309,0.0
322154.6038362722,4710833.5216966402,-32500.0,2423.6187616774341,1052.7772795252679,210.94069684423232,598.3862498498388,529.25090861801141,38.828755227369648,1739.1476506468582,1744.558066468197,-1139.5996970324409,1139.5996970324409,-1744.558066468197,3247.4502217360509,0.0
327154.6038362722,4710833.5216966402,-32500.0,3281.8306221376024,891.19513160373538,308.90086859194116,1000.5236327951386,484.20116147655449,132.57413733027323,2071.8414652420047,1924.4383144142616,-1325.1231274435927,1325.1231274435927,-1924.4383144142616,3934.8177369277,0.0
332154.6038362722,4710833.5216966402,-32500.0,4347.8478219742037,525.10032046879405,538.25410598054384,1612.3382619761258,318.24551349656343,285.3571878010801,2644.5279215907017,2034.856612428556,-1485.8053417463409,1485.8053417463409,-2034.856612428556,4946.7495707587295,0.0
337154.6038362722,4710833.5216966402,-32500.0,5558.8831474493409,-148.88191598504568,1042.2888420546399,2526.6734305580749,-100.58234790289679,569.69765416530072,3553.835885950878,1985.098580950641,-1514.7886094400833,1514.7886094400833,-1985.098580950641,6481.246253099067,0.0
342154.6038362722,4710833.5216966402,-32500.0,6685.2713616379551,-1193.5486318268181,2067.7887629637562,3800.2650354486104,-1000.6696619971393,1137.132525277224,4895.7716256374424,1658.4114811306508,-1175.4090562489209,1175.4090562489209,-1658.4114811306508,8779.9939015104137,0.0
347154.6038362722,4710833.5216966402,-32500.0,7263.2114853181374,-2472.8277660967697,3939.807074932417,5301.1953355732912,-2676.2533771592171,2213.5710226600813,6738.5378556790993,1013.3587006128207,-82.45506369376244,82.45506369376244,-1013.3587006128207,11995.896471249773,0.0
352154.6038362722,4710833.5216966402,-32500.0,6751.5606869525282,-3439.0957547577268,6851.7652447492947,6497.2219420472429,-5266.9142726307782,3935.2438216725368,8956.6847209835323,316.42919627937817,2097.5062288287672,-2097.5062288287672,-316.42919627937817,15923.845798510125,0.0
357154.6038362722,4710833.5216966402,-32500.0,5086.5155660344517,-3187.8472177412423,10430.309452855699,6502.9769847616126,-8320.1970655027981,5974.6085671278543,11079.820453391014,304.39028242840459,5097.1718678200577,-5097.1718678200577,-304.39028242840459,19739.030690579799,0.0
362154.6038362722,4710833.5216966402,-32500.0,3159.1137006942981,-1156.0608334140868,13499.076435237128,4766.2276630871174,-10602.868366977496,7348.3425431738451,12379.059912890227,1767.3641665618056,7636.5864644809935,-7636.5864644809935,-1767.3641665618056,22148.829736846954,0.0
367154.6038362722,4710833.5216966402,-32500.0,2257.9666205094836,2069.9928232248476,14677.521517885705,1860.0729439937065,-10801.420059389171,7001.3449336215663,12290.497687566318,4631.0717141601872,8091.0892525798263,-8091.0892525798263,-4631.0717141601872,22160.338109902284,0.0
372154.6038362722,4710833.5216966402,-32500.0,2867.3264699768902,4997.3298428758644,13423.792138002327,-781.54763078667781,-8598.2627083142506,4734.4578212819151,10827.588858784842,7708.9190791299316,5857.7907231298177,-5857.7907231298177,-7708.9190791299316,19843.325589530137,0.0
377154.6038362722,4710833.5216966402,-32500.0,4297.3742730759395,6340.2454825708883,10396.214650511994,-1970.0337206915233,-4902.2557301645811,1376.2078366073893,8623.0082678422004,9566.6203292659156,1833.7607538685293,-1833.7607538685293,-9566.6203292659156,16367.051223800252,0.0
382154.6038362722,4710833.5216966402,-32500.0,5383.7652727189115,5825.8543045852139,6893.5717636955769,-1499.1884337301444,-1129.0214436278211,-1872.7544329886441,7211.4818977277782,9525.8308234436518,-2352.4376654791818,2352.4376654791818,-9525.8308234436518,13352.192168623917,0.0
387154.6038362722,4710833.5216966402,-32500.0,5399.8127396659829,4111.7393550898078,3999.3729834291225,-5.4535383559688997,1677.634813006458,-4181.8962844366642,6775.6380614257851,7926.7092672838853,-5430.3884551137226,5430.3884551137226,-7926.7092672838853,11811.623071222288,0.0
392154.6038362722,4710833.5216966402,-32500.0,4380.1736420362904,2115.5138343748908,2133.284522336085,1677.0484889305526,3211.0001683487117,-5352.7703852344848,6556.5349509284606,5629.3509751450474,-6996.5731615198074,6996.5731615198074,-5629.3509751450474,11432.63318807442,0.0
397154.6038362722,4710833.5216966402,-32500.0,2804.0009200875911,460.89376611500182,1175.5702545645645,3004.5817197742008,3700.2357721738504,-5613.0886347195856,6301.7152590229362,3390.0649605112148,-7306.6671329889386,7306.6671329889386,-3390.0649605112148,11339.646100867447,0.0
402154.6038362722,4710833.5216966402,-32500.0,1163.6015320794695,-637.37575836081464,805.19395403997578,3802.9580159808233,3544.6394860179425,-5308.4841902524377,5932.0085835281243,1598.9718404487862,-6835.970656282685,6835.970656282685,-1598.9718404487862,11045.194650348758,0.0
407154.6038362722,4710833.5216966402,-32500.0,-238.60779178440134,-1226.8651905883542,731.49560115333134,4125.6186997860414,3084.7030515668944,-4726.6571490058177,5471.3938597782007,339.2008885756336,-5996.9280399180971,5996.9280399180971,-339.2008885756336,10467.163982650731,0.0
412154.6038362722,4710833.5216966402,-32500.0,-1290.0552993877036,-1450.2840085585381,767.70955721346729,4105.9704630591114,2537.8502897736598,-4054.8746706593315,4980.3432074910788,-462.5832607651505,-5057.6046884962161,5057.6046884962161,462.5832607651505,9683.8512083143232,0.0
417154.6038362722,4710833.5216966402,-32500.0,-1996.3403367654414,-1449.1187071412444,818.83009875236792,3875.5503901496718,2017.1588889936588,-3397.361314574377,4512.8631605089386,-924.47737310639559,-4161.7608513342384,4161.7608513342384,924.47737310639559,8797.6391554671372,0.0
422154.6038362722,4710833.5216966402,-32500.0,-2415.5175047901948,-1329.4707422808387,847.66758377733299,3535.298365994508,1569.0457547227329,-2803.8577192352441,4069.0437123461179,-1155.5791609585726,-3372.226890777451,3372.226890777451,1155.5791609585726,7889.8419348086873,0.0
427154.6038362722,4710833.5216966402,-32500.0,-2618.1039231264499,-1159.8900286904607,846.54795933376647,3153.154700624887,1204.0474177407757,-2292.3636579057129,3640.5681233804748,-1239.4815726148181,-2706.6306056516542,2706.6306056516542,1239.4815726148181,7013.8236113136545,0.0
432154.6038362722,4710833.5216966402,-32500.0,-2668.2581291767387,-980.07354900124699,819.97131309398628,2770.6924313246013,916.19789392973132,-1863.9556996992881,3236.0677954670032,-1234.520785835691,-2160.2855550827908,2160.2855550827908,1234.520785835691,6199.9317334041953,0.0
437154.6038362722,4710833.5216966402,-32500.0,-2617.41808420605,-810.59942216065872,775.77881652696442,2410.9885742230158,693.57655726672795,-1511.6086700502535,2864.0462419261712,-1179.2249772168082,-1719.1430080955345,1719.1430080955345,1179.2249772168082,5462.3555264883826,0.0
442154.6038362722,4710833.5216966402,-32500.0,-2503.9392639111716,-660.51222110017443,721.37635175994944,2085.1277288791475,523.41592096861586,-1225.1576077269624,2528.5964702201099,-1098.096224746271,-1366.5299331584454,1366.5299331584454,1098.096224746271,4804.941591634697,0.0
447154.6038362722,4710833.5216966402,-32500.0,-2355.0488001606991,-532.41427769171094,662.51575408571625,1796.8824435580741,394.24213743821832,-993.92570105825962,2230.2532908307226,-1006.2258907048495,-1086.3562465944929,1086.3562465944929,1006.2258907048495,4225.4124222499586,0.0
452154.6038362722,4710833.5216966402,-32500.0,-2189.3348896592779,-425.60262045746128,603.19589517906547,1545.8451669648962,296.54159573436493,-807.99875336287118,1967.3472772965008,-912.59155923621938,-864.43870630512311,864.43870630512311,912.59155923621938,3718.2024403197547,0.0
457154.6038362722,4710833.5216966402,-32500.0,-2019.0323804043776,-337.88560625092424,545.96304086337454,1329.421194984523,222.76263019708477,-658.74236538742355,1737.0432828957369,-822.28679826031123,-688.87057427784782,688.87057427784782,822.28679826031123,3276.2638071374063,0.0
462154.6038362722,4710833.5216966402,-32500.0,-1851.8680274189285,-266.57596175707772,492.28772780590617,1144.0411384351939,167.06104912146364,-538.91575626665508,1536.0195358577512,-737.98312504243006,-549.94119588762726,549.94119588762726,737.98312504243006,2892.153529842014,0.0
467154.6038362722,4710833.5216966402,-32500.0,-1692.4579746208362,-208.99861673362619,442.8980960813355,985.86698405059985,124.98210732451572,-442.58966132681951,1360.8793830534937,-660.87271576658873,-439.87225022506641,439.87225022506641,660.87271576658873,2558.6532466235044,0.0
472154.6038362722,4710833.5216966402,-32500.0,-1543.3231650573659,-162.72351010965957,398.03736440433488,851.17864021790353,93.160259506554269,-364.98253313076845,1208.381934381651,-591.26785089644375,-352.50332303894254,352.50332303894254,591.26785089644375,2269.0905477500314,0.0
267154.6038362722,4715833.5216966402,-32500.0,-44.105997629809359,431.95485707141978,85.243768489276647,-109.75436629901978,154.95394703271185,-66.745434065164801,478.69304291576526,365.51816968353774,-174.48298890406974,174.48298890406974,-365.51816968353774,829.51645396343622,0.0
272154.6038362722,4715833.5216966402,-32500.0,6.2158762863031214,472.52699309356274,87.219850858573722,-106.42371537497293,173.70589200708721,-72.242484814734183,520.70618119953349,417.99922294566721,-206.64514534694769,206.64514534694769,-417.99922294566721,901.89650589936446,0.0
277154.6038362722,4715833.5216966402,-32500.0,72.413045796857546,515.658478676188,88.804353884719788,-98.450141464314882,194.22447500949221,-77.055747707441171,566.95490199697167,477.8818165368026,-244.31863410132792,244.31863410132792,-477.8818165368026,982.35294843014697,0.0
282154.6038362722,4715833.5216966402,-32500.0,158.6468929812296,560.67461818298318,90.046175366981117,-83.988401606526537,216.29311634624037,-80.491028757136817,617.94625452972684,545.91169840845282,-288.21955844747094,288.21955844747094,-545.91169840845282,1072.4114624545789,0.0
287154.6038362722,4715833.5216966402,-32500.0,270.10073616355055,606.37220284983289,91.148539333115892,-60.588684436537868,239.43131108592593,-81.541891769061479,674.31955228869731,622.7299337505716,-339.02383867621506,339.02383867621506,-622.7299337505716,1174.2256917471734,0.0
292154.6038362722,4715833.5216966402,-32500.0,413.20474390773137,650.74479650713465,92.606082443082073,-25.01791828598834,262.74795123390129,-78.795174600164842,736.92961652286749,708.75209133828798,-397.28171059383567,397.28171059383567,-708.75209133828798,1290.9323851823615,0.0
297154.6038362722,4715833.5216966402,-32500.0,595.88976208516863,690.56411718425761,95.449944778230204,26.974951122897288,284.71929407867259,-70.331164289056687,806.99143017374138,803.97926156363292,-463.28759872769064,463.28759872769064,-803.97926156363292,1427.2005562842223,0.0
302154.6038362722,4715833.5216966402,-32500.0,827.84138429974848,720.73767617122394,101.69029265308559,100.98111092878707,302.84413227579154,-53.633784786853354,886.3445299851835,907.70072517916208,-536.88295737494502,536.88295737494502,-907.70072517916208,1590.0733877834657,0.0
307154.6038362722,4715833.5216966402,-32500.0,1120.6622767427557,733.32267457015132,115.12660823394003,204.40093423045136,313.08301584380024,-25.525585673467379,978.00537823995364,1018.0155715829783,-617.13987188350688,617.13987188350688,-1018.0155715829783,1790.2526088267286,0.0
312154.6038362722,4715833.5216966402,-32500.0,1487.6841525107232,716.04390045185482,142.84600865440368,347.15763584898758,308.89331460635356,17.886610694058529,1087.7970175959526,1131.0438799807603,-701.790905638136,701.790905638136,-1131.0438799807603,2044.0674556024587,0.0
317154.6038362722,4715833.5216966402,-32500.0,1942.7800170736305,650.21440368290564,197.99364568255967,542.76311722481967,279.48630616003055,81.379496189238893,1233.5493934527365,1239.6256557925863,-786.06435402250963,786.06435402250963,-1239.6256557925863,2376.508914968188,0.0
322154.6038362722,4715833.5216966402,-32500.0,2496.7137132379803,508.32023523180851,304.7864329546307,809.66665203756099,206.62613931514221,171.29223108386361,1478.6970599253382,1331.3002306083094,-860.14103299865837,860.14103299865837,-1331.3002306083094,2825.7578130604179,0.0
327154.6038362722,4715833.5216966402,-32500.0,3148.2034159764812,252.77639779108813,507.05201442862312,1172.0076078530265,58.988747670417553,297.59043549066121,1856.7983885149347,1385.7679594376782,-903.73185827775114,903.73185827775114,-1385.7679594376782,3449.015346330576,0.0
332154.6038362722,4715833.5216966402,-32500.0,3865.611829544021,-159.47174705530131,880.85676797865915,1656.5440953508876,-216.46539524506113,478.52503414847234,2385.2457709492737,1373.8000856995141,-875.82477811001991,875.82477811001991,-1373.8000856995141,4326.7511849461562,0.0
337154.6038362722,4715833.5216966402,-32500.0,4557.3781570811343,-756.02237654947044,1547.2325553585179,2277.8125939139527,-703.18325770510182,747.69197620392822,3110.5629321272436,1264.294941849349,-699.95882786785637,699.95882786785637,-1264.294941849349,5556.1115414726555,0.0
342154.6038362722,4715833.5216966402,-32500.0,5043.6548027272947,-1496.7319839805764,2667.497919675232,2999.1811928598199,-1510.0497099791392,1156.4206702378087,4073.0647195344054,1053.7795841192556,-256.52940442212235,256.52940442212235,-1053.7795841192556,7215.7235501344421,0.0
347154.6038362722,4715833.5216966402,-32500.0,5076.4632312835502,-2190.1980084645743,4380.776009696383,3668.0995711762439,-2720.4836716773771,1749.6853888513592,5257.3408019932285,831.76974891946656,581.50045016774857,-581.50045016774857,-831.76974891946656,9284.174398069239,0.0
352154.6038362722,4715833.5216966402,-32500.0,4482.5031454803366,-2445.5810538768096,6642.350548224741,3976.2780770782106,-4263.2826930078654,2487.4983524847325,6526.331022382682,852.68470902328613,1818.4271824327009,-1818.4271824327009,-852.68470902328613,11526.29996665601,0.0
357154.6038362722,4715833.5216966402,-32500.0,3410.7791913799206,-1813.2729086837842,9023.0446186956378,3568.037287531512,-5758.4143123366621,3137.4625958423385,7590.9980898391377,1489.972473493242,3140.5976403683412,-3140.5976403683412,-1489.972473493242,13440.264239411499,0.0
362154.6038362722,4715833.5216966402,-32500.0,2419.0736184689231,-167.88766261665552,10721.08496990011,2345.1255065529867,-6548.4303001083817,3281.8503123096525,8097.2566320074848,2953.3119215202391,3884.8095367119663,-3884.8095367119663,-2953.3119215202391,14412.987619125897,0.0
367154.6038362722,4715833.5216966402,-32500.0,2122.9713178754996,1996.6305819125218,10980.244159472037,705.88576034314883,-6067.3561988283991,2560.9611685811701,7832.6885887389117,4954.445269881051,3398.393010600832,-3398.393010600832,-4954.445269881051,14094.55854514392,0.0
372154.6038362722,4715833.5216966402,-32500.0,2670.7689238976204,3784.4910033671335,9621.2317120326097,-630.11298215036845,-4278.994986431132,979.62579723620945,6917.6922743143168,6746.1747506845695,1554.3619388509101,-1554.3619388509101,-6746.1747506845695,12728.344875576151,0.0
377154.6038362722,4715833.5216966402,-32500.0,3615.8724393059974,4483.4585569602432,7167.1248019854802,-1099.1438317688544,-1738.6444648844231,-1046.1290564183198,5994.6935313397116,7584.9929218400903,-1106.6011781729107,1106.6011781729107,-7584.9929218400903,11130.983884032219,0.0
382154.6038362722,4715833.5216966402,-32500.0,4285.7430761022888,3971.2120049782225,4479.9588400452994,-619.63464502951706,763.24918637376015,-2945.3428472851429,5783.1326862548431,7187.1300752086472,-3731.6592555527614,3731.6592555527614,-7187.1300752086472,10195.184053171217,0.0
387154.6038362722,4715833.5216966402,-32500.0,4249.5720897890124,2656.704926114664,2267.2780829659109,466.3032725952682,2632.8068611966787,-4302.4106005152589,5846.819353514973,5811.2200099007805,-5649.7448570363122,5649.7448570363122,-5811.2200099007805,10135.824029442474,0.0
392154.6038362722,4715833.5216966402,-32500.0,3499.1838047765855,1120.2356507814807,825.81176203084169,1689.7044757780052,3666.7763225017857,-4989.3145957375245,5887.6587992513496,3991.4844496975566,-6619.0328622975085,6619.0328622975085,-3991.4844496975566,10448.657428093618,0.0
397154.6038362722,4715833.5216966402,-32500.0,2309.8413018815827,-203.73925403369608,97.294117324572568,2705.9957793310668,3974.3090601218728,-5100.9451958024256,5785.2607559686112,2213.8298685410905,-6755.9466010478482,6755.9466010478482,-2213.8298685410905,10625.232834983837,0.0
402154.6038362722,4715833.5216966402,-32500.0,1008.6215450984919,-1126.6980783216766,-137.67638164915664,3368.8529956756793,3794.4603518285135,-4821.8576953844404,5526.0746941393527,757.78242377915149,-6331.4361919664516,6331.4361919664516,-757.78242377915149,10472.567313154568,0.0
407154.6038362722,4715833.5216966402,-32500.0,-167.67340552872901,-1646.8509507564897,-103.03383921680941,3680.4863294748361,3358.1440449351371,-4329.4624931617909,5150.5878125464133,-292.97581766528765,-5611.9673092543107,5611.9673092543107,292.97581766528765,10009.963547943466,0.0
412154.6038362722,4715833.5216966402,-32500.0,-1102.3492767329924,-1851.177749666336,40.205750281392454,3714.3537946550455,2831.4324872600259,-3755.0335177372299,4719.7181680119438,-972.36037432051944,-4792.5426898031337,4792.5426898031337,972.36037432051944,9332.4103368201686,0.0
417154.6038362722,4715833.5216966402,-32500.0,-1770.0691623362827,-1844.5959043177336,199.50613308112034,3559.7443522692815,2312.5870478203219,-3181.0655857532397,4325.9737892414696,-1360.4813618436078,-3991.4094102026406,3991.4094102026406,1360.4813618436078,8539.105323226413,0.0
422154.6038362722,4715833.5216966402,-32500.0,-2196.8377998053561,-1716.0213074776116,332.33055110997691,3294.5613058712106,1849.5080138088356,-2652.2910280692799,3942.6771068401017,-1541.4896695450147,-3268.5477796275995,3268.5477796275995,1541.4896695450147,7708.0917053228877,0.0
427154.6038362722,4715833.5216966402,-32500.0,-2429.3200465521454,-1529.0671713078173,425.62761605878944,2976.8942648476987,1458.8968416718915,-2188.3164824472642,3553.6645106187939,-1585.7281407116279,-2646.7172133317908,2646.7172133317908,1585.7281407116279,6892.4403465986297,0.0
432154.6038362722,4715833.5216966402,-32500.0,-2516.7756720343282,-1324.3110513072031,480.88107048756655,2645.7542692206339,1140.6671385796801,-1793.7033506452105,3177.2933856436166,-1545.6594449884449,-2127.6865018068029,2127.6865018068029,1545.6594449884449,6124.2197635821685,0.0
437154.6038362722,4715833.5216966402,-32500.0,-2502.5462502200544,-1125.1146503636917,505.20338456382996,2325.0414138687343,887.05855994262674,-1464.9047203553921,2825.8372386242845,-1457.7534740893934,-1702.8548704268455,1702.8548704268455,1457.7534740893934,5420.1487250684468,0.0
442154.6038362722,4715833.5216966402,-32500.0,-2421.2608256843873,-943.33429135596009,506.77545756608214,2027.8872264147601,687.76276151679701,-1194.6281289182798,2505.3699906503098,-1346.1030179533532,-1359.527109049458,1359.527109049458,1346.1030179533532,4786.6554732667582,0.0
447154.6038362722,4715833.5216966402,-32500.0,-2298.9264319584795,-783.73858099620986,492.87617688707735,1760.2935354808806,532.50717102305998,-974.3819698245253,2217.8029545735153,-1225.9367507629374,-1084.3117009323589,1084.3117009323589,1225.9367507629374,4223.7475420265364,0.0
452154.6038362722,4715833.5216966402,-32500.0,-2154.2021992745167,-647.04662120724242,469.26671805339072,1523.8348123846113,412.17521510286491,-795.84330397875692,1962.5178492614705,-1106.4372708680494,-864.77610241211653,864.77610241211653,1106.4372708680494,3727.7347717372022,0.0
457154.6038362722,4715833.5216966402,-32500.0,-1999.9671410084916,-531.86705987011442,440.19633939319402,1317.5237834140999,319.15315746962852,-651.50660484355399,1737.4925225449397,-992.80703727718981,-690.11419361971537,690.11419361971537,992.80703727718981,3293.0396528202168,0.0
462154.6038362722,4715833.5216966402,-32500.0,-1844.7754532791073,-435.86343548507398,408.64195427908771,1139.0305097806454,247.30420721922931,-534.91897014239589,1540.0282314106057,-887.70413370393612,-551.2897177185971,551.2897177185971,887.70413370393612,2913.3384700606566,0.0
467154.6038362722,4715833.5216966402,-32500.0,-1694.0605808353664,-356.41709090119986,376.59734142775721,985.44367648312175,191.78920447630065,-440.69510673081038,1367.1997628679426,-792.20926782297465,-440.92717554079991,440.92717554079991,792.20926782297465,2582.2479620951958,0.0
472154.6038362722,4715833.5216966402,-32500.0,-1551.0663821726534,-290.97792638780271,345.33550210620427,853.72203112651164,148.84402960542815,-364.42605308394189,1216.1183823708432,-706.45979600067869,-353.09947065264316,353.09947065264316,706.45979600067869,2293.708882344436,0.0
272154.6038362722,4720833.5216966402,-32500.0,120.96783977293802,416.0996877551857,60.446845416925562,-57.021757330242067,152.37114279279723,-56.047796212911145,454.60631338723738,402.43800466188929,-209.3957628052475,209.3957628052475,-402.43800466188929,789.37085845615979,0.0
277154.6038362722,4720833.5216966402,-32500.0,197.47849649015512,444.93873147590728,61.001216245196836,-41.776846860090203,166.72615423453095,-57.815003706127328,490.83146005864108,453.66809756327171,-243.16034147979161,243.16034147979161,-453.66809756327171,855.27728095332839,0.0
282154.6038362722,4720833.5216966402,-32500.0,293.53990612686113,472.1489608639796,62.147986880024384,-19.231770891971863,180.81131232784065,-57.70657839800748,530.17129503849549,510.28628974981081,-281.3559304225667,281.3559304225667,-510.28628974981081,929.30211113920291,0.0
287154.6038362722,4720833.5216966402,-32500.0,413.37575564152127,495.7355413949457,64.699889217336121,12.953634726295066,193.60231768751089,-54.692669925442068,573.04713619100812,572.16298637118734,-323.99832825527392,323.99832825527392,-572.16298637118734,1013.7400506122081,0.0
292154.6038362722,4720833.5216966402,-32500.0,561.88507559085292,512.80506859946524,70.054666153814921,57.739608345243354,203.51037625244217,-47.368652768937345,620.12484572261201,638.7672526582096,-370.74708634778176,370.74708634778176,-638.7672526582096,1112.0233219154161,0.0
297154.6038362722,4720833.5216966402,-32500.0,744.59367120385934,519.22567068398405,80.56040328203683,118.82346115140192,208.13057723656365,-33.87060391109744,672.56228707016191,708.97225134307553,-420.69533116664445,420.69533116664445,-708.97225134307553,1229.2756320558804,0.0
302154.6038362722,4720833.5216966402,-32500.0,967.45403291867967,509.17956528818087,100.10676362500512,200.75649478441011,203.88225196665647,-11.800747053298615,732.70796984113667,780.79674477389449,-472.06806534757061,472.06806534757061,-780.79674477389449,1373.0557774592496,0.0
307154.6038362722,4720833.5216966402,-32500.0,1236.3468588475348,474.60381991585314,135.08304492369425,309.04489571051403,185.48758498332708,21.82002784023323,807.75585547082915,851.07366992820164,-521.7850366282197,521.7850366282197,-851.07366992820164,1554.2948542493327,0.0
312154.6038362722,4720833.5216966402,-32500.0,1556.0072717013122,404.5769803660599,195.92293165395679,450.1937501967102,145.20148192441241,70.562762917563688,929.09749547536876,915.05624731964713,-564.80747987749169,564.80747987749169,-915.05624731964713,1788.3976724000051,0.0
317154.6038362722,4720833.5216966402,-32500.0,1927.8743121120435,284.89273332179613,299.54015912788321,631.5729060537675,71.665085302097594,138.58718893669251,1118.541120498332,966.04306045118892,-593.12081100908472,593.12081100908472,-966.04306045118892,2096.429216456148,0.0
322154.6038362722,4720833.5216966402,-32500.0,2346.0545111607489,98.514784876448232,472.95497798769424,860.7566618033544,-51.747488189980196,230.71623973932785,1370.9545755136382,995.31667270494154,-594.11985243442587,594.11985243442587,-995.31667270494154,2506.1471871474273,0.0
327154.6038362722,4720833.5216966402,-32500.0,2790.4205340523658,-171.43170108705561,758.00360844818886,1143.448832772661,-248.99822689655829,352.73200045060969,1700.1192014518506,993.2464263047043,-548.20111113483904,548.20111113483904,-993.2464263047043,3052.087326110699,0.0
332154.6038362722,4720833.5216966402,-32500.0,3216.6597602575785,-532.91874761682516,1215.4447720561748,1478.1270861430721,-552.84728040736752,511.82233993998102,2125.9544705326007,953.55323947791385,-426.0191390018976,426.0191390018976,-953.55323947791385,3772.4729664478773,0.0
337154.6038362722,4720833.5216966402,-32500.0,3546.7547789793725,-966.10388910342112,1922.7493461879358,1844.6264263060618,-1002.1712022770897,716.0117946269047,2665.2822822830394,884.27398730565005,-188.23576551017254,188.23576551017254,-884.27398730565005,4698.3410892883212,0.0
342154.6038362722,4720833.5216966402,-32500.0,3672.0652986534546,-1392.9967420275791,2952.9898564649875,2185.5975280294333,-1627.1733676658239,968.79696947658647,3316.9103696601987,828.56976797768561,204.26279907573445,-204.26279907573445,-828.56976797768561,5828.8750390395717,0.0
347154.6038362722,4720833.5216966402,-32500.0,3491.2687846152935,-1649.9298896435521,4318.3809748617277,2389.5961430843258,-2412.0775037637586,1252.6004727699578,4038.5370562742974,889.61101290319141,756.73042410936398,-756.73042410936398,-889.61101290319141,7092.1822447112891,0.0
352154.6038362722,4720833.5216966402,-32500.0,2995.9878430688364,-1506.1585609303672,5880.4256575954851,2304.120605871673,-3237.6267104453118,1499.7033016216865,4725.9334772995689,1230.4284356010623,1379.8882501291653,-1379.8882501291653,-1230.4284356010623,8309.8691281663596,0.0
357154.6038362722,4720833.5216966402,-32500.0,2358.6691526771342,-779.64203831010889,7287.298735615781,1813.4285409832739,-3846.0034241965682,1571.6849790343383,5220.4161219431944,2001.1666136324131,1840.478746388713,-1840.478746388713,-2001.1666136324131,9211.6126978481443,0.0
362154.6038362722,4720833.5216966402,-32500.0,1906.1093309721687,479.80894739923815,8050.7689081416256,962.69177294100166,-3905.3545788799161,1292.3938171293664,5370.0868408775077,3192.2436174303721,1808.1323541500794,-1808.1323541500794,-3192.2436174303721,9546.2516386504449,0.0
367154.6038362722,4720833.5216966402,-32500.0,1919.3637200278058,1904.9730467767299,7794.4682730143159,16.415997925929613,-3191.8783617510621,550.99965531050191,5135.93926876971,4529.4327082019954,1035.8879936848843,-1035.8879936848843,-4529.4327082019954,9267.1675003391083,0.0
372154.6038362722,4720833.5216966402,-32500.0,2406.3405610196633,2966.1057221145957,6504.8881197771934,-650.39390254328021,-1763.731085793715,-594.2689077680435,4727.3398385472128,5556.0593296241595,-444.27262555371453,444.27262555371453,-5556.0593296241595,8665.7093228035774,0.0
377154.6038362722,4720833.5216966402,-32500.0,3071.4710939113706,3272.8722192062833,4561.5350031860107,-766.572510275225,35.476047310420952,-1912.5734851023069,4640.8114110962497,5877.8510236735474,-2293.3602213946301,2293.3602213946301,-5877.8510236735474,8269.7816989813382,0.0
382154.6038362722,4720833.5216966402,-32500.0,3513.2440413259546,2776.0174107838093,2522.5379186505706,-308.50868195361238,1753.7334175707631,-3110.5316125395425,4859.4830358410582,5376.0876344459657,-4039.4970790739017,4039.4970790739017,-5376.0876344459657,8421.6851611714355,0.0
387154.6038362722,4720833.5216966402,-32500.0,3467.4892110361488,1733.6797240560529,847.74873238442149,526.43744987294212,3043.5732469975178,-3967.3533889725022,5114.2311031479512,4233.2780942795334,-5309.1243383860356,5309.1243383860356,-4233.2780942795334,8961.0784062497332,0.0
392154.6038362722,4720833.5216966402,-32500.0,2912.3780231405667,518.78499087480486,-252.63704491093063,1461.0615118037897,3768.5099680155113,-4402.0268205049397,5260.6982999389456,2789.9579245853502,-5952.2560817323911,5952.2560817323911,-2789.9579245853502,9496.5338421427205,0.0
397154.6038362722,4720833.5216966402,-32500.0,2008.7035818321185,-564.8392510457893,-799.58897633010122,2271.2735111322922,3976.9949208200392,-4454.9829925029153,5243.943125014127,1368.8254162188709,-6021.461380361965,6021.461380361965,-1368.8254162188709,9767.1118732629875,0.0
402154.6038362722,4720833.5216966402,-32500.0,974.54731874441484,-1359.8212188331313,-937.78977701886083,2841.2251569791924,3812.0138745682543,-4228.8981483313446,5071.0742795123324,175.46169716486338,-5675.3599837949751,5675.3599837949751,-175.46169716486338,9702.6546812414563,0.0
407154.6038362722,4720833.5216966402,-32500.0,-9.400400640624742,-1838.1824338223084,-833.92565262865753,3150.7981353302184,3429.4211626886217,-3835.6126667565964,4780.38050238291,-710.62483144637054,-5088.7211738328569,5088.7211738328569,710.62483144637054,9347.034435894253,0.0
412154.6038362722,4720833.5216966402,-32500.0,-835.18334280855856,-2047.2960574417357,-621.42494981338348,3236.7890790642432,2954.2377876474943,-3367.2576538797812,4421.7112692914161,-1297.516809346123,-4403.4093281979694,4403.4093281979694,1297.516809346123,8785.5325330017877,0.0
417154.6038362722,4720833.5216966402,-32500.0,-1461.4582788511777,-2061.1899371362615,-386.23747483885978,3157.5631783460103,2469.3908635750322,-2887.9059551286532,4094.1396993281764,-1636.4531865088748,-3714.9946563742724,3714.9946563742724,1636.4531865088748,8103.9743475547521,0.0
422154.6038362722,4720833.5216966402,-32500.0,-1891.7154972054523,-1951.2702138837878,-173.95557454359579,2971.1053058721245,2021.3861722002364,-2436.215455624997,3760.1885380785229,-1790.2380171568025,-3078.2405057395558,3078.2405057395558,1790.2380171568025,7371.9245989828187,0.0
427154.6038362722,4720833.5216966402,-32500.0,-2152.8695602613197,-1774.0558782750056,-2.932464097927582,2725.0671040324037,1631.0493277398723,-2031.8221979361397,3412.0264539013056,-1816.4694163011013,-2518.5071330820733,2518.5071330820733,1816.4694163011013,6639.0811440632915,0.0
432154.6038362722,4720833.5216966402,-32500.0,-2280.0418425798189,-1569.1105787320171,124.05648344092363,2454.3219706899622,1303.459999541202,-1681.7639573188594,3069.5451057755645,-1761.2049100942859,-2042.6005220815478,2042.6005220815478,1761.2049100942859,5937.4862753718762,0.0
437154.6038362722,4720833.5216966402,-32500.0,-2307.7471106930225,-1361.5376805866001,211.72470485309995,2182.1814450351908,1035.2317172304638,-1385.566714494737,2745.4059755989119,-1658.3054744387496,-1646.9384944391127,1646.9384944391127,1658.3054744387496,5285.5428921362272,0.0
442154.6038362722,4720833.5216966402,-32500.0,-2265.7697313795206,-1165.7244925385687,267.46009956235685,1922.8864231692489,819.17893353768295,-1138.7967518779903,2446.4314742479432,-1531.1990286908035,-1322.9583932462838,1322.9583932462838,1531.1990286908035,4691.9952733092405,0.0
447154.6038362722,4720833.5216966402,-32500.0,-2177.8929958377325,-988.81145118138829,298.81740914414894,1684.1678470267173,647.01660054911883,-935.32934406400352,2175.4656348832696,-1395.2835270335358,-1060.376843517864,1060.376843517864,1395.2835270335358,4159.2052421888329,0.0
452154.6038362722,4720833.5216966402,-32500.0,-2062.1148427832618,-833.38453472614992,312.41552765640631,1469.3908001106313,510.7620961525152,-768.68353760564401,1932.8217129330296,-1260.1651162299283,-848.98087232992998,848.98087232992998,1260.1651162299283,3685.5960413808143,0.0
457154.6038362722,4720833.5216966402,-32500.0,-1931.4953577744095,-699.3699641841007,313.59837074498853,1279.1701755719344,403.35823166416651,-632.73478171663555,1717.3108464208881,-1131.461036644065,-679.49804869507011,679.49804869507011,1131.461036644065,3267.3633564977185,0.0
462154.6038362722,4720833.5216966402,-32500.0,-1795.1646178363264,-585.27972049510709,306.46417749074021,1112.5072222565218,318.86390336957726,-522.04139688960481,1526.9350652669727,-1012.1414078512138,-543.9285849635877,543.9285849635877,1012.1414078512138,2899.6121269790515,0.0
467154.6038362722,4720833.5216966402,-32500.0,-1659.2682008969673,-488.98682433150657,294.04392999650844,967.54949208133814,252.42647527479019,-431.94713658072232,1359.3364243334563,-903.48091978560581,-435.58621244819631,435.58621244819631,903.48091978560581,2577.0801171925018,0.0
472154.6038362722,4720833.5216966402,-32500.0,-1527.760392724648,-408.18162871684797,278.51579040041844,842.07489096613699,200.15834986742593,-358.56327963408933,1212.0739521743462,-805.70966066789367,-348.99635161706794,348.99635161706794,805.70966066789367,2294.571817866628,0.0
272154.6038362722,4725833.5216966402,-32500.0,210.40074550122785,354.17338351206979,44.66289579717003,-16.702966884278585,128.63893768587224,-42.154927925642582,393.7574300780982,378.03023863970662,-203.84963729811346,203.84963729811346,-378.03023863970662,690.06711391032047,0.0
277154.6038362722,4725833.5216966402,-32500.0,291.14669503789872,369.49242370020357,46.757973644726228,3.16950205935587,136.92721288409254,-41.663539683696982,421.55074353429836,420.14537689420354,-232.49935638050783,232.49935638050783,-420.14537689420354,744.98638066715182,0.0
282154.6038362722,4725833.5216966402,-32500.0,389.51008395471382,380.47688889102727,50.908184254405661,30.345678444390021,143.40672110506733,-39.078788850732721,451.3656749142317,465.2660551678793,-263.75734440629736,263.75734440629736,-465.2660551678793,807.44392645348364,0.0
287154.6038362722,4725833.5216966402,-32500.0,508.48134369060733,384.77447315421324,58.56891562415192,66.807889370959472,146.70065642725274,-33.450792346842249,483.65192641155795,512.77832508625602,-297.10239841407241,297.10239841407241,-512.77832508625602,879.99826445021563,0.0
292154.6038362722,4725833.5216966402,-32500.0,651.18085827712059,379.23910486193472,72.001426329558868,114.92883220666022,144.82468193460147,-23.528106236973542,519.42655112357022,561.64795130077937,-331.53144463048551,331.53144463048551,-561.64795130077937,966.39475229771449,0.0
297154.6038362722,4725833.5216966402,-32500.0,820.60301805575966,359.74548247820354,94.678092877694795,177.46802797448711,134.96683051524653,-7.7081665521479223,561.80522976946133,610.29547489603397,-365.34230140615625,365.34230140615625,-610.29547489603397,1071.9878526357302,0.0
302154.6038362722,4725833.5216966402,-32500.0,1019.1563339768966,321.01883728422729,131.87725816521575,257.50504619725257,113.20488953220868,15.990334712640367,624.6615423769689,656.47676074608273,-395.8490062250761,395.8490062250761,-656.47676074608273,1204.1801563334668,0.0
307154.6038362722,4725833.5216966402,-32500.0,1247.8806939458386,256.55466825120772,191.54050606761174,358.25949207359923,74.154731789635463,49.909386984564932,727.34475459679504,697.21391065349735,-419.02109000744332,419.02109000744332,-697.21391065349735,1372.782527018848,0.0
312154.6038362722,4725833.5216966402,-32500.0,1505.1688222781843,158.79277407659691,285.46436888841004,482.71175514845879,10.555632113565009,96.656890965986378,864.52756411518158,728.87229627618512,-429.04598079925745,429.04598079925745,-728.87229627618512,1590.1660775132389,0.0
317154.6038362722,4725833.5216966402,-32500.0,1784.7764725250038,19.885415549912114,430.83862710493588,632.87083156592632,-87.159531210387485,158.89983468993574,1038.09476228975,747.582070400372,-417.84113509334225,417.84113509334225,-747.582070400372,1871.053106677474,0.0
322154.6038362722,4725833.5216966402,-32500.0,2072.9521802500331,-166.30179260091435,651.91703823487239,808.41276079647048,-231.14391069169577,239.00169188466492,1255.5287246659846,750.38580686438229,-374.62576813261069,374.62576813261069,-750.38580686438229,2231.6926608309359,0.0
327154.6038362722,4725833.5216966402,-32500.0,2344.8853611382715,-399.90942794062772,980.99725513973783,1004.2364302969193,-435.79900631094222,338.41254626701385,1525.2787120654145,737.78308965162819,-285.90840686571289,285.90840686571289,-737.78308965162819,2687.8498679182335,0.0
332154.6038362722,4725833.5216966402,-32500.0,2561.8037897555751,-667.26146114902156,1456.5814603799668,1206.3867522169478,-715.70418738708008,456.54198147805482,1853.5430699607791,718.60638957232811,-136.84689270961132,136.84689270961132,-718.60638957232811,3250.4429438094203,0.0
337154.6038362722,4725833.5216966402,-32500.0,2672.4226910958432,-929.207656479261,2114.5135520935828,1386.2940587238263,-1079.6566038256897,588.42793921774216,2239.0332823334693,717.80835359760806,83.952564683212245,-83.952564683212245,-717.80835359760806,3917.1809277110765,0.0
342154.6038362722,4725833.5216966402,-32500.0,2625.4407426669022,-1109.4456399635162,2966.3480270341606,1495.4740274272538,-1517.9552763355257,720.02790258035509,2665.0638646208972,785.3158783038607,373.03918236101669,-373.03918236101669,-785.3158783038607,4659.4942034204732,0.0
347154.6038362722,4725833.5216966402,-32500.0,2399.2140811211939,-1095.1316461737013,3962.7254538788161,1467.5422613610062,-1982.2693909532481,820.51386001834703,3091.1188140203658,998.00096231230054,692.42009211981076,-692.42009211981076,-998.00096231230054,5408.5427427031982,0.0
352154.6038362722,4725833.5216966402,-32500.0,2042.377133810726,-769.53372097537203,4954.821770504831,1238.7057937338359,-2366.4382452515169,834.7279025175161,3450.9190032608158,1439.5201350855052,948.35924285234819,-948.35924285234819,-1439.5201350855052,6052.9145404135861,0.0
357154.6038362722,4725833.5216966402,-32500.0,1693.6576309336363,-85.269895912707156,5691.193652473662,791.57912934065746,-2510.5985001053091,686.00568307148524,3668.0106151198429,2147.021916464359,990.6986591273876,-990.6986591273876,-2147.021916464359,6467.9750738509692,0.0
362154.6038362722,4725833.5216966402,-32500.0,1537.2515487522373,856.32648464416593,5891.1032093513777,201.88579921897099,-2252.3364461999531,301.6641722641931,3696.5489083873008,3044.2150996344681,659.27783447514162,-659.27783447514162,-3044.2150996344681,6588.1318878500151,0.0
367154.6038362722,4725833.5216966402,-32500.0,1693.1891006773922,1794.9262310839326,5382.9453315032315,-357.44575617809829,-1515.3968144573223,-341.91054984001124,3591.3534255345021,3918.8624585193757,-127.16303704494817,127.16303704494817,-3918.8624585193757,6496.369654894429,0.0
372154.6038362722,4725833.5216966402,-32500.0,2119.1990124203739,2413.3812968560505,4218.6643791179349,-682.18314173838917,-377.973254881363,-1183.690587959084,3595.0332738376951,4491.6951397051407,-1296.355293556456,1296.355293556456,-4491.6951397051407,6445.8573965886262,0.0
377154.6038362722,4725833.5216966402,-32500.0,2614.2430114176582,2495.9717721434331,2669.4268173056694,-638.37576191078949,939.8030360109185,-2085.5583501762931,3848.6146749174045,4547.9293378267157,-2628.0491849779601,2628.0491849779601,-4547.9293378267157,6701.672653793612,0.0
382154.6038362722,4725833.5216966402,-32500.0,2928.497401783442,2028.9447147045962,1100.2476831834756,-226.89750254764965,2168.0007655268296,-2884.8381068013896,4195.3190377491546,4040.513236778213,-3845.372152714554,3845.372152714554,-4040.513236778213,7287.9432705792733,0.0
387154.6038362722,4725833.5216966402,-32500.0,2893.8263661794308,1180.8277368892227,-185.84365477649561,430.72433945654751,3095.311804644864,-3457.0720558631256,4497.9337761223505,3097.0456587579342,-4728.9345466624891,4728.9345466624891,-3097.0456587579342,7983.8652941366518,0.0
392154.6038362722,4725833.5216966402,-32500.0,2486.0206983403145,197.4131488684113,-1038.7595053403866,1162.8431606146344,3628.6543300877734,-3750.7521038543941,4678.7861006248122,1941.0891871151475,-5182.6772384382875,5182.6772384382875,-1941.0891871151475,8544.7693009713385,0.0
397154.6038362722,4725833.5216966402,-32500.0,1800.0662500609922,-706.47827380862464,-1459.5320574067557,1820.1935396271676,3786.9111673189432,-3783.1870877366209,4711.2122682320332,792.84500033584118,-5229.588154145722,5229.588154145722,-792.84500033584118,8835.0026947767856,0.0
402154.6038362722,4725833.5216966402,-32500.0,981.69209906866467,-1403.147882448151,-1541.8287111099323,2313.6657995612914,3655.9387966567015,-3613.2495480031039,4606.4733261334568,-194.59369897026863,-4964.609507817323,4964.609507817323,194.59369897026863,8828.9014516184834,0.0
407154.6038362722,4725833.5216966402,-32500.0,166.01618752852235,-1853.0887208848801,-1407.3917413101951,2615.3893967204763,3340.6676923952919,-3312.1831628065606,4397.6745271246546,-949.76910994649506,-4503.3701108203368,4503.3701108203368,949.76910994649506,8567.5922638855882,0.0
412154.6038362722,4725833.5216966402,-32500.0,-553.72940752825684,-2077.0357605445224,-1163.8470669367332,2740.2407981864862,2933.8543038841922,-2944.1113641632851,4129.0507528354465,-1465.4975334684764,-3948.3773619039844,3948.3773619039844,1465.4975334684764,8119.0670639915761,0.0
417154.6038362722,4725833.5216966402,-32500.0,-1130.4995955788875,-2124.2532350333731,-888.04347423950969,2724.3705641848637,2503.407555742031,-2557.5731155553763,3841.1245797388447,-1772.0747613523927,-3375.0949459800831,3375.0949459800831,1772.0747613523927,7552.9077192688928,0.0
422154.6038362722,4725833.5216966402,-32500.0,-1553.426296840124,-2049.5220330966499,-626.09571395963587,2609.1066166469927,2092.0189578297868,-2184.6050668526509,3540.674441404622,-1914.6563046219821,-2831.3046050602084,2831.3046050602084,1914.6563046219821,6928.0014210199488,0.0
427154.6038362722,4725833.5216966402,-32500.0,-1834.2039425967703,-1900.7731960117756,-400.56085773853511,2431.8030262174125,1722.3215318261559,-1843.4874643024998,3231.3043576215459,-1938.95302387014,-2342.5263606321596,2342.5263606321596,1938.95302387014,6288.6975134125032,0.0
432154.6038362722,4725833.5216966402,-32500.0,-1995.4858191806181,-1714.6387926297205,-218.69331175836172,2222.089210900861,1403.1833486541325,-1542.5228488871167,2924.9509474842525,-1884.2280237711054,-1918.7838380381352,1918.7838380381352,1884.2280237711054,5665.4316990085208,0.0
437154.6038362722,4725833.5216966402,-32500.0,-2062.9774475315071,-1516.4889293098249,-79.143409474761057,2001.3763410091483,1135.0920997486874,-1283.5116244047149,2631.8604718642855,-1781.0807601410256,-1560.4906801666957,1560.4906801666957,1781.0807601410256,5077.1915117022472,0.0
442154.6038362722,4725833.5216966402,-32500.0,-2060.9203810927611,-1322.4000304649012,23.478766457078603,1783.9302756860195,914.05727786212185,-1064.4465381644109,2358.4995053687912,-1651.7805214497184,-1262.7962857227831,1262.7962857227831,1651.7805214497184,4534.3775786846172,0.0
447154.6038362722,4725833.5216966402,-32500.0,-2010.009531594797,-1141.5673441428562,95.862263004521068,1578.4534198683773,734.14010934762052,-881.3872522351827,2108.1441362813339,-1511.6541521480378,-1018.4654010994161,1018.4654010994161,1511.6541521480378,4041.3746597015102,0.0
452154.6038362722,4725833.5216966402,-32500.0,-1926.8096905690429,-978.47280135600749,144.53789402976312,1389.6336472325354,588.94742069494419,-729.65971077297127,1881.8125742407603,-1370.7044589339596,-819.62459475827131,819.62459475827131,1370.7044589339596,3598.608683070227,0.0
457154.6038362722,4725833.5216966402,-32500.0,-1823.9696396101028,-834.57814156801714,175.22223687616696,1219.4345066548935,472.42538145408651,-604.56154932287313,1679.0627527778508,-1235.0752372997013,-658.72360003149151,658.72360003149151,1235.0752372997013,3204.0715185183158,0.0
462154.6038362722,4725833.5216966402,-32500.0,-1710.7847770530109,-709.54035813070755,192.61467642440613,1068.0771440999472,379.21919503076936,-501.73582987240667,1498.585141676477,-1108.2321799241699,-528.99609681929917,528.99609681929917,1108.2321799241699,2854.3924469525664,0.0
467154.6038362722,4725833.5216966402,-32500.0,-1593.8516455932941,-602.03276547774442,200.42422046390197,934.74252554843633,304.7829313078193,-417.33642453314917,1338.6137345511836,-991.85203469847079,-424.62252391196671,424.62252391196671,991.85203469847079,2545.5569344814203,0.0
272154.6038362722,4730833.5216966402,-32500.0,275.52819090706811,291.32378837021963,38.802399339147179,14.702383540180385,104.19283799757753,-30.58924980095567,338.74373357720424,348.21563681169886,-192.1399271187293,192.1399271187293,-348.21563681169886,604.24056977425948,0.0
277154.6038362722,4730833.5216966402,-32500.0,355.45460106338936,294.92616537227309,44.287221603809201,36.882417476247902,106.97239226030501,-28.558925764619186,359.77658139467354,381.6333410422551,-215.16915386014367,215.16915386014367,-381.6333410422551,651.27074964599774,0.0
282154.6038362722,4730833.5216966402,-32500.0,450.15623355956853,292.46422505550163,53.470575217519205,65.772238038386277,106.79813156945261,-24.440155269056003,382.41138125083603,416.23517308770801,-239.1766898622671,239.1766898622671,-416.23517308770801,705.78829424697324,0.0
287154.6038362722,4730833.5216966402,-32500.0,561.36265805475591,281.62783076671457,68.337064171161558,102.86737783604853,102.14279987003943,-17.428464154350547,407.97151784981043,451.20815329862955,-263.28300784411579,263.28300784411579,-451.20815329862955,770.52048302573542,0.0
292154.6038362722,4730833.5216966402,-32500.0,690.51107080094641,259.54924791607897,91.776393956340272,149.82184393992281,90.921424826101187,-6.5078660857775592,441.95597358099064,485.41336726581312,-286.10504504595383,286.10504504595383,-485.41336726581312,849.25055856724487,0.0
297154.6038362722,4730833.5216966402,-32500.0,838.39825293459648,222.7873541567329,127.9470504680593,208.35344211036198,70.339255830449218,9.5604791336238666,498.02888287183515,517.35954624792021,-305.58406351902914,305.58406351902914,-517.35954624792021,947.01799987404559,0.0
302154.6038362722,4730833.5216966402,-32500.0,1004.6539957689192,167.41616871696894,182.75299939167712,280.05779430491009,36.729546305159445,32.216351181831705,577.04843733066446,545.24053227617787,-318.79089486045814,318.79089486045814,-545.24053227617787,1070.2044455462092,0.0
307154.6038362722,4730833.5216966402,-32500.0,1186.9797464603528,89.319225744507904,264.43330731634592,366.08057007388135,-14.590525654478474,63.018581422549623,676.40473933080875,567.10394496285289,-321.73351793928327,321.73351793928327,-567.10394496285289,1226.4141373471352,0.0
312154.6038362722,4730833.5216966402,-32500.0,1380.1081415955991,-15.13960315220902,384.21276327588987,466.57655470993615,-89.384644693694682,103.46552170201976,798.65460804328347,581.26354669839873,-309.2230952314759,309.2230952314759,-581.26354669839873,1424.0642575586853,0.0
317154.6038362722,4730833.5216966402,-32500.0,1574.5057915495233,-147.80206091114781,556.83853816088856,579.86127173138198,-194.35950180385433,154.66773892885973,947.85368447093879,587.13268095490571,-274.91362355403362,274.91362355403362,-587.13268095490571,1671.5993903555213,0.0
322154.6038362722,4730833.5216966402,-32500.0,1755.0222601977307,-306.39591240135104,800.56959797455488,701.1454481115062,-336.58740320542,216.80546952130774,1127.9553670390139,586.72324477927111,-211.7358679298201,211.7358679298201,-586.72324477927111,1976.1728396643866,0.0
327154.6038362722,4730833.5216966402,-32500.0,1900.1049936168556,-480.86048348447815,1135.7205412282449,820.78620423580105,-522.06262927148657,288.27457038659009,1341.2643592196937,587.06642623470998,-113.12974537219588,113.12974537219588,-587.06642623470998,2341.4998074882951,0.0
332154.6038362722,4730833.5216966402,-32500.0,1982.9313243265503,-648.37607085144373,1580.1992391118119,922.21070205684975,-752.71467137726495,364.37606525476826,1586.2160202211619,603.57950931975779,24.264332932623574,-24.264332932623574,-603.57950931975779,2764.4892075845883,0.0
337154.6038362722,4730833.5216966402,-32500.0,1976.686518441928,-768.46868471577613,2139.9895335053238,980.30370540108595,-1021.0775966771059,435.37405477187582,1854.4142972988416,663.56313303929164,195.61878860252085,-195.61878860252085,-663.56313303929164,3230.5463556198838,0.0
342154.6038362722,4730833.5216966402,-32500.0,1866.2555911165446,-782.18966845392549,2793.3906292009569,962.29488898440547,-1302.3944325117018,483.91973300643184,2127.5653117091806,807.16112443313045,380.25508431823641,-380.25508431823641,-807.16112443313045,3708.6701090596225,0.0
347154.6038362722,4730833.5216966402,-32500.0,1665.6587582723432,-622.37579329633172,3472.0387170502754,834.58095691042865,-1546.1960919224832,482.62370199077009,2376.3248160002991,1080.6493785355715,533.0298836169078,-533.0298836169078,-1080.6493785355715,4150.1071534660232,0.0
352154.6038362722,4730833.5216966402,-32500.0,1432.9566046523132,-241.26702437072163,4050.0860046020562,578.40440587625619,-1673.6598566814539,394.23543613881571,2564.8498590017616,1516.6031423649283,580.78568062228589,-580.78568062228589,-1516.6031423649283,4497.6073549637931,0.0
357154.6038362722,4730833.5216966402,-32500.0,1265.9116275533336,348.78860863150254,4360.045939368676,211.71302002252042,-1590.4199690504636,178.44401919314157,2665.6407781345793,2102.340589274163,433.69221740672378,-433.69221740672378,-2102.340589274163,4712.6169483354552,0.0
362154.6038362722,4730833.5216966402,-32500.0,1264.9721555667413,1044.9223539157051,4246.7073513325031,-195.65324951432177,-1220.0013256151824,-192.3238243564229,2690.3252993932419,2752.9279910218729,17.530557035135416,-17.530557035135416,-2752.9279910218729,4818.2326145108973,0.0
367154.6038362722,4730833.5216966402,-32500.0,1474.3144020224038,1666.1511296179808,3642.3425573300692,-531.30327879211302,-547.07139610590968,-712.78755881936399,2744.8726252138135,3315.3451550826176,-682.81318644369298,682.81318644369298,-3315.3451550826176,4929.335585920031,0.0
372154.6038362722,4730833.5216966402,-32500.0,1840.0931840214212,2018.7221563191979,2617.4287096768953,-679.73939442392464,356.4229696883977,-1333.0543634333874,2968.1503079694226,3617.1241440049985,-1595.5560240161008,1595.5560240161008,-3617.1241440049985,5208.9041611791718,0.0
377154.6038362722,4730833.5216966402,-32500.0,2222.8146646177292,1981.3244549518472,1366.7203187081623,-572.90990341686313,1345.2198703119184,-1966.9024170748248,3311.1075280199498,3538.5464134054437,-2574.4223252176153,2574.4223252176153,-3538.5464134054437,5735.0065568613836,0.0
382154.6038362722,4730833.5216966402,-32500.0,2460.9625581648606,1556.1702287922135,134.52723184239676,-220.10550841173711,2251.1480983869615,-2518.916210187786,3667.3358375672115,3064.4400773598995,-3449.2262160623291,3449.2262160623291,-3064.4400773598995,6421.7963154870213,0.0
387154.6038362722,4730833.5216966402,-32500.0,2443.5803470204414,856.87590206956349,-874.85870125952908,300.46432026712239,2940.7145185061213,-2915.5342417305337,3959.8219515078804,2284.8512403330387,-4085.2793932709374,4085.2793932709374,-2284.8512403330387,7096.8445645199363,0.0
392154.6038362722,4730833.5216966402,-32500.0,2147.9530879247905,49.51566445893269,-1552.7650942306063,878.73581553377312,3349.2800883763093,-3123.4962247491039,4143.1407828567962,1350.4498132557028,-4419.3299328617732,4419.3299328617732,-1350.4498132557028,7612.6382573238434,0.0
397154.6038362722,4730833.5216966402,-32500.0,1630.1748509404401,-712.23080456066373,-1890.4122449769175,1413.4921945736783,3481.5328699942829,-3149.7672314112492,4202.4771603952868,414.58152196762239,-4460.3446098563581,4460.3446098563581,-414.58152196762239,7892.5971314913904,0.0
402154.6038362722,4730833.5216966402,-32500.0,987.48943815707332,-1326.5016490462349,-1947.4323287768516,1837.3246645333502,3388.9433277671169,-3028.603722167607,4147.2392098425107,-408.12727480613194,-4265.8929766749025,4265.8929766749025,408.12727480613194,7925.7029401867285,0.0
407154.6038362722,4730833.5216966402,-32500.0,319.20677162619035,-1750.8421030374416,-1811.4447555873605,2121.741694291462,3141.7803400178796,-2805.4337351574186,4001.7175243593883,-1056.0390667599104,-3912.6630539912712,3912.6630539912712,1056.0390667599104,7743.357988317297,0.0
412154.6038362722,4730833.5216966402,-32500.0,-297.88518598432074,-1989.0199879081295,-1567.2969840993674,2269.0989983690429,2807.7665397797746,-2524.3247220378371,3795.7393580138369,-1513.9547990393557,-3473.9701816544048,3473.9701816544048,1513.9547990393557,7396.4763138843864,0.0
417154.6038362722,4730833.5216966402,-32500.0,-817.55578313190199,-2071.360779084458,-1281.3638880246754,2300.1317225062344,2440.8940909088769,-2221.138575757916,3554.7834357222919,-1797.5573042132614,-3008.0168812091465,3008.0168812091465,1797.5573042132614,6939.1271556255797,0.0
422154.6038362722,4730833.5216966402,-32500.0,-1221.0442907851871,-2037.8515381265738,-997.86521417922154,2242.9095910400601,2078.4707790207967,-1921.4368395187662,3294.0715005223719,-1937.8873841419527,-2554.8543682016143,2554.8543682016143,1937.8873841419527,6419.2866346384026,0.0
427154.6038362722,4730833.5216966402,-32500.0,-1509.2707705664423,-1927.2558428626164,-741.81460240797026,2125.412015456408,1742.8913485072412,-1641.253234696539,3024.0288435609223,-1969.9809507304089,-2138.3351822144859,2138.3351822144859,1969.9809507304089,5875.0135159891852,0.0
432154.6038362722,4730833.5216966402,-32500.0,-1694.7229392120762,-1771.793407217395,-524.26284045665727,1971.6237357032569,1445.2292862002598,-1389.0999463284716,2754.6047362504496,-1926.2322722328572,-1769.9907235494466,1769.9907235494466,1926.2322722328572,5333.9836807343563,0.0
437154.6038362722,4730833.5216966402,-32500.0,-1795.0513801765808,-1595.6250200473719,-347.37886655462751,1800.1632201451707,1188.9228886720657,-1168.179043636728,2494.1706402946902,-1833.4348731135165,-1453.0127827875472,1453.0127827875472,1833.4348731135165,4814.7328231975162,0.0
442154.6038362722,4730833.5216966402,-32500.0,-1828.8222862885107,-1415.4132844258788,-208.39340323725349,1624.3904676366149,972.79295712744772,-978.29403647232527,2248.5569093756958,-1712.1324202170392,-1185.529108982256,1185.529108982256,1712.1324202170392,4328.5174610313288,0.0
447154.6038362722,4730833.5216966402,-32500.0,-1813.1190395370647,-1241.7386080988031,-102.27276164268373,1453.2064400987761,793.21621200049049,-817.30056069644047,2021.1684169137127,-1577.1715572051191,-962.98009052751763,962.98009052751763,1577.1715572051191,3881.1988036567941,0.0
452154.6038362722,4730833.5216966402,-32500.0,-1762.4557671142984,-1080.663510223839,-23.345734179879997,1292.0527326285774,645.54784591336465,-682.10986158055812,1813.5126060414618,-1438.7277001700043,-779.6887447878737,779.6887447878737,1438.7277001700043,3474.8680984550097,0.0
457154.6038362722,4730833.5216966402,-32500.0,-1688.5076165293469,-935.11389844599876,33.812631087706926,1143.8577577858493,524.97560936678065,-569.33090342521302,1625.7631586686348,-1303.3990758476771,-629.81368876110378,629.81368876110378,1303.3990758476771,3109.13279348065,0.0
462154.6038362722,4730833.5216966402,-32500.0,-1600.282494727704,-805.96578445646662,73.972262769689905,1009.8219553438184,426.98256721363276,-475.64788006820231,1457.2289991966963,-1175.1770633641042,-507.87201261615087,507.87201261615087,1175.1770633641042,2782.0699443387321,0.0
277154.6038362722,4735833.5216966402,-32500.0,393.95215637807019,225.47738649849029,51.043506714774004,60.457529086545875,78.544649574811729,-18.288781935898733,306.31087109412488,341.67076373465386,-193.78979682672207,193.78979682672207,-341.67076373465386,572.85358479241768,0.0
282154.6038362722,4735833.5216966402,-32500.0,480.78456903874462,212.92213603834227,66.190249064871892,88.805625285247245,73.000742556257649,-13.407233578399866,325.99655757702914,367.37113971559097,-210.93441587704683,210.93441587704683,-367.37113971559097,621.99600008316804,0.0
287154.6038362722,4735833.5216966402,-32500.0,579.77517961186879,191.56073433057969,88.871673120479798,123.8764067579275,62.281945015436385,-5.9705160487220086,356.29714570668978,392.26054820891864,-226.69915562191613,226.69915562191613,-392.26054820891864,681.39519814034895,0.0
292154.6038362722,4735833.5216966402,-32500.0,690.99290696826029,159.15190636475572,122.27741252195462,166.61861259657417,44.437960989643216,4.774456625953964,402.66012427846897,415.38103467370507,-239.5855695707524,239.5855695707524,-415.38103467370507,754.49816510650328,0.0
297154.6038362722,4735833.5216966402,-32500.0,813.61201910952866,113.30640667308784,170.74044512718515,217.80282737841779,16.997080476462443,19.684813252086165,462.2049832197136,435.66228157606685,-247.54647072059873,247.54647072059873,-435.66228157606685,845.52171990667034,0.0
302154.6038362722,4735833.5216966402,-32500.0,945.45626924217015,51.754704934895422,240.03043073904638,277.78709481175201,-23.075650601346055,39.663399708177671,534.84336197411085,452.07847499922605,-247.90306791794865,247.90306791794865,-452.07847499922605,959.29492709899876,0.0
307154.6038362722,4735833.5216966402,-32500.0,1082.4329543231686,-27.15310445064036,337.62240857276356,346.15937752049712,-79.344104037402303,65.537680607984072,622.44710653757056,463.96018234074359,-237.32534769573999,237.32534769573999,-463.96018234074359,1100.9094879666686,0.0
312154.6038362722,4735833.5216966402,-32500.0,1217.9058748706052,-123.59708595444022,472.82153202555054,421.22207952327915,-155.7136790137215,97.843262952964295,727.38302027971497,471.54457463905669,-211.95260449639832,211.95260449639832,-471.54457463905669,1275.1481901024854,0.0
317154.6038362722,4735833.5216966402,-32500.0,1342.1521024448834,-234.9545686996635,656.50804489383677,499.29638505158539,-255.96655403508223,136.47223965165307,851.76425215280165,476.85961812952894,-167.77997051151578,167.77997051151578,-476.85961812952894,1485.652277875306,0.0
322154.6038362722,4735833.5216966402,-32500.0,1442.2167603929995,-353.89724380781746,900.08341245647978,573.86777452045942,-382.8318336347005,180.14157105784338,996.59888853068162,485.00971104928954,-101.50158851273031,101.50158851273031,-485.00971104928954,1733.7567265029343,0.0
327154.6038362722,4735833.5216966402,-32500.0,1502.7405930156719,-466.03060170981911,1212.9726693392458,634.70668081158317,-536.3413934476132,225.64165259072576,1160.6851803505713,505.79925847321692,-12.065439653145631,12.065439653145631,-505.79925847321692,2016.9239928903053,0.0
332154.6038362722,4735833.5216966402,-32500.0,1508.6062185463736,-547.68739292555574,1597.8951420634537,667.33089472819609,-711.22594855036698,266.85364114557757,1339.3335613727077,555.28734440179346,96.802891664078032,-96.802891664078032,-555.28734440179346,2326.8433093386675,0.0
337154.6038362722,4735833.5216966402,-32500.0,1450.2544119691008,-565.40353313767594,2043.4096818353985,653.5666719503987,-893.33038218736272,293.61841224324053,1523.2116813655052,656.20902903934484,213.06113045086971,-213.06113045086971,-656.20902903934484,2647.699740097089,0.0
342154.6038362722,4735833.5216966402,-32500.0,1331.6595892355647,-479.73021145881131,2514.5790085382746,574.40405489788907,-1055.728592247033,290.77883050272021,1698.0135675116942,835.32258713185729,312.43144269468758,-312.43144269468758,-835.32258713185729,2956.0008512886825,0.0
347154.6038362722,4735833.5216966402,-32500.0,1178.577454189329,-256.33781752409743,2945.4477662322233,416.35416449147795,-1156.564070348956,238.16891088230403,1846.2762462770381,1115.3341743350406,356.07447253242123,-356.07447253242123,-1115.3341743350406,3224.5743613192985,0.0
352154.6038362722,4735833.5216966402,-32500.0,1041.2042945670964,115.11789425481496,3240.512507456966,181.20411713745773,-1142.1523613335339,112.84894342556906,1953.2928339900775,1500.5985372072546,293.37593162230598,-293.37593162230598,-1500.5985372072546,3433.9972416935266,0.0
357154.6038362722,4735833.5216966402,-32500.0,983.81799467695521,600.40259605956442,3292.9599359258991,-104.12980792789241,-958.83305878549288,-105.14516940061603,2020.3506529312128,1960.5514924295305,73.414037907328748,-73.414037907328748,-1960.5514924295305,3592.2985926592714,0.0
362154.6038362722,4735833.5216966402,-32500.0,1059.0207785665018,1111.834184455171,3020.5068919721903,-384.52349785414356,-573.22369127420609,-423.79507948672756,2093.0096585706733,2421.0240881727045,-335.06056317915409,335.06056317915409,-2421.0240881727045,3754.0045657105911,0.0
367154.6038362722,4735833.5216966402,-32500.0,1276.3917004594441,1524.509620467793,2405.7561373018193,-587.02144830615055,6.690841954769069,-830.1259838823338,2267.1246017350809,2774.917128496149,-922.55586570587127,922.55586570587127,-2774.917128496149,4012.2577854660835,0.0
372154.6038362722,4735833.5216966402,-32500.0,1585.4255666241868,1717.5930545291806,1517.7322779031513,-644.34642236000161,722.28518308511411,-1286.8930859485927,2557.1854005552823,2914.4953798539163,-1629.4153523568946,1629.4153523568946,-2914.4953798539163,4440.8751866547536,0.0
377154.6038362722,4735833.5216966402,-32500.0,1888.0043034353475,1621.5183633538254,497.54447096474553,-521.08522141749131,1475.6790232723429,-1739.039260220595,2895.5799425925461,2771.906025782755,-2357.1917992797535,2357.1917992797535,-2771.906025782755,5028.0220508352759,0.0
382154.6038362722,4735833.5216966402,-32500.0,2076.3837356700201,1244.6089655484814,-487.26031195652325,-228.00236020324556,2158.4738138307189,-2128.4471194872176,3219.3722934586476,2345.9902647131848,-2997.7277989164131,2997.7277989164131,-2345.9902647131848,5679.2007364978399,0.0
387154.6038362722,4735833.5216966402,-32500.0,2075.0291145845631,665.33350045143868,-1295.6251419241053,183.21264730111312,2683.6121680784249,-2410.0929177706448,3481.5270899823108,1701.0487688249168,-3465.519448774513,3465.519448774513,-1701.0487688249168,6276.4531004028959,0.0
392154.6038362722,4735833.5216966402,-32500.0,1863.9376392795418,-1.7917685551532707,-1847.6333261325603,640.25959905420552,3005.4665576166208,-2562.1288505584848,3653.3356045579308,940.78607145482238,-3718.0013017763049,3718.0013017763049,-940.78607145482238,6728.0352339887058,0.0
397154.6038362722,4735833.5216966402,-32500.0,1475.8015911489485,-645.76520254335776,-2130.2385338593667,1073.6653362595709,3122.1572092170377,-2586.7610506532201,3725.0969780722171,173.59901915045998,-3757.4893100677909,3757.4893100677909,-173.59901915045998,6986.4929310448515,0.0
402154.6038362722,4735833.5216966402,-32500.0,975.21901150184169,-1186.2988185384302,-2180.5225241758199,1433.0216882810182,3064.23128702127,-2503.9864208253921,3702.9174461453076,-514.49034514606637,-3619.0899854811919,3619.0899854811919,514.49034514606637,7045.2260620447532,0.0
407154.6038362722,4735833.5216966402,-32500.0,434.08805156853145,-1582.7236664634192,-2060.6224197642887,1692.4834978387016,2878.3596506054923,-2342.6651645582124,3603.0891294244839,-1071.8459035021338,-3353.6248203655955,3353.6248203655955,1071.8459035021338,6926.0486609386353,0.0
412154.6038362722,4735833.5216966402,-32500.0,-86.527343732324837,-1828.7785966125844,-1836.0166725943586,1847.8409199917485,2613.1908696055607,-2132.692229622216,3445.9238244233193,-1479.9153137994008,-3012.9911143366535,3012.9911143366535,1479.9153137994008,6665.6508493272177,0.0
417154.6038362722,4735833.5216966402,-32500.0,-544.84179251680109,-1941.0148425681512,-1562.2442523758712,1909.6190348169889,2310.5128428899325,-1899.9864575061513,3250.4292165321617,-1744.6258748575683,-2641.1628708855696,2641.1628708855696,1744.6258748575683,6304.8201033689284,0.0
422154.6038362722,4735833.5216966402,-32500.0,-918.90488711459614,-1947.0519502886882,-1279.7452287160618,1895.8854743482725,2001.6021045299112,-1664.3021664563146,3031.6271103517897,-1886.1436874647329,-2270.619503352777,2270.619503352777,1886.1436874647329,5881.5189780149149,0.0
427154.6038362722,4735833.5216966402,-32500.0,-1202.76772902518,-1876.7999047091894,-1014.1256108722994,1826.6902252202055,1707.1474799892162,-1439.0510931808983,2801.1182228649377,-1930.3321566264242,-1922.4660864502505,1922.4660864502505,1930.3321566264242,5427.3908473788351,0.0
432154.6038362722,4735833.5216966402,-32500.0,-1401.2738887627834,-1757.2594007267476,-779.03307284738264,1720.6081485571117,1439.0052800423939,-1232.2135405575696,2568.294515542193,-1903.028998734532,-1608.4115834168672,1608.4115834168672,1903.028998734532,4966.702767456577,0.0
437154.6038362722,4735833.5216966402,-32500.0,-1525.283332947515,-1610.2276471121363,-579.67900343223641,1593.0668978983629,1202.5180009056435,-1047.6392672642653,2340.5638060176561,-1826.9338779842872,-1333.2882713615497,1333.2882713615497,1826.9338779842872,4516.7337072956625,0.0
442154.6038362722,4735833.5216966402,-32500.0,-1588.0719290955049,-1451.8902886486635,-415.97325307256386,1455.8941664146882,998.68603115771612,-886.32191195785606,2123.2642096026798,-1720.390517172772,-1097.3832970147505,1097.3832970147505,1720.390517172772,4088.8518187393151,0.0
447154.6038362722,4735833.5216966402,-32500.0,-1602.986355468114,-1293.41271664075,-284.90172020940685,1317.5582779006891,825.89905838196239,-747.45614927231702,1919.8100380147064,-1597.3224061731985,-898.28705186570187,898.28705186570187,1597.3224061731985,3689.7932729678291,0.0
452154.6038362722,4735833.5216966402,-32500.0,-1582.1302812659337,-1141.921121424481,-182.14108586510829,1183.7199707000793,681.17918479810862,-629.22732347128226,1732.0355205960682,-1467.7513248143914,-732.21564223257474,732.21564223257474,1467.7513248143914,3322.8731008285763,0.0
457154.6038362722,4735833.5216966402,-32500.0,-1535.7808278231778,-1001.523847951327,-103.05533996764672,1057.8619858809043,561.00292746014873,-529.35669498344703,1560.5930213449476,-1338.5308158251473,-594.88267199700147,594.88267199700147,1338.5308158251473,2989.013416399906,0.0
462154.6038362722,4735833.5216966402,-32500.0,-1472.2602589915077,-874.20316697322949,-43.249764808488685,941.86966361150462,461.80148480959269,-445.45007472516949,1405.3121854922952,-1214.0842074885136,-482.0269238181063,482.0269238181063,1214.0842074885136,2687.5487667013085,0.0
277154.6038362722,4740833.5216966402,-32500.0,411.00544876125639,163.94439002059991,64.205622227336548,75.351052006330519,52.821551671653388,-10.530068028879972,265.21828076410043,302.88898151882097,-170.57937369943858,170.57937369943858,-302.88898151882097,507.75077413515004,0.0
282154.6038362722,4740833.5216966402,-32500.0,487.43814051210245,144.69678076275864,85.294038347607852,101.5791355886133,43.307575101200364,-5.4713126695112697,292.0603209053096,321.56375727624231,-181.70454228594778,181.70454228594778,-321.56375727624231,553.03892636677779,0.0
287154.6038362722,4740833.5216966402,-32500.0,571.95424854356474,117.19440375559354,115.21173286807631,132.91668844256668,28.449607452562606,1.7076284608346806,328.73650774390171,338.95011631686828,-190.50322210425546,190.50322210425546,-338.95011631686828,608.25267861016266,0.0
292154.6038362722,4740833.5216966402,-32500.0,663.66097992823757,79.977260921845328,157.12010208171458,169.71186737245355,6.585700422599416,11.50957367173493,373.65682533531191,354.42629603218393,-195.56518087825259,195.56518087825259,-354.42629603218393,676.21692283085781,0.0
297154.6038362722,4740833.5216966402,-32500.0,760.73341633139523,31.793007999099977,215.07610517839106,211.9890047436771,-24.26244906577292,24.447956320527449,427.31076994064489,367.47420567615876,-195.10458864528522,195.10458864528522,-367.47420567615876,760.07567732503003,0.0
302154.6038362722,4740833.5216966402,-32500.0,860.09713314964426,-28.052079053526864,294.13495326636871,259.22093602179888,-66.337395829059275,40.96985470444703,490.96977670845041,377.89720622672479,-186.97514085219751,186.97514085219751,-377.89720622672479,863.0392899112062,0.0
307154.6038362722,4740833.5216966402,-32500.0,957.10952631323187,-99.145739913065938,400.33473141828944,310.0179638574316,-121.99291683101235,61.323189991138541,566.10902633937155,386.17283904871579,-168.77926178899361,168.77926178899361,-386.17283904871579,988.00300664456643,0.0
312154.6038362722,4740833.5216966402,-32500.0,1045.3311255378032,-179.17542810393806,540.43089974721147,361.73215571991102,-193.37351417873998,85.346015869748243,654.00981071735407,393.979300177433,-138.14099238154887,138.14099238154887,-393.979300177433,1137.0315992408864,0.0
317154.6038362722,4740833.5216966402,-32500.0,1116.5557100764079,-262.87316176739688,721.1718138693858,410.00448231751767,-281.83659977910423,112.1557010707718,755.26365135257174,404.91028262427716,-93.237706328259776,93.237706328259776,-404.91028262427716,1310.7012419230491,0.0
322154.6038362722,4740833.5216966402,-32500.0,1161.3691769684915,-340.78844595683364,947.82169954893038,448.33905362548319,-387.01195533648257,139.72273905254494,869.15921179820077,425.32096049888048,-33.702940085949308,33.702940085949308,-425.32096049888048,1507.3031301027256,0.0
327154.6038362722,4740833.5216966402,-32500.0,1170.6019427323019,-398.19484722547105,1221.5994792038357,467.88928432547749,-505.41207571610488,164.33648872623985,993.04690175948599,465.09409801719295,38.005072265750755,-38.005072265750755,-465.09409801719295,1721.9903097614883,0.0
332154.6038362722,4740833.5216966402,-32500.0,1138.0246733749127,-414.79822289379638,1535.8295407740134,457.78612172370975,-628.61008513312152,180.02042778034573,1121.8543087307175,537.84878004022289,114.77972283203945,-114.77972283203945,-537.84878004022289,1946.1368434052683,0.0
337154.6038362722,4740833.5216966402,-32500.0,1064.3264644264746,-366.35958179359898,1871.0946414874704,406.49229732637139,-741.26508355280657,178.05001403586525,1248.0445773659796,659.77053111168152,182.86481874380962,-182.86481874380962,-659.77053111168152,2167.5258336282,0.0
342154.6038362722,4740833.5216966402,-32500.0,961.58240823132735,-229.57683918478489,2190.7349285021401,304.69497651720587,-819.75694574186014,146.88135582807689,1362.5197718105619,846.02239665739057,220.44071322486053,-220.44071322486053,-846.02239665739057,2372.4636111844893,0.0
347154.6038362722,4740833.5216966402,-32500.0,856.05897626570709,9.0387795347194633,2439.5127295640523,149.88731325753588,-832.79739559522909,72.978643831170245,1457.2621116034063,1104.0608610742515,198.17262295613597,-198.17262295613597,-1104.0608610742515,2551.2370161103595,0.0
352154.6038362722,4740833.5216966402,-32500.0,786.02944791648372,341.66395399247244,2549.2616842411576,-48.222795582223497,-745.68529758854231,-56.908682792423285,1531.2672141859969,1424.6874316480926,83.39362581206035,-83.39362581206035,-1424.6874316480926,2707.6091062493642,0.0
357154.6038362722,4740833.5216966402,-32500.0,791.86081704323499,729.77303027841901,2454.1094733034497,-263.8587354678516,-529.09022922908628,-251.79768793981242,1604.2796403130073,1774.2769681953318,-151.20030892534612,151.20030892534612,-1774.2769681953318,2869.4064462490041,0.0
362154.6038362722,4740833.5216966402,-32500.0,899.39384754769276,1103.9755072063761,2113.1522577545002,-456.25854507842428,-170.86621414264243,-511.56214028356374,1733.4580775069248,2093.8039928176527,-515.86590940239228,515.86590940239228,-2093.8039928176527,3089.490751793694,0.0
367154.6038362722,4740833.5216966402,-32500.0,1103.4408111411838,1378.1691580635854,1531.9107033683372,-577.96681135145582,313.73261366048524,-823.01109558040309,1957.523606749693,2309.2835505333346,-993.79976577213665,993.79976577213665,-2309.2835505333346,3422.8207792283365,0.0
372154.6038362722,4740833.5216966402,-32500.0,1361.4692310629689,1475.5640822955743,770.6755903906469,-588.86234425111627,879.43160503815091,-1159.4720011388363,2244.0195403875273,2352.6858053094543,-1538.8084590433659,1538.8084590433659,-2352.6858053094543,3886.7943451787592,0.0
377154.6038362722,4740833.5216966402,-32500.0,1603.7440908845945,1355.5308930945503,-67.451034582597188,-470.17375762026649,1459.2795134688067,-1485.288980790594,2546.982441211801,2185.1477002607326,-2083.9894201983761,2083.9894201983761,-2185.1477002607326,4442.6021251348329,0.0
382154.6038362722,4740833.5216966402,-32500.0,1756.5923498102825,1027.8497840793193,-865.0979283308958,-231.55058004963885,1981.563057088953,-1764.1153426493779,2827.3414770545596,1811.2318989977045,-2558.9098203201615,2558.9098203201615,-1811.2318989977045,5014.8266607795222,0.0
387154.6038362722,4740833.5216966402,-32500.0,1767.2904044759575,547.65665523305483,-1522.7743723405933,92.268522251933319,2388.0655252709139,-1967.6567056595409,3054.6119992860504,1277.3274583585203,-2907.895294818753,2907.895294818753,-1277.3274583585203,5524.4939095314458,0.0
392154.6038362722,4740833.5216966402,-32500.0,1618.8046939471917,-4.8258431073406722,-1980.886685049313,452.96987371807268,2646.1525234149681,-2081.3305873261997,3209.4903545153802,656.00640823623598,-3101.8137405037683,3101.8137405037683,-656.00640823623598,5911.9724769255336,0.0
397154.6038362722,4740833.5216966402,-32500.0,1329.6744393592785,-548.83016592298657,-2225.1334475330859,802.4554478514159,2751.2247307278349,-2105.1919146136156,3284.7976846036222,24.772325131878688,-3139.9589861123486,3139.9589861123486,-24.772325131878688,6145.554199922808,0.0
402154.6038362722,4740833.5216966402,-32500.0,942.54367222911367,-1021.6431118502491,-2277.7702647432734,1103.3429239038899,2721.0673847036937,-2050.8683034556898,3283.8993275507837,-551.73910447530329,-3043.7699471254646,3043.7699471254646,551.73910447530329,6219.9031108119452,0.0
407154.6038362722,4740833.5216966402,-32500.0,508.80289264867525,-1386.7335253478786,-2182.1818836281132,1333.6506521494773,2586.3777285908654,-1936.6045073663813,3217.424035041347,-1031.1660838878197,-2846.8798928400388,2846.8798928400388,1031.1660838878197,6149.2986099820109,0.0
412154.6038362722,4740833.5216966402,-32500.0,75.734294636531786,-1632.5944750614012,-1987.9123230579276,1486.2554311972322,2381.5845684802084,-1782.4585815852263,3099.493200500659,-1394.4374207770411,-2585.7155451441672,2585.7155451441672,1394.4374207770411,5959.5016263682774,0.0
417154.6038362722,4740833.5216966402,-32500.0,-320.91456079617564,-1766.2998813409458,-1740.1442347668935,1565.2881814498387,2138.2931602231729,-1606.8316023625182,2944.5132101276536,-1641.3308238879133,-2292.9583465365758,2292.9583465365758,1641.3308238879133,5680.6253075009736,0.0
422154.6038362722,4740833.5216966402,-32500.0,-659.09961182949394,-1805.7197029609542,-1474.3918126094914,1581.6550264645473,1881.8470021310304,-1424.6023503179317,2765.271956368962,-1783.9709170129477,-1994.2692368105268,1994.2692368105268,1783.9709170129477,5342.040867160712,0.0
427154.6038362722,4740833.5216966402,-32500.0,-929.10139350737518,-1772.8797510090656,-1215.2781596928396,1549.109864200409,1630.3942544131446,-1246.5791705183967,2572.3988261873651,-1840.6912729732253,-1707.5710909262712,1707.5710909262712,1840.6912729732253,4969.3986296143112,0.0
432154.6038362722,4740833.5216966402,-32500.0,-1130.4897579745125,-1689.4180748887454,-977.73099566114377,1481.4697331486809,1395.5003168647538,-1079.790900931303,2374.4847441907168,-1831.4156589337622,-1443.8662083321196,1443.8662083321196,1831.4156589337622,4583.3483751526601,0.0
437154.6038362722,4740833.5216966402,-32500.0,-1268.8192828664771,-1574.0791148333572,-769.18341457458484,1390.9928147705559,1183.4638763704838,-928.18240883169392,2178.2390766275398,-1774.7636585652533,-1208.7162675478069,1208.7162675478069,1774.7636585652533,4199.4039496124424,0.0
442154.6038362722,4740833.5216966402,-32500.0,-1352.8121679025721,-1441.7426732607751,-591.87472823746577,1287.6687102202804,996.77084970766953,-793.41240226490595,1988.6069435634081,-1686.592441181441,-1003.8129458506198,1003.8129458506198,1686.592441181441,3828.4566041018779,0.0
447154.6038362722,4740833.5216966402,-32500.0,-1392.2953756199772,-1303.41439010927,-444.80294358869537,1179.1091681606401,835.38466667185241,-675.58262531478033,1808.9494688862162,-1579.533724903627,-828.34323067452488,828.34323067452488,1579.533724903627,3477.5716097064928,0.0
452154.6038362722,4740833.5216966402,-32500.0,-1396.8724118854061,-1166.7129993989904,-325.18855335569339,1070.7723525797935,697.75847100977114,-573.82681128958029,1641.3033279225685,-1463.1217587716908,-680.04481917066437,680.04481917066437,1463.1217587716908,3150.8386632682541,0.0
457154.6038362722,4740833.5216966402,-32500.0,-1375.182669048676,-1036.5394614530758,-229.47389016257887,966.33040157959181,581.56225356229527,-486.74653620585804,1486.6710402609961,-1344.2101555755344,-555.95410128737478,555.95410128737478,1344.2101555755344,2850.148725257041,0.0
282154.6038362722,4745833.5216966402,-32500.0,476.12757586087025,88.946457500899271,107.36194979532418,106.30755682637205,18.366053868108526,-0.076908696696351531,270.78124619352354,280.52897311906759,-153.44795887754799,153.44795887754799,-280.52897311906759,495.78341624370012,0.0
287154.6038362722,4745833.5216966402,-32500.0,545.64886621330118,59.033056183254409,143.14467140988788,133.01221905166472,1.1210970888552005,6.4088822513937433,304.89147463276527,292.77159167535808,-156.83087387986328,156.83087387986328,-292.77159167535808,547.06330399816329,0.0
292154.6038362722,4745833.5216966402,-32500.0,618.31122728402318,21.388675982915277,191.27714649758317,163.17284230746498,-22.532550493453531,14.842625549850776,344.93890928614792,303.5191820795755,-156.22195351714998,156.22195351714998,-303.5191820795755,609.59207924915074,0.0
297154.6038362722,4745833.5216966402,-32500.0,691.83482629819241,-24.217774081386416,255.22359074238392,196.29922401453632,-54.026749834046107,25.46062044463288,391.77809740368355,312.78695549273294,-150.22570901049659,150.22570901049659,-312.78695549273294,685.45883520724942,0.0
302154.6038362722,4745833.5216966402,-32500.0,762.94716638528166,-77.212986617109124,338.98884243214394,231.32884466383481,-94.815149809780749,38.366226086405405,446.37387952982482,321.07293255493909,-137.3272903909255,137.3272903909255,-321.07293255493909,776.50528356472,0.0
307154.6038362722,4745833.5216966402,-32500.0,827.2840734502123,-135.73345061600992,446.90234124282421,266.39624301856128,-146.16300278833467,53.405983675139019,509.5827768196238,329.67592325946441,-116.07285438901025,116.07285438901025,-329.67592325946441,884.00844204618909,0.0
312154.6038362722,4745833.5216966402,-32500.0,879.45325059969616,-196.01154954772412,583.1311247726494,298.57998052113686,-208.79164788549505,69.990521670980499,581.85687830233292,341.10684405140142,-85.397164135552757,85.397164135552757,-341.10684405140142,1008.2997812248061,0.0
317154.6038362722,4745833.5216966402,-32500.0,913.39754983438752,-251.69263854598464,750.77847427991298,323.67630909183111,-282.32861494108255,86.853323982708261,662.87731264549734,359.5548694652868,-45.152215995505742,45.152215995505742,-359.5548694652868,1148.3394165708833,0.0
322154.6038362722,4745833.5216966402,-32500.0,923.23022211753846,-293.24425008792571,950.41524343098513,336.09503688291301,-364.5276884503989,101.75256199467309,751.19443648550157,391.2959258724415,3.1225800221837403,-3.1225800221837403,-391.2959258724415,1301.3047138105485,0.0
327154.6038362722,4745833.5216966402,-32500.0,904.70298458513901,-307.77795534759258,1177.9539538191825,329.03612171195283,-450.27364228802384,111.14670044358105,843.98949783558885,444.8130957615075,55.200078348108264,-55.200078348108264,-444.8130957615075,1462.3449895482529,0.0
332154.6038362722,4745833.5216966402,-32500.0,857.33812885551663,-279.79637132029575,1421.9822616867013,295.16754371271526,-530.49830621841659,109.91788572433173,937.09814458626329,530.24964932917374,103.0632817210757,-103.0632817210757,-530.24964932917374,1624.8081410198179,0.0
337154.6038362722,4745833.5216966402,-32500.0,786.92750870058205,-193.50339032310228,1661.0975093555674,228.0418819102091,-591.32859993049453,91.280319478156599,1025.496143514795,657.70526428013886,134.03006715725661,-134.03006715725661,-657.70526428013886,1781.4490256470244,0.0
342154.6038362722,4745833.5216966402,-32500.0,707.54783335723732,-37.163828819149991,1862.4212448675567,124.37482578851703,-614.04301454575932,47.083920971064913,1104.5772887185062,833.97134874967378,130.69286172436978,-130.69286172436978,-833.97134874967378,1927.2764724811552,0.0
347154.6038362722,4745833.5216966402,-32500.0,641.62997793619184,190.70842879525506,1983.0658229083822,-13.040661271416655,-576.60648816541323,-31.237247316790274,1172.9485768559275,1057.7984834588633,72.450633725626858,-72.450633725626858,-1057.7984834588633,2064.4256008440784,0.0
352154.6038362722,4745833.5216966402,-32500.0,616.45713873283637,474.91234658977572,1976.3040678393768,-172.611888566792,-457.43764991207468,-150.89624582568644,1239.0812875402512,1314.8156600838136,-60.725619174962731,60.725619174962731,-1314.8156600838136,2207.998062646473,0.0
357154.6038362722,4745833.5216966402,-32500.0,656.42971518608294,779.97461907654395,1802.8341876095133,-332.8693929300307,-241.34823211607568,-315.27138271750624,1334.2119810911854,1574.4628160700051,-282.3948561277648,282.3948561277648,-1574.4628160700051,2388.4394376770797,0.0
362154.6038362722,4745833.5216966402,-32500.0,772.75618359949397,1052.9719445531719,1444.732599018181,-464.59903452970934,73.718716523145787,-521.31016244151078,1498.0492668000384,1791.8355384201982,-593.0461954321089,593.0461954321089,-1791.8355384201982,2643.0762303734264,0.0
367154.6038362722,4745833.5216966402,-32500.0,954.8709581852238,1234.4037263748087,916.73173728260542,-536.78536487689564,471.82493627911896,-757.89578117936946,1724.5119490450325,1916.0793319008953,-975.50362865746126,975.50362865746126,-1916.0793319008953,2995.5350922671373,0.0
372154.6038362722,4745833.5216966402,-32500.0,1168.6827399210711,1274.6455152139583,268.74758950550159,-525.02502299178298,918.90857295085334,-1006.3005637496809,1982.6768479276125,1903.8103410564831,-1395.1595348333499,1395.1595348333499,-1903.8103410564831,3437.6427982929231,0.0
377154.6038362722,4745833.5216966402,-32500.0,1364.1737492497646,1149.5907973412923,-423.30822007837065,-419.23955117667947,1368.6204857175962,-1243.1702740638934,2243.407567321186,1732.6660212093018,-1806.1479488173929,1806.1479488173929,-1732.6660212093018,3929.8960198279347,0.0
382154.6038362722,4745833.5216966402,-32500.0,1489.9559098570151,868.47909173851099,-1075.7442894274882,-227.27012458433265,1772.5361935889914,-1445.3013316611582,2481.0825271310196,1409.0688581029617,-2161.7135438886207,2161.7135438886207,-1409.0688581029617,4417.1188682980219,0.0
387154.6038362722,4745833.5216966402,-32500.0,1508.4895585686977,470.55709734194153,-1617.1164597992433,27.250058073247668,2090.9354039362634,-1594.5249802186379,2675.0752162368972,966.77746604039828,-2424.8614170983874,2424.8614170983874,-966.77746604039828,4845.8067981854665,0.0
392154.6038362722,4745833.5216966402,-32500.0,1405.5783341573133,12.738975094279688,-2002.4752550319672,311.60196812576459,2300.2283382198784,-1680.9639485015296,2811.8230608066351,457.26999346801495,-2575.3760306300264,2575.3760306300264,-457.26999346801495,5175.6542052918385,0.0
397154.6038362722,4745833.5216966402,-32500.0,1191.2481514684557,-445.85383156959267,-2217.8707147928062,592.24898432456678,2395.0277668595086,-1703.7814316038659,2885.6814159557052,-63.51309398609601,-2611.3372541244485,2611.3372541244485,63.51309398609601,5384.3193877115482,0.0
402154.6038362722,4745833.5216966402,-32500.0,893.45175269048298,-856.56416110777116,-2275.9419584166135,841.62170373809568,2385.3774179934967,-1669.67861796037,2898.187390693397,-546.94302424976718,-2545.8261844094332,2545.8261844094332,546.94302424976718,5466.9267927402661,0.0
407154.6038362722,4745833.5216966402,-32500.0,548.54240660858989,-1187.8937160349801,-2206.4931462520312,1041.75005492389,2291.2623243039634,-1590.1368744707318,2856.1829672395634,-958.78399400505259,-2401.0890964825776,2401.0890964825776,958.78399400505259,5432.3738455868852,0.0
412154.6038362722,4745833.5216966402,-32500.0,192.39749268790021,-1426.2191952058797,-2046.3557434645988,1184.7114876398418,2136.7379908761118,-1478.5019600071589,2769.5150413286647,-1281.040778601119,-2202.5462815762667,2202.5462815762667,1281.040778601119,5298.4020899240777,0.0
417154.6038362722,4745833.5216966402,-32500.0,-145.55773553045404,-1572.4933008599896,-1831.4127430070268,1270.8960114433735,1945.2611172259183,-1347.6604315945706,2648.9617565755889,-1509.9163346289629,-1974.1922981638222,1974.1922981638222,1509.9163346289629,5086.8895359037851,0.0
422154.6038362722,4745833.5216966402,-32500.0,-444.98320020650124,-1637.3087531037602,-1591.8193141916067,1306.3313224029744,1736.8165956904895,-1208.5966388322986,2504.7912493742574,-1651.8436465806676,-1735.9031387399464,1735.9031387399464,1651.8436465806676,4820.1700363463897,0.0
427154.6038362722,4745833.5216966402,-32500.0,-694.62269114808669,-1636.1215679444231,-1350.1195380601116,1300.0325005854243,1526.7053304667329,-1069.7722326884661,2346.0210685117249,-1719.2403772856057,-1502.4375479875941,1502.4375479875941,1719.2403772856057,4518.6199568529664,0.0
432154.6038362722,4745833.5216966402,-32500.0,-890.76089622651966,-1585.5666573780436,-1121.366158798043,1261.900461234954,1325.5162737833284,-937.10244725378618,2180.1650581589365,-1726.9637450722475,-1283.6028306936273,1283.6028306936273,1726.9637450722475,4199.3884190784156,0.0
437154.6038362722,4745833.5216966402,-32500.0,-1035.1036306109911,-1501.0959696644948,-914.31043191351523,1201.3230537812062,1139.7654962207098,-814.27835801266053,2013.2113456668194,-1689.8240717579311,-1085.0434111599138,1085.0434111599138,1689.8240717579311,3875.9870143013386,0.0
442154.6038362722,4745833.5216966402,-32500.0,-1132.7194743223101,-1395.7645572020904,-732.95576221452279,1126.4091452547189,972.79588372918124,-703.23254419011766,1849.7007202600566,-1621.115731744902,-909.24154400208818,909.24154400208818,1621.115731744902,3558.4323849621614,0.0
447154.6038362722,4745833.5216966402,-32500.0,-1190.3626163069841,-1279.8406270958553,-578.049639577368,1043.6947312552916,825.67991982260401,-604.61636747921477,1692.8718781968635,-1531.9422258901729,-756.47971109358764,756.47971109358764,1531.9422258901729,3253.6871359581633,0.0
452154.6038362722,4745833.5216966402,-32500.0,-1215.2670608623919,-1160.9188431804464,-448.31449335562581,958.15137301689867,697.99429040932137,-518.21778889586278,1544.8548714846852,-1431.07391101042,-625.64401970348126,625.64401970348126,1431.07391101042,2966.2161300332882,0.0
287154.6038362722,4750833.5216966402,-32500.0,507.54341886309436,16.094389020190761,169.48070651517568,126.87209943485142,-19.864471165854219,8.8777691480742327,281.29577313216197,254.07985043745569,-126.92593617480603,126.92593617480603,-254.07985043745569,494.59481816053778,0.0
292154.6038362722,4750833.5216966402,-32500.0,562.92849077014989,-18.86387545263392,221.27762008261206,150.46052707460132,-43.565149737633284,15.778947333303956,316.16472184198278,262.33151266017569,-122.58662756879416,122.58662756879416,-262.33151266017569,551.21705093563594,0.0
297154.6038362722,4750833.5216966402,-32500.0,616.13655760555275,-58.767657946632553,287.70441550809187,175.04901218006782,-73.710090929013361,24.055582864210265,356.34790845558439,270.2290150549353,-113.46208472643926,113.46208472643926,-270.2290150549353,618.51115200574429,0.0
302154.6038362722,4750833.5216966402,-32500.0,664.15333528462804,-102.16914861435841,371.60618946806699,199.32816150355785,-111.06757480356536,33.579123614167237,402.45664155187961,278.75124591252643,-98.640832487198765,98.640832487198765,-278.75124591252643,697.31897601360936,0.0
307154.6038362722,4750833.5216966402,-32500.0,703.33684289909047,-146.36906024315186,475.64298500646993,221.32410457628723,-156.03907383721435,43.955685709090254,454.8846537319464,289.65698128199631,-77.474945523055979,77.474945523055979,-289.65698128199631,787.88344617574,0.0
312154.6038362722,4750833.5216966402,-32500.0,729.64991478834463,-187.01685721319873,601.72694490813103,238.27028143549106,-208.33165712132947,54.388303486569917,513.57674631654845,305.75260782341434,-49.893800319038974,49.893800319038974,-305.75260782341434,889.61305797831528,0.0
317154.6038362722,4750833.5216966402,-32500.0,739.15524101955236,-217.76933750475573,750.14636182289269,246.54835886285659,-266.50575130954201,63.507815380257213,577.79906746217546,331.12306643374257,-16.849177310118506,16.849177310118506,-331.12306643374257,1000.8751422000962,0.0
322154.6038362722,4750833.5216966402,-32500.0,728.85291558262088,-230.17101226513776,918.3325001257939,241.77816099093224,-327.40623381513365,69.187305568952112,645.99408724208342,371.20861338856901,19.114547520793707,-19.114547520793707,-371.20861338856901,1118.9035005741755,0.0
327154.6038362722,4750833.5216966402,-32500.0,697.88363653173951,-214.00986714865076,1099.3202417184766,219.16559182909407,-385.53664719470095,68.375765105215976,715.80085261708575,432.5410072468224,53.225571561518791,-53.225571561518791,-432.5410072468224,1239.9822053732594,0.0
332154.6038362722,4750833.5216966402,-32500.0,648.97822396939932,-158.46854355693668,1280.1400321263948,174.22760274319432,-432.52174031748785,57.015299961740006,784.32261433513258,521.89600007245133,77.935399637310638,-77.935399637310638,-521.89600007245133,1360.1608357323696,0.0
337154.6038362722,4750833.5216966402,-32500.0,589.79283962269119,-54.356407350413569,1440.6642313322652,103.97399811707109,-456.91814894369895,30.139222315789265,848.77631832997258,644.63377263901589,82.723144521171719,-82.723144521171719,-644.63377263901589,1476.8228625138479,0.0
342154.6038362722,4750833.5216966402,-32500.0,533.47100538803375,102.54077816938489,1553.7442885062324,8.4960713897550093,-444.73899474084021,-17.728519336162481,907.86493036579122,802.17206113354382,54.626029303301209,-54.626029303301209,-802.17206113354382,1591.3174858034215,0.0
347154.6038362722,4750833.5216966402,-32500.0,497.57852825088247,307.50149219902715,1587.6157658288412,-107.331015544115,-381.06901647894864,-91.767125346015277,965.03398599767479,988.94014181855641,-20.130308606653898,20.130308606653898,-988.94014181855641,1712.2471540969948,0.0
352154.6038362722,4750833.5216966402,-32500.0,500.74272073947191,543.56590704642633,1511.2183398260072,-232.6343454882973,-252.94526780052206,-195.62883741706023,1036.2735595503104,1189.7560373592055,-153.24951642031408,153.24951642031408,-1189.7560373592055,1857.5124851909072,0.0
357154.6038362722,4750833.5216966402,-32500.0,557.12636127682947,780.75049111378451,1302.0438957862268,-350.631169315058,-53.186644875925595,-329.95181240687526,1152.355407243012,1379.0806855448402,-350.58918181998501,350.58918181998501,-1379.0806855448402,2051.4962836650698,0.0
362154.6038362722,4750833.5216966402,-32500.0,670.17935004880724,979.45700176077514,954.57483685811235,-440.69339339423698,215.82244754698618,-491.02208912136365,1323.5396483543632,1523.5561646646845,-608.53039423269752,608.53039423269752,-1523.5561646646845,2315.1432064256769,0.0
367154.6038362722,4750833.5216966402,-32500.0,828.2570248499951,1098.3723378779796,486.10410062120081,-482.410455198053,539.89572655636357,-670.15852990657436,1531.5474309283677,1588.2427745005725,-912.00299110021479,912.00299110021479,-1588.2427745005725,2653.5858080880198,0.0
372154.6038362722,4750833.5216966402,-32500.0,1004.6960369572453,1104.938267741464,-63.173612655113502,-460.67688539562619,893.72521392640226,-854.32035128196208,1755.4094450350128,1545.2214235619845,-1235.4817410942555,1235.4817410942555,-1545.2214235619845,3050.6835168479674,0.0
377154.6038362722,4750833.5216966402,-32500.0,1163.3015686150372,984.66585004138437,-636.95555265020039,-370.04220709422486,1244.8780731978779,-1028.0441069623628,1975.9378744410249,1381.6451270967841,-1547.2412084641555,1547.2412084641555,-1381.6451270967841,3473.7003872123478,0.0
382154.6038362722,4750833.5216966402,-32500.0,1267.6283196611764,745.54214537610255,-1174.6682814344874,-216.58700025167099,1560.0938319974196,-1176.2520884491305,2175.6352405622083,1104.0546394131227,-1815.731375553826,1815.731375553826,-1104.0546394131227,3883.1161036203885,0.0
387154.6038362722,4750833.5216966402,-32500.0,1290.5135195413498,415.80459737992857,-1624.226212353138,-16.557647796796626,1811.8128082985661,-1287.055393254961,2340.0944210401049,737.21113112021908,-2015.9402790602155,2015.9402790602155,-737.21113112021908,4241.9484316440694,0.0
392154.6038362722,4750833.5216966402,-32500.0,1220.2987024490417,36.269305661546433,-1951.4079731138409,207.63047220682287,1982.8279368766753,-1353.6714127592913,2459.4967844227831,318.06102284924054,-2133.669169288326,2133.669169288326,-318.06102284924054,4522.0863217139013,0.0
397154.6038362722,4750833.5216966402,-32500.0,1061.9569823104077,-349.54932113806859,-2143.4139672491201,432.43537031287434,2067.8919485064134,-1374.9783399917876,2529.3017059194967,-112.67506583686395,-2166.6681285295845,2166.6681285295845,112.67506583686395,4707.2137794677874,0.0
402154.6038362722,4750833.5216966402,-32500.0,833.67152829204929,-704.06967555952838,-2206.7665832052512,637.58420407270364,2072.4049292934978,-1354.7837413531893,2549.9408804321956,-518.34131387715161,-2122.8990466633813,2122.8990466633813,518.34131387715161,4792.8078741801592,0.0
407154.6038362722,4750833.5216966402,-32500.0,560.95195280193559,-1000.8711811088033,-2161.5953879803778,808.75769507773271,2009.2411191424735,-1300.285310120667,2525.753366478682,-871.55873767053572,-2017.0886037981159,2017.0886037981159,871.55873767053572,4784.1203608480655,0.0
412154.6038362722,4750833.5216966402,-32500.0,270.61262324011392,-1226.1264611326676,-2034.8627315398719,938.35550563000493,1895.0314852062806,-1220.3110351822211,2463.5702624182904,-1156.1915905599926,-1866.9213820130062,1866.9213820130062,1156.1915905599926,4693.1766072743503,0.0
417154.6038362722,4750833.5216966402,-32500.0,-13.790041270400382,-1377.1341361387433,-1854.5010931053512,1024.7738917657596,1746.9267147723494,-1123.796461472034,2371.3407192540999,-1366.6245436583881,-1689.8686742736581,1689.8686742736581,1366.6245436583881,4535.677353914105,0.0
422154.6038362722,4750833.5216966402,-32500.0,-274.47620628514454,-1459.3289374076728,-1645.4226608214353,1070.8760305734643,1580.3530252723071,-1018.7288677443541,2257.0577106362798,-1505.447058993987,-1501.1038758389586,1501.1038758389586,1505.447058993987,4328.3798322798102,0.0
427154.6038362722,4750833.5216966402,-32500.0,-500.11462562656976,-1482.9870755306365,-1427.4876508536208,1082.2704475616015,1407.8237107434313,-911.58704105192362,2128.0701882511066,-1580.6154133167213,-1312.5047574878956,1312.5047574878956,1580.6154133167213,4087.2147757423722,0.0
432154.6038362722,4750833.5216966402,-32500.0,-685.22531366157034,-1460.398339780576,-1215.0142953754869,1065.799619323843,1238.6009284746149,-807.18316928188756,1990.7268246565795,-1602.8383606207399,-1132.4918381219641,1132.4918381219641,1602.8383606207399,3826.1483705889591,0.0
437154.6038362722,4750833.5216966402,-32500.0,-828.93421677199535,-1403.8289944174137,-1017.2617333708982,1028.4202245900055,1078.9138820121525,-708.77168871993115,1850.2442378212249,-1583.558330292924,-966.38555600171867,966.38555600171867,1583.558330292924,3556.6632822473321,0.0
442154.6038362722,4750833.5216966402,-32500.0,-933.56297539605441,-1324.2847992355266,-839.38019075034731,976.49471621692317,932.46258421586253,-618.29843116638892,1710.7096134587775,-1533.6104014638072,-817.005423781025,817.005423781025,1533.6104014638072,3287.6808742396925,0.0
447154.6038362722,4750833.5216966402,-32500.0,-1003.3501166642227,-1230.9230258507434,-683.47310983163698,915.4277172981906,801.00996489252009,-536.696174803399,1575.1645173593577,-1462.475135535369,-685.31859041812254,685.31859041812254,1462.475135535369,3025.7568358806825,0.0
292154.6038362722,4755833.5216966402,-32500.0,503.55772961020267,-43.830520875699577,245.10290657017472,134.31279720453497,-57.587595311412116,15.141134519672072,287.85791473801589,229.78106692689082,-94.858162965338494,94.858162965338494,-229.78106692689082,498.9470521199836,0.0
297154.6038362722,4755833.5216966402,-32500.0,540.12916908561601,-76.419886989989564,310.93810902743274,151.44812511291963,-85.098262561873952,21.259210087319104,321.91491704894355,237.79523692040573,-84.442161095181064,84.442161095181064,-237.79523692040573,557.57417845773239,0.0
302154.6038362722,4755833.5216966402,-32500.0,570.20918183430251,-109.31686847208077,391.33922234611492,166.81541977723586,-117.84551857180404,27.845252755583267,360.45766346458191,247.75748021224308,-69.675772247712757,69.675772247712757,-247.75748021224308,624.60856919931234,0.0
307154.6038362722,4755833.5216966402,-32500.0,591.03379455784363,-139.49561211674114,487.5264795360452,178.56400885272336,-155.61479630886518,34.39003456843799,403.59328854148811,261.57783128676454,-50.519765319173644,50.519765319173644,-261.57783128676454,699.7353974474288,0.0
312154.6038362722,4755833.5216966402,-32500.0,599.88992219790737,-162.64275101765554,599.65815595517199,184.30465512630332,-197.47711108257698,40.043210056388951,451.01684625922962,281.97167230247771,-27.565132267787078,27.565132267787078,-281.97167230247771,782.01846559163153,0.0
317154.6038362722,4755833.5216966402,-32500.0,594.60978183970894,-173.07304963567017,726.08889405734317,181.15380298325192,-241.45362018614944,43.505251139889367,501.9000763273786,312.51125080253007,-2.3673350242114566,2.3673350242114566,-312.51125080253007,869.87021433222083,0.0
322154.6038362722,4755833.5216966402,-32500.0,574.27531702431634,-163.89995125950333,862.44691486982413,165.91499682241593,-284.14215705957815,42.925909454587241,554.89134515965839,357.49609463526895,22.17729647422928,-22.17729647422928,-357.49609463526895,961.1857819167567,0.0
327154.6038362722,4755833.5216966402,-32500.0,540.08433882788324,-127.62974824898623,1000.641502677468,135.46086022690497,-320.37506301188375,35.840282613464396,608.26440144446519,421.51644022846926,41.48447689670175,-41.48447689670175,-421.51644022846926,1053.7768818364773,0.0
332154.6038362722,4755833.5216966402,-32500.0,496.21701478269802,-57.343739870428507,1128.0451663586659,87.364696229529173,-343.03119357809908,19.189323918929169,660.26396292020411,508.5811052423258,49.091917521428343,-49.091917521428343,-508.5811052423258,1146.270316459164,0.0
337154.6038362722,4755833.5216966402,-32500.0,450.39537420408851,51.457666040496903,1227.256900227703,20.78019037774963,-343.18138607463476,-10.514959149156477,709.8049412265558,620.7434115257563,36.810262138726785,-36.810262138726785,-620.7434115257563,1239.5866993881978,0.0
342154.6038362722,4755833.5216966402,-32500.0,413.69929699735144,198.49816448014968,1276.9697678048312,-62.534075744681076,-310.77316808282717,-56.81965963076798,758.09301659631888,756.32177976548144,-4.5787541870262203,4.5787541870262203,-756.32177976548144,1338.83721838063,0.0
347154.6038362722,4755833.5216966402,-32500.0,399.19778721761725,376.35987738483988,1254.4146197590812,-157.29396394406322,-236.00884488442404,-122.72446695479344,812.86255268887487,908.08159751729931,-83.932038783354699,83.932038783354699,-908.08159751729931,1454.7921971522389,0.0
352154.6038362722,4755833.5216966402,-32500.0,419.20247862152672,568.99195463883939,1139.5046184796417,-254.2619239087702,-111.39659033132236,-209.874743824993,894.21849544001623,1062.0519149210222,-207.70664615290423,207.70664615290423,-1062.0519149210222,1603.1623455353229,0.0
357154.6038362722,4755833.5216966402,-32500.0,481.4997900057233,752.14574253256615,920.11763963158353,-340.74063978190992,65.848031662576673,-317.69642810895186,1019.4050653636618,1197.8136129173267,-377.62727056681939,377.62727056681939,-1197.8136129173267,1800.0366758279811,0.0
362154.6038362722,4755833.5216966402,-32500.0,585.62089992761571,896.47051635452522,597.13585179721622,-402.24974293427454,291.70576130904971,-442.72476644045992,1181.1047210706215,1290.8948831153566,-588.73967265279407,588.73967265279407,-1290.8948831153566,2054.5408818521219,0.0
367154.6038362722,4755833.5216966402,-32500.0,720.67324702127826,973.10114012877057,187.3558116087749,-425.24353540481582,554.39435640169279,-578.42657756319716,1364.2428646608132,1317.2339137987456,-828.67472486951385,828.67472486951385,-1317.2339137987456,2363.1733414116707,0.0
372154.6038362722,4755833.5216966402,-32500.0,866.04905196612242,960.37749302522343,-277.3261071642923,-400.21932890074538,835.20104184958484,-715.73541313434305,1555.0018437789672,1258.7121181539726,-1078.7256789873152,1078.7256789873152,-1258.7121181539726,2709.4205000296333,0.0
377154.6038362722,4755833.5216966402,-32500.0,995.32205826303914,849.5040028593055,-754.84568485239311,-324.22643570239757,1111.1968649959779,-844.29856180294667,1740.1878939902581,1108.0189616986579,-1316.7422578893313,1316.7422578893313,-1108.0189616986579,3067.9409058490169,0.0
382154.6038362722,4755833.5216966402,-32500.0,1082.2675480213832,647.08723051853019,-1200.7892455217002,-201.86942838770619,1359.1927623773834,-954.15850854285759,1907.4917811018222,871.09555969748544,-1521.1178358042653,1521.1178358042653,-871.09555969748544,3410.3866949893245,0.0
387154.6038362722,4755833.5216966402,-32500.0,1106.9631628259156,373.64041780276642,-1576.6860837023278,-44.427047980733199,1559.7835078917904,-1037.4008550302572,2046.603859405755,566.24301761585468,-1674.678437533044,1674.678437533044,-566.24301761585468,3710.6692100433665,0.0
392154.6038362722,4755833.5216966402,-32500.0,1059.9299624697799,58.722786695176183,-1856.2759988197015,132.57857214957534,1700.3133484058178,-1089.3076127403638,2150.2648108909107,220.26343831013617,-1767.3397464865629,1767.3397464865629,-220.26343831013617,3948.687467122807,0.0
397154.6038362722,4755833.5216966402,-32500.0,943.2054986859772,-265.4612459537185,-2028.2379566754591,312.50618707587699,1776.074185014854,-1108.7526395050718,2214.7967764115165,-136.95977483852903,-1796.9308006340618,1796.9308006340618,136.95977483852903,4112.2303840028098,0.0
402154.6038362722,4755833.5216966402,-32500.0,768.51582626763377,-569.95575822101966,-2095.3031817390438,480.45825769058354,1789.7258284187662,-1097.8523332373211,2240.0082778068931,-477.72046469640259,-1768.2770611331377,1768.2770611331377,477.72046469640259,4197.1744710186103,0.0
407154.6038362722,4755833.5216966402,-32500.0,553.65267659600613,-833.01327367144791,-2070.8160399283406,625.21309680181707,1749.4672033792019,-1061.1038023911703,2228.5933909504174,-780.27584776961771,-1691.1485679788686,1691.1485679788686,780.27584776961771,4206.3892764713919,0.0
412154.6038362722,4755833.5216966402,-32500.0,318.4361747760808,-1041.6665122247209,-1974.2521380696876,740.00737610283807,1666.6975177692148,-1004.3249008514273,2185.2548673770848,-1030.627234202356,-1577.839847426482,1577.839847426482,1030.627234202356,4147.9054557235968,0.0
417154.6038362722,4755833.5216966402,-32500.0,81.346493759664114,-1191.2721836512483,-1827.0025593118535,822.33222047792287,1553.8124974805557,-933.66949903569059,2115.7879374421805,-1222.4776533500412,-1441.0093772453506,1441.0093772453506,1222.4776533500412,4032.8808172816384,0.0
422154.6038362722,4755833.5216966402,-32500.0,-142.63881243384057,-1283.7939317312912,-1649.2003517137368,873.10251798826152,1422.5245900020986,-854.88138058440404,2026.2969342571978,-1355.9565559135203,-1292.1239415753153,1292.1239415753153,1355.9565559135203,3873.7595580255156,0.0
427154.6038362722,4755833.5216966402,-32500.0,-342.96729155845202,-1325.6134426228514,-1457.8195008463392,895.57590486886386,1282.8303433382689,-772.83821318524781,1922.6261446180015,-1435.7825475580837,-1140.5832443494198,1140.5832443494198,1435.7825475580837,3682.8419165680366,0.0
432154.6038362722,4755833.5216966402,-32500.0,-513.4637164178007,-1325.4512548810462,-1265.899633472219,894.3064684371567,1142.5611752524887,-691.35630325763555,1810.0073432666243,-1469.3983032685048,-993.42331881441874,993.42331881441874,1469.3983032685048,3471.3262873512708,0.0
437154.6038362722,4755833.5216966402,-32500.0,-651.68551769163446,-1292.7140686731861,-1082.5778401498517,874.29407872159754,1007.3630556448657,-613.18848287661217,1692.8823486383774,-1465.4004892840326,-855.421989942035,855.421989942035,1465.4004892840326,3248.7811049555748,0.0
442154.6038362722,4755833.5216966402,-32500.0,-758.01898268692253,-1236.3637863280335,-913.59019620571473,840.38481174090782,880.93678492843628,-540.14018849239108,1574.8497041339047,-1432.3931330259311,-729.4297833556443,729.4297833556443,1432.3931330259311,3022.9528988743705,0.0
297154.6038362722,4760833.5216966402,-32500.0,467.99105944501684,-81.564930396095278,324.74903933488071,127.7162553405155,-90.026564842059543,17.812049732304068,289.25860739768416,213.348148244729,-62.27918056719605,62.27918056719605,-213.348148244729,501.89844861951644,0.0
302154.6038362722,4760833.5216966402,-32500.0,484.76763179145087,-104.2896287301887,399.07645948949528,136.05379228311898,-117.71493811481466,21.984025392750461,321.34264578240931,225.1364685249668,-48.801057139324769,48.801057139324769,-225.1364685249668,558.19931631941222,0.0
307154.6038362722,4760833.5216966402,-32500.0,492.87378720087679,-121.94667041453542,484.99523015425694,140.16866129965231,-148.30642990081972,25.541203906086047,356.80329076876518,241.65556269362088,-32.635343531386624,32.635343531386624,-241.65556269362088,619.93469995625458,0.0
312154.6038362722,4760833.5216966402,-32500.0,490.71844323337444,-130.63568569218415,581.43255934205183,138.12734646315673,-180.53788627909887,27.674486065406775,395.2452078606691,265.29930069855357,-14.749786099119731,14.749786099119731,-265.29930069855357,686.19217732581353,0.0
317154.6038362722,4760833.5216966402,-32500.0,477.4562106790728,-125.62447648179248,685.57992988931812,127.76511542595055,-212.26198815077953,27.241342900516901,435.90050841312171,298.9518612441467,3.0633677828639918,-3.0633677828639918,-298.9518612441467,755.77182976553661,0.0
322154.6038362722,4760833.5216966402,-32500.0,453.51699702120698,-101.66330314689428,792.26702219724223,106.89176037073587,-240.22764702542676,22.720181940254896,477.71068540188065,345.7562369558151,17.966771026221181,-17.966771026221181,-345.7562369558151,827.45495436723331,0.0
327154.6038362722,4760833.5216966402,-32500.0,421.16667070738271,-53.628311679938136,893.39958009459679,73.637153721875293,-259.92974449108777,12.204745505244379,519.52351144093666,408.64279367939105,25.927977973998566,-25.927977973998566,-408.64279367939105,900.53581362401144,0.0
332154.6038362722,4760833.5216966402,-32500.0,384.95036519676881,22.444058681182831,977.66423110934784,26.94585693932661,-265.61828295193567,-6.530758643835517,560.46742372409074,489.56699569535584,21.733152042041411,-21.733152042041411,-489.56699569535584,975.68035193691526,0.0
337154.6038362722,4760833.5216966402,-32500.0,351.79466161742062,127.96343610022335,1030.7792328547471,-32.813638559556495,-250.57810546113507,-35.862472665994247,600.77579478392579,588.47320621930839,-0.72328654225395894,0.72328654225395894,-588.47320621930839,1056.0462126343882,0.0
342154.6038362722,4760833.5216966402,-32500.0,330.50889582671908,260.22833702205367,1036.585891473796,-103.22751100295626,-207.78202468325208,-78.018516844519581,643.97387790645064,702.12405193741142,-47.773713877509863,47.773713877509863,-702.12405193741142,1148.2749703185393,0.0
347154.6038362722,4760833.5216966402,-32500.0,330.48914611566624,411.10816809515325,979.16781458540788,-179.3835614025148,-130.9599454047088,-134.6514966448089,701.61438467697849,823.09603951851545,-124.90546987251838,124.90546987251838,-823.09603951851545,1262.4909231759057,0.0
352154.6038362722,4760833.5216966402,-32500.0,359.63996982183261,566.53502276841186,845.90756387252486,-253.8209915905351,-16.001523045346755,-206.32724552657217,790.75631052767619,939.38270398672444,-235.38378209848156,235.38378209848156,-939.38270398672444,1410.2892638026608,0.0
357154.6038362722,4760833.5216966402,-32500.0,421.87436453794311,707.37292517727394,630.96793978391815,-317.09732921619991,137.56388071710299,-292.03189819159741,913.20117073498227,1035.0628816420435,-378.84594501015511,378.84594501015511,-1035.0628816420435,1600.6899969331241,0.0
362154.6038362722,4760833.5216966402,-32500.0,514.91344009484214,811.94500169572188,338.26841522620242,-359.05236603987368,325.42261864024385,-388.84670019697165,1058.5412534546729,1092.2894446372015,-550.28967646494903,550.28967646494903,-1092.2894446372015,1835.9086654064524,0.0
367154.6038362722,4760833.5216966402,-32500.0,629.27222587249776,859.9362911466593,-17.142087933782904,-370.61019004173176,538.12524573388566,-491.94554354952373,1216.5940541251314,1094.4230763566036,-739.89951783766969,739.89951783766969,-1094.4230763566036,2109.3773702642643,0.0
372154.6038362722,4760833.5216966402,-32500.0,749.09868187426673,836.74931806753625,-410.13330920280697,-345.70072302231569,761.83914691706309,-595.0088974001136,1377.9007845460867,1029.6142562786047,-933.9791013665988,933.9791013665988,-1029.6142562786047,2406.7578563983529,0.0
377154.6038362722,4760833.5216966402,-32500.0,854.92425452702605,737.00819155447334,-809.04629875020396,-282.7377274406112,980.18960488413836,-691.0264302472433,1533.0881666329642,893.79028070640561,-1116.9123385958428,1116.9123385958428,-893.79028070640561,2708.8789528185657,0.0
382154.6038362722,4760833.5216966402,-32500.0,927.63169202542122,566.05081765258763,-1180.9350639041727,-185.1674949830898,1176.7880610769835,-773.32111299222186,1673.298325943229,692.06178426853126,-1273.6973799712625,1273.6973799712625,-692.06178426853126,2995.2151310404815,0.0
387154.6038362722,4760833.5216966402,-32500.0,952.4354967209066,338.91573104677269,-1497.0548557632862,-60.896306747668518,1337.7880348938479,-836.53961274139601,1791.01058117957,438.05927454569672,-1392.3730975556759,1392.3730975556759,-438.05927454569672,3247.014757499785,0.0
392154.6038362722,4760833.5216966402,-32500.0,921.67798789960204,77.209076125641474,-1737.1120456116143,79.215278670124604,1453.8073862669528,-877.36010707934031,1880.7726536655175,151.42356765883926,-1465.7018631081933,1465.7018631081933,-151.42356765883926,3449.6107906795719,0.0
397154.6038362722,4760833.5216966402,-32500.0,835.7454276256625,-195.09731418603127,-1891.3254618161766,223.31792203534576,1520.8041407822739,-894.76947361032637,1939.6005033275342,-145.73865032507751,-1491.7579509108812,1491.7579509108812,145.73865032507751,3593.7025365645977,0.0
402154.6038362722,4760833.5216966402,-32500.0,702.11987789231023,-455.70743598952504,-1960.1566850080094,360.45056539030185,1539.8578005354161,-889.90322544174364,1966.9805898889872,-432.41076768814014,-1473.4460498703984,1473.4460498703984,432.41076768814014,3675.6109740890652,0.0
407154.6038362722,4760833.5216966402,-32500.0,533.15324496689755,-686.94763589201716,-1952.2592658044139,481.91132934584914,1516.1193880401211,-865.56126580928662,1964.5335471235119,-691.39836128892432,-1417.2692318736904,1417.2692318736904,691.39836128892432,3696.6952586162561,0.0
412154.6038362722,4760833.5216966402,-32500.0,343.38057681524089,-877.21871934382204,-1881.5352917179516,581.94131208914109,1457.3458075412138,-825.56950744899154,1935.4689241248468,-910.82343757659237,-1331.7859850153191,1331.7859850153191,910.82343757659237,3662.2335882181319,0.0
417154.6038362722,4760833.5216966402,-32500.0,147.08866236778172,-1021.0582951142527,-1764.151170692398,657.76528770928371,1372.4175810858114,-774.14771707789862,1883.9740721761095,-1084.3977727614076,-1226.1473996665065,1226.1473996665065,1084.3977727614076,3580.0902502674912,0.0
422154.6038362722,4760833.5216966402,-32500.0,-43.431483045947964,-1118.2244211282737,-1616.0957651216424,709.17226106188957,1270.1161158544514,-715.394065853092,1814.6520466369898,-1210.7803435849896,-1108.9623044884788,1108.9623044884788,1210.7803435849896,3459.4325261231579,0.0
427154.6038362722,4760833.5216966402,-32500.0,-218.82663966254566,-1172.292902310975,-1451.5354449116132,737.85917468490129,1158.2854133471637,-652.93502555918246,1732.0757074500702,-1292.4263261516767,-987.58054170138939,987.58054170138939,1292.4263261516767,3309.6657818066255,0.0
432154.6038362722,4760833.5216966402,-32500.0,-372.91838025720665,-1189.1817404209953,-1281.9584408865792,746.72866878444938,1043.3796609072126,-589.73968449178403,1640.4786763641348,-1334.2939915533852,-867.76597432536619,867.76597432536619,1334.2939915533852,3139.659242376847,0.0
437154.6038362722,4760833.5216966402,-32500.0,-502.44374191865887,-1175.8700867884618,-1115.9483129963739,739.26806477779439,930.324795418642,-528.06750065974427,1543.5720047342854,-1342.6644602864867,-753.66728422838457,753.66728422838457,1342.6644602864867,2957.2622500133916,0.0
302154.6038362722,4765833.5216966402,-32500.0,409.45347277933865,-91.65808909966826,396.55655206024079,108.29999810089471,-112.8657666169949,16.490625691150882,285.78681856728042,208.4085404375395,-34.338434598616345,34.338434598616345,-208.4085404375395,498.12091659710239,0.0
307154.6038362722,4765833.5216966402,-32500.0,409.24442520939311,-98.852507875783402,471.08334000984792,107.00631365388379,-136.82071665684569,17.823897816666637,315.14080006223531,226.9920155106243,-21.488827857148024,21.488827857148024,-226.9920155106243,548.69420922544839,0.0
312154.6038362722,4765833.5216966402,-32500.0,400.75182482861084,-96.315322015881989,551.61549076060271,99.898480335077281,-160.66663908090501,17.495414446604816,346.63365845080722,252.63273799601691,-8.4518656170839961,8.4518656170839961,-252.63273799601691,602.22515597159315,0.0
317154.6038362722,4765833.5216966402,-32500.0,384.03102215050279,-80.328458896984529,634.77828949734226,85.434370235468819,-182.32045973349616,14.550132914920713,379.5979734862666,287.50701432370226,2.9836642648710097,-2.9836642648710097,-287.50701432370226,658.03797139383528,0.0
322154.6038362722,4765833.5216966402,-32500.0,360.28476688790408,-47.119235704323529,715.28142196908323,62.209243095314243,-198.88615441561495,7.7845636333546508,413.24468250791227,333.73805952421071,10.261212141727555,-10.261212141727555,-333.73805952421071,715.78848526528782,0.0
327154.6038362722,4765833.5216966402,-32500.0,332.18743632073461,6.5487227870271587,785.66040677851026,29.238043425445888,-206.62161756387187,-4.2301351630509298,446.8812213047101,392.96466155713472,10.027159054418235,-10.027159054418235,-392.96466155713472,775.97778201981532,0.0
332154.6038362722,4765833.5216966402,-32500.0,304.05312185738251,82.548223446186469,836.29178646495802,-13.682645337432303,-201.04321081730268,-23.07163892470129,480.34539239104282,465.73393617837246,-1.7573432282527222,1.7573432282527222,-465.73393617837246,840.62859863233552,0.0
337154.6038362722,4765833.5216966402,-32500.0,281.70055863502756,180.3971966827142,855.85706823999931,-65.574600040983725,-177.23091991807516,-50.319921162018716,515.11218157491589,550.76863217345408,-29.501683312919965,29.501683312919965,-550.76863217345408,913.94033912156272,0.0
342154.6038362722,4765833.5216966402,-32500.0,271.87500130707463,296.28336982958541,832.40366610187914,-123.92271481559116,-130.37783161518215,-87.333436614894865,557.18613355342575,644.24123132550199,-77.429714679171923,77.429714679171923,-644.24123132550199,1002.490335318486,0.0
347154.6038362722,4765833.5216966402,-32500.0,281.16146623071734,422.39554843637177,755.04351913617427,-184.48525549744878,-56.576916153700473,-134.95935877415315,619.55767215819833,739.27449650230585,-148.79910841447031,148.79910841447031,-739.27449650230585,1114.3940957791817,0.0
352154.6038362722,4765833.5216966402,-32500.0,314.47861719720981,546.91190106708382,616.13547010431319,-241.4042679810936,46.242939080935926,-193.21670072496741,710.09440660967402,825.94226106572523,-244.99812582305213,244.99812582305213,-825.94226106572523,1257.1723577996061,0.0
357154.6038362722,4765833.5216966402,-32500.0,373.44775956167689,654.93674662672686,413.54743924581675,-287.71672365963065,177.41578936502151,-261.0201404594938,823.0616523664396,892.00778271674892,-364.71531743728053,364.71531743728053,-892.00778271674892,1434.9904921089565,0.0
362154.6038362722,4765833.5216966402,-32500.0,455.10989741368655,730.46002830597638,152.3935679253018,-316.27277186422191,332.92561270272074,-336.03096937493723,950.5302106189115,924.47810793819383,-503.43754058580078,503.43754058580078,-924.47810793819383,1646.6235563255634,0.0
367154.6038362722,4765833.5216966402,-32500.0,551.50395908963219,759.07095043066238,-154.39256199705591,-320.92888483375378,505.33278406436671,-414.71470628375215,1085.6547022293751,911.78608979267381,-653.51263358835001,653.51263358835001,-911.78608979267381,1885.060702465013,0.0
372154.6038362722,4765833.5216966402,-32500.0,650.4423159940045,730.81178513895895,-487.06391495166054,-297.75085795624926,684.38535609726603,-492.64366349353878,1221.69907504921,846.12831501780704,-804.88912372553284,804.88912372553284,-846.12831501780704,2138.6146966725137,0.0
377154.6038362722,4765833.5216966402,-32500.0,737.4521042259928,642.38602452373448,-821.61430956241736,-245.90192772272806,858.27168218272027,-565.01560129164034,1351.8427366393798,725.32762586658362,-946.44747604151701,946.44747604151701,-725.32762586658362,2392.8539614436518,0.0
382154.6038362722,4765833.5216966402,-32500.0,798.43016369483792,498.0531902599036,-1133.3420807580217,-167.94926458382665,1015.2620316224851,-627.28801545616329,1469.5945245668563,553.6547304227571,-1067.6355373017109,1067.6355373017109,-553.6547304227571,2632.7393167334117,0.0
387154.6038362722,4765833.5216966402,-32500.0,822.28628917994934,308.93642559335285,-1400.5430851432743,-69.488925548234803,1145.3542819659922,-675.78549744702025,1569.3804259049555,341.34077516316256,-1160.0115409764762,1160.0115409764762,-341.34077516316256,2844.5653629742501,0.0
392154.6038362722,4765833.5216966402,-32500.0,802.85656693387648,90.970583204516686,-1607.4314434703613,41.802827832535343,1241.5392411589851,-708.14244216780969,1647.0533226211726,102.91937155224218,-1218.3286489830691,1218.3286489830691,-102.91937155224218,3017.4479176146851,0.0
397154.6038362722,4765833.5216966402,-32500.0,739.64570387341257,-137.89160538706108,-1745.6850680032178,157.42420187301261,1300.4353044185377,-723.49616602753474,1700.1909875337637,-145.12424887304076,-1240.9530468231837,1240.9530468231837,145.12424887304076,3144.2084901700341,0.0
402154.6038362722,4765833.5216966402,-32500.0,637.36052860676466,-360.46695880272409,-1814.4737702561386,269.28837617885426,1322.240927673281,-722.41942638269654,1728.1383529272189,-386.77898727456829,-1229.6142309883321,1229.6142309883321,386.77898727456829,3221.6236603249854,0.0
407154.6038362722,4765833.5216966402,-32500.0,504.54506168949263,-562.51235103096997,-1819.2512172906438,370.68937656574582,1310.1357262989739,-706.64786965193196,1731.8223060252053,-608.47445590969596,-1188.6588363676208,1188.6588363676208,608.47445590969596,3250.1247632995883,0.0
412154.6038362722,4765833.5216966402,-32500.0,351.80079866386603,-733.9627045003632,-1769.8323817515118,456.85719080722043,1269.3640208144316,-678.69463279027616,1713.4120202922918,-800.28289193652006,-1124.0619253905588,1124.0619253905588,800.28289193652006,3233.1144693672013,0.0
417154.6038362722,4765833.5216966402,-32500.0,190.05725398452452,-869.22941666701627,-1678.3046378175179,525.09784966855773,1206.2454753198849,-641.44618688380967,1675.9116331027062,-956.30990221605464,-1042.4387373984187,1042.4387373984187,956.30990221605464,3176.0937991280862,0.0
422154.6038362722,4765833.5216966402,-32500.0,29.212853857745312,-966.76831008273655,-1557.1915188011162,574.60712755660848,1127.3018217638162,-597.81118462877419,1622.7615391664567,-1074.4221049651358,-950.22844550451532,950.22844550451532,1074.4221049651358,3085.7730706141015,0.0
427154.6038362722,4765833.5216966402,-32500.0,-122.71614889033614,-1028.2148684176127,-1418.0978590200391,606.08635937730674,1038.6043732817757,-550.46142903537884,1557.499552740283,-1155.5525511200412,-853.13084694673046,853.13084694673046,1155.5525511200412,2969.2899810738718,0.0
432154.6038362722,4765833.5216966402,-32500.0,-259.95337861418608,-1057.3690675279572,-1270.889621073509,621.28420283377022,945.36970165725359,-501.67397816248553,1483.5060954919959,-1202.8272918913253,-755.80055155656396,755.80055155656396,1202.8272918913253,2833.601710779617,0.0
307154.6038362722,4770833.5216966402,-32500.0,339.30152625099663,-73.817233032042992,448.84195915251399,79.18901867266618,-123.17453833631107,11.378126118697338,278.79281827194711,215.51089972514143,-15.134695101043746,15.134695101043746,-215.51089972514143,485.93136181897154,0.0
312154.6038362722,4770833.5216966402,-32500.0,327.69426498974565,-63.057442824185486,514.27654549793215,69.059282130705213,-140.0247727552923,9.4242866440462372,304.96655553151112,241.96488637905733,-6.3768489863918205,6.3768489863918205,-241.96488637905733,529.66909715420888,0.0
317154.6038362722,4770833.5216966402,-32500.0,310.34447717351514,-39.841073960927254,578.64107845154649,52.673006347649597,-153.70929412652649,4.9942530693696243,332.13200859075988,276.53783237063976,-0.12919321686834451,0.12919321686834451,-276.53783237063976,575.42259650036874,0.0
322154.6038362722,4770833.5216966402,-32500.0,288.82013153134528,-1.6185338183117781,636.93731479212715,29.202323746874377,-161.76373428584952,-2.8373696247347993,359.73441403246613,320.5289286693079,1.4253538935854522,-1.4253538935854522,-320.5289286693079,623.57787190012289,0.0
327154.6038362722,4770833.5216966402,-32500.0,265.80432357903879,53.436551922389029,682.62577999542634,-1.75003199278953,-161.18121428659913,-15.117007557037294,387.47316385113464,374.64057624534053,-4.3959304121591742,4.3959304121591742,-374.64057624534053,675.47368105323699,0.0
332154.6038362722,4770833.5216966402,-32500.0,245.10128739267446,125.80396100014838,707.8031992382364,-39.8984343377236,-148.55125151463912,-32.94040330664739,415.86266951465836,438.52390229723375,-20.629340089939717,20.629340089939717,-438.52390229723375,733.8314866706836,0.0
337154.6038362722,4770833.5216966402,-32500.0,231.40051144415546,213.94427508663006,703.72150846367106,-84.023469377387499,-120.33909716604009,-57.336019940228368,447.7835319964131,510.2866444482533,-50.378559556926405,50.378559556926405,-510.2866444482533,802.97759546995189,0.0
342154.6038362722,4770833.5216966402,-32500.0,229.7324664322291,313.72077416850783,661.7103846634518,-131.78298126818146,-73.317996766073946,-89.10435506299423,491.43032729788411,586.07038699948794,-96.381150953748318,96.381150953748318,-586.07038699948794,888.52761793055583,0.0
347154.6038362722,4770833.5216966402,-32500.0,244.61385044714609,418.11303736856723,574.47841443141874,-179.6615760169334,-5.1301379797808062,-128.62628463193909,556.7389194651339,659.84739257072067,-160.45982797629881,160.45982797629881,-659.84739257072067,996.29657236995831,0.0
352154.6038362722,4770833.5216966402,-32500.0,278.98420107177293,517.42946325576656,437.63930943490544,-223.13306148991347,85.098445522977471,-175.66958362253382,643.02328526767519,723.59981065304964,-242.94226889878388,242.94226889878388,-723.59981065304964,1130.6213896973984,0.0
357154.6038362722,4770833.5216966402,-32500.0,333.15384322862781,600.15859110441136,251.16748013607727,-257.07855829174247,196.21424592454579,-229.23675936648036,744.03426552394228,767.99659940019387,-342.18041403635721,342.18041403635721,-767.99659940019387,1292.762871998119,0.0
362154.6038362722,4770833.5216966402,-32500.0,404.06646799771966,654.4474778761753,20.395768315262231,-276.44106773761428,324.71754429562043,-287.50349378070433,854.47413984558841,783.57001708284554,-454.32088945936232,454.32088945936232,-783.57001708284554,1480.0760227520313,0.0
367154.6038362722,4770833.5216966402,-32500.0,485.17276967542574,669.98884064472486,-243.81531053631414,-277.01778721509731,464.8061790578663,-347.88831774470941,969.54502357694616,762.23124001197425,-573.45077057776916,573.45077057776916,-762.23124001197425,1686.1580142394903,0.0
372154.6038362722,4770833.5216966402,-32500.0,567.08264411361824,639.91209838053646,-525.94525927715154,-256.22319801145812,608.84818464496993,-407.26781864433462,1084.3053756380418,698.81072862239193,-692.16088948511538,692.16088948511538,-698.81072862239193,1901.7303638493909,0.0
377154.6038362722,4770833.5216966402,-32500.0,638.94002841237068,562.19806094918147,-807.65342216192403,-213.63292764713628,748.23868188627932,-462.31406393720692,1193.7001599319296,592.23677715820929,-802.45375830140745,802.45375830140745,-592.23677715820929,2115.8985484878913,0.0
382154.6038362722,4770833.5216966402,-32500.0,690.22487838807865,440.22533094086612,-1070.2341054660219,-151.15832110834063,874.48208673143586,-509.89389686357117,1292.8997183950769,446.0216729466066,-896.81503614015298,896.81503614015298,-446.0216729466066,2317.5071368023328,0.0
387154.6038362722,4770833.5216966402,-32500.0,712.53720730917826,282.29293375724347,-1297.1395408824758,-72.798602622638185,980.26983088844429,-547.44839954155702,1377.7162083288758,267.90559805745096,-969.21206301815278,969.21206301815278,-267.90559805745096,2496.3882349463474,0.0
392154.6038362722,4770833.5216966402,-32500.0,700.92306524824789,100.25610200249997,-1476.0130841114531,15.966497977804472,1060.3257666176842,-573.27482963027194,1444.961385063375,68.744783252134198,-1015.8045972321382,1015.8045972321382,-68.744783252134198,2644.3476802610853,0.0
397154.6038362722,4770833.5216966402,-32500.0,654.45942808957352,-92.354378905169128,-1599.8445828762981,108.98883828542418,1111.8645054833287,-586.66104279385172,1492.6677110918051,-139.06876777885918,-1035.2415848636645,1035.2415848636645,139.06876777885918,2755.7858174540197,0.0
402154.6038362722,4770833.5216966402,-32500.0,576.04753569430113,-282.26776139892297,-1667.1280930927746,200.27909008720695,1134.6195970912615,-587.86230767345296,1520.1430037347441,-343.27739424058143,-1028.5350808871972,1028.5350808871972,343.27739424058143,2827.9169241314853,0.0
407154.6038362722,4770833.5216966402,-32500.0,471.57837156209206,-458.064169257564,-1681.1625918827397,284.68542360395435,1130.5054669429094,-577.947892724339,1527.8714506504973,-533.17370574106201,-998.60430721672662,998.60430721672662,533.17370574106201,2860.6248280495938,0.0
412154.6038362722,4770833.5216966402,-32500.0,348.75648242875519,-611.18434746805326,-1648.8017581125971,358.32644820474553,1103.0448885216783,-558.56761218996064,1517.3018296295425,-700.54360677887814,-949.63790076239536,949.63790076239536,700.54360677887814,2856.0461732057724,0.0
417154.6038362722,4770833.5216966402,-32500.0,215.88169442980509,-736.30974264505107,-1579.0031684564635,418.75795221242845,1056.7119210920016,-531.6937859348152,1490.5764594674815,-840.07270625287299,-886.42599277581269,886.42599277581269,840.07270625287299,2817.9992703669423,0.0
422154.6038362722,4770833.5216966402,-32500.0,80.818231038549328,-831.2106285484931,-1481.4698957307407,464.91275140323211,996.31598437209766,-499.38416528568831,1450.2503782581311,-949.28043408503936,-813.77791564462723,813.77791564462723,949.28043408503936,2751.3700669444988,0.0
427154.6038362722,4770833.5216966402,-32500.0,-49.724550544450004,-896.23781401794838,-1365.570620343253,496.88610694805942,926.50807371029714,-463.59467951701356,1399.0387865962493,-1028.1208691822553,-736.09074198574262,736.09074198574262,1028.1208691822553,2661.5438527398246,0.0
312154.6038362722,4775833.5216966402,-32500.0,268.97046460959683,-32.798488746610836,472.75578415428731,44.711244604016812,-119.99558921410578,3.2297000116627723,269.590678021911,232.09540850088317,-6.8556090231721214,6.8556090231721214,-232.09540850088317,467.67724995716134,0.0
317154.6038362722,4775833.5216966402,-32500.0,252.63163290184536,-5.3087911972942141,520.88593353938484,27.857914405417599,-127.57110539239669,-1.9561578626457143,292.28397150597448,265.25812079269258,-4.6320037010498538,4.6320037010498538,-265.25812079269258,506.26621806058387,0.0
322154.6038362722,4775833.5216966402,-32500.0,234.23241822581792,34.8595303297028,560.91652843761074,5.4052813424609383,-129.4844005064312,-10.076282672827352,315.29935529590239,305.97557534297408,-7.1671805239231503,7.1671805239231503,-305.97557534297408,547.95333875874212,0.0
327154.6038362722,4775833.5216966402,-32500.0,216.24803653397839,88.533262110150176,587.31556100983119,-22.675732463852452,-123.37618915233415,-21.88345822585168,338.72030215181485,354.31271120684403,-16.546525620327969,16.546525620327969,-354.31271120684403,594.54403954174927,0.0
332154.6038362722,4775833.5216966402,-32500.0,201.88283216883758,155.32083862860438,593.75357407453487,-55.849405530384551,-106.69962457038378,-38.125959781323893,363.82603525382171,409.4001151287469,-34.999415346602461,34.999415346602461,-409.4001151287469,648.92596543985746,0.0
337154.6038362722,4775833.5216966402,-32500.0,194.81051437251591,233.1747399906528,573.59596353592178,-92.86492614026497,-76.954842364586725,-59.459333219071333,395.10273374655128,469.11873741032599,-64.660982047851178,64.660982047851178,-469.11873741032599,714.97866768259144,0.0
342154.6038362722,4775833.5216966402,-32500.0,198.70865596314459,318.07208163025666,520.65760420536196,-131.66654804672049,-32.015678814033912,-86.334176236676058,441.1789533520685,529.8734867012605,-107.24837236839846,107.24837236839846,-529.8734867012605,797.03361254383913,0.0
347154.6038362722,4775833.5216966402,-32500.0,216.61132313700327,403.94162922072655,430.17170079534571,-169.41101252089754,29.47847276630344,-118.87141063962524,505.82635190654986,586.55381873612623,-163.68421602123345,163.68421602123345,-586.55381873612623,898.89724268319844,0.0
352154.6038362722,4775833.5216966402,-32500.0,250.17074550207445,482.95540361383894,299.8426315480304,-202.63167237523783,107.72278257687066,-156.74544642709645,584.83348137333621,632.77439921648136,-233.72995473369383,233.72995473369383,-632.77439921648136,1022.7362912695273,0.0
357154.6038362722,4775833.5216966402,-32500.0,298.98425157156839,546.24493901208871,130.77515129446718,-227.56406975266057,201.42194891813585,-199.10197434920124,673.69519931729792,661.44633233475076,-315.71410007406519,315.71410007406519,-661.44633233475076,1168.2554413224707,0.0
362154.6038362722,4775833.5216966402,-32500.0,360.1790258518281,585.00053960740036,-71.966055887266705,-240.608401328068,307.63252155583791,-244.53845453621398,768.83311146748247,665.65224173032641,-406.44445280813591,406.44445280813591,-665.65224173032641,1332.4317337541181,0.0
367154.6038362722,4775833.5216966402,-32500.0,428.42571048394228,591.78784801043457,-299.38106700712171,-238.85861096049368,421.84789962900334,-291.16776315040505,866.74561858495508,639.70044340619461,-501.36853795590713,501.36853795590713,-639.70044340619461,1509.7875002867975,1.0
372154.6038362722,4775833.5216966402,-32500.0,496.46239926207039,561.8151838587969,-539.24571338332987,-220.59294539019024,538.35456638536175,-336.76918818881524,963.72894237439073,580.14991022863433,-594.9935225642148,594.9935225642148,-580.14991022863433,1693.03012986913,0.0
377154.6038362722,4775833.5216966402,-32500.0,556.07369375767848,493.8542734546354,-777.442278578014,-185.61291948416743,650.82260331133602,-379.01001224516074,1055.9806410825374,486.5666991082519,-681.50990615454225,681.50990615454225,-486.5666991082519,1873.8836967886059,0.0
382154.6038362722,4775833.5216966402,-32500.0,599.33052311912684,390.57959019380041,-999.67210114888701,-135.34472882740883,753.02932971747532,-415.70065875332205,1139.8597413792174,361.8148662665385,-755.50344783454966,755.50344783454966,-361.8148662665385,2043.9744418650839,0.0
387154.6038362722,4775833.5216966402,-32500.0,619.81242428102155,258.23612966417824,-1193.2038743957719,-72.673823836973256,839.57643591070837,-445.03608104371119,1212.1819694327232,211.79638634098023,-812.61218430542499,812.61218430542499,-211.79638634098023,2195.6572291683651,0.0
392154.6038362722,4775833.5216966402,-32500.0,613.53766472599375,105.71960241444836,-1348.3062193985975,-1.5501879017448927,906.46273196776485,-465.77830553627456,1270.4731244777997,44.695084939496155,-849.99947570589188,849.99947570589188,-44.695084939496155,2322.6851098748198,0.0
397154.6038362722,4775833.5216966402,-32500.0,579.41685949420037,-56.704907514968752,-1459.1113232067046,73.544443252749389,951.41525587204626,-477.35015805326793,1313.1328856883918,-130.09961498579202,-866.56504479243313,866.56504479243313,130.09961498579202,2420.6507380350963,0.0
402154.6038362722,4775833.5216966402,-32500.0,519.18342258241239,-218.75691274267555,-1523.8162822298364,148.15328837378877,973.94604913446517,-479.83245286786189,1339.4894585215573,-303.15323744267084,-862.88466917084043,862.88466917084043,303.15323744267084,2487.1702888376735,0.0
407154.6038362722,4775833.5216966402,-32500.0,436.88541804350638,-371.30471756665037,-1544.2888923773123,218.32173190098445,975.16448349669122,-473.87778950319392,1349.74924438162,-466.00823992314326,-840.92900699898041,840.92900699898041,466.00823992314326,2521.823273777678,0.0
412154.6038362722,4775833.5216966402,-32500.0,338.10913169829468,-507.16778468919358,-1525.2581265552337,280.92733229731715,957.42003892408366,-460.56871252701472,1344.8652475021704,-611.91301604234502,-803.64932900659358,803.64932900659358,611.91301604234502,2525.9000513758619,0.0
417154.6038362722,4775833.5216966402,-32500.0,229.12596023570032,-621.49896207984909,-1473.3116989034766,333.83929934555454,923.86688973286437,-441.2527349824494,1326.3565248753841,-736.19630176719807,-754.52464955581058,754.52464955581058,736.19630176719807,2502.0277065670789,0.0
422154.6038362722,4775833.5216966402,-32500.0,116.12363337970768,-711.78598339963196,-1395.9028038258878,375.92258415318287,878.033198688732,-417.3831474845843,1296.1115268814101,-836.30902702807123,-697.14816710766229,697.14816710766229,836.30902702807123,2453.7471742748944,0.0
317154.6038362722,4780833.5216966402,-32500.0,207.59979052302572,23.066485779901946,464.12860875801806,9.4503482310490856,-104.4168414626168,-6.8236465078624331,258.76330675029067,253.40063401344744,-9.4939705572545847,9.4939705572545847,-253.40063401344744,448.73486796041959,0.0
322154.6038362722,4780833.5216966402,-32500.0,192.55304265703523,63.069026405566667,489.50731355626897,-11.296860319686376,-102.05601633074687,-14.747278311851939,278.23359329223933,290.30583987140119,-14.799471380538563,14.799471380538563,-290.30583987140119,486.08253681034768,0.0
327154.6038362722,4780833.5216966402,-32500.0,179.1130247131143,113.68490640900139,501.1991897772582,-36.204555295172348,-92.488180042834259,-25.681839853492747,298.53311672447643,332.75308337166848,-26.228903121529839,26.228903121529839,-332.75308337166848,529.15905026996529,0.0
332154.6038362722,4780833.5216966402,-32500.0,169.896523951539,174.02035667044476,494.22941335086944,-64.63605836097102,-73.838386328042418,-40.130601079761909,321.88093409419474,379.61120331993345,-45.386709778326008,45.386709778326008,-379.61120331993345,580.65562627405131,0.0
337154.6038362722,4780833.5216966402,-32500.0,167.7228599812174,241.86295964424704,463.64193404177541,-95.418506627994887,-44.362799619274654,-58.501626077737455,354.12851626285698,428.7669088376316,-73.708347390106127,73.708347390106127,-428.7669088376316,643.73991554434599,0.0
342154.6038362722,4780833.5216966402,-32500.0,175.23656777682697,313.52392123573151,405.09401675229617,-126.8094253535811,-2.6893800996694401,-81.030830690961196,401.41028468030203,477.01986542812142,-112.22528828167128,112.22528828167128,-477.01986542812142,721.50380024426067,0.0
347154.6038362722,4780833.5216966402,-32500.0,194.42875448205461,383.87598304140892,315.564316088483,-156.54277928428698,51.911924419026441,-107.70168378719609,462.41947868065319,520.12673087967755,-161.31107859803274,161.31107859803274,-520.12673087967755,816.23473727197347,0.0
352154.6038362722,4780833.5216966402,-32500.0,226.13001838902477,446.65164238096162,194.07255128761062,-181.97438899919723,119.27100816638203,-138.1752984215079,533.16726479316981,553.04508602334636,-220.45300172008234,220.45300172008234,-553.04508602334636,928.75247681589394,0.0
357154.6038362722,4780833.5216966402,-32500.0,269.5829308303139,495.02143599058098,42.268000868722382,-200.32872443945001,198.1252482858022,-171.74728361496125,610.69860357266134,570.39464209754885,-288.10350732279278,288.10350732279278,-570.39464209754885,1058.025420574226,0.0
362154.6038362722,4780833.5216966402,-32500.0,322.21565996769795,522.40536045967303,-135.26837543660656,-209.02462654838692,286.04858959174436,-207.34723122880277,692.47877482269428,567.10221386619833,-361.66325422515985,361.66325422515985,-567.10221386619833,1201.1366625665944,0.0
367154.6038362722,4780833.5216966402,-32500.0,379.71532166629481,523.39605836145518,-331.13267064565974,-206.03121022665158,379.54325640704326,-243.59109233288049,775.87429145325382,539.13767923265914,-437.62828262430935,437.62828262430935,-539.13767923265914,1353.5419357594567,0.0
372154.6038362722,4780833.5216966402,-32500.0,436.43898491441109,494.61791838511988,-535.66490595858579,-190.18744360590523,474.30475849257886,-278.88664741666014,858.0640237887045,484.20310351830443,-511.89985414762072,511.89985414762072,-484.20310351830443,1509.521567568708,0.0
377154.6038362722,4780833.5216966402,-32500.0,486.11574015562275,435.33519903826021,-737.91694341620087,-161.41701887646127,565.63233698122804,-311.58036388609031,936.15170605204253,402.2247485958498,-580.21640224561747,580.21640224561747,-402.2247485958498,1662.7403201885961,0.0
382154.6038362722,4780833.5216966402,-32500.0,522.71071088951919,347.66608870457361,-926.86145552975086,-120.78828324031922,648.91935911543351,-340.12294353201645,1007.3603164641851,295.52872410619943,-638.63307907762396,638.63307907762396,-295.52872410619943,1806.8412467272246,0.0
387154.6038362722,4780833.5216966402,-32500.0,541.27433297445691,236.34935257301825,-1092.6194881681372,-70.402718781473055,720.13771562350144,-363.22540824338398,1069.2425583279016,168.65066377937001,-683.9608334084113,683.9608334084113,-168.65066377937001,1936.006179856101,0.0
392154.6038362722,4780833.5216966402,-32500.0,538.60216021300573,108.11583739716787,-1227.481331708015,-13.134811035088358,776.23085209575515,-379.97909584199721,1119.8618206007573,27.81469313475975,-714.08573067255134,714.08573067255134,-27.81469313475975,2045.4190064658346,0.0
397154.6038362722,4780833.5216966402,-32500.0,513.58409507879912,-29.194656926722271,-1326.5537331912285,47.722093080489927,815.3539016897505,-389.9213981122158,1157.9141463480714,-119.80862605990603,-728.11994641120134,728.11994641120134,119.80862605990603,2131.5838948236042,0.0
402154.6038362722,4780833.5216966402,-32500.0,467.20376006674701,-167.58810974580754,-1387.9624278880867,108.83399258109343,836.93627745990523,-393.04136058667581,1182.7771332569807,-266.91659226120015,-726.37565871886022,726.37565871886022,266.91659226120015,2192.4744984475442,0.0
407154.6038362722,4780833.5216966402,-32500.0,402.23148348969613,-299.76887101780022,-1412.6396362926118,167.16274546067928,841.58056191382786,-389.73158678419412,1194.4871564259074,-406.8147418122619,-710.19032049099656,710.19032049099656,406.8147418122619,2227.5187063188991,0.0
412154.6038362722,4780833.5216966402,-32500.0,322.71175566487693,-419.76718818667558,-1403.8021976514915,220.21418150478408,830.83990033392638,-380.7017754538187,1193.6578882653378,-533.97557623487285,-681.65535548620494,681.65535548620494,533.97557623487285,2237.44696123318,0.0
327154.6038362722,4785833.5216966402,-32500.0,151.09906058154701,130.74264206075239,424.70870272115116,-44.392382681005515,-67.605594843713234,-27.402136541288858,265.33644636872788,310.68516796154569,-33.568813356682256,33.568813356682256,-310.68516796154569,475.88767367331883,0.0
332154.6038362722,4785833.5216966402,-32500.0,145.91853602846211,184.43749065099186,408.45935996321248,-68.5243649676042,-48.366758307844741,-40.050334530739271,288.3143685190318,350.12011537292756,-52.449114561667017,52.449114561667017,-350.12011537292756,524.87416123810385,0.0
337154.6038362722,4785833.5216966402,-32500.0,147.24436168110046,242.99952516159519,371.56436754416774,-93.985487349524831,-20.230564914680372,-55.712467046336684,322.01152633160473,390.22471340079574,-78.748616125845047,78.748616125845047,-390.22471340079574,584.73256008294879,0.0
342154.6038362722,4785833.5216966402,-32500.0,156.9496503968308,303.16388231906143,311.02565167413348,-119.33047487447799,17.665168250977899,-74.495882223385465,368.33049125210744,428.23046030934171,-113.04701078059151,113.04701078059151,-428.23046030934171,657.53108729297799,0.0
347154.6038362722,4785833.5216966402,-32500.0,176.3026693400422,360.66505948811403,225.01236548340665,-142.76896384696914,65.659766584391249,-96.317556329749962,424.16772908416493,460.6608520020244,-155.3945633313939,155.3945633313939,-460.6608520020244,744.50928245509112,0.0
352154.6038362722,4785833.5216966402,-32500.0,205.62116626294699,410.50898416120793,113.349599868399,-162.28627270096362,123.40386218332935,-120.86263729584309,486.77073469322448,483.55253957592629,-205.17206773232684,205.17206773232684,-483.55253957592629,845.71240073224669,0.0
357154.6038362722,4785833.5216966402,-32500.0,244.00288208908154,447.42902769950814,-22.112214517365945,-175.82773925808277,189.74713218894124,-147.56282437503395,554.15872993454013,492.81843868361341,-261.01384541781692,261.01384541781692,-492.81843868361341,959.83108409819727,0.0
362154.6038362722,4785833.5216966402,-32500.0,289.20877276638225,466.48331770759904,-177.34487245559788,-181.52822594774915,262.71302622890829,-175.60351729694651,624.4542516265783,484.72115493297446,-320.82374819652949,320.82374819652949,-484.72115493297446,1084.2485188311493,0.0
367154.6038362722,4785833.5216966402,-32500.0,337.75589383997311,463.70624917893707,-346.27904456357811,-177.95361544793255,339.58280912398965,-203.964820562146,695.63420800340305,456.38963331811175,-381.8999406190573,381.8999406190573,-456.38963331811175,1215.2496084979819,0.0
372154.6038362722,4785833.5216966402,-32500.0,385.23567383480281,436.69723352457203,-521.24965999433687,-164.31159490188733,417.09162393369428,-231.49512877348965,765.52212113622704,406.28708630224537,-441.16259216749927,441.16259216749927,-406.28708630224537,1348.3396108090471,0.0
377154.6038362722,4785833.5216966402,-32500.0,426.82117455466431,385.02813436015629,-693.70439784101518,-140.59018390972625,491.71627339089355,-257.00956550792603,831.88763577841348,334.53529265493307,-495.45570668403627,495.45570668403627,-334.53529265493307,1478.6289868493056,0.0
382154.6038362722,4785833.5216966402,-32500.0,457.87669804679433,310.38026513164164,-855.06687438486733,-107.59367739306364,560.01191221622139,-279.39887966302518,892.59033604018521,243.02137588676138,-541.87442675922819,541.87442675922819,-243.02137588676138,1601.2407132216797,0.0
387154.6038362722,4785833.5216966402,-32500.0,474.55555610063033,216.37888431949398,-997.60924760533203,-66.866743137797172,618.94376063260995,-297.73193547820023,945.73080947729977,135.25789265478423,-578.06266983705677,578.06266983705677,-135.25789265478423,1711.6979291641226,0.0
392154.6038362722,4785833.5216966402,-32500.0,474.27333642368183,108.15834703205958,-1115.1878149830675,-20.520619542591863,666.16024852461658,-311.33578967819881,989.78130739016251,16.019255806521414,-602.43175053634218,602.43175053634218,-16.019255806521414,1806.250167179724,0.0
397154.6038362722,4785833.5216966402,-32500.0,455.97566408080422,-8.2534861946354869,-1203.7295727989035,29.005195181867482,700.16785302205824,-319.8420096469614,1023.6767549404962,-109.1760944539069,-614.26890037040562,614.26890037040562,109.1760944539069,1882.1049948413474,0.0
402154.6038362722,4785833.5216966402,-32500.0,420.16981384729547,-126.6138472734343,-1261.417307309395,79.20237852251195,720.38980029439847,-323.19509766574157,1046.8565794565875,-234.64234251944754,-613.72882021302121,613.72882021302121,234.64234251944754,1937.5475267843999,0.0
342154.6038362722,4790833.5216966402,-32500.0,142.27537584770118,289.22151299895745,234.84061007170817,-110.5915346597928,31.377026167471154,-67.545781015946815,339.61275744965735,383.78241811168073,-111.03567677031123,111.03567677031123,-383.78241811168073,602.16912213892692,0.0
347154.6038362722,4790833.5216966402,-32500.0,161.08232229291514,336.15881357532851,153.79225467745616,-129.09823676969509,73.293317419929096,-85.397983761814757,389.83335054369746,407.87276560498208,-147.38320203849273,147.38320203849273,-407.87276560498208,681.27224179556822,0.0
352154.6038362722,4790833.5216966402,-32500.0,187.81954875585757,375.7271414539897,52.129598670563894,-144.12041994389455,122.6907473893596,-105.21148034172911,444.89411772425149,423.25024875026611,-189.22196807849693,189.22196807849693,-423.25024875026611,771.68735907185771,0.0
357154.6038362722,4790833.5216966402,-32500.0,221.55910872260941,403.85438542128958,-68.290217341961494,-154.12944520906638,178.5599169773069,-126.53348172627501,503.39300162601569,426.80353366019392,-235.37988197917582,235.37988197917582,-426.80353366019392,872.0667199028037,0.0
362154.6038362722,4790833.5216966402,-32500.0,260.38406508536553,416.80710996031996,-203.98515556003872,-157.76683239050885,239.30066433815921,-148.74404902356437,563.8926697788271,415.76588060643007,-284.17510367395062,284.17510367395062,-415.76588060643007,980.14699313436722,0.0
367154.6038362722,4790833.5216966402,-32500.0,301.48139362197855,411.65345579399923,-349.98545332296356,-154.00950093903862,302.79368742047865,-171.0873109720192,624.81474291535244,388.0799573323888,-333.51760307287469,333.51760307287469,-388.0799573323888,1092.909842049334,0.0
372154.6038362722,4790833.5216966402,-32500.0,341.38708578387991,386.67120084256254,-500.18083674640121,-142.31069979789649,366.54544454489417,-192.72302646252757,684.46215906028453,342.71904832636818,-381.07652964079222,381.07652964079222,-342.71904832636818,1206.8089285110589,0.0
377154.6038362722,4790833.5216966402,-32500.0,376.35550775198158,341.62423275096188,-647.84276989747468,-122.69055900197191,427.89172182648514,-212.79318700742579,741.10038841540916,279.90323355918508,-424.49298716197802,424.49298716197802,-279.90323355918508,1318.0392497419864,0.0
382154.6038362722,4790833.5216966402,-32500.0,402.79452285790069,277.85148802866541,-786.24736514003246,-95.75804532630697,484.2316450155281,-230.49465761554401,793.06369947732037,201.16467025383835,-461.60624557453468,461.60624557453468,-201.16467025383835,1422.8220024853133,0.0
387154.6038362722,4790833.5216966402,-32500.0,417.69154665179656,198.14844474299252,-909.30313071649732,-62.658755257170327,533.25791191258304,-245.14749492828719,838.86464885661348,109.2441726956975,-490.65835446839475,490.65835446839475,-109.2441726956975,1517.6776231543222,0.0
392154.6038362722,4790833.5216966402,-32500.0,418.95635871232838,106.46263607228248,-1012.0862112589709,-24.957304202652409,573.14877149545066,-256.24905818105327,877.28911940516537,7.8344627281763906,-510.44566006735954,510.44566006735954,-7.8344627281763906,1599.6585634317032,0.0
352154.6038362722,4580833.5216966402,-37500.0,391.53392769040778,129.64184173597121,-841.2798970045277,62.881938710431136,-399.56791696714413,-140.13815043866174,721.44549713523111,13.54310676394531,64.889610041231037,-64.889610041231037,-13.54310676394531,1299.3457714333219,0.0
357154.6038362722,4580833.5216966402,-37500.0,386.70553378756512,208.64427539165706,-748.50185432553656,92.597481287102852,-355.03458608935659,-123.70900313118419,686.89872044847243,91.758345077126478,17.08908566073702,-17.08908566073702,-91.758345077126478,1226.4833116501252,0.0
362154.6038362722,4580833.5216966402,-37500.0,369.92488811553932,276.55708916105516,-638.05587912406418,117.08785663495405,-303.58220021943998,-105.23108345922867,646.72136849170852,162.75358329064747,-27.819077915116395,27.819077915116395,-162.75358329064747,1144.5160417144564,0.0
367154.6038362722,4580833.5216966402,-37500.0,343.14697194316358,329.92569240521823,-514.18865041151719,135.1119258339005,-247.08635378710616,-85.35797388273285,602.02101026250625,223.72194450699834,-68.038632549281431,68.038632549281431,-223.72194450699834,1056.2868394816267,0.0
372154.6038362722,4580833.5216966402,-37500.0,309.13772057296688,366.29468142566918,-382.19741288362889,145.84853996863163,-187.80033302737559,-64.842590603447803,554.11882081151998,272.5570865858038,-102.08390585043963,102.08390585043963,-272.5570865858038,965.08936248022803,0.0
377154.6038362722,4580833.5216966402,-37500.0,271.17710457265514,384.48446244727927,-247.98508542696453,148.98930706557238,-128.17587602142498,-44.479359231187843,504.46529900005748,308.05492968182932,-128.91664440024357,128.91664440024357,-308.05492968182932,874.44667856979481,0.0
382154.6038362722,4580833.5216966402,-37500.0,232.68416283400984,384.71052453705744,-117.52250643483798,144.77143371778124,-70.653038289408542,-25.039425424039859,454.53992780908339,330.00320000250929,-148.03003325856287,148.03003325856287,-330.00320000250929,787.82489317013278,0.0
387154.6038362722,4580833.5216966402,-37500.0,196.82818904408279,368.52363868668976,3.6988165831465731,133.94438668613506,-17.450317678561749,-7.2081930697075087,405.75244588771892,339.1448686617988,-159.46701776189894,159.46701776189894,-339.1448686617988,708.30094948719363,0.0
392154.6038362722,4580833.5216966402,-37500.0,166.19156299763546,338.58231036476093,111.14100393330585,117.67565415841099,29.614886631429215,8.466351454541174,359.36808912193908,337.02515964181202,-163.77216881533272,163.77216881533272,-337.02515964181202,638.21053837025204,0.0
397154.6038362722,4580833.5216966402,-37500.0,142.53779126033589,298.30101756482043,201.55247081740589,97.412049168955178,69.250924666285101,21.607897437776359,316.5234640949551,325.75340693667658,-161.88852291500325,161.88852291500325,-325.75340693667658,578.83356456574029,0.0
402154.6038362722,4580833.5216966402,-37500.0,126.71386992874839,251.43909912210114,273.12148700447585,74.72039268658196,100.74809907787238,32.02515406326939,278.84696608075126,307.72533910775735,-155.02029223880734,155.02029223880734,-307.72533910775735,530.21609166357666,0.0
342154.6038362722,4585833.5216966402,-37500.0,402.85431066462621,-74.627798877767532,-1074.1866576157408,-18.519533672544263,-536.38546827273308,-195.52146984466199,869.13198396843859,-182.21795241404809,194.54494819978075,-194.54494819978075,182.21795241404809,1592.7156088393783,0.0
347154.6038362722,4585833.5216966402,-37500.0,430.88409632850386,29.095106082648289,-1022.5608970316666,24.450009301476467,-506.31231328422632,-182.39224925339528,846.55053161474598,-86.584535317735927,138.97228906407116,-138.97228906407116,86.584535317735927,1539.6870626688667,0.0
352154.6038362722,4585833.5216966402,-37500.0,443.30808303883578,130.68304172628172,-944.11530420728241,65.328806806878106,-464.72468441056026,-165.47637768074728,815.38269314987713,9.0591996089857219,81.709108442879511,-81.709108442879511,-9.0591996089857219,1470.668285025273,0.0
357154.6038362722,4585833.5216966402,-37500.0,439.77804851079082,224.70773308777845,-840.24068570991233,101.93575473213981,-412.50752194163869,-145.19178750274176,776.20580922081206,100.49779512207058,25.169854818753294,-25.169854818753294,-100.49779512207058,1387.4458825959341,0.0
362154.6038362722,4585833.5216966402,-37500.0,421.30339719996925,305.89186465777709,-714.26926929564183,132.22552169013662,-351.32524106688476,-122.19736637806587,730.01368447697314,183.59562079373376,-28.148401239357852,28.148401239357852,-183.59562079373376,1292.7421587251597,0.0
367154.6038362722,4585833.5216966402,-37500.0,390.23476507524759,369.69099115674908,-571.36015994438844,154.50972959500095,-283.55185688405061,-97.359673464574527,678.17963537637843,254.72088621816152,-75.902394964677171,75.902394964677171,-254.72088621816152,1190.1192468924746,0.0
372154.6038362722,4585833.5216966402,-37500.0,350.04509667824288,412.83571058004418,-418.12573579367063,167.65526400253998,-212.10324852423648,-71.691320778397383,622.37609232221848,311.13769433777884,-116.1394171255331,116.1394171255331,-311.13769433777884,1083.7760918776726,0.0
377154.6038362722,4585833.5216966402,-37500.0,304.9290552630265,433.7339620268703,-262.03355544321028,171.22393834082058,-140.18797120030951,-46.267706162921129,564.45890561598947,351.29558231090982,-147.49489333681245,147.49489333681245,-351.29558231090982,978.24163522232845,0.0
382154.6038362722,4585833.5216966402,-37500.0,259.28429411292092,432.65223803914239,-110.66824856626448,165.52562537990977,-71.009757427307136,-22.132489814989441,506.33097100501982,374.96097594482512,-169.31578432705498,169.31578432705498,-374.96097594482512,877.97304486363123,0.0
387154.6038362722,4585833.5216966402,-37500.0,217.16720206414897,411.63590356599275,29.027625509755904,151.57229220271529,-7.4672419098986316,-0.20582253944200801,449.80721945006252,383.16525407521522,-181.6880798975466,181.6880798975466,-383.16525407521522,786.87557656713739,0.0
392154.6038362722,4585833.5216966402,-37500.0,181.8247017743482,374.18632101378779,151.40617456984128,130.9411904592144,48.101230436593902,18.790961225122167,396.52713321636691,377.98480354235323,-185.36695433461455,185.36695433461455,-377.98480354235323,707.79249838443934,0.0
397154.6038362722,4585833.5216966402,-37500.0,155.38264398420691,324.76200086968538,252.55825733929944,105.57318826694663,94.089757102171063,34.38358440033042,348.08048055171452,362.20187782712952,-181.62752142792573,181.62752142792573,-362.20187782712952,642.06607380035211,0.0
402154.6038362722,4585833.5216966402,-37500.0,138.73174514433316,268.2023333433512,330.49608244279688,77.543240617227923,129.69422745211665,46.360860866639214,307.87536214998687,338.91534588223959,-172.06828135203369,172.06828135203369,-338.91534588223959,589.33648959051345,0.0
407154.6038362722,4585833.5216966402,-37500.0,131.60653081975963,209.17816572389472,385.07671503199003,48.842250460713416,154.87979572560153,54.759528204100661,288.55720349515224,311.17230840559228,-158.40481617090256,158.40481617090256,-311.17230840559228,547.73851855953569,0.0
412154.6038362722,4585833.5216966402,-37500.0,132.81341224029893,151.75254249616461,417.71811701412031,21.201820368739746,170.26596405802428,59.824237469215987,280.45056913250437,281.67566551930054,-142.28695601307342,142.28695601307342,-281.67566551930054,514.48966879684099,0.0
417154.6038362722,4585833.5216966402,-37500.0,140.54251346755558,99.098869830192911,430.98753612454448,-4.0196835518439995,176.95976433291406,61.952209326129868,272.11505762949764,252.59725609962348,-125.16181574900187,125.16181574900187,-252.59725609962348,486.6368419149473,0.0
332154.6038362722,4590833.5216966402,-37500.0,325.99934506132013,-335.80136777276817,-1210.5993704730693,-136.55826597248637,-647.04793488422979,-248.88655921149586,999.88776955913897,-420.03173837705157,347.09549999696793,-347.09549999696793,420.03173837705157,1859.7058152711506,0.0
337154.6038362722,4590833.5216966402,-37500.0,393.28655688040993,-229.98009366735027,-1219.2934433101927,-88.109229049035434,-642.41908454965369,-243.36564589750077,997.07621093813236,-325.13023150585218,295.23029588945008,-295.23029588945008,325.13023150585218,1843.6802203205311,0.0
342154.6038362722,4590833.5216966402,-37500.0,447.40823106427865,-113.82146535406278,-1199.3777519798764,-36.597743460041791,-624.16505790833355,-232.84613612310213,983.98222949265028,-220.4320328036334,235.98499572370102,-235.98499572370102,220.4320328036334,1807.2207784843933,0.0
347154.6038362722,4590833.5216966402,-37500.0,484.92961227206609,7.5933995856539989,-1147.8424968004003,15.651081049803777,-591.34933759493038,-217.18528052598654,960.19799947492493,-109.85196610716908,171.35165619414812,-171.35165619414812,109.85196610716908,1750.0018382608862,0.0
352154.6038362722,4590833.5216966402,-37500.0,503.49604759081825,128.0157830276396,-1063.5307213492383,65.922721087733578,-543.88162730111299,-196.54525282891325,925.79294802839036,1.8012548336068761,103.93914387160378,-103.93914387160378,-1.8012548336068761,1672.8031775654983,0.0
357154.6038362722,4590833.5216966402,-37500.0,502.27532053588703,240.53020507721482,-947.62185700967927,111.33443022549658,-482.68467866381991,-171.43055883094777,881.38146701913308,109.19955444412545,36.800228969407726,-36.800228969407726,-109.19955444412545,1577.6504955575454,0.0
362154.6038362722,4590833.5216966402,-37500.0,482.23897867452126,338.25672256123147,-803.87946382569589,149.1243660829202,-409.7590587495996,-142.69006260850185,828.14334220026376,207.01224194702041,-26.833744765296032,26.833744765296032,-207.01224194702041,1467.8483262805451,0.0
367154.6038362722,4590833.5216966402,-37500.0,446.19387139792207,415.16246190247443,-638.56441843378127,176.9706751760541,-328.11205285210156,-111.4759343013683,767.78494507493872,290.4956688263452,-83.880421505359109,83.880421505359109,-290.4956688263452,1347.8750837678481,0.0
372154.6038362722,4590833.5216966402,-37500.0,398.51727082322509,466.8428894247113,-459.96960125009474,193.28703260202786,-241.53886939396648,-79.158810408031371,702.43709859507408,356.05458716072201,-131.74555325472602,131.74555325472602,-356.05458716072201,1223.1210327200242,0.0
377154.6038362722,4590833.5216966402,-37500.0,344.61537679415591,491.11657848637446,-277.6131210362235,197.43705971901713,-154.27480449187553,-47.207261673315088,634.49779390730248,401.66501983036522,-168.61262848787197,168.61262848787197,-401.66501983036522,1099.4648135912719,0.0
382154.6038362722,4590833.5216966402,-37500.0,290.19639895899428,488.30322659852135,-101.2122275222186,189.82125565180257,-70.568390479270633,-17.04828771023239,566.44279441069239,427.06980681992997,-193.62693380713978,193.62693380713978,-427.06980681992997,982.69930975008504,0.0
387154.6038362722,4590833.5216966402,-37500.0,240.49940478486931,461.11854439589098,60.38219091524595,171.8142705488429,5.754031314322142,10.069472938522159,500.64165844332393,433.70500042885112,-206.93818389114799,206.93818389114799,-433.70500042885112,877.83054183918875,0.0
392154.6038362722,4590833.5216966402,-37500.0,199.63610029716227,414.21125900618097,200.09425052412251,145.56450796200605,71.65615031491653,33.187164010914408,439.27062265853385,424.38024356242738,-209.59846265713063,209.59846265713063,-424.38024356242738,788.33083647753585,0.0
397154.6038362722,4590833.5216966402,-37500.0,170.16816949496106,353.44626084781453,313.22106121260663,113.69684896371479,125.13264819500094,51.7048216050283,384.73375762463434,402.78927964732645,-203.34335258331816,203.34335258331816,-402.78927964732645,715.5225058290614,0.0
402154.6038362722,4590833.5216966402,-37500.0,152.97980539183538,285.08889799005618,397.64332105094451,78.978356018573891,165.29317704536987,65.400040122287379,344.12136793142491,372.95930919323661,-190.30752905168453,190.30752905168453,-372.95930919323661,658.37930481887997,0.0
407154.6038362722,4590833.5216966402,-37500.0,147.42984394174138,215.04832955428412,453.66294746391765,44.008084943019341,192.29446419104107,74.398793528676308,328.2750226403549,338.74619336693951,-172.7329369190939,172.7329369190939,-338.74619336693951,613.96721644369245,0.0
412154.6038362722,4590833.5216966402,-37500.0,151.70862653370108,148.30093419508921,483.55594933655971,10.978604755459818,207.15453525777457,79.109531884862037,319.05383565732433,303.45453784899354,-152.71945488888042,152.71945488888042,-303.45453784899354,578.41609967437455,0.0
417154.6038362722,4590833.5216966402,-37500.0,163.29511883273005,88.553699247597663,490.96795898131046,-18.466152618118247,211.49942682705171,80.136645993615545,308.76724129559892,269.61871893087346,-132.0489234342987,132.0489234342987,-269.61871893087346,547.97617350295911,0.0
422154.6038362722,4590833.5216966402,-37500.0,179.41305249021258,38.147541817977157,480.28061712659212,-43.275361737266365,207.29408898945337,78.189865094236154,296.57811175999387,238.94079407646481,-112.09214700846783,112.09214700846783,-238.94079407646481,519.72944175217287,0.0
427154.6038362722,4590833.5216966402,-37500.0,197.4106952459129,-1.8456751021467988,456.04921279307564,-62.955088003837965,196.59938261999272,74.002916768551557,282.5836683999014,212.35160320667478,-93.790384942503081,93.790384942503081,-212.35160320667478,491.8287995156781,0.0
322154.6038362722,4595833.5216966402,-37500.0,150.24804142417608,-598.47795056046834,-1210.6417211545997,-273.28975560535287,-706.27791219895232,-290.4692550099366,1094.5762671182829,-655.39223518986967,494.85177501176406,-494.85177501176406,655.39223518986967,2059.5047792169212,0.0
327154.6038362722,4595833.5216966402,-37500.0,248.06812838445668,-518.66730178017201,-1280.8423549232805,-231.38016863519525,-732.19903560111027,-295.78409912477701,1116.5588722660527,-583.43501591498091,459.95260906043819,-459.95260906043819,583.43501591498091,2092.3300599217696,0.0
332154.6038362722,4595833.5216966402,-37500.0,341.809288687481,-418.27327388907162,-1330.1772300372029,-181.27750434383128,-746.46758201397859,-296.12313996821172,1128.8110738169962,-493.60592627327685,413.42320654894922,-413.42320654894922,493.60592627327685,2104.9859929330737,0.0
337154.6038362722,4595833.5216966402,-37500.0,426.22137727392931,-299.30022644316449,-1352.1721499886742,-124.28361842646777,-746.3828542698194,-290.67100900532347,1129.8579005822155,-387.47367475753344,355.71800684587379,-355.71800684587379,387.47367475753344,2094.7660197096066,0.0
342154.6038362722,4595833.5216966402,-37500.0,495.96567637443042,-165.70495381317832,-1340.9044334764938,-62.498846105325917,-729.63731855302115,-278.81720942411346,1118.522125289071,-268.10604761443358,288.1711541382864,-288.1711541382864,268.10604761443358,2059.710989038651,0.0
347154.6038362722,4595833.5216966402,-37500.0,546.24350924894577,-23.442678687330542,-1291.8238912932566,1.2064831525024511,-694.65995506937168,-260.26392838370617,1094.0842882655365,-140.08999303385903,213.062200314374,-213.062200314374,140.08999303385903,1998.9600772334604,0.0
352154.6038362722,4595833.5216966402,-37500.0,573.50849109099329,119.79135652387419,-1202.6178021665621,63.343332710503347,-640.95755522704326,-235.12305010948666,1056.4310638567617,-9.3257202249215112,133.56098884343493,-133.56098884343493,9.3257202249215112,1913.072042720695,0.0
357154.6038362722,4595833.5216966402,-37500.0,576.13939560800725,255.17064258565969,-1073.9672932802716,120.0881994823101,-569.39313574834443,-203.98382906925056,1006.1703969714465,117.43268479530376,53.527002574744145,-53.527002574744145,-117.43268479530376,1804.2680249306334,0.0
362154.6038362722,4595833.5216966402,-37500.0,554.91621713106497,373.67100451758859,-910.00476714165711,167.68290959139188,-482.32792123681008,-167.9307401256367,944.68322880676533,233.26610266468481,-22.837379635644879,22.837379635644879,-233.26610266468481,1676.529433635845,0.0
367154.6038362722,4595833.5216966402,-37500.0,513.15010654027117,467.20834404020616,-718.30457775417005,202.89784510384288,-383.5665596896124,-128.49677698506358,874.09044359145753,331.91612959632062,-91.442040126169076,91.442040126169076,-331.91612959632062,1535.4985301948009,0.0
372154.6038362722,4595833.5216966402,-37500.0,456.37570307617978,529.77622397417235,-509.31452948548525,223.4777156583792,-278.07590270220027,-87.54765548052282,797.12477826575582,408.59859258660572,-148.79994093101479,148.79994093101479,-408.59859258660572,1388.1436540473223,0.0
377154.6038362722,4595833.5216966402,-37500.0,391.61682038687258,558.33778678915337,-295.26241730995218,228.47636360475869,-171.49732346954787,-47.107022454762877,716.91632657413959,460.63098886608998,-192.4580678288502,192.4580678288502,-460.63098886608998,1242.1726905893026,0.0
382154.6038362722,4595833.5216966402,-37500.0,326.35619098114819,553.25965733292765,-88.712917900155205,218.40213422741439,-69.526683818964145,-9.1481310024181433,636.72715007099032,487.72939054282824,-221.27730563890074,221.27730563890074,-487.72939054282824,1105.2045677411616,0.0
387154.6038362722,4595833.5216966402,-37500.0,267.4277352575092,518.17502074490972,98.947737668800443,195.13380526586883,22.7267521274965,24.613295626570796,559.7012010720772,491.90398302615341,-235.50073745046546,235.50073745046546,-491.90398302615341,983.73378691017035,0.0
392154.6038362722,4595833.5216966402,-37500.0,220.07753214879045,459.31009693853525,258.79461232519088,161.62333950667136,101.27965406142272,52.887172330342423,488.81169311009012,476.98749581358766,-236.60269658026652,236.60269658026652,-476.98749581358766,882.02101070708636,0.0
397154.6038362722,4595833.5216966402,-37500.0,187.38610338731743,384.44075724667249,385.17450076769808,121.45192022189993,163.61623780664172,74.910022710921609,427.98668411383193,447.91933366231768,-226.96342148687921,226.96342148687921,-447.91933366231768,801.22668246831211,0.0
402154.6038362722,4595833.5216966402,-37500.0,170.13724827727847,301.72515869687163,475.93589676260831,78.336760677950949,208.78686792673955,90.46588760476827,389.36853991885647,409.95829454918373,-209.45223748771676,209.45223748771676,-409.95829454918373,739.2724535595645,0.0
407154.6038362722,4595833.5216966402,-37500.0,167.09587936935918,218.65556359900341,532.11665796731666,35.686074203350181,237.27703902241964,99.832482540354675,374.99801567299801,367.98763612329907,-187.01098360260659,187.01098360260659,-367.98763612329907,691.71490134243675,0.0
412154.6038362722,4595833.5216966402,-37500.0,175.56577233520457,141.30467714885356,557.24226351298739,-3.7257354396817033,250.7073584901398,103.67275222245264,363.98505894541171,326.02532608064769,-162.31311136101783,162.31311136101783,-326.02532608064769,653.29215775559464,0.0
417154.6038362722,4595833.5216966402,-37500.0,192.05980485078607,73.939240101643179,556.43817135458357,-37.930487339049371,251.4476578105571,102.89901378579924,351.12996471556914,286.98025221370949,-137.54045418449243,137.54045418449243,-286.98025221370949,619.35811707667153,0.0
422154.6038362722,4595833.5216966402,-37500.0,212.93121982772283,18.978279580826637,535.54837994913487,-65.792544845890404,242.22654229605155,98.53667583836372,335.86510452407759,252.6320731286628,-114.28475160594179,114.28475160594179,-252.6320731286628,586.65252249701553,0.0
427154.6038362722,4595833.5216966402,-37500.0,234.86406018781992,-22.790922371470035,500.39743897860239,-86.922506068991169,225.7966798806757,91.607642587772773,318.43063834536218,223.77221859435707,-93.553850020931634,93.553850020931634,-223.77221859435707,553.39588323498572,0.0
432154.6038362722,4595833.5216966402,-37500.0,255.18047742965547,-51.849323024493671,456.26488707828599,-101.52309479833238,204.68880165057578,83.044721462026629,299.33226235311145,200.43205786037677,-75.849088360472621,75.849088360472621,-200.43205786037677,518.99697970652176,0.0
317154.6038362722,4600833.5216966402,-37500.0,6.3684305727874291,-766.92109468359433,-1189.1216838062467,-378.04861262175177,-754.76381168366584,-329.39949130521956,1186.7066689693129,-805.81498272390388,598.85649453799249,-598.85649453799249,805.81498272390388,2245.6181489333926,0.0
322154.6038362722,4600833.5216966402,-37500.0,120.03561983338008,-710.22482619294874,-1295.1661380617818,-343.25446434234254,-801.49785322303273,-342.70028063419829,1226.8170984689525,-752.9673562610343,577.88053435902282,-577.88053435902282,752.9673562610343,2314.2992651355253,0.0
327154.6038362722,4600833.5216966402,-37500.0,237.08139895388661,-628.06294557545414,-1387.3824709773189,-297.18519232241783,-838.75756534463471,-351.22020179315717,1257.9723553337633,-678.26096825108857,543.2417394167112,-543.2417394167112,678.26096825108857,2363.9365494461986,0.0
332154.6038362722,4600833.5216966402,-37500.0,351.88402124638418,-519.88530788488231,-1457.8613096143972,-240.16460126768408,-862.85548326815115,-353.68743424828045,1278.0153111800105,-581.31657235724208,494.1619061399814,-494.1619061399814,581.31657235724208,2390.3017919080335,0.0
337154.6038362722,4600833.5216966402,-37500.0,457.82905846397466,-387.21576367862832,-1498.1670448751345,-173.46751011786583,-870.0632537293784,-348.91975172366631,1284.9005298259699,-463.37159605060589,430.74777537013091,-430.74777537013091,463.37159605060589,2389.5351306289822,0.0
342154.6038362722,4600833.5216966402,-37500.0,547.86343684364624,-234.12447945433425,-1500.1632827864532,-99.464278971446291,-857.00150519440626,-335.9662006860716,1276.8907251291585,-327.6152498883722,354.2359610400166,-354.2359610400166,327.6152498883722,2358.588252103903,0.0
347154.6038362722,4600833.5216966402,-37500.0,615.3149023665818,-67.445532854066172,-1457.1096637489527,-21.645771701980944,-821.12304974111964,-314.26585559221735,1252.7833155027777,-179.32672986533123,267.14783773743522,-267.14783773743522,179.32672986533123,2295.7263502596302,0.0
352154.6038362722,4600833.5216966402,-37500.0,654.89458993577739,103.41496383012561,-1364.9037297986479,55.525048530742133,-761.22950287117544,-283.80175388363085,1212.1372371322664,-25.707160616419657,173.28598754235068,-173.28598754235068,25.707160616419657,2201.0231497451628,0.0
357154.6038362722,4600833.5216966402,-37500.0,663.71560004900152,267.18760926083252,-1223.2531084638586,126.9666416953475,-677.93028307589748,-245.22070444951649,1155.4654118935393,124.66431984123942,77.519114777307081,-77.519114777307081,-124.66431984123942,2076.7713870317884,0.0
362154.6038362722,4600833.5216966402,-37500.0,642.08742209385264,411.96894043100201,-1036.4848255797547,187.52734067766002,-573.92628986025977,-199.88517813097823,1084.3446641296391,262.74324907229908,-14.66284369363774,14.66284369363774,-262.74324907229908,1927.7032196043888,0.0
367154.6038362722,4600833.5216966402,-37500.0,593.8362346781031,526.82256846888606,-813.70712154482692,232.66107177725115,-454.0094053114712,-149.82896055348172,1001.4043573188088,380.1836170711158,-97.782133122724275,97.782133122724275,-380.1836170711158,1760.9282826633232,0.0
372154.6038362722,4600833.5216966402,-37500.0,525.97470317552006,603.45282327658208,-568.13886467698046,259.10783435927431,-324.7119912968252,-97.602948599261197,910.1701962730541,470.53166256051941,-167.09090256642426,167.09090256642426,-470.53166256051941,1585.5153701089844,0.0
377154.6038362722,4600833.5216966402,-37500.0,447.70569827155589,637.56323891389934,-315.62157675861386,265.42646583238275,-193.6211980334198,-46.02177615641849,814.77205594657153,530.17367952017707,-219.22330555194219,219.22330555194219,-530.17367952017707,1411.6803753920426,0.0
382154.6038362722,4600833.5216966402,-37500.0,368.94395584783041,629.54505685618346,-72.564402119866443,252.24293114728326,-68.465783084113582,2.1513424261444394,719.56764472892235,558.79564879403483,-252.62986302966573,252.62986302966573,-558.79564879403483,1249.5789539228806,0.0
387154.6038362722,4600833.5216966402,-37500.0,298.70009331135134,584.30132451262875,146.24355783276945,222.14088388062555,43.843718449793727,44.523486677889792,628.80181406726001,559.23402124542633,-267.69016542344286,267.69016542344286,-559.23402124542633,1107.7583233813866,0.0
392154.6038362722,4600833.5216966402,-37500.0,243.72042162728397,510.25154734765488,329.46885268169132,179.21482819377536,138.02049430880842,79.331906650405841,546.6640393555216,536.76733961658306,-266.48609408774195,266.48609408774195,-536.76733961658306,991.48635579143138,0.0
397154.6038362722,4600833.5216966402,-37500.0,207.69166473526408,417.79252811511185,470.33932378841598,128.39764031270576,210.89298787308212,105.59544729831694,479.83664321517767,498.05485437249348,-252.31113351878213,252.31113351878213,-498.05485437249348,901.53201368071154,0.0
402154.6038362722,4600833.5216966402,-37500.0,191.12985327650895,317.6072436921504,566.86669123135812,74.722157667702888,261.51361946850699,123.13637746621527,444.35143378344662,449.99694510808928,-229.05014568576354,229.05014568576354,-449.99694510808928,834.20042167987185,0.0
407154.6038362722,4600833.5216966402,-37500.0,191.87373048247284,219.20602855843507,621.27438517616508,22.67687301322783,290.91578121420349,132.48360603344349,429.71165254331549,398.77560847403367,-200.57912760128406,200.57912760128406,-398.77560847403367,782.94751631936651,0.0
412154.6038362722,4600833.5216966402,-37500.0,205.95687243502823,129.95120267454462,638.89716510615983,-24.235509892485776,301.62791125276595,134.69354921727242,416.15992814417314,349.23279341173946,-170.29885191115108,170.29885191115108,-349.23279341173946,740.76361806845193,0.0
417154.6038362722,4600833.5216966402,-37500.0,228.58934923032723,54.644034061733244,626.87898833327256,-63.697144320417173,297.08391093901861,131.13572552859705,399.91508563252944,304.62417931265486,-140.85788846389568,140.85788846389568,-304.62417931265486,702.03493814667456,0.0
422154.6038362722,4600833.5216966402,-37500.0,255.0240757173963,-4.3964231297234297,592.95492505061679,-94.555714580432991,281.05701050379622,123.28711218813535,380.64942646374215,266.68867089097444,-114.0629146917768,114.0629146917768,-266.68867089097444,663.27169019448809,0.0
427154.6038362722,4600833.5216966402,-37500.0,281.17559987957907,-46.920529230937454,544.49915660684417,-116.65043953930738,257.20314450524165,112.56568168041389,358.81030686660432,235.9215073444513,-90.934337593125917,90.934337593125917,-235.9215073444513,622.94022133472106,0.0
432154.6038362722,4600833.5216966402,-37500.0,303.95561572340296,-74.176664691404468,487.90864321069631,-130.55824761413837,228.75180732901313,100.21732871668436,335.13715239003329,211.93435577603233,-71.849771189084123,71.849771189084123,-211.93435577603233,580.90562874485113,0.0
437154.6038362722,4600833.5216966402,-37500.0,321.36081333220932,-88.327198392129233,428.30407576597179,-137.32557354484754,198.34258738358815,87.256187410547085,310.47647992132198,193.81067214963514,-56.7214027842207,56.7214027842207,-193.81067214963514,537.84488190417551,0.0
312154.6038362722,4605833.5216966402,-37500.0,-178.5580195299431,-915.19418701324253,-1108.544579876665,-487.8865873160575,-778.51750384686613,-363.62033253064652,1263.6851262909386,-939.2881999029438,693.16543079850464,-693.16543079850464,939.2881999029438,2402.5251873115599,0.0
317154.6038362722,4605833.5216966402,-37500.0,-58.886801016839549,-891.32855068526908,-1243.6221003270862,-466.18706069852686,-846.16194386823895,-386.22316650362058,1323.7132451121252,-913.31698685219658,691.10771418510149,-691.10771418510149,913.31698685219658,2511.2349286561493,0.0
322154.6038362722,4605833.5216966402,-37500.0,72.950058781266833,-840.34032828006173,-1374.7073356203684,-431.14580068230634,-908.33961583445137,-404.96286868622269,1376.7486017411318,-863.91807510615422,674.9730249308152,-674.9730249308152,863.91807510615422,2604.5492496591728,0.0
327154.6038362722,4605833.5216966402,-37500.0,212.24534644964632,-758.71168320128572,-1493.8384440854318,-381.74149339255644,-960.86075559500773,-418.19361991228044,1420.118728824106,-788.41396791687816,642.5983404804474,-642.5983404804474,788.41396791687816,2677.0251440995507,0.0
332154.6038362722,4605833.5216966402,-37500.0,352.43403853908075,-644.52978757182677,-1591.3488899936326,-317.82242763964325,-998.92841605493038,-424.17204913693536,1450.9870108529735,-685.42707417208646,592.44750169746328,-592.44750169746328,685.42707417208646,2722.9980907433442,0.0
337154.6038362722,4605833.5216966402,-37500.0,485.31565623046578,-498.34289307076631,-1656.3944217059777,-240.4385781637848,-1017.4485232090013,-421.19848511710376,1466.5378773771517,-555.51136688769316,524.00808773979543,-524.00808773979543,555.51136688769316,2737.0190012224775,0.0
342154.6038362722,4605833.5216966402,-37500.0,601.6622985100621,-323.95745740334786,-1677.9278270820121,-152.11858663009247,-1011.5235876262585,-407.80811552160077,1464.232177933729,-401.72327729728039,438.18664453749608,-438.18664453749608,401.72327729728039,2714.4406920004444,0.0
347154.6038362722,4605833.5216966402,-37500.0,692.25334506120134,-128.95983467158965,-1646.1324282637711,-57.005057826207107,-977.12077792997979,-383.00124538362456,1442.1250813466249,-229.97277804071393,337.61610240803225,-337.61610240803225,229.97277804071393,2652.1304856434008,0.0
352154.6038362722,4605833.5216966402,-37500.0,749.26600886134622,75.294572961896435,-1554.1830062861322,39.247605013191617,-911.84513130394078,-346.484188723454,1399.2098152276785,-48.970514269822473,226.76471221270768,-226.76471221270768,48.970514269822473,2549.2262982158168,0.0
357154.6038362722,4605833.5216966402,-37500.0,767.80655060288302,274.44329336637895,-1400.045697421039,129.88717215633309,-815.68931148284071,-298.87841559551413,1335.7358527000874,130.37643678052319,111.74321944011406,-111.74321944011406,-130.37643678052319,2407.8208694513064,0.0
362154.6038362722,4605833.5216966402,-37500.0,747.22300329458017,452.70797239011546,-1187.8713461381733,207.80430040002847,-691.57238791517932,-241.84196862242663,1253.4246619723494,296.16027929842193,-0.24835957363609396,0.24835957363609396,-296.16027929842193,2233.4063963534163,0.0
367154.6038362722,4605833.5216966402,-37500.0,691.78174923099709,595.15127260105828,-928.50111180314082,266.520317800611,-545.4733107843939,-178.04975642129756,1155.5128735551266,437.12161308379132,-101.80067015995795,101.80067015995795,-437.12161308379132,2034.9172137859159,0.0
372154.6038362722,4605833.5216966402,-37500.0,610.37360069514045,690.16544558890553,-638.72616041408833,301.23905801414151,-386.01953098575643,-110.99833127588074,1046.5730444211274,544.42543688706041,-186.3561545129437,186.3561545129437,-544.42543688706041,1824.2300681451222,0.0
377154.6038362722,4605833.5216966402,-37500.0,515.16432121556522,731.57345505490423,-339.25588197155184,309.71091358042997,-223.52122086741801,-44.640098848859097,932.11492202839838,613.11900898496606,-249.21370624852048,249.21370624852048,-613.11900898496606,1615.039809085539,0.0
382154.6038362722,4605833.5216966402,-37500.0,419.44591808303426,719.74070127464813,-51.751841313311054,292.66676412837938,-68.607663219135787,17.098636145471858,818.0452792598428,642.85874823185543,-288.21822353424261,288.21822353424261,-642.85874823185543,1421.0869417603408,0.0
387154.6038362722,4605833.5216966402,-37500.0,335.23826218858926,661.35214483014181,204.38207478946796,253.68228418748558,69.238602727489607,70.819834063105617,710.19723396514462,637.69240584763327,-303.95079478803791,303.95079478803791,-637.69240584763327,1253.8124637278931,0.0
392154.6038362722,4605833.5216966402,-37500.0,271.28813141594696,567.91813556040029,414.66347061576187,198.4975877403821,182.90868692259679,114.06629955602051,614.64238614399846,604.97590652977112,-299.38290444826941,299.38290444826941,-604.97590652977112,1119.8127486965343,0.0
397154.6038362722,4605833.5216966402,-37500.0,231.96515480428215,453.4636378834507,571.0458994600458,133.97926230104099,268.38610245715148,145.55637625164252,542.51759991383676,553.76918184497652,-279.12047603726478,279.12047603726478,-553.76918184497652,1019.1046178816899,0.0
402154.6038362722,4605833.5216966402,-37500.0,217.22660983839606,332.05227570429389,672.06795479274194,66.99878435535031,324.84974287709377,165.2041702766538,509.77698356448826,493.16938440574535,-248.46690011611776,248.46690011611776,-493.16938440574535,945.55468310105084,0.0
407154.6038362722,4605833.5216966402,-37500.0,223.47994156724107,215.74963244313201,721.83248418060793,3.4906664966556558,354.23167946480032,173.94752113313143,493.5259580436844,430.98495315170106,-212.54952280388835,212.54952280388835,-430.98495315170106,889.72683405277473,0.0
412154.6038362722,4605833.5216966402,-37500.0,244.94792548159253,113.38390593999665,728.2802398504931,-52.143569273215348,360.42616469151545,173.45001520731194,476.49471806370741,372.96784200017402,-175.68318016980942,175.68318016980942,-372.96784200017402,842.45176368928264,0.0
417154.6038362722,4605833.5216966402,-37500.0,275.10226216197572,30.167911904426255,701.28559561198335,-97.243624354754559,348.38616151320161,165.76020826399031,455.76769314342988,322.61844016171096,-141.04014780054024,141.04014780054024,-322.61844016171096,797.12339586689973,0.0
422154.6038362722,4605833.5216966402,-37500.0,307.83648164289821,-31.986808776104152,650.99195611514392,-130.77382001117465,323.30532532566519,153.00032791957366,431.30248525662626,281.427507121205,-110.59991444414499,110.59991444414499,-281.427507121205,750.21105824712777,0.0
427154.6038362722,4605833.5216966402,-37500.0,338.21825271924911,-73.741441402458818,586.61565100765824,-152.99963153961559,290.00418717282838,137.12999874949256,403.85400151338956,249.3604404105792,-85.296269499382547,85.296269499382547,-249.3604404105792,700.66746784828808,0.0
432154.6038362722,4605833.5216966402,-37500.0,362.81435307015784,-97.459713845769514,515.76622246773798,-165.08075303962389,252.55687761742311,119.8008577741163,374.49059842074888,225.40504935888791,-65.265405014801985,65.265405014801985,-225.40504935888791,649.01793771763721,0.0
437154.6038362722,4605833.5216966402,-37500.0,379.6788262885425,-106.39712638813134,444.20857787728886,-168.67725618307858,214.13436076679426,102.29489166949405,344.35666778671157,208.06005274945377,-50.114593413515848,50.114593413515848,-208.06005274945377,596.55940322389415,0.0
442154.6038362722,4605833.5216966402,-37500.0,388.1299028224056,-104.05990223357421,375.93666598458793,-165.62628651895625,177.00867485937979,85.526268880345327,314.51086992344938,195.70380550793757,-39.15938266540536,39.15938266540536,-195.70380550793757,544.79878814665688,0.0
447154.6038362722,4605833.5216966402,-37500.0,388.43270340034201,-93.766864816285917,313.42638917102357,-157.71126623719354,142.65681084429409,70.083350924379275,285.82137576648802,186.83238352327271,-31.605229363325932,31.605229363325932,-186.83238352327271,495.11831735177964,0.0
307154.6038362722,4610833.5216966402,-37500.0,-393.73114650058034,-1025.4004952234595,-972.34134079080275,-594.25462247044095,-773.18866142758441,-390.18796481587339,1320.1098797422521,-1041.3199572535764,768.26093182255488,-768.26093182255488,1041.3199572535764,2518.743485627816,0.0
312154.6038362722,4610833.5216966402,-37500.0,-281.09031343513504,-1040.2782812374169,-1124.6364209280957,-591.10106313805625,-859.12485646722746,-422.62689396043874,1400.3454584820911,-1047.1289474586858,788.29545293252352,-788.29545293252352,1047.1289474586858,2668.5641592988704,0.0
317154.6038362722,4610833.5216966402,-37500.0,-147.94410830026095,-1030.5258904274306,-1283.8586974286222,-574.27410562216278,-945.02855973039436,-452.88172698489717,1476.7070800796203,-1031.0946951493072,795.89619886954074,-795.89619886954074,1031.0946951493072,2809.1752934005799,0.0
322154.6038362722,4610833.5216966402,-37500.0,3.2479235717622545,-990.04595078205102,-1443.6309679023771,-541.33285983679389,-1026.9569142824494,-479.14034225221695,1546.3344963005545,-988.47332474607288,787.73148050829127,-787.73148050829127,988.47332474607288,2934.5898907781325,0.0
327154.6038362722,4610833.5216966402,-37500.0,167.70960659855945,-913.31560969702844,-1595.0108142264078,-490.34345538880552,-1099.8300783876459,-499.27412054994528,1605.9018601712819,-915.07400609370904,760.5946959342665,-760.5946959342665,915.07400609370904,3037.9219317696152,0.0
332154.6038362722,4610833.5216966402,-37500.0,338.05800163726576,-796.37738196713201,-1726.4601724377878,-420.32460349183776,-1157.5199338401135,-510.92890440446615,1651.7240059445205,-808.01547474822723,711.83658377395204,-711.83658377395204,808.01547474822723,3111.6702063010216,0.0
337154.6038362722,4610833.5216966402,-37500.0,504.35768175561191,-638.05623260830316,-1824.2771814466855,-331.75456639042363,-1193.1588412759165,-511.68934422227079,1679.9602378380434,-666.63249011189794,639.91767892998644,-639.91767892998644,666.63249011189794,3148.2223498655285,0.0
342154.6038362722,4610833.5216966402,-37500.0,654.70246307885191,-441.23464073517931,-1873.6691090200281,-227.05982475986377,-1199.7308262927706,-499.3254459932711,1686.9341459328152,-493.39981635864802,545.02185978795183,-545.02185978795183,493.39981635864802,3140.6092635178143,0.0
347154.6038362722,4610833.5216966402,-37500.0,776.45644722259647,-213.88403223935018,-1860.5630041293864,-110.9579071151595,-1170.9678139787,-472.11609568797269,1669.569933268275,-294.64653150469582,429.61422993212665,-429.61422993212665,294.64653150469582,3083.4989659406219,0.0
352154.6038362722,4610833.5216966402,-37500.0,858.13920998679737,30.557296327871278,-1774.0600051098629,9.5080107196085848,-1102.4893242741337,-429.21964953982399,1625.9081239774912,-80.761900668851808,298.77104741911205,-298.77104741911205,80.761900668851808,2974.3404552705292,0.0
357154.6038362722,4610833.5216966402,-37500.0,891.70444725703931,273.87321446701691,-1609.1689169963072,125.39738752540069,-993.01427604554863,-371.03329418548327,1555.6259032259559,134.39464336847487,160.09171913065018,-160.09171913065018,-134.39464336847487,2814.489685285248,0.0
362154.6038362722,4610833.5216966402,-37500.0,874.69212975854884,495.06930453187186,-1369.1607269946219,226.84376240567155,-845.35503596555816,-299.45302763335627,1460.4443671444697,335.02907052828863,23.049574619652503,-23.049574619652503,-335.02907052828863,2610.0601649622163,0.0
367154.6038362722,4610833.5216966402,-37500.0,811.55874488979794,673.54982612793322,-1066.7298765296932,304.49649030969715,-666.84515383041037,-217.93280935249444,1344.2910149254797,505.75993326523894,-102.22359637276713,102.22359637276713,-505.75993326523894,2372.2033120401729,0.0
372154.6038362722,4610833.5216966402,-37500.0,713.55886904168506,792.85652618231347,-723.28414162844342,351.16664890540198,-468.91545638709101,-131.26330429950895,1213.1189396306431,634.29962387433295,-206.52464615379714,206.52464615379714,-634.29962387433295,2116.5606728398425,0.0
377154.6038362722,4610833.5216966402,-37500.0,596.92840546506,843.96994862027941,-366.16368336340219,363.25691991748391,-265.7361139488508,-45.050684939539259,1074.3622249795919,713.74037666963272,-283.1578215264467,283.1578215264467,-713.74037666963272,1861.7110892441922,0.0
382154.6038362722,4610833.5216966402,-37500.0,479.71761961093665,827.13557145745051,-24.296060187132387,341.53723957354794,-72.147668967147226,35.029822332272062,936.1475125612136,743.72778146198129,-329.05627080915133,329.05627080915133,-743.72778146198129,1626.5506357239199,0.0
387154.6038362722,4610833.5216966402,-37500.0,378.16420242257993,751.58619984039115,276.59583550480102,290.9926906501006,98.626536909231561,104.04505040233714,806.62533356043991,730.13202823536835,-345.10930409751541,345.10930409751541,-730.13202823536835,1426.6999946751598,0.0
392154.6038362722,4610833.5216966402,-37500.0,303.69840740394204,633.25112372056594,517.91573779485623,219.76895293620237,236.89059971051677,158.48040110229169,694.76868727915746,683.35046119861659,-335.62125252857959,335.62125252857959,-683.35046119861659,1270.5719780580687,0.0
397154.6038362722,4610833.5216966402,-37500.0,261.40514202447503,491.22658161151566,690.26339231347208,137.53807378289034,337.54270982795276,196.61847898788548,617.99091458247653,615.83606896626986,-307.1194175674467,307.1194175674467,-615.83606896626986,1156.8781599802171,0.0
402154.6038362722,4610833.5216966402,-37500.0,250.18294251578718,344.11017975506951,793.3642099802538,53.76624077076486,400.13078173810948,218.55274086359586,586.68631398108118,539.63265120747928,-266.91320797194811,266.91320797194811,-539.63265120747928,1075.8480807533035,0.0
407154.6038362722,4610833.5216966402,-37500.0,264.24121447683751,207.15778838625783,834.26902692995532,-23.675401174113453,428.05072938188823,225.88106478684841,567.57501774402624,464.54840010161314,-221.81004774178638,221.81004774178638,-464.54840010161314,1014.0889816826257,0.0
412154.6038362722,4610833.5216966402,-37500.0,295.23924259491764,90.764847317888922,824.64813917497872,-89.302706571379375,427.25154590841521,221.20521407119162,545.82050881989005,397.25900084911484,-177.25549819731907,177.25549819731907,-397.25900084911484,959.80228884907524,0.0
417154.6038362722,4610833.5216966402,-37500.0,334.36589292560683,0.25846622895942306,778.02366710814897,-140.18842446658755,404.84814365007361,207.58418734832853,519.16845539977214,341.27546280324839,-136.96936091902779,136.96936091902779,-341.27546280324839,905.43809975809586,0.0
422154.6038362722,4610833.5216966402,-37500.0,373.89280331748398,-63.358897928780536,707.53672884891387,-175.65365160332655,367.94817554356899,188.06161232982697,487.97874565967663,297.49821831873271,-102.9963206980259,102.9963206980259,-297.49821831873271,847.71232980164757,0.0
427154.6038362722,4610833.5216966402,-37500.0,408.03415066686097,-102.19010130296206,624.50694856320399,-196.6956186419479,322.84678332962773,165.33365078080743,453.45714409923022,265.02780549409283,-76.014400935669869,76.014400935669869,-265.02780549409283,786.37659378048272,0.0
432154.6038362722,4610833.5216966402,-37500.0,433.18097437116415,-120.15891729708784,537.76193677604067,-205.35078561685268,274.60527673043424,141.57004923131342,417.11704656517713,241.96849636491777,-55.743938378242163,55.743938378242163,-241.96849636491777,722.85307377111428,0.0
437154.6038362722,4610833.5216966402,-37500.0,447.69874863518589,-121.92175160022811,453.55721460872462,-204.13049517575152,226.9429444447228,118.36453276377141,380.46781354552832,226.07280813406598,-41.341721134546646,41.341721134546646,-226.07280813406598,659.19387018268355,0.0
442154.6038362722,4610833.5216966402,-37500.0,451.49559536719596,-112.08600504126524,375.86234146359777,-195.59605493236518,182.33773357931085,96.774281070784724,344.81028189199998,215.17580498511248,-31.717639726214344,31.717639726214344,-215.17580498511248,597.43057139485745,0.0
447154.6038362722,4610833.5216966402,-37500.0,445.52838717501356,-94.736922836870818,306.81739694412022,-182.08547380798117,142.2370355963744,77.408330155135573,311.12466768017163,207.43502886017683,-25.754568296400734,25.754568296400734,-207.43502886017683,539.23608318178663,0.0
452154.6038362722,4610833.5216966402,-37500.0,431.35255068591971,-73.216127548663636,247.22042842967335,-165.57074548489661,107.30300030704109,60.532675485070115,280.03720056095551,201.42254816827415,-22.439367381908198,22.439367381908198,-201.42254816827415,485.79500676792924,0.0
302154.6038362722,4615833.5216966402,-37500.0,-621.83389652448284,-1083.2246341204545,-792.1439638695424,-687.83396381384682,-737.74062180082387,-406.67402695533929,1351.8843002133635,-1100.0715357462441,816.00021620046027,-816.00021620046027,1100.0715357462441,2585.3820539288472,0.0
307154.6038362722,4615833.5216966402,-37500.0,-530.12666874336082,-1137.1278789732119,-946.78064704244014,-706.97041326171654,-836.74668931011763,-448.47233834211107,1450.8743782799954,-1138.2696682707726,858.53766723885008,-858.53766723885008,1138.2696682707726,2773.6844756070864,0.0
312154.6038362722,4615833.5216966402,-37500.0,-412.03502050426584,-1172.8969075462969,-1118.0993355853229,-714.23985237680517,-941.72996962778473,-490.39166386306204,1549.989819324891,-1159.3195469052721,892.28737877761512,-892.28737877761512,1159.3195469052721,2960.9770220848277,0.0
317154.6038362722,4615833.5216966402,-37500.0,-266.90549590653956,-1183.0565233802251,-1302.6408461060103,-706.10764406325677,-1049.8099354987705,-530.75534336449914,1646.6094354242218,-1157.2545235031587,913.34162502878348,-913.34162502878348,1157.2545235031587,3141.6589205492155,0.0
322154.6038362722,4615833.5216966402,-37500.0,-96.186202832619045,-1159.4187215572529,-1494.1962598326684,-678.97368373283916,-1156.675348416501,-567.3869426133906,1737.4078921915379,-1125.6893326477127,917.31272386668684,-917.31272386668684,1125.6893326477127,3308.6528336718461,0.0
327154.6038362722,4615833.5216966402,-37500.0,95.807631442617875,-1093.8420748888771,-1683.1782045436555,-629.58106725296818,-1256.3783875429908,-597.6099405807978,1818.3373178499198,-1058.433478411278,899.63699669116386,-899.63699669116386,1058.433478411278,3453.416694804454,0.0
332154.6038362722,4615833.5216966402,-37500.0,301.24349921430854,-979.43964741054651,-1856.2480835612841,-555.59872505849376,-1341.2846119496264,-618.3158986032895,1884.6904271215662,-950.43118583928754,856.08548967366482,-856.08548967366482,950.43118583928754,3566.1641696066204,0.0
337154.6038362722,4615833.5216966402,-37500.0,508.48353858110005,-812.23439857752476,-1996.4836582957319,-456.35948978062004,-1402.3014762462199,-626.1309088007979,1931.2938448197101,-799.01423435094489,783.49917715790684,-783.49917715790684,799.01423435094489,3636.392859294187,0.0
342154.6038362722,4615833.5216966402,-37500.0,702.47176705612492,-593.10333678669394,-2084.4149904495775,-333.66976595326202,-1429.5173751667833,-617.70760537960621,1952.8801961718877,-605.33363900944369,680.70434401549187,-680.70434401549187,605.33363900944369,3653.8065061193024,0.0
347154.6038362722,4615833.5216966402,-37500.0,866.09484552347431,-329.62399106312012,-2100.1946140273385,-192.51869160672967,-1413.3473801346765,-590.15629846606521,1944.6659122920141,-375.6683899445141,549.46682535455966,-549.46682535455966,375.6683899445141,3609.6643681159339,0.0
352154.6038362722,4615833.5216966402,-37500.0,982.64743954992298,-37.201034416545234,-2026.9342681184824,-41.426274369310114,-1346.1750881224868,-541.59885659721249,1903.1135023915774,-122.14573604553991,395.2308895030684,-395.2308895030684,122.14573604553991,3498.4892909281434,0.0
357154.6038362722,4615833.5216966402,-37500.0,1039.1741574724751,261.27194921307847,-1854.8037893647113,107.87109949667631,-1224.2887784008874,-471.77644055371337,1826.7773192999953,137.66088013159236,227.30598856456567,-227.30598856456567,-137.66088013159236,3319.9049703898304,0.0
362154.6038362722,4615833.5216966402,-37500.0,1029.9687290270037,537.79573623348313,-1584.945889423054,241.62571658323225,-1049.6771154938965,-382.57872637552146,1717.0507278405639,382.63752195856006,58.189358018810083,-58.189358018810083,-382.63752195856006,3080.2054554870278,0.0
367154.6038362722,4615833.5216966402,-37500.0,959.08912753301877,763.71271546556068,-1231.8507465306516,346.16728849172688,-831.06964271194909,-278.30756157122221,1578.5762427863228,591.48124647921838,-98.092775664229293,98.092775664229293,-591.48124647921838,2793.1350334425315,0.0
372154.6038362722,4615833.5216966402,-37500.0,840.71697869168713,915.37909248098174,-822.91245666708858,410.50916046583552,-583.64158809100661,-165.49394329361135,1419.1189364107649,746.81233263860304,-228.38892261004867,228.38892261004867,-746.81233263860304,2479.3917966109389,0.0
377154.6038362722,4615833.5216966402,-37500.0,696.74493287974303,979.4373499313391,-394.61876529318056,428.76539591129318,-327.11712006185246,-52.176581102555943,1248.8248031665059,838.83418060440772,-322.9589559351802,322.9589559351802,-838.83418060440772,2164.4955751586526,0.0
382154.6038362722,4615833.5216966402,-37500.0,552.03382366924257,955.86253779461401,13.922346711482977,401.56721799480999,-82.571764347267163,53.271023590852536,1079.0403585576801,867.26206963206891,-377.34387323197211,377.34387323197211,-867.26206963206891,1874.8815587545628,0.0
387154.6038362722,4615833.5216966402,-37500.0,428.81532914110676,857.61935664576288,368.27000946998896,335.93046743280451,131.2245609370315,143.49074268179044,921.31674647199918,840.79972220376635,-392.9366757813691,392.9366757813691,-840.79972220376635,1632.3422321265048,0.0
392154.6038362722,4615833.5216966402,-37500.0,342.12803507670191,707.06004171154029,644.50199550191655,243.5829555883405,300.85192953254472,213.29207472648488,789.04944220590926,774.39801706019239,-376.10290556195565,376.10290556195565,-774.39801706019239,1447.8676331847696,0.0
397154.6038362722,4615833.5216966402,-37500.0,297.68288066305524,530.4324389370297,832.00819270636828,138.33193704167064,419.84164213315239,260.28958304520683,707.75008314166564,685.36781484861831,-336.2483826356559,336.2483826356559,-685.36781484861831,1318.0158905981568,0.0
402154.6038362722,4615833.5216966402,-37500.0,292.46430158887642,352.39589712242491,932.87871117726149,33.339085978212388,488.57774374828392,284.89792176341734,676.32650608469862,589.69542600313014,-283.55673454461657,283.55673454461657,-589.69542600313014,1227.6160673137927,0.0
407154.6038362722,4615833.5216966402,-37500.0,317.32614729092882,192.08580468218435,958.75314732504239,-60.939497166123502,512.84034693161584,289.78100856315405,652.91996350889372,499.56496232245013,-227.09032604624292,227.09032604624292,-499.56496232245013,1157.8872687306744,0.0
412154.6038362722,4615833.5216966402,-37500.0,360.33818250832564,61.375574120339145,926.58746989246902,-137.77265563950326,501.67035615406013,278.99773640951588,624.76421195786043,422.4231530572016,-173.65244155993207,173.65244155993207,-422.4231530572016,1093.8819539723995,0.0
417154.6038362722,4615833.5216966402,-37500.0,409.76532447011147,-34.886582599891305,854.68205413715953,-194.17386652522225,465.24234879603648,257.11592329030947,590.30122893262592,361.33223181609424,-127.45439506364426,127.45439506364426,-361.33223181609424,1027.2692100793465,0.0
422154.6038362722,4615833.5216966402,-37500.0,456.05053430142135,-97.387121784511493,759.77882127695352,-230.23168916915932,413.20672086822594,228.49439387753358,550.49206679354711,316.06385713494461,-90.38432284261188,90.38432284261188,-316.06385713494461,955.42657234813237,0.0
427154.6038362722,4615833.5216966402,-37500.0,492.69003277462252,-130.39331611459963,655.44663983512692,-248.13343783161784,353.67542160772479,196.82380965719253,507.18096949825929,284.39395991409742,-62.589654129384058,62.589654129384058,-284.39395991409742,879.29374435550437,0.0
432154.6038362722,4615833.5216966402,-37500.0,516.23025349591626,-139.92382817126352,551.56988555425585,-251.19339629854122,292.80487135811978,164.92300730083304,462.45204355646439,263.23387135149977,-43.12511260942621,43.12511260942621,-263.23387135149977,801.44570484754695,0.0
437154.6038362722,4615833.5216966402,-37500.0,525.73847244598403,-132.35086670767387,454.57984584781218,-243.06847103751616,234.81429722518948,134.73110811704925,418.22770050127627,249.43485076645362,-30.510599080354879,30.510599080354879,-249.43485076645362,724.80143846423459,0.0
442154.6038362722,4615833.5216966402,-37500.0,522.06802248935867,-113.50766989899955,368.07113824102515,-227.22474726790387,182.25670130352307,107.41945705172471,376.0313267693752,240.254864379004,-23.134735095638177,23.134735095638177,-240.254864379004,651.91382271198995,0.0
447154.6038362722,4615833.5216966402,-37500.0,507.13964826332142,-88.235574479380858,293.53338178809298,-206.63921174586093,136.3920069705311,83.556629078339157,336.89172072700586,233.5561208486979,-19.502725906983713,19.502725906983713,-233.5561208486979,584.66606190992638,0.0
452154.6038362722,4615833.5216966402,-37500.0,483.35490587918781,-60.249377281324463,231.03379878938273,-183.68256564883416,97.561852082479732,63.279303604512037,301.35726120392769,227.82423390481233,-18.359016774998864,18.359016774998864,-227.82423390481233,524.21205040113466,0.0
297154.6038362722,4620833.5216966402,-37500.0,-841.71078786164196,-1081.2149235936392,-585.99029410029084,-760.16929647571317,-674.89924466630191,-411.61332587068813,1356.8469749094902,-1108.9342846871718,831.3016631712909,-831.3016631712909,1108.9342846871718,2597.5966285522763,0.0
302154.6038362722,4620833.5216966402,-37500.0,-782.77017297112525,-1168.3259729771239,-727.97691152159121,-802.7107406723984,-779.9258477126499,-461.2514295428702,1471.4636042425298,-1175.3960047455623,893.64804885595163,-893.64804885595163,1175.3960047455623,2818.0849639548801,0.0
307154.6038362722,4620833.5216966402,-37500.0,-695.56327758009752,-1246.4853295276775,-893.19175567930279,-837.21606762353849,-896.42722533782637,-513.64104226040331,1590.6127672644254,-1231.5962065375661,952.2419303840461,-952.2419303840461,1231.5962065375661,3046.7721119872122,0.0
312154.6038362722,4620833.5216966402,-37500.0,-576.32681725554619,-1308.4896497341217,-1081.6134712733813,-859.73599360185381,-1023.1963347125544,-567.55887596984371,1712.3263616080874,-1271.5544648834391,1003.4050979834021,-1003.4050979834021,1271.5544648834391,3279.4035201257402,0.0
317154.6038362722,4620833.5216966402,-37500.0,-422.52383163159465,-1345.3481597927544,-1291.0534378911714,-865.65876191276664,-1157.6723792978974,-621.2039386641934,1833.8336241608429,-1288.0133934863327,1042.4869557807776,-1042.4869557807776,1288.0133934863327,3509.9649869360965,0.0
322154.6038362722,4620833.5216966402,-37500.0,-233.80653394431158,-1346.5165520135561,-1516.1580375809342,-849.92197579347965,-1295.4888345309423,-672.09805580526631,1951.4194936254044,-1272.6767486541839,1063.9113061978696,-1063.9113061978696,1272.6767486541839,3730.3857140324303,0.0
327154.6038362722,4620833.5216966402,-37500.0,-13.171036928292162,-1300.5994402503086,-1747.3346636871622,-807.43891683768709,-1430.0316666835581,-717.01946089178739,2060.3121887301877,-1216.8096374080048,1061.4229507870125,-1061.4229507870125,1216.8096374080048,3930.3509997281262,0.0
332154.6038362722,4620833.5216966402,-37500.0,231.85799480556588,-1196.7063527791313,-1969.834119752579,-733.80280099618744,-1552.1246980986161,-752.00364450456107,2154.6463923902588,-1112.3305028622585,1028.6299983180857,-1028.6299983180857,1112.3305028622585,4097.3482463010969,0.0
337154.6038362722,4620833.5216966402,-37500.0,488.33258452231917,-1026.5793045679602,-2163.3839676185989,-626.2988414390154,-1650.0266118477371,-772.45853840102541,2227.5791372307694,-953.46480560924022,959.92267619025176,-959.92267619025176,953.46480560924022,4217.1131856490038,0.0
342154.6038362722,4620833.5216966402,-37500.0,737.76355116575837,-787.41553960181693,-2302.9146854963087,-485.17047171440436,-1709.9816689048762,-773.45305281920116,2271.6607581067983,-738.87400880815824,851.77955738142316,-851.77955738142316,738.87400880815824,4274.6612853316083,0.0
347154.6038362722,4620833.5216966402,-37500.0,957.35852836459833,-484.95800568890485,-2360.9485481879892,-314.94099198220852,-1717.5717625090936,-750.23915384872055,2279.5586638759787,-473.90315565010752,704.3271943530533,-704.3271943530533,473.90315565010752,4256.0536640236696,0.0
352154.6038362722,4620833.5216966402,-37500.0,1123.0616029696812,-135.96153639574749,-2311.972125676883,-125.39951868308911,-1659.9973030301046,-699.03860556660663,2245.1574385213971,-172.25080401568152,522.80092415156264,-522.80092415156264,172.25080401568152,4150.8956970500003,0.0
357154.6038362722,4620833.5216966402,-37500.0,1214.3456531751044,231.23801876484501,-2138.4771552410079,68.300464655596201,-1529.1229959072041,-618.0484843997159,2164.9250562809557,143.88300360247587,318.33888614898905,-318.33888614898905,-143.88300360247587,3955.3072618704468,0.0
362154.6038362722,4620833.5216966402,-37500.0,1219.8460980434782,579.28849600396484,-1837.3732066130099,246.9728088439297,-1324.6692112725634,-508.48476935467943,2039.258961957597,446.02252362289863,107.46831556091473,-107.46831556091473,-446.02252362289863,3674.7501573488003,0.0
367154.6038362722,4620833.5216966402,-37500.0,1142.0051387829585,867.97340510066704,-1424.5563350007458,390.37458483628234,-1056.4876558109361,-375.33051952472226,1873.3931305662809,704.21156898072832,-90.109472599631033,90.109472599631033,-704.21156898072832,3325.8110290963846,0.0
372154.6038362722,4620833.5216966402,-37500.0,998.53698837596573,1062.8958096917602,-935.23223719090709,481.37839579546579,-744.74197436031034,-227.38350163035429,1677.4519003459254,893.43153031398083,-255.21256507095296,255.21256507095296,-893.43153031398083,2935.9899456094527,0.0
377154.6038362722,4620833.5216966402,-37500.0,819.30471758877991,1144.0370683172462,-418.69472161327258,510.14977553427491,-417.2934972990239,-76.31448465267863,1465.4444483799762,999.58859622730051,-373.35545943527501,373.35545943527501,-999.58859622730051,2540.7917480430451,0.0
382154.6038362722,4620833.5216966402,-37500.0,639.08692386814528,1110.9114573744905,71.507409783495945,476.78785464050833,-104.65000110998916,65.208426150626622,1253.4393306340521,1022.7336470072585,-437.94678249373487,437.94678249373487,-1022.7336470072585,2177.8358518597652,0.0
387154.6038362722,4620833.5216966402,-37500.0,488.74314664405671,982.12214288133066,488.86744863176847,391.30252955556,166.03941087899543,185.85002088721342,1057.9779943095818,976.15431718401487,-451.28656022448473,451.28656022448473,-976.15431718401487,1878.1730188450831,0.0
392154.6038362722,4620833.5216966402,-37500.0,388.13703938749245,789.52647425058319,802.74505920225306,270.88022706416274,375.95034203867772,277.65349681250336,899.15398972141372,881.79130031033833,-423.06147711697713,423.06147711697713,-881.79130031033833,1656.5368145596519,0.0
397154.6038362722,4620833.5216966402,-37500.0,343.22398688279344,569.51925123960382,1002.0075443264623,135.5275711765714,516.99183112880166,337.15790980954881,813.13123762145437,763.98547219399802,-367.10550555985924,367.10550555985924,-763.98547219399802,1505.9980628439016,0.0
402154.6038362722,4620833.5216966402,-37500.0,347.616962038248,354.77487932162762,1093.1949511084381,3.7073693923823514,591.29300872661111,365.34178000666282,780.07182678014522,643.94084428620863,-297.77420400544548,297.77420400544548,-643.94084428620863,1403.3904011656205,0.0
407154.6038362722,4620833.5216966402,-37500.0,387.08633019359394,168.90754118880164,1095.0247680612258,-110.71626927403955,608.53053884697863,366.60777302186125,750.46131247002552,536.4709146905833,-227.13171465774761,227.13171465774761,-536.4709146905833,1322.6433987563112,0.0
412154.6038362722,4620833.5216966402,-37500.0,444.76714372324761,24.772608000793259,1031.820595592367,-199.70024358105437,582.39104682563368,347.29828929563666,713.60296647935058,449.29804824754297,-163.51714489425115,163.51714489425115,-449.29804824754297,1245.1389331415148,0.0
417154.6038362722,4620833.5216966402,-37500.0,505.32988693155193,-74.331057766660493,927.94431300599547,-260.65048152683971,527.33352015435412,314.24537466803037,668.8896647857465,384.20835951310085,-111.40732333715735,111.40732333715735,-384.20835951310085,1162.1121197530738,0.0
422154.6038362722,4620833.5216966402,-37500.0,557.35473893765391,-131.93264598265353,804.21553826766331,-295.09737758220882,456.30837047544316,273.68272961837295,618.17250181393376,339.03558918337342,-72.118876547030226,72.118876547030226,-339.03558918337342,1072.173309208312,0.0
427154.6038362722,4620833.5216966402,-37500.0,594.00735652597177,-155.39014717645981,676.3373599562949,-307.08257039703454,379.57058000009545,230.63065586027355,564.15230716454403,309.63563989332994,-44.839148522616995,44.839148522616995,-309.63563989332994,977.90415957402183,0.0
432154.6038362722,4620833.5216966402,-37500.0,612.55419284760569,-153.40029086895382,554.81306905038855,-301.72106055114273,304.38760506111106,188.70017665611107,509.59049284125138,291.39495733276436,-27.613018749220771,27.613018749220771,-291.39495733276436,883.27212250757634,0.0
437154.6038362722,4620833.5216966402,-37500.0,613.31931950891999,-134.31151405020577,445.71117849925605,-284.15546782911474,235.31741125965522,150.18455870287804,456.8193856675914,280.15454027352519,-18.097570105947767,18.097570105947767,-280.15454027352519,792.10840769473668,0.0
442154.6038362722,4620833.5216966402,-37500.0,598.54235030187874,-105.20542601383929,351.75301957825542,-258.93027911531215,174.7569187671275,116.30128466804136,407.50389814691579,272.63435168764369,-14.043264885369808,14.043264885369808,-272.63435168764369,707.39566339839371,0.0
447154.6038362722,4620833.5216966402,-37500.0,571.40072435890704,-71.560279387327142,273.38562642479633,-229.71043391664753,123.54692823097118,87.478339885185719,362.60662317798318,266.51593594872611,-13.541924183522639,13.541924183522639,-266.51593594872611,631.05665159666307,0.0
452154.6038362722,4620833.5216966402,-37500.0,535.29678936396613,-37.282508455239586,209.67374106614963,-199.23517220232472,81.51222621141774,63.619800508459015,322.49042141962093,260.33491562076489,-15.110583780662466,15.110583780662466,-260.33491562076489,564.01001709095056,0.0
457154.6038362722,4620833.5216966402,-37500.0,493.40821323254352,-4.9284788077864246,158.96208949698305,-169.40694980234593,47.887230043762891,44.3206465172469,287.09011341544277,253.29580636374487,-17.677486216024121,17.677486216024121,-253.29580636374487,506.3465516739646,0.0
292154.6038362722,4625833.5216966402,-37500.0,-1032.3363141474676,-1020.5008682421652,-374.81506051081931,-805.23256219939378,-590.73236989897146,-404.77316993716346,1335.0770924236735,-1067.9694021134057,813.20677795486176,-813.20677795486176,1067.9694021134057,2555.3653938536308,0.0
297154.6038362722,4625833.5216966402,-37500.0,-1013.3260208102649,-1130.0782760485286,-492.06082935085891,-869.32769126722599,-694.1558723355796,-459.88436477337831,1460.8888748347538,-1154.6293111753339,890.00020815865787,-890.00020815865787,1154.6293111753339,2798.8399302862531,0.0
302154.6038362722,4625833.5216966402,-37500.0,-968.62271026152598,-1240.4866607361967,-634.74898508291744,-930.59549207852899,-813.04898243390267,-520.30805733637578,1595.4933233890733,-1238.5812992302879,968.45601949875413,-968.45601949875413,1238.5812992302879,3059.4719362501319,0.0
307154.6038362722,4625833.5216966402,-37500.0,-892.2682248294966,-1346.2976421973806,-805.82552147848492,-985.49942337962364,-948.07294123834652,-585.51375792969441,1737.8728368187267,-1314.9799748853877,1045.8696914401523,-1045.8696914401523,1314.9799748853877,3335.0802432430582,0.0
312154.6038362722,4625833.5216966402,-37500.0,-778.32055220343057,-1439.8196959933096,-1007.1650082853286,-1029.4343843518909,-1098.9679195494866,-654.45631993485233,1886.2683588493535,-1377.2536801337237,1118.3639357707925,-1118.3639357707925,1377.2536801337237,3621.8361319283695,0.0
317154.6038362722,4625833.5216966402,-37500.0,-621.63358655692866,-1510.7580779223958,-1238.591083434354,-1056.6635310530382,-1264.0166990272483,-725.413684568132,2037.9639354351734,-1416.9035934275485,1180.6634822774972,-1180.6634822774972,1416.9035934275485,3913.7420663677822,0.0
322154.6038362722,4625833.5216966402,-37500.0,-419.03575605703105,-1546.1426601237847,-1496.5444706107996,-1060.405378539579,-1439.3639178201954,-795.80929700879744,2189.046340789097,-1423.5320719017918,1225.9625893855341,-1225.9625893855341,1423.5320719017918,4202.066408084349,0.0
327154.6038362722,4625833.5216966402,-37500.0,-170.92988744875041,-1530.7860405759648,-1772.4512784976212,-1033.181246185007,-1618.2327217528393,-862.03547024232262,2334.152882689963,-1385.3022079124232,1246.0058836493165,-1246.0058836493165,1385.3022079124232,4474.8203217520486,0.0
332154.6038362722,4625833.5216966402,-37500.0,116.7973207034608,-1448.6098106251814,-2051.0161487497326,-967.56002624326607,-1790.1615294257097,-919.31053303054603,2466.2459540258455,-1290.0806196949629,1231.5526359080982,-1231.5526359080982,1290.0806196949629,4716.4403345699939,0.0
337154.6038362722,4625833.5216966402,-37500.0,430.90767453336838,-1285.1731268132812,-2308.9336493392225,-857.43356479200975,-1940.5100744484773,-961.63223883045509,2576.5171796087334,-1127.495796164173,1173.4202110454598,-1173.4202110454598,1127.495796164173,4907.9409521089456,0.0
342154.6038362722,4625833.5216966402,-37500.0,749.67001124170827,-1031.5487619606163,-2514.8329209546978,-699.87468564089818,-2050.6334038258005,-981.93109692107714,2654.6167012245996,-891.97316588635522,1064.2506220678442,-1064.2506220678442,891.97316588635522,5027.8871546094178,0.0
347154.6038362722,4625833.5216966402,-37500.0,1043.4477134439776,-689.20521074331009,-2631.5080557539691,-497.42154050197507,-2099.2390048852521,-972.57566780413288,2689.4593151123868,-586.4076911017379,900.95232553327912,-900.95232553327912,586.4076911017379,5054.5586015845902,0.0
352154.6038362722,4625833.5216966402,-37500.0,1278.0700591733903,-274.73751658490448,-2621.346243924726,-260.26835395968186,-2065.3813870982331,-926.3919994624946,2670.7684210701732,-225.50443383689193,687.39187937175495,-687.39187937175495,225.50443383689193,4969.5117427790001,0.0
357154.6038362722,4625833.5216966402,-37500.0,1421.4663340348338,177.61987950649643,-2455.0162970493425,-7.4121116912703995,-1933.1438846551462,-838.27003967734902,2591.2656783983598,162.82293599482824,436.41841452768432,-436.41841452768432,-162.82293599482824,4762.3150235548683,0.0
362154.6038362722,4625833.5216966402,-37500.0,1452.6233139137523,618.14908643104434,-2121.8149842888429,234.42092205547675,-1697.232146303304,-707.17471964856418,2449.0736146392801,539.75874379733568,169.96661412311613,-169.96661412311613,-539.75874379733568,4435.5661585060252,0.0
367154.6038362722,4625833.5216966402,-37500.0,1370.0179212011933,989.97924744822933,-1638.113106253028,434.87685883102353,-1367.6783285631216,-537.98893217077102,2249.5842019848933,862.45595678931932,-83.794501730530158,83.794501730530158,-862.45595678931932,4008.6120071743071,0.0
372154.6038362722,4625833.5216966402,-37500.0,1195.4645335207433,1242.4907061993688,-1049.4468425923546,566.72113083871193,-971.29042749849577,-342.29807858689668,2005.9669132793722,1094.2501681462538,-296.23420677937156,296.23420677937156,-1094.2501681462538,3518.1363568172937,0.0
377154.6038362722,4625833.5216966402,-37500.0,970.2500165146871,1345.4338294110819,-423.34543819572178,613.22479883600579,-548.12373366868485,-137.31088862044575,1737.8040071673777,1214.6750476348229,-445.33126300529187,445.33126300529187,-1214.6750476348229,3014.1892805012067,0.0
382154.6038362722,4625833.5216966402,-37500.0,743.86394340377842,1297.7540685970116,165.94035643356594,573.18300465230845,-143.28692285194791,57.212050710571155,1468.1561083956426,1224.8952961240145,-521.2794719554206,521.2794719554206,-1224.8952961240145,2551.1489047522723,0.0
387154.6038362722,4625833.5216966402,-37500.0,559.70807206298639,1126.9064422533556,655.29458903042632,461.19108394164175,203.21315375497684,223.15517855350012,1220.8256772039804,1145.9497411222612,-528.20234245894289,528.20234245894289,-1145.9497411222612,2174.0072091179322,0.0
392154.6038362722,4625833.5216966402,-37500.0,443.9560764491992,879.06982534669714,1006.1082489670587,302.98947681287342,464.74314201063942,347.83619562603565,1026.0912630551579,1010.7785086622828,-481.39987672464957,481.39987672464957,-1010.7785086622828,1902.8782943751039,0.0
397154.6038362722,4625833.5216966402,-37500.0,401.76765953921,605.04162715511302,1208.6336431683599,128.03392061584796,631.60126990976551,426.02395178224748,935.98819706338554,853.94692221172124,-401.70949106801561,401.70949106801561,-853.94692221172124,1725.1707639716547,0.0
402154.6038362722,4625833.5216966402,-37500.0,420.91451251237623,347.80751575069723,1277.4989339520489,-37.601565331332054,709.44999159425197,459.72034131176639,899.58024513681153,703.35769638780005,-309.5896124110435,309.5896124110435,-703.35769638780005,1605.9613955181799,0.0
407154.6038362722,4625833.5216966402,-37500.0,479.57035701065524,135.61867783531059,1242.1797209935723,-175.69567483969064,714.36024036118397,456.22406665762202,860.91346503365446,576.28755963353854,-221.00123005052842,221.00123005052842,-576.28755963353854,1509.515828925734,0.0
412154.6038362722,4625833.5216966402,-37500.0,554.30164933827291,-18.970311683552023,1136.9733015373652,-277.10849707994919,666.95307409256907,425.49968020668041,812.11752540452028,479.58266334739631,-145.79741791654749,145.79741791654749,-479.58266334739631,1413.1778523779021,0.0
417154.6038362722,4625833.5216966402,-37500.0,625.66565431923823,-116.00319708187131,993.5161311519181,-340.52171737431308,587.56301026732399,377.78968992853481,754.02120278793791,412.35444458023619,-88.155459882801551,88.155459882801551,-412.35444458023619,1308.3821983803632,0.0
422154.6038362722,4625833.5216966402,-37500.0,680.7264187457298,-163.45302577286569,836.77640408044465,-369.97017469135454,493.25539730401016,321.98846774941683,689.72631821892571,369.35110543980971,-48.089783849997673,48.089783849997673,-369.35110543980971,1195.7059394746518,0.0
427154.6038362722,4625833.5216966402,-37500.0,713.10948114961673,-172.84762079077413,683.98669964850512,-372.26840983193262,396.63037294105288,264.86622252885564,622.98924117685988,343.80310568977609,-23.182413507039996,23.182413507039996,-343.80310568977609,1079.8348160504545,0.0
432154.6038362722,4625833.5216966402,-37500.0,721.66914108336198,-156.08770010331361,545.41633684278042,-354.96875399346317,305.89343192962531,210.96371724875718,557.27534394971622,329.28232041976867,-10.016299013186512,10.016299013186512,-329.28232041976867,966.27260762360561,0.0
437154.6038362722,4625833.5216966402,-37500.0,708.70821558359125,-123.59706180961828,425.95299282910355,-325.04894355744801,225.60197250317125,162.88864747220711,495.22011867739627,320.62101714540518,-5.1331695498466843,5.1331695498466843,-320.62101714540518,859.66509847873942,0.0
442154.6038362722,4625833.5216966402,-37500.0,678.34243767680618,-83.545453862328358,326.79788370194501,-288.25569109068618,157.63218863665429,121.77823700127138,438.45773172810345,314.15859258827663,-5.5487080306623682,5.5487080306623682,-314.15859258827663,763.18244792642099,0.0
447154.6038362722,4625833.5216966402,-37500.0,635.26842202856767,-41.771836520577814,246.91255336713564,-248.91889016189731,102.09079041717295,87.769129148785126,387.71576442598911,307.60527423710909,-8.9448823158203936,8.9448823158203936,-307.60527423710909,678.48012648197505,0.0
452154.6038362722,4625833.5216966402,-37500.0,583.97318455854997,-2.0794095592102568,184.09677264559971,-210.04544816439235,58.047892512726307,60.392944478356888,343.05299153063748,299.74473309628939,-13.667086159522398,13.667086159522398,-299.74473309628939,605.92816492271788,0.0
457154.6038362722,4625833.5216966402,-37500.0,528.31262857305057,33.328735992415901,135.71153396235803,-173.54412376896801,24.064956762870427,38.871174740096322,304.13253890401654,290.11252958867618,-18.625907688741904,18.625907688741904,-290.11252958867618,544.93648688790586,0.0
462154.6038362722,4625833.5216966402,-37500.0,471.35215355188143,63.40981813713671,99.117333952848497,-140.48451737164638,-1.4587072899690849,22.314365187982112,270.47093206878941,278.71817879592282,-23.16835371823835,23.16835371823835,-278.71817879592282,494.29009054273274,0.0
287154.6038362722,4630833.5216966402,-37500.0,-1176.86509639268,-910.33440239643789,-178.31757539102796,-820.44372500632221,-493.46314193492799,-387.16290208951767,1288.8150344973005,-983.71354394673801,764.96307518712899,-764.96307518712899,983.71354394673801,2463.3714796079489,0.0
292154.6038362722,4630833.5216966402,-37500.0,-1198.9099311182367,-1029.1574611670671,-263.732528808528,-901.64727884681668,-588.43862400530634,-444.90899372924338,1420.6664055717877,-1080.3501318135636,849.26834940695028,-849.26834940695028,1080.3501318135636,2719.0307607775608,0.0
297154.6038362722,4630833.5216966402,-37500.0,-1201.5038053773765,-1157.0774691453287,-372.60327219813456,-985.62690092711273,-700.78952549690973,-510.08018397055281,1564.9150151862875,-1180.8994697982694,939.95943158219188,-939.95943158219188,1180.8994697982694,2999.3674598406078,0.0
302154.6038362722,4630833.5216966402,-37500.0,-1177.9601187249157,-1291.2757806232846,-509.63375628024522,-1069.9595802631645,-832.77499546738511,-582.92933935129929,1721.6181599971119,-1282.3471778778621,1035.7351706199602,-1035.7351706199602,1282.3471778778621,3304.5740289952387,0.0
307154.6038362722,4630833.5216966402,-37500.0,-1120.5296418503817,-1426.8914575641188,-679.61113650282994,-1151.0748851795556,-986.36137207298452,-663.38129017768449,1890.284066395847,-1380.0117815217197,1134.2619071392303,-1134.2619071392303,1380.0117815217197,3633.6665661131065,0.0
312154.6038362722,4630833.5216966402,-37500.0,-1020.7282881841767,-1556.3177518964355,-886.77163012113692,-1223.9642218974764,-1162.7922205925915,-750.8723871840765,2069.63872731427,-1467.0336107924568,1231.7818479934608,-1231.7818479934608,1467.0336107924568,3983.9069928599729,0.0
317154.6038362722,4630833.5216966402,-37500.0,-870.05760110696406,-1668.4737494708795,-1133.7330052678794,-1281.9089284073082,-1361.9339275695661,-844.14190893681155,2257.3384247655749,-1533.873556900327,1322.668191912589,-1322.668191912589,1533.873556900327,4350.0468045612706,0.0
322154.6038362722,4630833.5216966402,-37500.0,-661.29438013162871,-1748.2366423993253,-1419.864684608398,-1316.3132004647009,-1581.3417003681143,-940.96424362759888,2449.6243336431194,-1567.9805367589834,1398.9991451335386,-1398.9991451335386,1567.9805367589834,4723.394436682368,0.0
327154.6038362722,4630833.5216966402,-37500.0,-390.51000567665932,-1776.3752386718324,-1739.0354727997676,-1316.7948184943673,-1815.0278974555417,-1037.8126629866656,2640.9045415845849,-1553.9090619067745,1450.3038663017662,-1450.3038663017662,1553.9090619067745,5090.7729374513374,0.0
332154.6038362722,4630833.5216966402,-37500.0,-59.857836245124631,-1730.5119199555525,-2076.8740461251432,-1271.771267214106,-2052.0125079675381,-1129.4593917212731,2823.2370529745845,-1474.3069815096003,1463.7442384050858,-1463.7442384050858,1474.3069815096003,5433.5518020087029,0.0
337154.6038362722,4630833.5216966402,-37500.0,319.14147186823669,-1587.7847927378364,-2408.0642403148754,-1169.8560236425756,-2274.9347793124002,-1208.5634434693366,2985.771546942131,-1312.279601830686,1425.1117420183916,-1425.1117420183916,1312.279601830686,5727.1304748498997,0.0
342154.6038362722,4630833.5216966402,-37500.0,722.6458272121082,-1329.8052139254462,-2694.7825475121613,-1002.3668265952703,-2459.3131253945949,-1265.3954292916562,3114.4874229907023,-1055.5179757952187,1321.0501926657366,-1321.0501926657366,1055.5179757952187,5941.4781634012179,0.0
347154.6038362722,4630833.5216966402,-37500.0,1113.4328502679045,-949.93981795156901,-2888.0196340228608,-767.01235231743954,-2574.3959809020939,-1288.0061907247898,3192.8576510812354,-702.05120014605836,1142.7162656173887,-1142.7162656173887,702.05120014605836,6043.5016384257169,0.0
352154.6038362722,4630833.5216966402,-37500.0,1443.8503463290367,-461.65653139440121,-2933.7598592021868,-472.21868734090009,-2586.7221562839163,-1263.3002357514572,3203.9505181798322,-266.40647673279022,890.49750508781585,-890.49750508781585,266.40647673279022,6001.9189961206639,0.0
357154.6038362722,4630833.5216966402,-37500.0,1664.4950969438451,95.197971679592158,-2785.0738383358307,-140.59017253496108,-2467.084452283344,-1179.4599422348958,3133.9388572583134,216.44771868986101,578.40417219393453,-578.40417219393453,-216.44771868986101,5794.6847899074546,0.0
362154.6038362722,4630833.5216966402,-37500.0,1738.2039549262895,654.78498929995396,-2418.5077678685684,190.8852690548614,-2200.1839801602223,-1029.7380530879038,2976.3438848174856,692.8598738223061,235.76075755705807,-235.76075755705807,-692.8598738223061,5417.7660209302121,0.0
367154.6038362722,4630833.5216966402,-37500.0,1655.1693272694986,1136.1548327244698,-1849.2463479790702,476.13747220217203,-1794.0301019419105,-816.70698740396369,2735.7178544379185,1100.3605358961177,-96.23573723350853,96.23573723350853,-1100.3605358961177,4892.5367392233247,0.0
372154.6038362722,4630833.5216966402,-37500.0,1441.7000302985709,1464.091007506428,-1136.8519512348739,671.02352026746155,-1284.3664673762996,-555.03301233614809,2429.1452241364545,1384.2871536918883,-373.74347090368076,373.74347090368076,-1384.2871536918883,4268.1951710227931,0.0
377154.6038362722,4630833.5216966402,-37500.0,1155.8299935600514,1592.7694450080533,-375.33358687467904,746.69849480082462,-730.05684000650479,-270.64256300128392,2084.3864821409888,1514.9185981821915,-562.61557875493156,562.61557875493156,-1514.9185981821915,3616.2814392361779,0.0
382154.6038362722,4630833.5216966402,-37500.0,869.28507754963687,1520.9803404543434,331.19268676548097,699.31190567251792,-199.33953408695837,4.487227036882425,1734.9431334413039,1496.6592636084968,-648.44880652472443,648.44880652472443,-1496.6592636084968,3016.3788492637505,0.0
387154.6038362722,4630833.5216966402,-37500.0,643.7586269683519,1290.6942978275354,897.2400951971249,550.90882806960758,247.88575406796076,240.2665912336646,1414.9162242935556,1364.2383631411326,-639.39156780735937,639.39156780735937,-1364.2383631411326,2534.1379982849257,0.0
392154.6038362722,4630833.5216966402,-37500.0,513.2034823895932,969.99903593595377,1276.08563276359,341.06938051514203,574.03805070009957,415.78220217605235,1170.0841116178271,1168.2550197797354,-560.70166735685666,560.70166735685666,-1168.2550197797354,2196.8248551076831,0.0
397154.6038362722,4630833.5216966402,-37500.0,479.51724465693599,629.90143055124645,1463.8482910721825,113.82913484294889,768.78175516123758,522.96779556203967,1080.2963277777519,958.01554816040152,-444.54919272717302,444.54919272717302,-958.01554816040152,1982.4985868157207,0.0
402154.6038362722,4630833.5216966402,-37500.0,520.51061548932728,325.87479935599129,1489.4262994249502,-93.953744321975094,844.85079474569397,565.84361612566533,1037.4336776962712,769.41677694853979,-320.26622655589904,320.26622655589904,-769.41677694853979,1839.3782909277513,0.0
407154.6038362722,4630833.5216966402,-37500.0,603.29888820428766,89.760937448476611,1398.203600042156,-258.87513881374315,828.79681769790079,556.67408527246346,984.9544615766082,620.96705189214629,-208.55649126532751,208.55649126532751,-620.96705189214629,1719.6052552636572,0.0
412154.6038362722,4630833.5216966402,-37500.0,696.20352208907627,-68.864594487777737,1237.2794564313522,-371.56934593563693,751.4033489352862,511.23203877550509,919.4990230550294,516.31370478678514,-120.21953997101315,120.21953997101315,-516.31370478678514,1596.6529198722733,0.0
417154.6038362722,4630833.5216966402,-37500.0,775.6987669106968,-156.16628686587558,1046.168700514738,-433.60014018806118,640.74639262359335,444.88813341417114,844.00256269755755,449.68749818098092,-57.93179533838952,57.93179533838952,-449.68749818098092,1463.1892500458207,0.0
422154.6038362722,4630833.5216966402,-37500.0,828.38807313476946,-186.57660436585849,853.16270843313362,-453.09386697385509,518.66280046160603,370.2625308510909,763.149970479844,411.2576032529181,-19.186317013087802,19.186317013087802,-411.2576032529181,1322.5697088561715,0.0
427154.6038362722,4630833.5216966402,-37500.0,849.7212271746572,-176.84228696093274,675.61399847282553,-440.81829150239417,399.96386217601696,296.36383816866777,681.80439165208588,390.91903125691817,0.96178424025023901,-0.96178424025023901,-390.91903125691817,1181.8922795477167,0.0
432154.6038362722,4630833.5216966402,-37500.0,841.33890847281918,-142.33124171104424,522.15175789614602,-407.45132636541211,293.28222716328293,228.7547577793994,603.96605194513245,380.30382617733738,7.944237847541217,-7.944237847541217,-380.30382617733738,1048.0832413063199,0.0
437154.6038362722,4630833.5216966402,-37500.0,808.35277566037621,-95.320931751065345,395.36839344509025,-362.08388122826005,202.5781813875372,170.2335115397419,532.29072189003091,373.43783270437177,6.5801880048794033,-6.5801880048794033,-373.43783270437177,926.23172860334989,0.0
442154.6038362722,4630833.5216966402,-37500.0,757.20197569837308,-44.630597582467772,294.19318750561195,-311.66879341859709,128.68235081950428,121.6499318645739,468.10102212015897,366.60263534279761,0.63029141001007361,-0.63029141001007361,-366.60263534279761,819.20863035502032,0.0
447154.6038362722,4630833.5216966402,-37500.0,694.24655951997192,4.0145327219945761,215.66944145562044,-261.05725195089019,70.573414703417157,82.63880702137628,411.69376951175809,357.85343566698941,-7.2456297777283964,7.2456297777283964,-357.85343566698941,727.90209621256895,0.0
452154.6038362722,4630833.5216966402,-37500.0,625.00324883695009,47.327814344213152,156.13379108905207,-213.32446165589599,26.305498568426952,52.183122639074149,362.74427732896874,346.47276067510268,-15.331866866421819,15.331866866421819,-346.47276067510268,651.69109633906498,0.0
457154.6038362722,4630833.5216966402,-37500.0,553.84371791108049,83.775234404049229,111.91605167303425,-170.18613680780928,-6.3854432960587566,29.000015346064419,320.69971710442167,332.49791949201858,-22.634681387546919,22.634681387546919,-332.49791949201858,588.96958880386092,0.0
462154.6038362722,4630833.5216966402,-37500.0,483.97858150272481,112.98393406044329,79.701290192120481,-132.39523334039316,-29.724389321416609,11.778981219305635,285.26883474624844,316.36735070326563,-28.667178023189336,28.667178023189336,-316.36735070326563,537.62927271440299,0.0
467154.6038362722,4630833.5216966402,-37500.0,417.59075713563465,135.28563125903668,56.676388062867773,-100.07051977322718,-45.713296199595099,-0.68794914500279303,257.84851810737774,298.68252853160345,-33.272056520244035,33.272056520244035,-298.68252853160345,495.45081669522284,0.0
282154.6038362722,4635833.5216966402,-37500.0,-1265.502838545445,-765.67981144451596,-11.508036204706114,-806.86776143743634,-391.89423336585207,-360.78963246827493,1222.0428949923569,-867.46915462095797,693.13423209349673,-693.13423209349673,867.46915462095797,2330.0536552313029,0.0
287154.6038362722,4635833.5216966402,-37500.0,-1323.9408760137744,-880.89500586547626,-63.605409936450378,-899.08349403077796,-473.40647119769005,-418.30787129651242,1354.7069219404425,-963.85451179240454,777.82622165228827,-777.82622165228827,963.85451179240454,2586.9939532008502,0.0
292154.6038362722,4635833.5216966402,-37500.0,-1371.1609602916719,-1010.5138903608636,-134.16061552631078,-999.07198595076432,-572.06813284866655,-484.65399695998468,1502.3515204543687,-1068.6935547833612,872.14704457771973,-872.14704457771973,1068.6935547833612,2873.863313162517,0.0
297154.6038362722,4635833.5216966402,-37500.0,-1401.2004977787008,-1154.3055249350541,-228.21154782657155,-1105.8872926794206,-691.13382711058694,-560.7909754975916,1666.0527782854599,-1180.8817844476409,976.2080358220544,-976.2080358220544,1180.8817844476409,3193.058393879774,0.0
302154.6038362722,4635833.5216966402,-37500.0,-1406.4402476712939,-1310.7012353530897,-351.69037115926881,-1217.6762746851132,-834.16893513549121,-647.60261249603195,1846.6130496110502,-1298.0881507459835,1089.4697955650568,-1089.4697955650568,1298.0881507459835,3546.4744618371883,0.0
307154.6038362722,4635833.5216966402,-37500.0,-1377.4516572391285,-1476.0496510353983,-511.24391449673345,-1331.3003006187093,-1004.8490992063785,-745.79498931994578,2044.3574946067474,-1416.1603407105638,1210.3434476059163,-1210.3434476059163,1416.1603407105638,3935.0443997472717,0.0
312154.6038362722,4635833.5216966402,-37500.0,-1303.0543373125752,-1643.6314361734615,-713.73501096446284,-1441.8553891646882,-1206.5618476071822,-855.75186102750206,2258.855955998989,-1528.3584392888204,1335.6338934781445,-1335.6338934781445,1528.3584392888204,4358.0455527365057,0.0
317154.6038362722,4635833.5216966402,-37500.0,-1170.7852596813075,-1802.4606012552815,-965.21952629480063,-1542.1028823065658,-1441.6987280516132,-977.3166848004405,2488.5656293720967,-1624.4575444995503,1459.8117055526277,-1459.8117055526277,1624.4575444995503,4812.0930034872317,0.0
322154.6038362722,4635833.5216966402,-37500.0,-968.07751893753675,-1936.022195699016,-1269.1434339902776,-1621.8759968611475,-1710.497434655184,-1109.455657991595,2730.4034260530834,-1689.8725137524586,1574.1559785299553,-1574.1559785299553,1689.8725137524586,5289.750449765359,0.0
327154.6038362722,4635833.5216966402,-37500.0,-684.51994989887601,-2021.3196318352,-1623.5122660377683,-1667.631220404887,-2009.2927959058334,-1249.7306266392,2979.2270730607206,-1705.1514528242258,1665.9275354929662,-1665.9275354929662,1705.1514528242258,5777.7499633838452,0.0
332154.6038362722,4635833.5216966402,-37500.0,-315.53813797272272,-2028.9492496535754,-2016.954439037728,-1662.4900596322525,-2328.1199713613923,-1393.4996684181426,3227.0316443118277,-1646.4653697421975,1717.9346082254012,-1717.9346082254012,1646.4653697421975,6254.9747994793734,0.0
337154.6038362722,4635833.5216966402,-37500.0,132.46699983809066,-1925.3274755871846,-2424.0746158426609,-1587.355661451169,-2647.8731789902258,-1532.8069032951018,3461.5020849172015,-1488.0146973178969,1709.1311956567831,-1709.1311956567831,1488.0146973178969,6690.6762691764052,0.0
342154.6038362722,4635833.5216966402,-37500.0,636.27991350805769,-1678.4322416584055,-2801.4055618519906,-1423.8886247209425,-2937.7551769060915,-1655.0993436722963,3664.3188307986793,-1207.3493797452686,1617.1294256849685,-1617.1294256849685,1207.3493797452686,7043.8665796171726,0.0
347154.6038362722,4635833.5216966402,-37500.0,1151.4767788822687,-1267.9876706247778,-3086.5611801168188,-1160.0198590361779,-3154.5624975912833,-1742.2900041539185,3811.0852768796012,-794.0363202739594,1423.4362141589331,-1423.4362141589331,794.0363202739594,7265.3333397577226,0.0
352154.6038362722,4635833.5216966402,-37500.0,1613.2418155364353,-699.23385036964771,-3204.2804289374767,-797.83109211018143,-3246.140331956412,-1771.2326209731841,3874.2893731477179,-260.41768478882096,1121.4057036246638,-1121.4057036246638,260.41768478882096,7303.9082247132201,0.0
357154.6038362722,4635833.5216966402,-37500.0,1946.6643690712287,-15.966623977316281,-3082.5167188646037,-361.71155546791709,-3161.2477786355175,-1717.0209662145057,3828.9899442712358,349.6174325859397,725.01155285348682,-725.01155285348682,-349.6174325859397,7117.8401746581139,0.0
362154.6038362722,4635833.5216966402,-37500.0,2088.0455236118305,695.30035990809904,-2677.8248463894774,97.775587001274133,-2865.9228298309968,-1559.9688504368519,3660.1412422512085,960.4691162877275,274.09917135641808,-274.09917135641808,-960.4691162877275,6689.9263530811413,0.0
367154.6038362722,4635833.5216966402,-37500.0,2011.6756000042596,1318.7226459784015,-2001.8726447492597,509.87467165299091,-2361.8133230861486,-1295.0526658890183,3369.5523982485965,1479.0945122231365,-169.30669602813055,169.30669602813055,-1479.0945122231365,6041.7546476763737,0.0
372154.6038362722,4635833.5216966402,-37500.0,1748.4585231594849,1741.7767012063903,-1134.1889735842331,801.75988381738011,-1697.132570791581,-939.66082970559842,2979.4244070831055,1822.78721531471,-536.21008371818834,536.21008371818834,-1822.78721531471,5239.9745777306462,0.0
377154.6038362722,4635833.5216966402,-37500.0,1381.7390983362188,1895.4912914812369,-208.05453702240473,923.32896393666147,-960.82927631676705,-534.1462395259739,2529.7992011409315,1949.1245808268832,-772.90389947095457,772.90389947095457,-1949.1245808268832,4388.3992120716139,0.0
382154.6038362722,4635833.5216966402,-37500.0,1017.4600392351548,1780.7288947183256,629.43828554077163,866.17677386643823,-258.54194728934152,-132.48905773238582,2069.9196726355417,1871.2864347820562,-859.28777870569525,859.28777870569525,-1871.2864347820562,3604.3089708608049,0.0
387154.6038362722,4635833.5216966402,-37500.0,743.716091301029,1464.3262617908017,1264.2792047366656,665.46658972771922,319.25747092047459,213.52815612627546,1647.7943002640918,1649.0560142125273,-812.92531029572001,812.92531029572001,-1649.0560142125273,2982.4736429972113,0.0
392154.6038362722,4635833.5216966402,-37500.0,602.66119363516361,1048.1251407146488,1645.0129082534927,383.90040204600109,720.92865052605816,468.75057019092941,1331.8882052729812,1361.5872345320386,-677.43715770277822,677.43715770277822,-1361.5872345320386,2557.5501882284184,0.0
397154.6038362722,4635833.5216966402,-37500.0,587.49559489904857,630.50255624934618,1783.1786387783779,88.015730229548282,939.25569638543891,621.09651873776488,1256.155736688587,1078.639258807196,-503.47137846232573,503.47137846232573,-1078.639258807196,2291.9544988508414,0.0
402154.6038362722,4635833.5216966402,-37500.0,659.45513816184507,280.08379655831897,1731.920241443237,-170.70614100515527,1000.959719987663,678.98378493793575,1198.6386878463138,844.00873544553781,-332.79201847759589,332.79201847759589,-844.00873544553781,2111.4314139339522,0.0
407154.6038362722,4635833.5216966402,-37500.0,770.36413554386797,28.577903435310827,1558.9473496313747,-363.73613083567074,949.51068261908131,663.43442740456214,1123.7057802714146,673.8838557299855,-190.97621311302152,190.97621311302152,-673.8838557299855,1954.9153532807293,0.0
412154.6038362722,4635833.5216966402,-37500.0,879.32897572593936,-122.31416619925147,1326.202896471465,-483.72224113580705,829.97492224867585,599.54533862237599,1034.3989067498933,564.5080992248561,-87.945477194214391,87.945477194214391,-564.5080992248561,1793.4386512113465,0.0
417154.6038362722,4635833.5216966402,-37500.0,960.06146784415239,-188.74687817986944,1080.0057916238022,-537.82113509940257,679.85887148963036,510.27094429386671,936.33754767184928,502.07455792101007,-22.573125219462696,22.573125219462696,-502.07455792101007,1622.314119906672,0.0
422154.6038362722,4635833.5216966402,-37500.0,1000.9004475752954,-193.73120148093753,849.51615438633769,-540.42726371960964,525.77086067474352,413.28187244861368,835.79500671391395,470.50767785186724,12.070959083107624,-12.070959083107624,-470.50767785186724,1448.2202120527436,0.0
427154.6038362722,4635833.5216966402,-37500.0,1001.1678932500154,-159.84044751516043,649.65382800462305,-507.5902276388378,383.89931917848315,320.2975305692031,738.3647787454629,455.90119372908316,24.674929261237907,-24.674929261237907,-455.90119372908316,1280.4442842690953,0.0
432154.6038362722,4635833.5216966402,-37500.0,966.72633975159579,-105.57897287066638,485.3873166690355,-453.6872369164256,262.25528504447965,237.86951481040475,648.02727420088149,448.1784643269043,23.282661162571117,-23.282661162571117,-448.1784643269043,1126.6600566640848,0.0
437154.6038362722,4635833.5216966402,-37500.0,906.26258525538515,-44.336758280318122,355.67906076370923,-389.98301542308951,163.27304547993737,168.7275124525049,566.93342391669898,441.06330908808832,14.246461097588025,-14.246461097588025,-441.06330908808832,991.5428910222447,0.0
442154.6038362722,4635833.5216966402,-37500.0,828.77651614546483,15.219078016808188,256.44468017074297,-324.42056962795658,86.050519559196488,113.12471611597834,495.74159623163416,431.29547156302624,2.0409520329453983,-2.0409520329453983,-431.29547156302624,876.80441118621241,0.0
447154.6038362722,4635833.5216966402,-37500.0,742.19054200097446,68.160698921721689,182.48921758056812,-262.05280088305989,27.995140130257866,69.922813197061785,434.1862358050339,417.6828633838939,-10.491310264168362,10.491310264168362,-417.6828633838939,781.82106083788801,0.0
452154.6038362722,4635833.5216966402,-37500.0,652.77650019739622,112.22390841758242,128.62494461359066,-205.70300601426416,-14.102778689000521,37.353359958022381,381.68591222053573,400.27698987807275,-21.747719033833135,21.747719033833135,-400.27698987807275,704.43307735795383,0.0
457154.6038362722,4635833.5216966402,-37500.0,565.08966631651367,146.87741078973238,90.22551847240004,-156.62238783101816,-43.444279433869795,13.49454521876692,338.28737102131004,379.76551940078048,-30.980461833138435,30.980461833138435,-379.76551940078048,641.71118437241171,0.0
462154.6038362722,4635833.5216966402,-37500.0,482.16493353210336,172.61268330749215,63.43168518889248,-115.03970053376028,-62.904995411486631,-3.464661376704016,307.47833070847236,357.07450031998371,-37.982317361149086,37.982317361149086,-357.07450031998371,590.57879043128014,0.0
467154.6038362722,4635833.5216966402,-37500.0,405.81429961155084,190.44779002519465,45.163742413839174,-80.575530664600407,-74.91154180045659,-15.10188500193296,290.44260752175654,333.13541131472738,-42.856859555691926,42.856859555691926,-333.13541131472738,548.2327518938074,0.0
282154.6038362722,4640833.5216966402,-37500.0,-1382.4476894834734,-705.21737653633727,95.08832077540778,-865.27662515175462,-359.27951798125332,-383.04669796148295,1268.6106952188577,-820.45612975361303,685.08379427746183,-685.08379427746183,820.45612975361303,2414.6666280328709,0.0
287154.6038362722,4640833.5216966402,-37500.0,-1465.5432388899433,-822.98814918093444,60.911053179527457,-973.37704511714355,-439.85874237023842,-447.27495713468613,1413.7581050990273,-918.68001828000456,775.16186521744135,-775.16186521744135,918.68001828000456,2695.799927094165,0.0
292154.6038362722,4640833.5216966402,-37500.0,-1541.4633657029979,-958.75141083372409,10.370141315333756,-1093.4114477029143,-539.20633459317469,-522.40966693083703,1577.1671668662871,-1027.7816062048082,877.5058242299076,-877.5058242299076,1027.7816062048082,3013.5933697675555,0.0
297154.6038362722,4640833.5216966402,-37500.0,-1604.2544688880973,-1113.6616171290882,-61.967509159818569,-1225.401603311235,-661.58917789766554,-610.08582445719662,1760.7472349404945,-1147.4831662894596,993.09694554095336,-993.09694554095336,1147.4831662894596,3372.2961917909656,0.0
302154.6038362722,4640833.5216966402,-37500.0,-1645.8250946680475,-1287.824818574147,-162.89846318529433,-1368.5755111912993,-812.03222228395589,-712.0886891056366,1966.3023808924941,-1276.3679116960143,1122.4322600696428,-1122.4322600696428,1276.3679116960143,3776.1007079295914,0.0
307154.6038362722,4640833.5216966402,-37500.0,-1655.4750113560669,-1479.4657253860435,-300.62639423706298,-1520.8998222163259,-996.25835213952882,-830.33270825445129,2195.320678046693,-1411.1511739234031,1265.0630102842786,-1265.0630102842786,1411.1511739234031,4228.7100994802095,0.0
312154.6038362722,4640833.5216966402,-37500.0,-1619.5240573303563,-1683.7013118245936,-484.51740052865915,-1678.4047919374277,-1220.4260073637895,-966.80781928436988,2448.6524574955006,-1545.640488038393,1418.8728018045886,-1418.8728018045886,1545.640488038393,4732.5932109862561,0.0
317154.6038362722,4640833.5216966402,-37500.0,-1521.2718415660797,-1890.8507473608624,-724.2994377605022,-1834.2472355142779,-1490.495271535493,-1123.4464102665625,2726.0663600354064,-1669.3587889777075,1579.0154063959915,-1579.0154063959915,1669.3587889777075,5287.763333273173,0.0
322154.6038362722,4640833.5216966402,-37500.0,-1341.7016414587524,-2084.3216078781106,-1028.3068696073599,-1977.4967350532581,-1810.9632297953592,-1301.8102186201074,3025.7446018740629,-1765.9291643085876,1736.4768280582907,-1736.4768280582907,1765.9291643085876,5889.8844649903531,0.0
327154.6038362722,4640833.5216966402,-37500.0,-1061.5724851606669,-2238.3847669596407,-1400.2692883452012,-2091.7578214202895,-2182.6255604115631,-1502.4114908085091,3343.9035540294749,-1811.5928323322003,1876.3724872676723,-1876.3724872676723,1811.5928323322003,6527.5384524054289,0.0
332154.6038362722,4640833.5216966402,-37500.0,-665.72744898583778,-2316.6707850724465,-1834.1984909984255,-2154.0285616242309,-2599.020269071782,-1723.3855768663711,3674.3741648886898,-1774.7066378329891,1976.4085756568988,-1976.4085756568988,1774.7066378329891,7178.6662539748577,0.0
337154.6038362722,4640833.5216966402,-37500.0,-150.3282193495088,-2273.0188977777648,-2307.392517029903,-2134.7058218706848,-3041.4617163796279,-1958.2049550761692,4005.8229946346082,-1617.7114220704373,2006.4756500696219,-2006.4756500696219,1617.7114220704373,7806.6547251703905,0.0
342154.6038362722,4640833.5216966402,-37500.0,467.16876996220941,-2057.167485915827,-2772.80524056283,-2000.3194009230606,-3473.3520831596088,-2192.3580312112645,4315.3441504272741,-1303.5876830279558,1931.0107193762847,-1931.0107193762847,1303.5876830279558,8357.3852413397635,0.0
347154.6038362722,4640833.5216966402,-37500.0,1137.7126394364668,-1627.9383016381275,-3154.2456952571724,-1720.9970158345509,-3836.0023185531354,-2399.6843819250898,4566.569842066021,-808.46927927130901,1716.1215597452297,-1716.1215597452297,808.46927927130901,8759.7092586296058,0.0
352154.6038362722,4640833.5216966402,-37500.0,1776.0201424370023,-974.56153192209899,-3350.5497324804869,-1283.838426839897,-4050.2876606397981,-2540.5005488472443,4715.4072692747268,-139.68065945358319,1342.5663291051628,-1342.5663291051628,139.68065945358319,8932.7290835048261,0.0
357154.6038362722,4640833.5216966402,-37500.0,2270.582948364508,-141.07420544514048,-3255.757892844314,-710.00217696294249,-4029.6490152228316,-2565.1811984263545,4719.0148130630369,646.77228103317282,822.39741778758196,-822.39741778758196,-646.77228103317282,8802.6817334036368,0.0
362154.6038362722,4640833.5216966402,-37500.0,2514.9840125587439,759.80422782805772,-2797.3797098733903,-67.357613258478395,-3707.2405414127425,-2426.6333758957107,4547.6008915659222,1441.4562758586571,211.59347996944848,-211.59347996944848,-1441.4562758586571,8328.597578372588,0.0
367154.6038362722,4640833.5216966402,-37500.0,2454.7761126105815,1561.5342511931801,-1981.5109625553287,534.07869938738531,-3070.963064996085,-2100.7883001538421,4197.0797859880477,2102.5729034150868,-392.99624935923248,392.99624935923248,-2102.5729034150868,7529.1001369203459,0.0
372154.6038362722,4640833.5216966402,-37500.0,2125.4709997634222,2095.3604896300144,-918.16519492924533,972.29637547221978,-2188.0426584062634,-1606.2593144423397,3696.6783842665054,2503.8329087515922,-879.81746417635111,879.81746417635111,-2503.8329087515922,6496.2899000314401,0.0
377154.6038362722,4640833.5216966402,-37500.0,1650.2764992978516,2259.6356418659248,199.98249870462752,1160.4235110655727,-1197.6906271957453,-1009.1167539091699,3105.4550986721752,2587.7677350678532,-1164.1710202089569,1164.1710202089569,-2587.7677350678532,5383.2907663906499,0.0
382154.6038362722,4640833.5216966402,-37500.0,1188.5246573670358,2064.7432420800774,1165.2231407593586,1084.0934060132895,-266.82442721210396,-404.69426881121518,2496.8981036881719,2390.1757707991142,-1221.8140358784294,1221.8140358784294,-2390.1757707991142,4362.4099327140884,0.0
387154.6038362722,4640833.5216966402,-37500.0,864.98389813926087,1621.6468185158903,1831.7159061804732,803.74880141995732,468.76519649792334,115.64860393052118,1938.2111687858931,2017.5498917182651,-1092.7927384806865,1092.7927384806865,-2017.5498917182651,3564.6815593946476,0.0
392154.6038362722,4640833.5216966402,-37500.0,726.43330353483645,1083.6475385834431,2155.5342625408603,421.66886269420343,943.50902282049617,493.37329151576404,1549.2099928709208,1594.3362907903461,-855.15505901944391,855.15505901944391,-1594.3362907903461,3025.9924798781412,0.0
397154.6038362722,4640833.5216966402,-37500.0,746.12328436022688,583.11200965328271,2182.2525140827529,38.206226543800121,1164.0672874857921,712.72742969905289,1486.6403805764737,1215.8324316745529,-588.9424630872918,588.9424630872918,-1215.8324316745529,2683.4938335371407,0.0
402154.6038362722,4640833.5216966402,-37500.0,858.95774204329189,197.63145236686427,2003.7849106418385,-277.50335214194592,1184.0862233465114,792.36452552860612,1393.1702787778313,929.27884744956646,-351.54846872210055,351.54846872210055,-929.27884744956646,2438.3767311796764,0.0
407154.6038362722,4640833.5216966402,-37500.0,997.72968821259099,-50.038559663261275,1716.1497636682484,-494.61387523825732,1073.1695419710043,768.90868159397576,1279.6478465767946,740.618888094559,-171.1206366509652,171.1206366509652,-740.618888094559,2220.2240628516211,0.0
412154.6038362722,4640833.5216966402,-37500.0,1113.7869726073432,-173.89547650770731,1395.0539515513851,-612.54514667905221,894.74421397319929,682.06689056115567,1155.2400235600076,631.99057045914901,-52.374229230992057,52.374229230992057,-631.99057045914901,2001.2439010870578,0.0
417154.6038362722,4640833.5216966402,-37500.0,1181.8391543375008,-204.56893309182382,1089.1437637400727,-648.15528839575052,696.02543396609565,565.48061232897601,1027.9827892356923,577.74516609205261,13.578690674272423,-13.578690674272423,-577.74516609205261,1780.6100316783386,0.0
422154.6038362722,4640833.5216966402,-37500.0,1195.6742481397637,-175.01898787221955,823.54280727898549,-624.65186434678083,506.79184443318485,443.19580828255528,904.7326218652837,554.28879392272142,40.757524263645394,-40.757524263645394,-554.28879392272142,1567.6936689549614,0.0
427154.6038362722,4640833.5216966402,-37500.0,1161.0772348571586,-113.09208403878584,606.87872889990149,-564.46290661843534,342.54473987093297,329.8657822084071,790.48942439813811,544.14137197579214,42.984696391446164,-42.984696391446164,-544.14137197579214,1372.4531290823904,0.0
432154.6038362722,4640833.5216966402,-37500.0,1089.4642948815545,-39.075418650714283,437.98239298447714,-485.78943267235144,208.87771891484061,232.72812275953498,688.04724622562651,536.34299852962147,31.408642148079224,-31.408642148079224,-536.34299852962147,1201.5497968779368,0.0
437154.6038362722,4640833.5216966402,-37500.0,993.46248854267924,33.966454774285062,310.87075436712263,-401.68942776159787,105.41063715254475,153.98597774270891,598.31666176565716,525.18982029611766,13.904939389893713,-13.904939389893713,-525.18982029611766,1057.5874039501064,0.0
442154.6038362722,4640833.5216966402,-37500.0,884.41085161630372,98.70401469842453,217.91964479800717,-320.54120746514042,28.70955881793256,92.873685735776547,521.03462543205842,508.56125012817643,-4.5613664571619381,4.5613664571619381,-508.56125012817643,939.74954839680129,0.0
447154.6038362722,4640833.5216966402,-37500.0,771.29653420567661,151.84766915906752,151.62604016147372,-247.05773558809042,-25.814171722772436,47.163528783106507,455.64319205752639,486.45264649103945,-21.233341414783609,21.233341414783609,-486.45264649103945,844.93852197746344,0.0
452154.6038362722,4640833.5216966402,-37500.0,660.57867970763789,192.6819809306345,105.42940612961139,-183.3654716645847,-62.809918704209075,14.131166637259488,403.17166129387874,459.90756791078371,-34.85501029576227,34.85501029576227,-459.90756791078371,768.95592813048791,0.0
457154.6038362722,4640833.5216966402,-37500.0,556.4709418536072,221.96381249218294,73.976713612920292,-129.92332295379572,-86.444417260372788,-8.8979923444116,370.29314751268248,430.33694935067939,-45.097525870526169,45.097525870526169,-430.33694935067939,707.47253515692557,0.0
462154.6038362722,4640833.5216966402,-37500.0,461.39867137292612,241.17006074644235,53.095496461482298,-86.214554544610095,-100.19652087027154,-24.285745169745621,351.95294082532496,399.13551013753676,-52.14718967093512,52.14718967093512,-399.13551013753676,656.65837165652636,0.0
467154.6038362722,4640833.5216966402,-37500.0,376.47078319679906,252.02464966187785,39.638343468320443,-51.224479529924317,-106.83850265774255,-33.989772958743671,336.53675341012411,367.49822773920755,-56.43491896573957,56.43491896573957,-367.49822773920755,613.46722898793416,0.0
472154.6038362722,4640833.5216966402,-37500.0,301.89082399801231,256.2259617549559,31.289605349921231,-23.746771996197417,-108.50701356957693,-39.565587358323945,321.44682678859624,336.35782859238731,-58.472240852601658,58.472240852601658,-336.35782859238731,575.66244737327668,0.0
277154.6038362722,4645833.5216966402,-37500.0,-1377.7620785536212,-522.22054382648184,207.41451501264018,-806.8553374382326,-254.26185532391918,-342.48491731050677,1168.7799951418071,-666.12306366775294,581.39529346150891,-581.39529346150891,666.12306366775294,2215.5413059983521,0.0
282154.6038362722,4645833.5216966402,-37500.0,-1484.5662969209623,-619.00137292461727,203.10868464244408,-915.46563776320193,-315.28994676804552,-402.00061289943829,1306.5251062960897,-749.957728169029,661.32771110648628,-661.32771110648628,749.957728169029,2480.9513568822895,0.0
287154.6038362722,4645833.5216966402,-37500.0,-1593.0611749492837,-733.73613513963414,189.94168408592631,-1039.138181762067,-391.84345748086145,-472.55838605327494,1463.2880214292081,-845.31523089622237,753.91445217210617,-753.91445217210617,845.31523089622237,2784.2270983202661,0.0
292154.6038362722,4645833.5216966402,-37500.0,-1699.6693265303613,-869.15674915965644,163.98937682185351,-1179.4551003958368,-488.04848282596339,-556.23088161997418,1641.7410510942304,-953.21503610382399,861.06428579485316,-861.06428579485316,953.21503610382399,3131.1201766172371,0.0
297154.6038362722,4645833.5216966402,-37500.0,-1798.9956969393313,-1027.8818066500733,119.94819738395339,-1337.8051144167755,-609.10376795973457,-655.49391838114286,1844.8022790851405,-1074.2099303616203,984.71992193711708,-984.71992193711708,1074.2099303616203,3528.0928317220114,0.0
302154.6038362722,4645833.5216966402,-37500.0,-1883.1471982752241,-1211.9458570761335,50.791604809630449,-1515.0937504846163,-761.48838809637346,-773.33151470162295,2075.5474581475346,-1207.8778270991711,1126.601333366239,-1126.601333366239,1207.8778270991711,3982.2171872198996,0.0
307154.6038362722,4645833.5216966402,-37500.0,-1940.8889549205624,-1421.9729740287569,-52.530845877666408,-1711.2487481147773,-953.12439300406163,-913.37623271946825,2337.0202646084035,-1351.9832011205397,1287.7151422050258,-1287.7151422050258,1351.9832011205397,4500.8713975357932,0.0
312154.6038362722,4645833.5216966402,-37500.0,-1956.6982911131749,-1655.8129294297285,-201.19497930748426,-1924.3971432886146,-1193.3818297781413,-1080.0745130486546,2631.8759978913022,-1501.1643764862317,1467.4863397730276,-1467.4863397730276,1501.1643764862317,5091.0596365054462,0.0
317154.6038362722,4645833.5216966402,-37500.0,-1909.9210985070495,-1906.4312969305338,-408.10047760197421,-2149.545771240204,-1492.7054549132124,-1278.8188908063569,2961.7916219146214,-1645.0130004427429,1662.3287979648617,-1662.3287979648617,1645.0130004427429,5758.0850573448797,0.0
322154.6038362722,4645833.5216966402,-37500.0,-1774.509139862957,-2158.8981130800571,-686.44328587771156,-2376.5808634868622,-1861.4683400355225,-1515.879766439238,3326.686159193363,-1765.5266227805271,1863.4775139970077,-1863.4775139970077,1765.5266227805271,6503.1912780009652,0.0
327154.6038362722,4645833.5216966402,-37500.0,-1520.2614143261287,-2386.582263531162,-1046.4771754893336,-2587.5013125987502,-2307.4265411176907,-1797.7681292886869,3724.4595313599543,-1834.2558540001844,2054.0523639398871,-2054.0523639398871,1834.2558540001844,7319.7285023017412,0.0
332154.6038362722,4645833.5216966402,-37500.0,-1117.0617965179968,-2547.3233464010409,-1489.5137002778326,-2753.1762859813848,-2830.9446193435233,-2129.3653732679295,4153.9022247653593,-1810.1851741748003,2205.764539479414,-2205.764539479414,1810.1851741748003,8187.5328731903082,0.0
337154.6038362722,4645833.5216966402,-37500.0,-543.98959941684893,-2581.6331891074933,-1998.4980510885396,-2830.79961555198,-3417.2465652964956,-2509.8837246376702,4613.7252281585206,-1640.5682371302923,2276.5954986014872,-2276.5954986014872,1640.5682371302923,9065.782721362817,0.0
342154.6038362722,4645833.5216966402,-37500.0,195.42341771048171,-2416.8305982071879,-2525.8944417601483,-2764.7449203343081,-4025.8733196182056,-2925.8589438491836,5074.2512060635836,-1268.300452305024,2212.201180425935,-2212.201180425935,1268.300452305024,9885.9291338533349,0.0
347154.6038362722,4645833.5216966402,-37500.0,1053.5144571465617,-1982.5484567041815,-2982.897364746193,-2495.2677741842817,-4580.067325595679,-3341.6688676254776,5478.3601402851937,-649.79818325338022,1955.1495679510253,-1955.1495679510253,649.79818325338022,10548.512501197953,0.0
352154.6038362722,4645833.5216966402,-37500.0,1922.7205046179806,-1241.7095822155866,-3239.1483164319061,-1979.6355970622722,-4963.2932665628878,-3691.3195595236602,5758.5408619105865,215.66615333357174,1465.6134476708462,-1465.6134476708462,-215.66615333357174,10930.170936503629,0.0
357154.6038362722,4645833.5216966402,-37500.0,2640.5210322191701,-232.74456496433217,-3146.2758708229917,-1225.2243005601804,-5034.5952603498336,-3879.9177862258111,5845.6199138380252,1253.3478329412637,751.85811609576797,-751.85811609576797,-1253.3478329412637,10907.711390814808,0.0
362154.6038362722,4645833.5216966402,-37500.0,3033.3153766372379,898.06018381278034,-2593.8121020217054,-321.27687492735731,-4672.5864190117109,-3805.2167855596458,5686.2374142190711,2299.058069456948,-102.65547935054724,102.65547935054724,-2299.058069456948,10400.825825511431,0.0
367154.6038362722,4645833.5216966402,-37500.0,2997.5081165059005,1910.1376576098212,-1583.6328987474787,558.56234671404218,-3841.1339250933884,-3401.3590571512154,5265.7696589972311,3131.7637528496234,-940.10522883978297,940.10522883978297,-3131.7637528496234,9421.4130594837916,0.0
372154.6038362722,4645833.5216966402,-37500.0,2574.775323761517,2551.3496551747644,-276.15963420188149,1207.3748132577214,-2641.0906595864849,-2686.1852491432887,4624.0566659883689,3559.0915977734444,-1576.0389645475657,1576.0389645475657,-3559.0915977734444,8101.5045824123672,0.0
377154.6038362722,4645833.5216966402,-37500.0,1954.4792027586823,2678.7385104735658,1045.183887179368,1476.9126728906376,-1299.5904040444225,-1776.2739732665902,3850.7360668400634,3513.3112738379632,-1879.5660507492346,1879.5660507492346,-3513.3112738379632,6670.1214121022604,0.0
382154.6038362722,4645833.5216966402,-37500.0,1379.6157552763618,2333.0822395831988,2091.8700681596511,1350.9019868700218,-83.675689364954223,-847.31893911424163,3058.7163424921832,3085.9876225265343,-1834.1000338397623,1834.1000338397623,-3085.9876225265343,5373.8552071326249,0.0
387154.6038362722,4645833.5216966402,-37500.0,1020.904485253086,1704.8852970278001,2694.722254031788,942.39747634475202,810.11495748894879,-61.082287590571553,2359.2475319770838,2469.8658166463165,-1532.6933085442681,1532.6933085442681,-2469.8658166463165,4374.5296155160204,0.0
392154.6038362722,4645833.5216966402,-37500.0,914.8321386370568,1022.384846575149,2848.5985869706269,421.58691961031099,1315.345983854929,490.90892933302058,1975.0959640645626,1856.1871854277524,-1116.5650415389405,1116.5650415389405,-1856.1871854277524,3687.594897832214,0.0
397154.6038362722,4645833.5216966402,-37500.0,993.19510743616604,451.65336840707573,2665.2400892649912,-64.581616185510143,1478.8623872605808,796.9860553778899,1811.5688746197618,1363.5647710757758,-708.44147772885356,708.44147772885356,-1363.5647710757758,3216.8135330854902,0.0
402154.6038362722,4645833.5216966402,-37500.0,1152.7879117890782,63.623740824655492,2292.2130810402773,-432.04803932595092,1403.163023559571,899.66339914154332,1638.6334176266053,1027.9091454010024,-379.8920791015118,379.8920791015118,-1027.9091454010024,2851.2309717017824,0.0
407154.6038362722,4645833.5216966402,-37500.0,1307.9833170758445,-144.72304081545391,1854.4031077247209,-656.97876168010851,1194.3706774673667,862.45774427970548,1457.7590988293985,830.36911154769723,-153.3833526349058,153.3833526349058,-830.36911154769723,2525.4253334736409,0.0
412154.6038362722,4645833.5216966402,-37500.0,1409.4218652011709,-213.36883193023303,1432.9973179858105,-754.12944755391845,935.20546100465015,746.27464945421525,1280.8949736796992,730.3452520376361,-20.021782982193315,20.021782982193315,-730.3452520376361,2218.6694744376778,0.0
417154.6038362722,4645833.5216966402,-37500.0,1440.281635673037,-190.72381774989478,1069.1246360194934,-755.17578726453053,678.91574246287837,598.19679534708791,1116.1087947918388,687.35413921628572,42.631687435551612,-42.631687435551612,-687.35413921628572,1933.1571594116049,0.0
422154.6038362722,4645833.5216966402,-37500.0,1404.8911756430807,-118.69602754942133,776.17874444196582,-694.11147321044996,453.81375002885363,449.14357597911754,967.56180493080115,670.58515707310721,58.733910658057937,-58.733910658057937,-670.58515707310721,1677.2959220578282,0.0
427154.6038362722,4645833.5216966402,-37500.0,1317.9272177455607,-27.737171168879811,551.74569000023041,-599.76851327578368,270.85262824429708,316.18451830729208,836.6799575594066,660.52079999068519,48.378676889582891,-48.378676889582891,-660.52079999068519,1457.5884593045148,0.0
432154.6038362722,4645833.5216966402,-37500.0,1196.8711734721437,62.828324624560572,386.1502733520868,-493.30283551567544,130.57287653660703,206.44829484326831,723.24996072759734,646.91499801975181,25.913315151482379,-25.913315151482379,-646.91499801975181,1276.0416978733176,0.0
437154.6038362722,4645833.5216966402,-37500.0,1057.7420160088068,142.42135703169595,267.61768280922456,-388.46645356697519,28.228936131580223,120.8943855804677,626.31102815832537,625.82804704463138,0.39698447418504657,-0.39698447418504657,-625.82804704463138,1130.3603581220448,0.0
442154.6038362722,4645833.5216966402,-37500.0,913.24465072838927,206.50092205801883,184.95204498996713,-293.07661320093246,-42.921917055674747,57.219794890217727,545.21967020948046,596.99528899696588,-23.1472162977621,23.1472162977621,-596.99528899696588,1015.3268289030927,0.0
447154.6038362722,4645833.5216966402,-37500.0,772.40692442991269,254.26689151762079,128.6622765815282,-210.73401395276386,-89.759490926430956,11.789432055516468,483.37629368471516,561.93170129992927,-42.419755608507387,42.419755608507387,-561.93170129992927,924.47521896134469,0.0
452154.6038362722,4645833.5216966402,-37500.0,640.98282784368939,286.97496306683183,91.229275909632392,-142.33029644137369,-118.40212622917706,-19.238400113697381,449.94761227866888,522.75030075030168,-56.776890532381515,56.776890532381515,-522.75030075030168,851.5027253047989,0.0
457154.6038362722,4645833.5216966402,-37500.0,522.14406149481454,306.81919359598936,66.958800345701349,-87.190111800419572,-133.88542455738013,-39.347620949216626,429.39007726709974,481.51831389304232,-66.473468894326771,66.473468894326771,-481.51831389304232,791.12585187540924,0.0
462154.6038362722,4645833.5216966402,-37500.0,417.19637552129029,316.25460261145059,51.67660170165945,-43.854981500564925,-140.14980256606452,-51.445458971945349,410.26249024394974,439.96625670426255,-72.176436816022431,72.176436816022431,-439.96625670426255,739.37718212553705,0.0
467154.6038362722,4645833.5216966402,-37500.0,326.19644881518059,317.62566516233784,42.398486593530912,-10.578092781765582,-140.16921126433573,-57.832867925752389,390.88676431753748,399.40198019992283,-74.678554391789447,74.678554391789447,-399.40198019992283,693.51940345081096,0.0
472154.6038362722,4645833.5216966402,-37500.0,248.43127324093399,312.99105509811653,37.034692258908677,14.388844285262053,-136.12620345312646,-60.264809278152732,371.22628685599335,360.73023499265497,-74.745944086267968,74.745944086267968,-360.73023499265497,651.7874173685924,0.0
272154.6038362722,4650833.5216966402,-37500.0,-1320.1770800612303,-348.65724655400453,275.5490013297786,-731.8241045239655,-163.71505156341445,-299.83026971919247,1061.5516036997724,-514.6945205713364,476.20235943759729,-476.20235943759729,514.6945205713364,2002.7601862968438,0.0
277154.6038362722,4650833.5216966402,-37500.0,-1437.9852380655195,-420.29171977792555,292.47878412822951,-834.74417948641997,-206.16157171675553,-352.93521164390472,1188.3435748749237,-580.08487827014528,542.5722599079179,-542.5722599079179,580.08487827014528,2245.4478316364271,0.0
282154.6038362722,4650833.5216966402,-37500.0,-1563.8525476945247,-507.09223762108843,306.87025944444673,-953.8262965172886,-260.20968560402434,-416.42961569167204,1333.6489258703382,-655.48891716106095,620.33101574229954,-620.33101574229954,655.48891716106095,2524.5953385247135,0.0
287154.6038362722,4650833.5216966402,-37500.0,-1696.4747932544217,-612.19220111831908,316.57486877624797,-1091.6349270162257,-329.27636218966342,-492.50692870541457,1500.5022661220096,-742.39492288658573,711.6719311214689,-711.6719311214689,742.39492288658573,2846.5536251594376,0.0
292154.6038362722,4650833.5216966402,-37500.0,-1833.3757748901669,-739.17681943396576,318.44226015526704,-1251.0417286434188,-417.84690071645394,-583.89757665762977,1692.4347774309495,-842.27466638809153,819.14610914696561,-819.14610914696561,842.27466638809153,3218.8691075211946,0.0
297154.6038362722,4650833.5216966402,-37500.0,-1970.3036929191662,-891.95658526488762,307.93780122805032,-1435.1618852077042,-531.80621931727705,-694.0576906913119,1913.5144708638582,-956.31953799861708,945.60370629184195,-945.60370629184195,956.31953799861708,3650.4621200344391,0.0
302154.6038362722,4650833.5216966402,-37500.0,-2100.3587720389442,-1074.4324378027536,278.66774506074358,-1647.1723214610379,-678.84383938108033,-827.45149150001339,2168.3394085389855,-1084.9282597029294,1093.9889906042456,-1093.9889906042456,1084.9282597029294,4151.7480624995042,0.0
307154.6038362722,4650833.5216966402,-37500.0,-2212.772221953725,-1289.7845926507989,221.84925444615504,-1889.8963557657437,-868.9039030015025,-989.96530196742231,2461.9235693352989,-1226.7785281142783,1266.8528548616027,-1266.8528548616027,1226.7785281142783,4734.5861570898351,0.0
312154.6038362722,4650833.5216966402,-37500.0,-2291.2919612167966,-1539.1221369365262,125.8488376478799,-2164.9510780679861,-1114.5817286663505,-1189.4778631990084,2799.3653030136147,-1377.2451196450252,1465.3607636699103,-1465.3607636699103,1377.2451196450252,5411.8325729074313,0.0
317154.6038362722,4650833.5216966402,-37500.0,-2312.2675545829989,-1819.1231695933222,-23.915811576008664,-2471.1262448006696,-1431.2197728679016,-1436.5460353166709,3185.1148192557635,-1525.882458038496,1687.4695453601346,-1687.4695453601346,1525.882458038496,6196.1016131478418,0.0
322154.6038362722,4650833.5216966402,-37500.0,-2242.8649126032037,-2118.2394781900775,-244.11760466519021,-2801.525585691405,-1836.1824517901466,-1744.982125774507,3621.5866475500152,-1652.761889768243,1924.8757773527461,-1924.8757773527461,1652.761889768243,7097.1040898448919,0.0
327154.6038362722,4650833.5216966402,-37500.0,-2040.5332193895219,-2411.2018822657406,-550.67044238439462,-3138.9684679100492,-2346.3458673390169,-2131.7074687151585,4107.0949339883664,-1723.8379882862525,2158.4376077430411,-2158.4376077430411,1723.8379882862525,8116.7056386566119,0.0
332154.6038362722,4650833.5216966402,-37500.0,-1655.9698358376006,-2652.2732190975676,-952.37680788770649,-3449.5062868806963,-2972.2787206171192,-2614.5884210546783,4641.7392444828311,-1686.5182887541805,2352.3214734044027,-2352.3214734044027,1686.5182887541805,9240.8188505640574,0.0
337154.6038362722,4650833.5216966402,-37500.0,-1043.1671372977983,-2769.4571150609286,-1439.4733847436896,-3675.1891333055319,-3707.2399658380345,-3206.0993693174173,5276.4891799658344,-1468.553494477238,2448.5543501258808,-2448.5543501258808,1468.553494477238,10427.835779864821,0.0
342154.6038362722,4650833.5216966402,-37500.0,-180.56162386899175,-2665.0584210647489,-1966.7618950502151,-3730.0711743850839,-4509.8952451722289,-3900.2568791302065,5939.9511483985825,-986.118064490351,2366.306546648862,-2366.306546648862,986.118064490351,11595.166706667176,0.0
347154.6038362722,4650833.5216966402,-37500.0,895.8080323814803,-2231.9230811654434,-2435.2678531610768,-3507.8457627832381,-5283.2736704101108,-4651.9917266550565,6550.7739819803073,-168.93031948631335,2013.5444513406001,-2013.5444513406001,168.93031948631335,12609.216326281177,0.0
352154.6038362722,4650833.5216966402,-37500.0,2056.7730403785622,-1395.6900895176118,-2684.7916489642562,-2912.7927599137161,-5860.7807404548876,-5354.552279982051,7016.2248038401449,992.94348107861742,1319.719666881464,-1319.719666881464,-992.94348107861742,13289.548163681036,0.0
357154.6038362722,4650833.5216966402,-37500.0,3070.4916063075161,-183.07731951986369,-2519.5461743049882,-1920.034859005302,-6021.5398193436404,-5832.5308624440331,7230.746685791145,2391.1099886730462,290.30692704869216,-290.30692704869216,-2391.1099886730462,13441.766193018837,0.0
362154.6038362722,4650833.5216966402,-37500.0,3660.3196274449056,1213.9193133223553,-1787.3842681837123,-645.97325283466955,-5560.2426694125861,-5877.8629084797949,7105.5282250276277,3768.5260162687132,-939.03448550166968,939.03448550166968,-3768.5260162687132,12927.287028648587,0.0
367154.6038362722,4650833.5216966402,-37500.0,3643.674073148165,2445.5419968807059,-498.10557533730025,629.32547507343077,-4408.0220119457408,-5342.3007137986733,6610.054061010138,4774.6159040714174,-2099.6504827559261,2099.6504827559261,-4774.6159040714174,11751.863973154128,0.0
372154.6038362722,4650833.5216966402,-37500.0,3077.6233528692178,3140.0293494115617,1099.6141102504346,1552.172940974827,-2735.4102408741091,-4247.2144817979643,5802.7658421373344,5123.9431285136307,-2883.5214121775298,2883.5214121775298,-5123.9431285136307,10115.911029147095,0.0
377154.6038362722,4650833.5216966402,-37500.0,2267.8856992004989,3115.2563802878763,2585.9079473199408,1879.5240665818474,-929.11533871904248,-2818.968173802115,4824.1953511575612,4768.4123895931771,-3102.0850944151866,3102.0850944151866,-4768.4123895931771,8360.4436612784521,0.0
382154.6038362722,4650833.5216966402,-37500.0,1586.4178407419959,2494.31840171878,3578.8424921433611,1619.5537947898001,585.99782900987179,-1391.5238410584225,3854.2688738627457,3930.0974971092878,-2789.6306614252303,2789.6306614252303,-3930.0974971092878,6806.9915370813187,0.0
387154.6038362722,4650833.5216966402,-37500.0,1246.0151399858762,1608.4444879107659,3926.0227697163114,999.34706490405779,1552.7793906650411,-241.26465089267199,3086.8280772830349,2952.1599156186148,-2158.2979598474949,2158.2979598474949,-2952.1599156186148,5600.9909344292264,0.0
392154.6038362722,4650833.5216966402,-37500.0,1230.739726850326,782.48909523872192,3725.4369779872559,300.64530137670687,1953.5064661006136,513.17333439666697,2627.0692342144321,2106.0269179219044,-1455.3936062965849,1455.3936062965849,-2106.0269179219044,4699.480789692032,0.0
397154.6038362722,4650833.5216966402,-37500.0,1394.9983238873417,193.61477567614006,3199.7160572758426,-279.84581411078284,1930.2735406879312,895.44001261753931,2282.6475019276513,1506.8007635424956,-851.18990637140359,851.18990637140359,-1506.8007635424956,3991.6657244215735,0.0
402154.6038362722,4650833.5216966402,-37500.0,1590.7379869830886,-130.64350604706092,2560.9560528843531,-663.9790981698161,1664.4088775142282,999.73812160724697,1960.3814464024811,1145.6010079564624,-414.49288745360059,414.49288745360059,-1145.6010079564624,3398.320367871288,0.0
407154.6038362722,4650833.5216966402,-37500.0,1727.4166533937268,-244.56715246658291,1948.3508075133414,-856.42688807061472,1302.6170146649251,930.84896095662475,1666.0322720345544,958.44403600094506,-142.98706414039839,142.98706414039839,-958.44403600094506,2886.1037020748581,0.0
412154.6038362722,4650833.5216966402,-37500.0,1771.8547788048679,-223.07876169035765,1428.5205967893658,-899.46423684305796,937.84515157471878,774.97073958550516,1411.7340681124278,875.62931512017349,-1.488100035550076,1.488100035550076,-875.62931512017349,2446.3140658648886,0.0
417154.6038362722,4650833.5216966402,-37500.0,1727.1089179553248,-130.71841263364203,1019.4581141925589,-843.3332340923123,617.89913531836692,591.901886990256,1199.4965373715272,843.13147594729821,52.098444953821456,-52.098444953821456,-843.13147594729821,2077.6013238777959,0.0
422154.6038362722,4650833.5216966402,-37500.0,1613.0250467806559,-12.823219027142075,713.69313579293907,-731.98280925965264,360.52697251936104,417.30513143327943,1023.5569387437785,826.54682133362121,54.022425211040456,-54.022425211040456,-826.54682133362121,1777.9268329544027,0.0
427154.6038362722,4650833.5216966402,-37500.0,1453.847617819458,103.05545507648372,493.63883855194217,-598.19969603218715,166.29750716573216,268.60175052647077,876.82966684794678,807.65254482353407,30.606223536322489,-30.606223536322489,-807.65254482353407,1541.7780873014535,0.0
432154.6038362722,4650833.5216966402,-37500.0,1271.723572877183,202.64818579042714,339.93222621427589,-463.55596436127894,27.482912538471837,151.26828618034608,754.26683734149799,779.1721104296297,-1.3487712065915503,1.3487712065915503,-779.1721104296297,1360.0521357940422,0.0
437154.6038362722,4650833.5216966402,-37500.0,1084.0257592151052,280.43034909132621,235.23329422261816,-340.44656655901917,-66.530134251697149,64.031877317495116,654.035140386325,740.15256036882715,-32.415007635249879,32.415007635249879,-740.15256036882715,1221.4691804765362,0.0
442154.6038362722,4650833.5216966402,-37500.0,902.87614425695347,336.03982897761767,165.50397340596211,-234.6735057483732,-126.31395046837054,2.5071860612404553,584.04021086872524,692.66957091047448,-58.155207940423395,58.155207940423395,-692.66957091047448,1114.5958330640349,0.0
447154.6038362722,4650833.5216966402,-37500.0,735.76348610017476,371.77977055893604,120.05039218795795,-147.7890239638142,-161.06282469934726,-38.587930575482673,550.89153629401414,639.79980263806988,-77.152560965895987,77.152560965895987,-639.79980263806988,1029.5404337321429,0.0
452154.6038362722,4650833.5216966402,-37500.0,586.5736314139026,391.03613611346742,91.056374039889036,-78.900974717708493,-178.17477882118681,-64.266159727556555,527.21568137239649,584.54537242625838,-89.615067513514106,89.615067513514106,-584.54537242625838,958.78572365781099,0.0
457154.6038362722,4650833.5216966402,-37500.0,456.63978900910496,397.36383201909058,72.980155444070505,-25.914910108936031,-183.30384258812467,-78.774921875293288,503.29983458673746,529.36709838090269,-96.4886641395276,96.4886641395276,-529.36709838090269,897.19357113540968,0.0
462154.6038362722,4650833.5216966402,-37500.0,345.63647404009714,394.01838422530182,61.985602413848071,13.687522571610446,-180.61196239359603,-85.477425549435608,478.30841231257,476.06347500987067,-98.94544796024141,98.94544796024141,-476.06347500987067,841.55019281612522,0.0
467154.6038362722,4650833.5216966402,-37500.0,252.26216367356542,383.76101895338115,55.470629381249864,42.405731184251351,-173.07276590535889,-86.917296978716919,452.63988384565914,425.81891110642465,-98.118587913056501,98.118587913056501,-425.81891110642465,789.9979823049631,0.0
472154.6038362722,4650833.5216966402,-37500.0,174.72146687647231,368.8182473036822,51.702821745431137,62.498433245809558,-162.75647610122789,-84.953899914157603,426.83274737148361,379.31775007607536,-94.985876187920496,94.985876187920496,-379.31775007607536,741.54422930593091,0.0
477154.6038362722,4650833.5216966402,-37500.0,111.04365108556225,350.91943916893092,49.550276117942815,75.896420918835361,-151.06851863901741,-80.90930743461891,401.35752797402591,336.86939915406026,-90.335623434138284,90.335623434138284,-336.86939915406026,695.70308943634336,0.0
272154.6038362722,4655833.5216966402,-37500.0,-1341.4999070780366,-242.67977188934557,335.94641474894155,-741.05095400452797,-116.5560782492619,-303.63732615318497,1066.2414913539403,-422.49121843978094,428.57074105733284,-428.57074105733284,422.49121843978094,2003.7295358997437,0.0
277154.6038362722,4655833.5216966402,-37500.0,-1470.8467298134985,-300.32374554073664,367.3656759739751,-849.62493022287219,-150.76994708427256,-358.74164395345667,1197.0451821884017,-476.05262000180932,489.4673674485187,-489.4673674485187,476.05262000180932,2252.9719392008337,0.0
282154.6038362722,4655833.5216966402,-37500.0,-1612.0964015005131,-371.6878891518981,400.00251309087815,-976.73735072853935,-195.22648801026136,-425.1347669716676,1347.9733032565225,-538.28756226861731,561.51209508280965,-561.51209508280965,538.28756226861731,2541.6488959059211,0.0
287154.6038362722,4655833.5216966402,-37500.0,-1765.0808662543325,-460.09220368461894,432.68834756824589,-1125.9286198891741,-253.25683578345487,-505.44082485036694,1522.6824034565418,-610.6997422509869,647.15353701325171,-647.15353701325171,610.6997422509869,2877.3428369213389,0.0
292154.6038362722,4655833.5216966402,-37500.0,-1928.716293476557,-569.55615534010644,463.46644293452772,-1301.4535750600908,-329.37658033956183,-603.0569531205042,1725.5741036313989,-694.86686748331249,749.3674054355497,-749.3674054355497,694.86686748331249,3269.3554722744125,0.0
297154.6038362722,4655833.5216966402,-37500.0,-2100.3759453643906,-704.80597975921751,489.21202344831545,-1508.3784865829286,-429.72935263125083,-722.48964829867043,1961.9342044697953,-792.19817005368702,871.66074969039607,-871.66074969039607,792.19817005368702,3729.1087476497673,0.0
302154.6038362722,4655833.5216966402,-37500.0,-2274.8942246194802,-871.11474049510127,505.11596647712543,-1752.6001749209347,-562.67921424471479,-869.88219637626855,2238.0560178530386,-903.41144931197869,1017.9242719692725,-1017.9242719692725,903.41144931197869,4270.5662612973274,0.0
307154.6038362722,4655833.5216966402,-37500.0,-2443.0239076973048,-1073.7908989935006,504.03140991760165,-2040.647892744151,-739.56059264562055,-1053.8293963998574,2561.286403935258,-1027.506688484799,1191.9551264044574,-1191.9551264044574,1027.506688484799,4910.5626077803872,0.0
312154.6038362722,4655833.5216966402,-37500.0,-2589.1449902590166,-1316.9901482725479,475.75518438420522,-2378.9824347918711,-975.52570964024426,-1286.5806365509293,2939.865958216893,-1159.8910287822541,1396.3345916321314,-1396.3345916321314,1159.8910287822541,5668.7802849032714,0.0
317154.6038362722,4655833.5216966402,-37500.0,-2688.1004921686113,-1601.3276263943158,406.48538290145956,-2772.2611943067309,-1290.2552267370349,-1585.6625025593412,3382.3298433135196,-1289.1903173928176,1630.1522338527807,-1630.1522338527807,1289.1903173928176,6566.8534906937002,0.0
322154.6038362722,4655833.5216966402,-37500.0,-2701.3825225537694,-1919.5573889388099,279.04220263745793,-3219.6948575726092,-1707.923004217942,-1975.6890122375355,3896.1527629094098,-1392.2790368545839,1884.8728425875297,-1884.8728425875297,1392.2790368545839,7625.6866794621637,0.0
327154.6038362722,4655833.5216966402,-37500.0,-2573.7945388854441,-2249.5491034699235,75.036375163018874,-3708.2924780503754,-2255.1055596630667,-2489.4615565827189,4485.9906246543815,-1427.4556534263979,2137.6280610781737,-2137.6280610781737,1427.4556534263979,8859.5851778318211,0.0
332154.6038362722,4655833.5216966402,-37500.0,-2233.5416308750782,-2544.4020468923945,-219.01483535349641,-4201.911355114732,-2954.2546736690874,-3166.1390359044003,5167.8222122481338,-1327.0254749750361,2341.8455555470928,-2341.8455555470928,1327.0254749750361,10265.46555494251,0.0
337154.6038362722,4655833.5216966402,-37500.0,-1601.5132551959789,-2721.6728524403388,-599.01214283633885,-4626.5830556347419,-3809.2247718681242,-4042.2294591473205,5994.2436382485303,-993.54417066594135,2417.2308259576439,-2417.2308259576439,993.54417066594135,11805.838662499222,0.0
342154.6038362722,4655833.5216966402,-37500.0,-618.12589286650439,-2658.4517318453086,-1022.3268294962048,-4857.2043700006461,-4779.4857558949589,-5129.3000453160084,6887.2642937598721,-308.90264187080425,2245.6588753569667,-2245.6588753569667,308.90264187080425,13386.579166953125,0.0
347154.6038362722,4655833.5216966402,-37500.0,705.70360997758769,-2206.4282309535065,-1381.8432633582634,-4719.6635757850709,-5744.1807495631756,-6373.7899998932471,7749.808328311221,829.71157450030614,1686.332833677031,-1686.332833677031,-829.71157450030614,14836.299870327115,0.0
352154.6038362722,4655833.5216966402,-37500.0,2221.5211043964828,-1246.7332873534851,-1490.3093822582721,-4033.0094489692133,-6470.8058780846841,-7605.6050198072498,8454.4035525483177,2435.6080871815675,628.06249516755815,-628.06249516755815,-2435.6080871815675,15904.27554244527,0.0
357154.6038362722,4655833.5216966402,-37500.0,3603.7168381283245,205.96850099536843,-1108.0686016101699,-2713.8600799855785,-6627.2598764975846,-8509.4103296230187,8846.4486751489803,4333.4076135527021,-914.51912502282789,914.51912502282789,-4333.4076135527021,16304.551961856081,0.0
362154.6038362722,4655833.5216966402,-37500.0,4421.2293662819538,1889.5888078674352,-52.605261965731877,-920.59868130258121,-5892.1784769753995,-8684.2699196696358,8789.8119968715564,6103.9206801709943,-2698.8060813992188,2698.8060813992188,-6103.9206801709943,15828.610687205577,0.0
367154.6038362722,4655833.5216966402,-37500.0,4374.5398651529995,3291.5247414306268,1622.5628662144561,879.90747649288483,-4173.05110844715,-7838.8586212548535,8237.7531288124774,7189.6942934536719,-4251.7292650308327,4251.7292650308327,-7189.6942934536719,14498.195467369775,0.0
372154.6038362722,4655833.5216966402,-37500.0,3571.0050747103228,3879.4778844488883,3515.098362648946,2082.2778008072046,-1798.3686621075801,-6038.374461775702,7286.3453915755381,7199.7417755459601,-5067.9768136405592,5067.9768136405592,-7199.7417755459601,12635.946733165449,0.0
377154.6038362722,4655833.5216966402,-37500.0,2531.2067308234205,3470.6416508226675,5015.7705852625877,2321.5198287684843,553.78682514067737,-3766.2489845306281,6157.1035125652143,6207.4175058953379,-4927.1381445949219,4927.1381445949219,-6207.4175058953379,10709.897281178763,0.0
382154.6038362722,4655833.5216966402,-37500.0,1813.9330195247558,2384.2278794405561,5674.3316258040613,1726.7285447921822,2235.6801583445413,-1660.4338693491459,5108.798044811173,4717.2893397917924,-4039.9400542915123,4039.9400542915123,-4717.2893397917924,9021.0610922512806,0.0
387154.6038362722,4655833.5216966402,-37500.0,1622.5389048408892,1181.9085160311747,5458.4552781641487,768.81708403932419,2993.9228522222825,-141.51543244373963,4285.1990583938177,3297.2215173370255,-2860.0006534468998,2860.0006534468998,-3297.2215173370255,7579.4189438210815,0.0
392154.6038362722,4655833.5216966402,-37500.0,1792.0702756299613,277.25005633727807,4670.6854448090044,-111.61363033542946,2988.6418364622446,720.45613624038515,3596.1925740797928,2257.6052689559242,-1774.222529361037,1774.222529361037,-2257.6052689559242,6291.5389644923325,0.0
397154.6038362722,4655833.5216966402,-37500.0,2054.1439428180292,-213.00988354418578,3679.8661028579809,-709.18552677432797,2548.6821909395535,1071.4739419213827,2957.2180275198643,1627.2233443135624,-961.67743053625327,961.67743053625327,-1627.2233443135624,5132.1005412627819,0.0
402154.6038362722,4655833.5216966402,-37500.0,2234.4641115461231,-368.19267687848264,2739.9529226555733,-1013.1513605421225,1955.736657826571,1100.3019121004363,2385.751714852624,1298.8475897022895,-438.04377794201116,438.04377794201116,-1298.8475897022895,4132.3106537308204,0.0
407154.6038362722,4655833.5216966402,-37500.0,2277.3131603825177,-319.80690918048327,1964.3867877606995,-1093.6620378250159,1376.8885473211069,957.88560252785931,1913.6665308461781,1149.6730564166412,-145.85798267428777,145.85798267428777,-1149.6730564166412,3317.9080558600981,0.0
412154.6038362722,4655833.5216966402,-37500.0,2194.6410724506741,-176.2314990319048,1374.1352361692689,-1030.6641449648062,886.45516851149239,745.92298426287869,1550.4885879935334,1087.6983771366972,-12.706893081603084,12.706893081603084,-1087.6983771366972,2687.1395460923186,0.0
417154.6038362722,4655833.5216966402,-37500.0,2021.5797859731083,-6.6999761160609541,947.4064371547978,-889.33634039195749,504.55044326422171,526.25830010568484,1279.9654872255285,1056.194349752624,24.150658089673129,-24.150658089673129,-1056.194349752624,2218.1536779117987,0.0
422154.6038362722,4655833.5216966402,-37500.0,1794.7270534856543,151.24454678275035,649.65057128953765,-716.28046997191609,224.97903730338081,331.75806025124336,1074.6012985453679,1025.4415383444591,10.773916274550004,-10.773916274550004,-1025.4415383444591,1880.4019815909253,0.0
427154.6038362722,4655833.5216966402,-37500.0,1544.4617399503452,280.76914698886293,447.33057585866038,-541.68577370905757,31.108346435923114,175.69089519483239,913.54367657576302,983.3096554455642,-22.905711410580864,22.905711410580864,-983.3096554455642,1641.6993720122321,0.0
432154.6038362722,4655833.5216966402,-37500.0,1293.174852162773,377.16715187059611,312.74671395091275,-382.84440243793978,-95.975229888782707,59.462512855496051,788.56706110651794,927.7032838970913,-59.670117667016427,59.670117667016427,-927.7032838970913,1472.3544422053783,0.0
437154.6038362722,4655833.5216966402,-37500.0,1055.730661707307,442.15643272485977,224.79893289772102,-247.79897822986237,-173.64471526763023,-21.579552856963851,712.38394369899595,861.32486444574977,-91.05925766268831,91.05925766268831,-861.32486444574977,1347.9803383400022,0.0
442154.6038362722,4655833.5216966402,-37500.0,840.77636364438899,480.35932230234795,168.18958778138526,-138.58586380928384,-216.27008304025037,-74.328639903157921,679.06860306958333,788.47205648252259,-113.98728912826653,113.98728912826653,-788.47205648252259,1250.7894393692802,0.0
447154.6038362722,4655833.5216966402,-37500.0,652.28549186932787,497.26200087795689,132.20061174997505,-53.77938409636635,-234.98407630778456,-105.7602724527017,651.33105731444789,713.33983607032269,-128.29061341131836,128.29061341131836,-713.33983607032269,1169.1925548173808,0.0
452154.6038362722,4655833.5216966402,-37500.0,491.01635939925018,498.13376049578153,109.51499946685115,9.7220391166150453,-238.02078486149426,-121.92849704818941,621.24151290728514,639.30033821834866,-135.15446961964949,135.15446961964949,-639.30033821834866,1096.3860426995509,0.0
457154.6038362722,4655833.5216966402,-37500.0,355.71461083258305,487.53587165761877,95.242168011974954,55.56827532316958,-231.25571822576504,-127.65206983497056,588.85189091654479,568.73087483148606,-136.20520923023719,136.20520923023719,-568.73087483148606,1028.7664171809445,0.0
462154.6038362722,4655833.5216966402,-37500.0,244.01552932860236,469.17085013445336,86.173570164614745,87.320475288018301,-218.75691576053731,-126.55372761457424,555.18755956503855,503.10659145350223,-133.04406342838774,133.04406342838774,-503.10659145350223,964.64838225267965,0.0
467154.6038362722,4655833.5216966402,-37500.0,153.06750101981578,445.90992611344882,80.241195813236189,108.14196214486087,-203.26342565239608,-121.24504511951179,521.23713444397083,443.18878050181695,-127.04537452260118,127.04537452260118,-443.18878050181695,903.38971306148539,0.0
472154.6038362722,4655833.5216966402,-37500.0,79.930938082051611,419.90043708901015,76.136660186581977,120.6878171284084,-186.56679842823524,-113.54526542140063,487.77734401292878,389.22279894371172,-119.29885414815604,119.29885414815604,-389.22279894371172,844.85538704808914,0.0
477154.6038362722,4655833.5216966402,-37500.0,21.812090230098875,392.69745839898889,73.049576850974574,127.10368195281022,-169.79932833593,-104.68247212672884,455.36614215807901,341.10834712108738,-110.62202761778153,110.62202761778153,-341.10834712108738,789.11518354065413,0.0
272154.6038362722,4660833.5216966402,-37500.0,-1334.852486076634,-126.51981659761917,383.28013750362703,-737.76500381254721,-65.601176612024943,-303.18456848644433,1060.8717518172027,-318.63869735963027,370.33405741200505,-370.33405741200505,318.63869735963027,1984.3386898734714,0.0
277154.6038362722,4660833.5216966402,-37500.0,-1470.8194586701545,-166.48770540279384,427.23964800935721,-849.20471186097245,-89.963196675437246,-359.17617390230419,1193.6805039352757,-356.99162680767046,422.91454583775334,-422.91454583775334,356.99162680767046,2235.9103361596194,0.0
282154.6038362722,4660833.5216966402,-37500.0,-1621.756952391074,-217.4378380808144,476.06597296664961,-980.93603055117762,-122.535613630797,-427.05742527498552,1347.8000261393497,-401.61336657527619,485.5562211056743,-485.5562211056743,401.61336657527619,2528.9304038588311,0.0
287154.6038362722,4660833.5216966402,-37500.0,-1788.6144282604848,-282.42918969309454,529.71667634382095,-1137.3724742534375,-166.27709881409945,-509.8144442707914,1527.4318954259593,-453.66971328355839,560.69511518576746,-560.69511518576746,453.66971328355839,2872.0024596241956,0.0
292154.6038362722,4660833.5216966402,-37500.0,-1971.7648515613585,-365.32629409540738,587.70313856439577,-1324.0706258701418,-225.32381975197003,-611.4432583132716,1737.7746739100803,-514.37407293388912,651.3787562080571,-651.3787562080571,514.37407293388912,3275.9491902243831,0.0
297154.6038362722,4660833.5216966402,-37500.0,-2170.4147373439432,-470.91186876337491,648.79246536321421,-1548.0302124705884,-305.49566747790618,-737.45672351418216,1985.2820312281601,-584.7307854495557,761.3081448338055,-761.3081448338055,584.7307854495557,3754.4562531163156,0.0
302154.6038362722,4660833.5216966402,-37500.0,-2381.5681964195355,-604.8852271031808,710.5672997078301,-1817.991749383197,-415.01273115496087,-895.70965963546996,2277.9587832604871,-664.9572601156051,894.71479904226544,-894.71479904226544,664.9572601156051,4324.8408885613644,0.0
307154.6038362722,4660833.5216966402,-37500.0,-2598.2593045146646,-773.56466540222186,768.81491178099714,-2144.5855073445259,-565.47141549004868,-1097.7252313175059,2625.6536399634551,-753.30185826617924,1055.8473379714846,-1055.8473379714846,753.30185826617924,5008.852496246569,0.0
312154.6038362722,4660833.5216966402,-37500.0,-2806.6557034810112,-982.93862587740966,816.76520988409106,-2539.9769537340358,-773.07283882665399,-1360.7498698542536,3040.2510113349726,-843.79525296687837,1247.6420264669805,-1247.6420264669805,843.79525296687837,5833.2303232795102,0.0
317154.6038362722,4660833.5216966402,-37500.0,-2981.5988358473892,-1236.4286412542804,844.34288073391247,-3016.2625554826168,-1059.9127570078704,-1710.7162300750135,3535.6171194320605,-922.26280217467718,1468.8467406526656,-1468.8467406526656,922.26280217467718,6829.3983454617091,0.0
322154.6038362722,4660833.5216966402,-37500.0,-3080.4060609375074,-1530.3459690040618,837.94331606372066,-3581.2255125019997,-1454.6815236382834,-2185.9549685880461,4127.3686091276968,-959.82091200547006,1708.4984074240181,-1708.4984074240181,959.82091200547006,8031.091618874475,0.0
327154.6038362722,4660833.5216966402,-37500.0,-3035.7984854744996,-1845.7205781508644,781.92212358193888,-4229.2382473934613,-1991.1526400836203,-2840.4756569416122,4834.2834352794052,-903.48047405285388,1936.4654235085054,-1936.4654235085054,903.48047405285388,9467.8900497451359,0.0
332154.6038362722,4660833.5216966402,-37500.0,-2751.416887659916,-2135.5384177269552,664.08654164092161,-4924.6448069250573,-2701.1311542565113,-3743.3367893572613,5685.6205119642309,-665.23512169808282,2089.4597916094231,-2089.4597916094231,665.23512169808282,11151.849871396154,0.0
337154.6038362722,4660833.5216966402,-37500.0,-2108.2482283420081,-2308.7898685369801,488.62190926596537,-5576.4825910745931,-3596.298237628856,-4966.5696070307222,6701.349026038537,-115.49087215136763,2054.9723701926396,-2054.9723701926396,115.49087215136763,13054.482537666534,0.0
342154.6038362722,4660833.5216966402,-37500.0,-996.51966303620816,-2219.2310156027061,299.49528437823682,-6010.2016421744993,-4632.3642921716119,-6549.2776809401012,7834.479860099962,905.07239187715049,1663.0927642848924,-1663.0927642848924,-905.07239187715049,15074.089053295613,0.0
347154.6038362722,4660833.5216966402,-37500.0,610.66833385051143,-1678.679106533232,211.7519035041004,-5958.16141850229,-5654.1876825858262,-8425.2772050122549,8977.0442800688779,2531.561841555038,708.86620163045541,-708.86620163045541,-2531.561841555038,17001.921276878216,0.0
352154.6038362722,4660833.5216966402,-37500.0,2543.7806864630729,-527.19105270574437,432.23797306399575,-5114.979173363,-6341.3159056491504,-10319.816786041532,9963.2998950283982,4756.7834853629174,-961.16524722713189,961.16524722713189,-4756.7834853629174,18512.925386055467,0.0
357154.6038362722,4660833.5216966402,-37500.0,4345.3528152117506,1215.6848088929223,1224.9693518164268,-3313.0008684218205,-6217.0209479271898,-11677.208539970969,10585.525199785925,7268.0134536229198,-3280.638305542836,3280.638305542836,-7268.0134536229198,19229.622231660796,0.0
362154.6038362722,4660833.5216966402,-37500.0,5356.7988008730663,3168.2901388624159,2762.5671962132001,-800.15341280395239,-4826.2267500162661,-11765.949205728646,10663.306287898213,9364.8074717126183,-5782.9032068954084,5782.9032068954084,-9364.8074717126183,18905.302972199817,0.0
367154.6038362722,4660833.5216966402,-37500.0,5126.2089245582865,4578.0778070131364,4876.3144358400832,1610.6994609462436,-2118.9821019009955,-10094.001259248424,10155.949527004428,10187.396506644174,-7628.5885480961588,7628.5885480961588,-10187.396506644174,17664.753085703909,0.0
372154.6038362722,4660833.5216966402,-37500.0,3915.5457399208258,4728.0237362358057,6925.6041028896425,2895.3315038820929,1224.0076421693491,-6942.9704002978197,9232.5589949303758,9311.2185027539508,-8050.8613613835059,8050.8613613835059,-9311.2185027539508,16011.203404515698,0.0
377154.6038362722,4660833.5216966402,-37500.0,2647.5391147236569,3560.2537547546262,8096.969051053843,2608.8471805372187,4024.8949192589284,-3406.9171625061672,8190.3814734914868,7205.115704573027,-6968.0223412942432,6968.0223412942432,-7205.115704573027,14366.275484319203,0.0
382154.6038362722,4660833.5216966402,-37500.0,2107.8246028433109,1795.3558861775177,7994.5805791398188,1278.1555382527176,5408.7150016162559,-650.03338143015026,7199.4625446214222,4904.9657587417123,-5067.4009660814927,5067.4009660814927,-4904.9657587417123,12681.800364171642,0.0
387154.6038362722,4660833.5216966402,-37500.0,2315.818611368652,306.72574228302483,6885.3146834539248,-148.60905535509215,5353.9692591554058,875.06489947057116,6150.7593954264648,3188.6658893966687,-3196.3405391047318,3196.3405391047318,-3188.6658893966687,10764.898537347792,0.0
392154.6038362722,4660833.5216966402,-37500.0,2781.1582471001125,-500.84884888555376,5362.8609890115786,-1086.9496947323421,4442.2508954684827,1420.4778879447347,4999.2988573044349,2203.806826152655,-1801.3892706993176,1801.3892706993176,-2203.806826152655,8690.6397337180333,0.0
397154.6038362722,4660833.5216966402,-37500.0,3093.500955826813,-710.1548650532585,3906.9385645975331,-1480.843772167352,3281.5376820271581,1429.331932056388,3879.5586768194403,1732.3017627549432,-918.18497982329768,918.18497982329768,-1732.3017627549432,6721.7527669347664,0.0
402154.6038362722,4660833.5216966402,-37500.0,3132.9353848564288,-577.51973108519883,2734.3117750696179,-1510.5055119842764,2221.0034186883595,1210.9216695354414,2927.6753848002431,1529.1354874907508,-419.39278579670258,419.39278579670258,-1529.1354874907508,5072.5648188031437,0.0
407154.6038362722,4660833.5216966402,-37500.0,2953.8888097466165,-314.47504194415438,1874.0323108434777,-1352.2245619461007,1380.9793420981632,920.89280058828558,2204.137750721045,1439.804513275491,-172.06981028866278,172.06981028866278,-1439.804513275491,3821.956064956426,0.0
412154.6038362722,4660833.5216966402,-37500.0,2647.6667139464548,-39.915175444790229,1275.4615435215278,-1116.0169923899,765.26128769936679,631.85000372703246,1700.7756152061747,1385.7187029390525,-76.631636147187805,76.631636147187805,-1385.7187029390525,2945.9269996902403,0.0
417154.6038362722,4660833.5216966402,-37500.0,2286.0031600547727,194.49571664636525,871.94270741914147,-861.83072560347023,337.17212934027572,378.80770716207439,1362.2352644099012,1331.0022560208281,-64.193060030180732,64.193060030180732,-1331.0022560208281,2371.2590070332112,0.0
422154.6038362722,4660833.5216966402,-37500.0,1914.7244332648627,373.23834730546378,605.36965657343046,-621.66872098434999,53.226092817538024,176.58695277945012,1127.062824377527,1262.1575267153357,-89.57547537660696,89.57547537660696,-1262.1575267153357,2011.3500088775249,0.0
427154.6038362722,4660833.5216966402,-37500.0,1560.888146790965,497.43457147704481,431.65363929554695,-411.80028040149313,-125.35663597934551,27.144376946777154,963.21220032939209,1177.4412878683358,-125.64602098256455,125.64602098256455,-1177.4412878683358,1787.1174734639535,0.0
432154.6038362722,4660833.5216966402,-37500.0,1239.4259682795935,574.8477855656721,319.43414264389077,-238.69310843565657,-229.78139590772088,-75.178142477537151,878.65738332998581,1080.7212895657756,-158.20760918955671,158.20760918955671,-1080.7212895657756,1638.8457800786532,0.0
437154.6038362722,4660833.5216966402,-37500.0,957.36091460788577,615.09922447492124,247.2066067932827,-102.57865495428229,-283.78667824252904,-139.40381457506041,842.89876565676957,977.71510046683318,-181.42928192434454,181.42928192434454,-977.71510046683318,1528.5786732937293,0.0
442154.6038362722,4660833.5216966402,-37500.0,716.49851416071817,627.46084792689567,200.586286983435,-0.076045459082552558,-304.71767609725322,-175.0223624288617,809.61620705475559,873.88974804372447,-194.24952231990568,194.24952231990568,-873.88974804372447,1435.516746436693,0.0
447154.6038362722,4660833.5216966402,-37500.0,515.31995660513644,619.92962534889648,170.13466279736866,73.875648403077619,-304.83329867173461,-190.4301017932207,771.36521624261638,773.53035290004641,-197.91502656729693,197.91502656729693,-773.53035290004641,1349.7046217973848,0.0
452154.6038362722,4660833.5216966402,-37500.0,350.38162296563758,598.95580049601404,149.75946137286823,124.73099401935285,-292.54520831985002,-192.34659931379858,729.1103315478133,679.52853545993162,-194.50009799780258,194.50009799780258,-679.52853545993162,1267.1170340789342,0.0
457154.6038362722,4660833.5216966402,-37500.0,217.32310213393993,569.49955821303445,135.58730331252434,157.59654696226991,-273.46630122357197,-185.79763767388647,684.73868807049985,593.53512697375936,-186.12702815455631,186.12702815455631,-593.53512697375936,1186.6290005536832,0.0
462154.6038362722,4660833.5216966402,-37500.0,111.54621372195327,535.23078612496397,125.19134774635678,176.88204855441887,-251.23554402638783,-174.35552908352457,639.89018451634558,516.2428036439901,-174.62178081901885,174.62178081901885,-516.2428036439901,1108.3604197719778,0.0
467154.6038362722,4660833.5216966402,-37500.0,28.633353208386094,498.77279674477103,117.07431595262976,186.2000549155814,-228.13558113369913,-160.4534130406999,595.78417137983706,447.67650974226672,-161.41113677640092,161.41113677640092,-447.67650974226672,1032.8457990029585,0.0
472154.6038362722,4660833.5216966402,-37500.0,-35.425585495414047,461.93697669038693,110.32821778780996,188.40186756577671,-205.53808141360454,-145.68220915541141,553.25515234037607,387.43737094901991,-147.53698474772165,147.53698474772165,-387.43737094901991,960.6517722931535,0.0
477154.6038362722,4660833.5216966402,-37500.0,-84.135750645853093,425.9255894876934,104.41360492844782,185.67583329975986,-184.21584453334515,-131.03582057998466,512.83119266036704,334.88656866073188,-133.71746299551143,133.71746299551143,-334.88656866073188,892.22432980567135,0.0
267154.6038362722,4665833.5216966402,-37500.0,-1175.9657096507785,9.1770836236219093,368.11878180275465,-627.16126712835705,-3.4993459051759985,-252.23080840923365,930.65849763307028,-188.83369560961285,267.99220031040272,-267.99220031040272,188.83369560961285,1729.5784188965076,0.0
272154.6038362722,4665833.5216966402,-37500.0,-1297.4657920293796,-5.093572097820382,414.57712984608668,-720.89160077076519,-12.894715701542269,-298.14092540493408,1044.9274837883556,-206.87920800973467,303.17985878376004,-303.17985878376004,206.87920800973467,1943.8325147846583,0.0
277154.6038362722,4665833.5216966402,-37500.0,-1433.8749732011229,-24.718622946769067,467.98737106671069,-831.85083781863079,-26.299586616536889,-353.72938553681303,1177.4631405585942,-227.3919754165793,344.85005802739136,-344.85005802739136,227.3919754165793,2193.0212339275804,0.0
282154.6038362722,4665833.5216966402,-37500.0,-1587.0086541279677,-51.460469650265253,529.35832742011701,-963.95170721529905,-45.32374545956003,-421.41240289758639,1331.9392053496504,-250.82245859064511,394.63134595149035,-394.63134595149035,250.82245859064511,2484.4537324321941,0.0
287154.6038362722,4665833.5216966402,-37500.0,-1758.6901799607294,-87.648660149354242,599.74218647597377,-1122.2346516951377,-72.271826381265569,-504.41274843486406,1512.9595564105721,-277.63326264445095,454.62727068033121,-454.62727068033121,277.63326264445095,2827.4078172822828,0.0
292154.6038362722,4665833.5216966402,-37500.0,-1950.5011923543314,-136.33375602258903,680.14988382785236,-1313.2585297690262,-110.47212550335544,-607.16534330292177,1726.3462445257073,-308.1616148604225,527.50918808133304,-527.50918808133304,308.1616148604225,3233.7818787992856,0.0
297154.6038362722,4665833.5216966402,-37500.0,-2163.2642541240848,-201.43698695394687,771.39683571322212,-1545.6089836499077,-164.76757730730731,-735.99440278031921,1979.5189299783453,-342.29088595181213,616.54224486115356,-616.54224486115356,342.29088595181213,3718.9620429732577,0.0
302154.6038362722,4665833.5216966402,-37500.0,-2396.0281276921719,-287.82633719063153,873.84389710069263,-1830.4998693493199,-242.23937593679744,-900.25043485889762,2281.9792052047364,-378.73988329146744,725.40998424862062,-725.40998424862062,378.73988329146744,4302.9261431918612,0.0
307154.6038362722,4665833.5216966402,-37500.0,-2644.1649617556045,-401.15246103415433,986.99607575943821,-2182.3296524561906,-353.23877635610495,-1114.1975456387554,2645.8932259392959,-413.62223689476127,857.55168019271264,-857.55168019271264,413.62223689476127,5011.5230849503378,0.0
312154.6038362722,4665833.5216966402,-37500.0,-2895.9717322111574,-547.09013275551422,1108.9472578009745,-2618.7873164130683,-512.75973971727694,-1400.045027071081,3086.7331245627038,-437.69069982751364,1014.4558763956551,-1014.4558763956551,437.69069982751364,5877.664423267739,0.0
317154.6038362722,4665833.5216966402,-37500.0,-3126.9652736566436,-729.29155369584157,1235.7638690533233,-3159.5409791810457,-742.001431754073,-1792.5158856361777,3623.9282258892131,-431.37987861494241,1191.9152130739826,-1191.9152130739826,431.37987861494241,6941.7371017401092,0.0
322154.6038362722,4665833.5216966402,-37500.0,-3291.140824562644,-944.83544754475986,1361.1909173842139,-3821.5192162516209,-1069.4470782946541,-2344.941671576586,4281.6527800395879,-356.5632376014313,1372.6743435117482,-1372.6743435117482,356.5632376014313,8249.7740399218746,0.0
327154.6038362722,4665833.5216966402,-37500.0,-3309.5181866842499,-1175.3796518384374,1477.7216159988102,-4607.2595929671033,-1529.5633771184187,-3135.4036839522496,5090.1631750045271,-144.3836798744951,1513.5038511979001,-1513.5038511979001,144.3836798744951,9846.7365219877302,0.0
332154.6038362722,4665833.5216966402,-37500.0,-3059.6991812020838,-1372.2518058141075,1581.277278052878,-5481.3579366518152,-2154.8411973644274,-4267.7312588236418,6084.1493470736059,319.1054392993226,1525.5575213745738,-1525.5575213745738,-319.1054392993226,11760.933369955485,0.0
337154.6038362722,4665833.5216966402,-37500.0,-2377.705448372124,-1436.2039106883901,1683.2531567627084,-6331.1427418772782,-2953.3376280343132,-5854.9029596181153,7281.2637907880207,1201.1125275444026,1251.3862799758297,-1251.3862799758297,-1201.1125275444026,13975.256784355623,0.0
342154.6038362722,4665833.5216966402,-37500.0,-1095.1322371050239,-1201.0209245873898,1833.6775582284777,-6917.2456107599792,-3861.3571927444523,-7962.2961889481803,8645.0698842539241,2702.51997238284,454.23159670843893,-454.23159670843893,-2702.51997238284,16384.472436412409,0.0
347154.6038362722,4665833.5216966402,-37500.0,857.26647214370939,-447.7743943690578,2152.6836597547936,-6846.8972343952591,-4667.3281173244904,-10484.10381997936,10064.797112273667,4972.3589925086508,-1142.3653212320889,1142.3653212320889,-4972.3589925086508,18750.732199161106,0.0
352154.6038362722,4665833.5216966402,-37500.0,3269.8067477239015,1002.583642803838,2847.3364432212379,-5650.54638108379,-4934.3651562184723,-12955.174040051725,11350.841870374212,7919.7456694968596,-3705.2595209120782,3705.2595209120782,-7919.7456694968596,20698.293014869912,0.0
357154.6038362722,4665833.5216966402,-37500.0,5485.1634103439856,3078.1495842800996,4158.3187770199875,-3075.5554023343125,-4020.6431418748716,-14410.361399052246,12267.764293393877,10960.492552701286,-7001.9740562024899,7001.9740562024899,-10960.492552701286,21828.719735998769,0.0
362154.6038362722,4665833.5216966402,-37500.0,6515.5097181273477,5195.8192388120297,6168.1467960100954,405.62021942380454,-1375.6000842520143,-13600.008030033185,12642.16386120286,12938.612605741904,-10114.368479461637,10114.368479461637,-12938.612605741904,22021.066118631661,0.0
367154.6038362722,4665833.5216966402,-37500.0,5755.7826154588547,6283.5886210980007,8504.3557685471005,3325.7874516238126,2822.1637098066522,-9878.0046003965126,12507.90676632284,12654.513650469635,-11615.182911930315,11615.182911930315,-12654.513650469635,21690.261255311678,0.0
372154.6038362722,4665833.5216966402,-37500.0,3878.9665986838736,5495.0152325977197,10267.131631081629,4022.9165407987557,7206.638935626298,-4281.4852668798158,12105.312078528386,9989.5548779765504,-10580.133788622306,10580.133788622306,-9989.5548779765504,21318.443290613035,0.0
377154.6038362722,4665833.5216966402,-37500.0,2519.5357056143584,3166.1825084715856,10584.304907935746,2258.0099721788397,9903.5505977882258,753.26654430110125,11556.282961332912,6386.4895394774539,-7629.0539522827348,7629.0539522827348,-6386.4895394774539,20543.019924908142,0.0
382154.6038362722,4665833.5216966402,-37500.0,2606.0239747475325,663.64200588222366,9376.908148121609,-417.26749279301805,10050.717535032765,3388.2638268006872,10529.471600970208,3621.8338109079305,-4454.0473636824436,4454.0473636824436,-3621.8338109079305,18602.54508839914,0.0
387154.6038362722,4665833.5216966402,-37500.0,3573.0293961984621,-886.06459868592174,7351.3417473653853,-2296.4068462572181,8328.2711142903299,3723.8746809138697,8849.5673069462919,2300.9772897314997,-2248.150781201246,2248.150781201246,-2300.9772897314997,15491.434465847833,0.0
392154.6038362722,4665833.5216966402,-37500.0,4385.3835960115357,-1326.0923059930387,5304.5164816683964,-2898.4104537634448,5997.3511194839894,2961.8903118621029,6866.85466675926,1938.0371566794483,-1091.6525076770663,1091.6525076770663,-1938.0371566794483,11939.936813907894,0.0
397154.6038362722,4665833.5216966402,-37500.0,4581.9554841607905,-1089.1947878637316,3656.0988403908304,-2666.1697190165401,3909.5381193977523,2046.0344697236396,5019.9259520657597,1911.359582860661,-566.91590733246335,566.91590733246335,-1911.359582860661,8699.3155068423384,0.0
402154.6038362722,4665833.5216966402,-37500.0,4266.9830110131179,-617.45444385170208,2476.7548601592739,-2131.4229266484981,2343.8989713929986,1314.1126443323737,3553.7480054132388,1912.8962555135913,-337.6311252072245,337.6311252072245,-1912.8962555135913,6155.6702957511907,0.0
407154.6038362722,4665833.5216966402,-37500.0,3698.8121053639961,-154.7057890133332,1682.152524963125,-1580.4177604998167,1269.3504100998857,783.65932067757171,2521.921699960888,1866.9824941214545,-245.52145367667504,245.52145367667504,-1866.9824941214545,4368.6238974249327,0.0
412154.6038362722,4665833.5216966402,-37500.0,3066.7892318016934,211.82551146962805,1161.6498115750767,-1107.1701939936429,567.79251648623688,402.09558941810172,1861.7872247258122,1776.9321594442297,-224.36656992607163,224.36656992607163,-1776.9321594442297,3229.9826934511429,0.0
417154.6038362722,4665833.5216966402,-37500.0,2465.7432314473408,470.75111257358287,824.596435293333,-724.6683712743021,127.24675879036168,128.89050218480494,1455.1897048796413,1656.951221552471,-238.76716140777114,238.76716140777114,-1656.951221552471,2570.5938813603311,0.0
422154.6038362722,4665833.5216966402,-37500.0,1932.0586351595173,637.25992454479137,606.8177970065359,-424.16015982785819,-137.06684459608783,-60.424652257662736,1210.2735633793659,1518.2955548624452,-265.2863142617914,265.2863142617914,-1518.2955548624452,2213.6239123738487,0.0
427154.6038362722,4665833.5216966402,-37500.0,1474.9118849376557,732.09012555753452,465.43354011014736,-194.01922086054921,-285.0282021136656,-183.41903974044237,1100.0793804090351,1369.8961818524049,-289.36619283453308,289.36619283453308,-1369.8961818524049,2014.8400148413957,0.0
432154.6038362722,4665833.5216966402,-37500.0,1092.3925587066822,774.38483708508488,372.52313011524296,-23.151892140986803,-357.8975697504402,-255.4101956818954,1054.9455013418137,1219.4031870219685,-303.97365126093251,303.97365126093251,-1219.4031870219685,1883.9952042542852,0.0
437154.6038362722,4665833.5216966402,-37500.0,778.22492157140994,779.85024699594203,310.17182221178905,98.918037216722155,-383.68479483342139,-290.12749837900708,1012.7126607110022,1073.0996511240116,-307.37841126869301,307.37841126869301,-1073.0996511240116,1776.4854512509612,0.0
442154.6038362722,4665833.5216966402,-37500.0,524.44344776721994,760.6703428931728,267.0124824761952,181.97942658659554,-381.103380965665,-299.18422555315266,963.05364260567455,935.58595543507226,-300.81640444889302,300.81640444889302,-935.58595543507226,1674.3754020203853,0.0
447154.6038362722,4665833.5216966402,-37500.0,322.61201629353712,725.94858358539591,235.90412411650053,234.83378600087843,-362.41699159240267,-291.72381408486871,907.38428787696535,809.73237138258048,-286.7275347112203,286.7275347112203,-809.73237138258048,1572.3046755217895,0.0
452154.6038362722,4665833.5216966402,-37500.0,164.50828861243298,682.2728439998757,212.401483208445,265.02678005073767,-335.47926383205089,-274.49448699874267,848.57929648590118,696.91100687197479,-267.70073868364148,267.70073868364148,-696.91100687197479,1469.9958276262455,0.0
457154.6038362722,4665833.5216966402,-37500.0,42.539413795203814,634.26616959449382,193.7605466093226,278.74533652060455,-305.18107430729879,-252.20494714379331,789.12650690710893,597.36286475647944,-245.97023919710568,245.97023919710568,-597.36286475647944,1368.8307855191342,0.0
462154.6038362722,4665833.5216966402,-37500.0,-50.031601632537985,585.06632840839359,178.29905087753554,280.87218932285731,-274.45893524123352,-227.97433839712394,730.83911935954882,510.5683897946293,-223.25112864135568,223.25112864135568,-510.5683897946293,1270.4277992691943,0.0
467154.6038362722,4665833.5216966402,-37500.0,-119.00040435995959,536.72121438092211,164.99113681930552,275.14020022621304,-244.98561626179912,-203.75975780988563,674.92065069066302,435.55905717187608,-200.75107307881905,200.75107307881905,-435.55905717187608,1176.1273377661555,0.0
472154.6038362722,4665833.5216966402,-37500.0,-169.23456703500028,490.49885366206712,153.21257452623942,264.32715512260023,-217.63376832881909,-180.70916572702527,622.09938705031027,371.14768582493315,-179.25392447217365,179.25392447217365,-371.14768582493315,1086.8629442358385,0.0
477154.6038362722,4665833.5216966402,-37500.0,-204.74620502758606,447.12273893924657,142.58252265535046,250.4512260005354,-192.78201480775112,-159.42981368682192,572.75768582964588,316.08447457852594,-159.22012978745136,159.22012978745136,-316.08447457852594,1003.1846950564734,0.0
267154.6038362722,4670833.5216966402,-37500.0,-1113.1404582553096,112.18210974649084,377.53182778122044,-600.13715420816709,39.480665387584551,-244.02125023030095,906.61558550825475,-89.926384502798257,205.15471977726457,-205.15471977726457,89.926384502798257,1674.7610585076266,0.0
272154.6038362722,4670833.5216966402,-37500.0,-1228.3446827641894,115.72473938650629,427.9445141418642,-690.08231913540214,39.172183961396598,-288.40069736898363,1018.3149906044218,-91.865475132055167,229.58375701834746,-229.58375701834746,91.865475132055167,1882.3895394467229,0.0
277154.6038362722,4670833.5216966402,-37500.0,-1358.2127930947167,117.63510410217359,486.82696059506111,-796.87645665523848,37.130178219712242,-342.19417528064923,1148.1479377277951,-93.041096927084226,258.30306797997036,-258.30306797997036,93.041096927084226,2124.2780065598863,0.0
282154.6038362722,4670833.5216966402,-37500.0,-1504.8086879526672,117.03949315732369,555.79551320771452,-924.54095320673753,32.403525375499356,-407.8187047623685,1299.8961001987818,-93.130056916212865,292.43101215046738,-292.43101215046738,93.130056916212865,2407.8179220576453,0.0
287154.6038362722,4670833.5216966402,-37500.0,-1670.3638752070219,112.72177299925667,636.76809238531587,-1078.3621404858204,23.561794366303506,-488.55631575874133,1478.3636217004075,-91.597714392621114,333.42328510764781,-333.42328510764781,91.597714392621114,2742.5024722678422,0.0
292154.6038362722,4670833.5216966402,-37500.0,-1857.0895245176462,103.01965304531109,731.99334423964899,-1265.3822183010834,8.4434639598584127,-589.02903322274869,1689.7261357495677,-87.475515393741944,383.11376446333736,-383.11376446333736,87.475515393741944,3140.6756143360863,0.0
297154.6038362722,4670833.5216966402,-37500.0,-2066.7200188990068,85.726158015012615,844.05819794977106,-1495.0682175884442,-16.230816396542206,-716.01343140853726,1942.0099899429047,-78.900842991594772,443.65336074215463,-443.65336074215463,78.900842991594772,3618.5570283451516,0.0
302154.6038362722,4670833.5216966402,-37500.0,-2299.5203940201509,58.056368068770254,975.85312194204994,-1780.157282998802,-55.443133958806001,-879.84393494603137,2245.7384295778647,-62.191774148362811,517.17562028022644,-517.17562028022644,62.191774148362811,4197.594018935134,0.0
307154.6038362722,4670833.5216966402,-37500.0,-2552.2726715870899,16.828120532526192,1130.4679150452635,-2137.5506558616858,-116.73096898718663,-1096.8012452696405,2614.7739145340311,-30.044493621759898,604.82794681090286,-604.82794681090286,30.044493621759898,4906.1133232204284,0.0
312154.6038362722,4670833.5216966402,-37500.0,-2814.4294862524889,-40.810615689405012,1310.997978782716,-2588.8005833449733,-211.33686134923263,-1393.0487283366892,3067.3644690981773,31.845443473586101,704.45967967256797,-704.45967967256797,-31.845443473586101,5781.031354195994,0.0
317154.6038362722,4670833.5216966402,-37500.0,-3061.2315793348207,-115.42340464008494,1520.2963124455343,-3158.9918385522151,-355.49628268615754,-1810.7271775047188,3627.3656263284192,150.80184258073609,805.68468470366736,-805.68468470366736,-150.80184258073609,6868.8956246637499,0.0
322154.6038362722,4670833.5216966402,-37500.0,-3242.4272833514092,-200.82537111017029,1760.8953062492737,-3871.3529036417813,-571.14059461654494,-2416.32697204849,4325.5117831647549,377.11697485204388,880.26811636928903,-880.26811636928903,-377.11697485204388,8224.6063401377178,0.0
327154.6038362722,4670833.5216966402,-37500.0,-3266.2078732310169,-275.10154722493706,2035.8140775417471,-4732.4962063152807,-883.88305302450817,-3309.389697629369,5199.8047433324773,798.57960422954886,865.24377536831219,-865.24377536831219,-798.57960422954886,9904.6758545528919,0.0
332154.6038362722,4670833.5216966402,-37500.0,-2982.2064326230288,-284.85993997946093,2351.9838161224379,-5700.3711567072942,-1313.2150048067201,-4623.9147896553359,6290.3212758334193,1556.828757094625,637.41215087196144,-637.41215087196144,-1556.828757094625,11950.134188541648,0.0
337154.6038362722,4670833.5216966402,-37500.0,-2178.3785691489734,-123.09587527607439,2729.4578095471816,-6627.295565135486,-1845.0771029666869,-6502.8137297232779,7619.4736962315765,2852.9720007920173,-15.139325110545997,15.139325110545997,-2852.9720007920173,14353.840720540376,0.0
342154.6038362722,4670833.5216966402,-37500.0,-626.33999060737926,388.32984132720742,3219.5685931973153,-7183.8915325113121,-2373.2077552893711,-9007.44410285714,9160.1998997999053,4909.6443905028354,-1399.0009822731374,1399.0009822731374,-4909.6443905028354,17012.951455328679,0.0
347154.6038362722,4670833.5216966402,-37500.0,1772.2782590626327,1476.3429801862026,3927.6050240069508,-6814.5199947361452,-2605.0355335508334,-11914.522270606991,10810.298652145955,7831.0358315459789,-3835.7924462294368,3835.7924462294368,-7831.0358315459789,19689.690555346457,0.0
352154.6038362722,4670833.5216966402,-37500.0,4713.5787598061452,3290.3602399403267,5011.7462596265868,-4860.7639014969945,-1976.3350171804484,-14403.531292890615,12395.01814850335,11311.134531796766,-7399.9934308817192,7399.9934308817192,-11311.134531796766,22052.915691071405,0.0
357154.6038362722,4670833.5216966402,-37500.0,7223.5506393340029,5626.4128120054411,6599.5585525984507,-1059.1609939944078,276.00685329552249,-14846.61710309595,13735.503777485628,14283.346359527148,-11444.44709141493,11444.44709141493,-14283.346359527148,23922.241305011412,0.0
362154.6038362722,4670833.5216966402,-37500.0,7875.8655460278123,7625.8068136090587,8578.9809133675735,3598.6325715308772,4623.7945152227985,-11314.436009967665,14798.686975240835,14983.078463816533,-14246.548116753982,14246.548116753982,-14983.078463816533,25684.678817241554,0.0
367154.6038362722,4670833.5216966402,-37500.0,6011.8012362215022,7926.3247117922183,10377.938818873292,6487.3277623849217,10344.620160146946,-3404.5618517452872,15746.337472858755,12123.136020140179,-13675.815604547688,13675.815604547688,-12123.136020140179,28010.958954284768,0.0
372154.6038362722,4670833.5216966402,-37500.0,3209.6727825588837,5799.9317854301053,11091.435981296227,5185.7764656604941,15105.706954513151,5858.5812629668735,16637.301330125094,6777.0699977158074,-9336.6917178243457,9336.6917178243457,-6777.0699977158074,30239.088023120825,0.0
377154.6038362722,4670833.5216966402,-37500.0,2165.6949309864522,2309.2608633151417,10217.863316110892,485.35557352325401,16524.785451162883,11648.366927243314,16727.46807864666,2140.3405790779698,-3772.5170025873267,3772.5170025873267,-2140.3405790779698,30237.605430322808,0.0
382154.6038362722,4670833.5216966402,-37500.0,3540.6337286717321,-542.23163212546808,8212.9646325158883,-4050.9986067299728,14412.009921605846,11954.524398502921,15114.941992073533,351.15136121534181,-85.241754271354097,85.241754271354097,-351.15136121534181,26954.473754571522,0.0
387154.6038362722,4670833.5216966402,-37500.0,5572.4775864417525,-1745.0984838901009,5995.7363449611084,-5958.4450904138048,10582.898695056258,8863.1714369390684,12191.925013876235,776.14327098095623,1001.371600203486,-1001.371600203486,-776.14327098095623,21476.814084306392,0.0
392154.6038362722,4670833.5216966402,-37500.0,6604.495792348941,-1647.6814859795522,4171.3404760312887,-5517.4582180641546,6865.6145398911049,5350.3488646522137,8973.2067588561695,1749.226814617009,688.2848626042437,-688.2848626042437,-1749.226814617009,15662.796125790246,0.0
397154.6038362722,4670833.5216966402,-37500.0,6396.0878614597787,-1006.1964642954699,2876.6907076073499,-4124.0499528412129,4057.2643724142895,2821.9972655191546,6204.3331304824933,2365.3862675275459,134.69592365521044,-134.69592365521044,-2365.3862675275459,10771.558671864979,0.0
402154.6038362722,4670833.5216966402,-37500.0,5482.0271987695933,-322.54746560633032,2015.9889200145446,-2739.6378155177777,2185.0836858461284,1324.2476994980955,4162.9379223930473,2537.1070100536926,-234.16124988918341,234.16124988918341,-2537.1070100536926,7214.0319961214855,0.0
407154.6038362722,4670833.5216966402,-37500.0,4379.4179932029901,212.51733780540147,1454.4898438898454,-1681.8535335713893,1014.7510519168743,493.444283656153,2825.1218030409359,2444.2686677632623,-414.90854412115334,414.90854412115334,-2444.2686677632623,4899.0148329283347,0.0
412154.6038362722,4670833.5216966402,-37500.0,3356.4296533834422,574.01925102993653,1086.7266907576663,-945.64697265562938,311.54588894273525,29.163986075962043,2029.730146083012,2239.1601394154422,-492.15525718419963,492.15525718419963,-2239.1601394154422,3554.2601244074749,0.0
417154.6038362722,4670833.5216966402,-37500.0,2499.0429957048227,792.69137296375993,842.30888008260285,-446.26388738934617,-94.561976892830259,-235.50260338768771,1594.7873945441133,2000.0317799237037,-522.3714595987658,522.3714595987658,-2000.0317799237037,2863.8176776708897,0.0
422154.6038362722,4670833.5216966402,-37500.0,1810.2913879970815,907.22878433589472,676.39784920311263,-109.01293968726635,-315.19021124411262,-382.74051547895749,1408.3361977992615,1759.5001308623232,-529.14409143590012,529.14409143590012,-1759.5001308623232,2532.0578693021203,0.0
427154.6038362722,4670833.5216966402,-37500.0,1267.2652139773375,950.14273037553073,560.67417721256083,116.62704471744844,-421.70802682266009,-455.1705072310574,1334.6057477922236,1530.6316634539778,-520.35081492377981,520.35081492377981,-1530.6316634539778,2351.9418087011945,0.0
432154.6038362722,4670833.5216966402,-37500.0,843.73170675809729,945.82942768953114,477.24846363463649,263.47025147442105,-459.53608037703879,-478.54019933853999,1274.9940304611985,1319.2875436341026,-499.37825467882357,499.37825467882357,-1319.2875436341026,2218.9349542735058,0.0
437154.6038362722,4670833.5216966402,-37500.0,516.55977179414845,911.81904056699193,414.82700319919962,353.80248343604018,-457.46652023716592,-470.49675916844154,1208.0983930264019,1128.3645236137841,-469.1832080416325,469.1832080416325,-1128.3645236137841,2093.2776904555944,0.0
442154.6038362722,4670833.5216966402,-37500.0,266.56843209544519,860.40182539993998,366.29385116017988,403.66043582848596,-433.56821305369078,-443.64581543599593,1133.7347194212421,959.00591483142045,-432.90479478223449,432.90479478223449,-959.00591483142045,1964.3877371820445,0.0
447154.6038362722,4670833.5216966402,-37500.0,78.02977307724565,800.00105340784921,327.17013422850431,424.98612941395828,-398.98363446696817,-406.83639504469045,1055.3816874769955,811.05078089266863,-393.50938173795748,393.50938173795748,-811.05078089266863,1832.3139363768819,0.0
452154.6038362722,4670833.5216966402,-37500.0,-61.929507531997174,736.23630849682741,294.63057424857914,426.73673340282079,-360.40702956674966,-366.01419696187344,976.4117608021395,683.38730657854308,-353.44249930199913,353.44249930199913,-683.38730657854308,1700.0444575459769,0.0
457154.6038362722,4670833.5216966402,-37500.0,-163.8033011325154,672.72862813090421,266.87912654334815,415.56369334699633,-321.70954281281013,-324.95192575654238,899.33891500634627,574.29993452212318,-314.49597801161474,314.49597801161474,-574.29993452212318,1570.7075394268757,0.0
462154.6038362722,4670833.5216966402,-37500.0,-236.08281212616117,611.7003728313756,242.75666407900837,396.31575532966093,-284.99893115817207,-285.87275332104383,825.81588665327968,481.77057167648286,-277.84110961131273,277.84110961131273,-481.77057167648286,1446.7243745773651,0.0
467154.6038362722,4670833.5216966402,-37500.0,-285.57559673406223,554.41607864430887,221.4975486516021,372.44979751953758,-251.30432566616872,-249.94861609487282,756.81021193114066,403.70680726693166,-244.14234002561699,244.14234002561699,-403.70680726693166,1329.6904464867316,0.0
472154.6038362722,4670833.5216966402,-37500.0,-317.6870458852415,501.49915309599299,202.57914626293152,346.36930644792039,-221.0124039706823,-217.67176653224078,692.79196602411434,338.09256288267682,-213.68881861489857,213.68881861489857,-338.09256288267682,1220.4933991600005,0.0
477154.6038362722,4670833.5216966402,-37500.0,-336.67054759247333,453.15629272353237,185.6302450462957,319.69836477706929,-194.14172128942008,-189.11775691079765,633.89116698348266,283.07545715274682,-186.51332354781118,186.51332354781118,-283.07545715274682,1119.4860600131633,0.0
267154.6038362722,4675833.5216966402,-37500.0,-1025.3430651802671,208.89645016445658,372.02267881389582,-562.51444514678406,79.682683882870009,-232.30799049991526,874.18831676711102,7.0721091224754389,139.85741959719388,-139.85741959719388,-7.0721091224754389,1603.9340008304912,0.0
272154.6038362722,4675833.5216966402,-37500.0,-1128.6275961150416,229.59375562842988,422.90533735942972,-645.84817678521085,88.052402771274842,-274.12099333375113,981.41547284498699,21.196595860078645,152.6676088144076,-152.6676088144076,-21.196595860078645,1801.2218072487874,0.0
277154.6038362722,4675833.5216966402,-37500.0,-1244.8214715071479,252.44821581551361,482.82034208624651,-744.75703708301683,96.958525142811197,-324.72800778639811,1106.1183228200287,39.436385599501918,167.22771708755124,-167.22771708755124,-39.436385599501918,2031.0363321154334,0.0
282154.6038362722,4675833.5216966402,-37500.0,-1375.772109957469,277.5885580601452,553.69635148634484,-863.03997279678276,106.1612792928448,-386.40361991157397,1252.0132810620278,62.976689233467496,183.98599656481656,-183.98599656481656,-62.976689233467496,2300.4856254296483,0.0
287154.6038362722,4675833.5216966402,-37500.0,-1523.4979760533115,305.10512026506228,637.92387698596451,-1005.7565434209702,115.20798805632124,-462.27692735179448,1423.863941274109,93.487965775245357,203.50950710934904,-203.50950710934904,-93.487965775245357,2618.7617100660927,0.0
292154.6038362722,4675833.5216966402,-37500.0,-1690.0109350872528,335.04349591578386,738.46631684854958,-1179.7505335155824,123.29917872959226,-556.83597610167647,1627.8610487788353,133.45756282035049,226.43029688407356,-226.43029688407356,-133.45756282035049,2997.9162929216968,0.0
297154.6038362722,4675833.5216966402,-37500.0,-1876.8574149857866,367.42896146351114,858.98920148400839,-1394.3777717511293,129.07839262987238,-676.81307618958601,1872.1566358482501,186.81335717620806,253.23239035100198,-253.23239035100198,-186.81335717620806,3453.9383043962807,0.0
302154.6038362722,4675833.5216966402,-37500.0,-2084.0762496198895,402.37995327690464,1004.0020199903561,-1662.4429242258736,130.3128914132439,-832.74100086560145,2167.6049359548279,260.09888496662444,283.66310397037199,-283.66310397037199,-260.09888496662444,4008.2001911914708,0.0
307154.6038362722,4675833.5216966402,-37500.0,-2308.0065074816966,440.44377574858754,1178.9979768754777,-2001.2058038025375,123.43811203837465,-1041.6485000348846,2528.7623043365011,364.66062224970955,315.32477507836512,-315.32477507836512,-364.66062224970955,4689.2668824667835,0.0
312154.6038362722,4675833.5216966402,-37500.0,-2536.9542829346337,483.44675677571456,1390.5664672201631,-2432.9203695025813,102.99478240020355,-1331.5666213740178,2975.1749563814269,520.61385349467992,340.58715329498222,-340.58715329498222,-520.61385349467992,5534.8427487433446,0.0
317154.6038362722,4675833.5216966402,-37500.0,-2743.168338048526,536.45667161111157,1646.4504641233818,-2983.4358801954154,61.186809437848098,-1748.5675623339744,3532.897914420239,763.71142118010289,340.2886845286825,-340.2886845286825,-763.71142118010289,6593.126980265868,0.0
322154.6038362722,4675833.5216966402,-37500.0,-2869.1922308521762,611.98120662566316,1955.5627966974662,-3675.4502987226638,-11.635253913489636,-2366.3799887064192,4235.8808585529769,1156.3458462497861,271.82834520307244,-271.82834520307244,-1156.3458462497861,7921.8627328326274,0.0
327154.6038362722,4675833.5216966402,-37500.0,-2807.5891260654862,738.21172750829612,2328.1542550883319,-4509.5955287586421,-123.32847066217136,-3295.7210352084767,5125.7585429820683,1802.7499763641647,48.833150017162097,-48.833150017162097,-1802.7499763641647,9581.8008723423027,0.0
332154.6038362722,4675833.5216966402,-37500.0,-2378.2516967479205,973.28599133305761,2776.7914643808331,-5422.1894386867189,-267.84743563997341,-4682.1933595163246,6245.9690132475871,2863.3913741631281,-488.06618970542513,488.06618970542513,-2863.3913741631281,11619.683060521229,0.0
337154.6038362722,4675833.5216966402,-37500.0,-1322.7253192545643,1424.5810634064342,3319.5150219152356,-6208.0598442287483,-394.32840200655522,-6663.1788221574498,7624.9008561952051,4549.3475066585124,-1598.6011539794467,1598.6011539794467,-4549.3475066585124,14036.997793911674,0.0
342154.6038362722,4675833.5216966402,-37500.0,634.68379718481549,2259.5146525832101,3986.0409205013207,-6416.584208633767,-343.68740849287087,-9224.9924641267316,9251.0203028238975,7048.4843447620824,-3626.2902700834038,3626.2902700834038,-7048.4843447620824,16753.398104183656,0.0
347154.6038362722,4675833.5216966402,-37500.0,3578.3485655297054,3664.6591002769419,4820.4149825070554,-5301.6482611238653,245.2115691823476,-11887.996506764679,11060.176235719628,10302.422662593965,-6837.9572733533523,6837.9572733533523,-10302.422662593965,19615.115973297015,0.0
352154.6038362722,4675833.5216966402,-37500.0,7010.0610262846976,5679.8665999441191,5851.5644978086229,-2049.0634137803177,1985.6832212181666,-13248.325802264178,12974.599453246461,13591.99475175827,-10982.587736008052,10982.587736008052,-13591.99475175827,22571.719700852631,0.0
357154.6038362722,4675833.5216966402,-37500.0,9505.5275439742745,7893.3981071247281,6990.8411427739165,3406.2768040744891,5542.9826733635182,-10791.859966064299,15022.629279646904,15173.578017765602,-14612.401254788601,14612.401254788601,-15173.578017765602,26099.14481089175,0.0
362154.6038362722,4675833.5216966402,-37500.0,9156.7613637463037,9238.6286411507281,7906.2758724950199,9072.5494051678761,10960.569021817511,-2044.3392178713302,17407.461968510073,12797.216121476537,-14898.985904860187,14898.985904860187,-12797.216121476537,31247.624068414705,0.0
367154.6038362722,4675833.5216966402,-37500.0,5593.1756147673932,8439.2852586026511,8094.7559728661054,10730.758670329204,16758.512790989051,12113.295983487082,20241.260840056129,5986.5242187347721,-9494.5190597696092,9494.5190597696092,-5986.5242187347721,37869.706543776665,0.0
372154.6038362722,4675833.5216966402,-37500.0,1894.2288219224126,5345.8523375937557,7276.3469078931548,5582.1697466723299,20106.953244944314,24991.500342955263,22888.312617072093,-1691.2765240498788,-194.77192458894774,194.77192458894774,1691.2765240498788,42781.115919163603,0.0
377154.6038362722,4675833.5216966402,-37500.0,1838.4740724986746,1670.3598405294811,5761.7415420697553,-3194.9014698616534,19175.553340179878,28998.503343724071,23046.874207034794,-5220.1471176714449,7156.6690345812958,-7156.6690345812958,5220.1471176714449,42291.857233306757,0.0
382154.6038362722,4675833.5216966402,-37500.0,5026.4182755014172,-653.16594492354318,4221.9979024703352,-9363.1799143534008,15038.395283303598,23756.699404659401,20054.162780893515,-3718.638137292498,8840.6750241581503,-8840.6750241581503,3718.638137292498,36184.041133044753,0.0
387154.6038362722,4675833.5216966402,-37500.0,8078.2995567526114,-1248.0352641809111,3082.0922968811528,-10438.292968433952,10171.4835450149,15052.522378945805,15404.944671649122,-325.8335684671315,6421.4347623309295,-6421.4347623309295,325.8335684671315,27392.889999403353,0.0
392154.6038362722,4675833.5216966402,-37500.0,9007.2940546785794,-851.42157988421491,2353.4101897369965,-8275.5300276984617,6179.7025318905917,7815.0504169958749,10794.822098359769,2214.6115527792731,3208.9016530637123,-3208.9016530637123,-2214.6115527792731,18972.52441458248,0.0
397154.6038362722,4675833.5216966402,-37500.0,8123.9321855135995,-194.63478800165058,1885.3450817440048,-5405.6585128148772,3428.2186364308741,3381.260128032286,7134.1192108182531,3298.0785385812783,938.69399458625094,-938.69399458625094,-3298.0785385812783,12444.29441921254,0.0
402154.6038362722,4675833.5216966402,-37500.0,6480.1210830139153,371.31982467033168,1556.9774609174171,-3088.5753111753893,1692.6107129986692,1086.3409696531683,4612.771696556998,3417.9424478792675,-248.70354593026468,248.70354593026468,-3417.9424478792675,8025.0964818656203,0.0
407154.6038362722,4675833.5216966402,-37500.0,4812.5141595127325,759.57869405060524,1307.2516613321181,-1539.5726456096882,650.74009469014754,-2.5277608814691543,3066.8393786517263,3119.3960882804486,-748.40781731080256,748.40781731080256,-3119.3960882804486,5357.7632636005146,0.0
412154.6038362722,4675833.5216966402,-37500.0,3416.8239162149289,988.27139323857443,1109.4336455952514,-584.90609433611223,49.984188349187995,-497.32455982834591,2227.6278317238043,2706.6470233188616,-909.35670320044585,909.35670320044585,-2706.6470233188616,3946.7735882603733,0.0
417154.6038362722,4675833.5216966402,-37500.0,2338.4841950420459,1098.9508063356664,950.22435262093268,-14.775752707922749,-278.20288381565297,-708.83983684663963,1857.6101862979542,2301.1964934160533,-924.9843606553751,924.9843606553751,-2301.1964934160533,3292.2478174677676,0.0
422154.6038362722,4675833.5216966402,-37500.0,1532.1460018843927,1129.3334867971075,820.93666179871207,319.94900137738614,-440.83157283312249,-779.99362442476422,1711.0108148062504,1938.6291930905436,-881.99189591060065,881.99189591060065,-1938.6291930905436,2987.2520766804314,0.0
427154.6038362722,4675833.5216966402,-37500.0,936.88272819725228,1107.9924020864476,714.91760727910787,510.1858192992575,-504.99694578810806,-777.35350735347254,1615.1568309102909,1624.0603436900765,-815.5120787994515,815.5120787994515,-1624.0603436900765,2799.3302196284476,0.0
432154.6038362722,4675833.5216966402,-37500.0,500.39986768040666,1055.2770823909416,626.95993128697887,609.66066217531716,-512.53184594768584,-735.05182775939579,1520.4079468616128,1354.3399387634272,-739.99426462583097,739.99426462583097,-1354.3399387634272,2634.894949865226,0.0
437154.6038362722,4675833.5216966402,-37500.0,182.72616024949278,985.24157287059677,553.08468533082828,651.05857250474639,-489.26159122743661,-672.67164199804972,1419.4419148309007,1124.8370273112521,-662.31795470006341,662.31795470006341,-1124.8370273112521,2467.2940815340835,0.0
442154.6038362722,4675833.5216966402,-37500.0,-45.864106079735713,907.33507661299177,490.31930395635879,655.25795302697338,-450.85782984420945,-602.19115457030023,1314.6615674977959,930.93961116807725,-586.43143342109067,586.43143342109067,-930.93961116807725,2294.1150570542104,0.0
447154.6038362722,4675833.5216966402,-37500.0,-207.54543742434709,827.70609911191912,436.46208703506738,636.13976382401211,-406.58747928630868,-530.94785784928092,1209.881860193108,768.2373152136297,-514.80403763614413,514.80403763614413,-768.2373152136297,2119.6372569597133,0.0
452154.6038362722,4675833.5216966402,-37500.0,-319.0251613521653,750.18108756537242,389.87340146856781,603.11869267664963,-361.72472604459784,-463.21678076122771,1108.250741425147,632.53955166714104,-448.90664958195515,448.90664958195515,-632.53955166714104,1948.7563789076808,0.0
457154.6038362722,4675833.5216966402,-37500.0,-392.98791432265364,676.98734628920818,349.31238217829821,562.58571888546385,-319.09512140518899,-401.23564475389799,1011.8905619127199,519.93010846828338,-389.45888833306208,389.45888833306208,-519.93010846828338,1785.2475491902378,0.0
462154.6038362722,4675833.5216966402,-37500.0,-439.09539891465147,609.27978801892993,313.81964313975823,518.82081661893722,-280.05484549600084,-345.92851670906089,922.02499805873538,426.83856584312576,-336.63041971177876,336.63041971177876,-426.83856584312576,1631.5321726683071,0.0
467154.6038362722,4675833.5216966402,-37500.0,-464.70274268667242,547.51413341793807,282.63557399988906,474.61688143775979,-245.10216838472292,-297.41427715713576,839.20488771857708,350.09003362641073,-290.21714880103838,290.21714880103838,-350.09003362641073,1488.8931661513491,0.0
472154.6038362722,4675833.5216966402,-37500.0,-475.3924774931624,491.70798816981448,255.14565162157771,431.72602493973858,-214.25481960412321,-255.3537294943753,763.52013171103022,286.92388419883582,-249.78647896804981,249.78647896804981,-286.92388419883582,1357.7790745578477,0.0
477154.6038362722,4675833.5216966402,-37500.0,-475.38321419411625,441.61807884595015,230.84349772463577,391.18184155297865,-187.27813737908835,-219.17607053578828,694.76525928130718,234.98279448608685,-214.78651799179681,214.78651799179681,-234.98279448608685,1238.0737154333178,0.0
482154.6038362722,4675833.5216966402,-37500.0,-467.84617622895365,396.85808203461374,209.30566179220023,353.53122355917401,-163.82030351809783,-188.21996660637734,632.55936628802851,192.28205905065269,-184.6220257629017,184.6220257629017,-192.28205905065269,1129.3047828177748,0.0
267154.6038362722,4680833.5216966402,-37500.0,-915.43487446726044,294.53021870674627,352.58673274722486,-515.44599853870909,115.25271181071685,-217.43034865025817,834.09915186773503,98.031685934297457,74.846492789396734,-74.846492789396734,-98.031685934297457,1518.9311169097061,0.0
272154.6038362722,4680833.5216966402,-37500.0,-1001.7169524993066,330.33423094141546,400.57066121921059,-589.6052795425968,131.28206675710638,-255.73387053050448,935.09815827019975,127.02778698577318,75.951968503511168,-75.951968503511168,-127.02778698577318,1702.582945652917,0.0
277154.6038362722,4680833.5216966402,-37500.0,-1097.7276544949755,371.67991004515744,457.16551241050644,-677.22380692958609,149.8785043932107,-301.87874053858576,1052.417301090064,163.23243929638045,76.17398426366438,-76.17398426366438,-163.23243929638045,1916.072293777705,0.0
282154.6038362722,4680833.5216966402,-37500.0,-1204.6245853751634,419.62862142600915,524.27463437404708,-781.54511267839428,171.46386841372657,-357.85485533329546,1189.5344277075264,208.63445074270325,75.227580852649368,-75.227580852649368,-208.63445074270325,2165.8795825059851,0.0
287154.6038362722,4680833.5216966402,-37500.0,-1323.5623230529513,475.50720647803473,604.29086790084148,-906.91251994458355,196.5133539425706,-426.42009091372472,1350.9258088082097,265.96587486353121,72.689772066891933,-72.689772066891933,-265.96587486353121,2460.4000400660598,0.0
292154.6038362722,4680833.5216966402,-37500.0,-1455.4560468410075,541.00907420061696,700.23145615049157,-1059.2408235332239,225.55186802123328,-511.58349845107693,1542.4400478134344,339.13233129798004,67.830603215225921,-67.830603215225921,-339.13233129798004,2810.6683366240095,0.0
297154.6038362722,4680833.5216966402,-37500.0,-1600.4290670296409,618.3588817936112,815.90415791963665,-1246.6684589011065,259.14734006856611,-619.4704903826314,1771.8293180460928,433.97601847601948,59.22022624865761,-59.22022624865761,-433.97601847601948,3231.3689162597229,0.0
302154.6038362722,4680833.5216966402,-37500.0,-1756.6094274319566,710.59606841819118,956.10153976761296,-1480.3732722130874,297.91009878176106,-759.86623634965565,2049.4943073245618,559.64255158712149,43.85471320193318,-43.85471320193318,-559.64255158712149,3742.1956480219742,0.0
307154.6038362722,4680833.5216966402,-37500.0,-1917.642687382564,822.0869397207623,1126.804074570859,-1775.3582186574558,342.53369057443899,-948.91231840283513,2389.4996907813056,731.0163439978968,15.290417499602768,-15.290417499602768,-731.0163439978968,4369.5544154620302,0.0
312154.6038362722,4680833.5216966402,-37500.0,-2067.8006948318903,959.48017231852134,1335.3373391767966,-2150.53630807012,393.98644892987488,-1213.6152687124602,2810.887053245438,972.95675356169045,-40.166492335706323,40.166492335706323,-972.95675356169045,5148.3951009037992,0.0
317154.6038362722,4680833.5216966402,-37500.0,-2172.9120505123528,1133.512617689033,1590.3573576487954,-2626.3175188652176,454.16140238998378,-1598.7803994476076,3339.1990758425009,1327.3024703345084,-150.84673577673561,150.84673577673561,-1327.3024703345084,6123.4943572918528,0.0
322154.6038362722,4680833.5216966402,-37500.0,-2164.8712185892427,1362.3757854958726,1901.4072733455621,-3215.5353359830651,527.78748179320075,-2175.9512857527375,4007.7746736587956,1863.3629206052069,-373.04487386024186,373.04487386024186,-1863.3629206052069,7348.6517737645308,0.0
327154.6038362722,4680833.5216966402,-37500.0,-1918.6028093264413,1677.6574870741342,2277.5830987791346,-3899.3233163158311,627.54654171298705,-3049.9217755627569,4857.4681993314389,2690.4983726540645,-812.42420708449015,812.42420708449015,-2690.4983726540645,8881.1203333696321,0.0
332154.6038362722,4680833.5216966402,-37500.0,-1226.9615565955914,2133.5035239326471,2724.5775183594351,-4574.1313791339007,786.64789527057951,-4347.0518405492467,5932.0948872084591,3963.9832755592715,-1651.070359131739,1651.070359131739,-3963.9832755592715,10768.415544052006,0.0
337154.6038362722,4680833.5216966402,-37500.0,200.75235396596065,2816.1213715507338,3239.0728103682982,-4956.2352122476304,1086.4524700110792,-6144.3021868201358,7267.9548912038699,5856.1538377504785,-3160.1901926853002,3160.1901926853002,-5856.1538377504785,13030.540104449467,0.0
342154.6038362722,4680833.5216966402,-37500.0,2648.8317981011137,3837.9263027348379,3798.7808798213059,-4460.3389185207143,1706.3185715165023,-8258.7469402861243,8885.697520141206,8428.7523681395178,-5632.7643269883383,5632.7643269883383,-8428.7523681395178,15666.789425439247,0.0
347154.6038362722,4680833.5216966402,-37500.0,6104.2417138001292,5272.4830919459155,4343.3441966105684,-2180.9303982438182,2977.9313482795974,-9811.9013368759843,10813.907754690474,11315.06308397481,-9095.3542967422491,9095.3542967422491,-11315.06308397481,18779.47028832756,0.0
352154.6038362722,4680833.5216966402,-37500.0,9746.4451955396162,6972.6972424411251,4734.6677740491468,2685.7860409581558,5337.1652475512929,-8687.8768818660083,13180.32925738387,13236.883157128224,-12659.908872878139,12659.908872878139,-13236.883157128224,22923.902009141555,0.0
357154.6038362722,4680833.5216966402,-37500.0,11646.759818621053,8347.7593343919671,4704.9152103556271,9618.4515352844865,8960.8762132212669,-1651.324891280628,16287.59593072498,11882.787041621197,-13801.977660586077,13801.977660586077,-11882.787041621197,29329.269014484402,0.0
362154.6038362722,4680833.5216966402,-37500.0,9710.334240295886,8496.0435345305323,3928.6006056997135,15265.321400240011,13123.484131698153,13426.80815369021,20332.344102376657,5321.138954030328,-8930.8048412412827,8930.8048412412827,-5321.138954030328,38743.311309723147,0.0
367154.6038362722,4680833.5216966402,-37500.0,4416.8012927829232,6968.6124509806987,2415.3814567409404,14168.113011753554,16067.827626789724,33037.83589666101,25288.726429692488,-4786.4408779155028,3017.276892267218,-3017.276892267218,4786.4408779155028,49019.059771590539,0.0
372154.6038362722,4680833.5216966402,-37500.0,446.22254079840434,4463.8756131377386,831.01188390064613,4392.5096352151677,16172.540012652986,46606.521152876259,29069.547181325823,-12095.749043337295,16372.095340843171,-16372.095340843171,12095.749043337295,54913.325981514405,0.0
377154.6038362722,4680833.5216966402,-37500.0,1882.8351272995169,2342.9671824566749,-23.74961044040964,-7785.2358945127262,13526.449121306101,45672.940560091687,28319.798835899557,-11630.463826997217,22442.825105682354,-22442.825105682354,11630.463826997217,52458.465501833991,0.0
382154.6038362722,4680833.5216966402,-37500.0,6690.2263198625305,1302.6771850538787,-3.3338552654105484,-14346.652986397128,9773.3364835862685,33450.474688112467,23593.070358141755,-5652.6288233462046,19213.017671819856,-19213.017671819856,5652.6288233462046,43001.866827483158,0.0
387154.6038362722,4680833.5216966402,-37500.0,10253.89081757655,1059.4118844373206,463.47791442447965,-13912.73895792341,6389.10881361875,19317.259480634279,17370.352198596414,365.62147187673236,11818.001158752781,-11818.001158752781,-365.62147187673236,31197.00416217764,0.0
392154.6038362722,4680833.5216966402,-37500.0,10777.554154004092,1120.1003823647686,940.91393100033793,-10019.754091753637,3869.5804401186629,9037.7688830957159,11725.678933336059,3704.846435538303,5312.4741612169664,-5312.4741612169664,-3704.846435538303,20797.691002019597,0.0
397154.6038362722,4680833.5216966402,-37500.0,9198.0233316393787,1228.8106196074627,1239.4969855100883,-5932.6715339678058,2140.307756338068,3242.3139035111271,7525.1867204085993,4669.2498307561418,1343.4527710742768,-1343.4527710742768,-4669.2498307561418,13239.048269518436,0.0
402154.6038362722,4680833.5216966402,-37500.0,6940.2202085904337,1309.4788072392014,1352.3972957038134,-2939.6647164302881,1004.6749828971801,464.71638442350337,4798.7959793480286,4412.3503054992079,-564.60660001241285,564.60660001241285,-4412.3503054992079,8430.2521717974596,0.0
407154.6038362722,4680833.5216966402,-37500.0,4845.2441004019511,1347.9642527944218,1337.8450400337429,-1080.524037473331,290.52724131515561,-716.78885280870281,3249.4948640253792,3756.7426570417274,-1297.0586161593135,1297.0586161593135,-3756.7426570417274,5739.0441092913206,0.0
412154.6038362722,4680833.5216966402,-37500.0,3191.3147586012947,1345.5123628616936,1254.1716755440184,-22.219064138171397,-133.62508627648731,-1153.4123547616821,2521.7340523218259,3076.3728834446588,-1478.0139154758303,1478.0139154758303,-3076.3728834446588,4438.3642871814,0.0
417154.6038362722,4680833.5216966402,-37500.0,1976.4806016115685,1308.245628244149,1141.1825055903566,547.10778680346255,-365.09348705435173,-1261.0471132411649,2221.8652454515577,2488.1779297715548,-1433.1613703988724,1433.1613703988724,-2488.1779297715548,3861.0087157496919,0.0
422154.6038362722,4680833.5216966402,-37500.0,1112.4092604092664,1244.5694708266128,1021.5396698069592,833.94088315635986,-473.67116125477196,-1225.403535147439,2054.5163755066392,2006.7166599860902,-1307.4717083623718,1307.4717083623718,-2006.7166599860902,3559.1452144975601,0.0
427154.6038362722,4680833.5216966402,-37500.0,506.96635115825677,1163.3827961394015,906.59717478035111,959.34869220201449,-507.48256987289221,-1128.5654174353999,1914.0076299205032,1617.6107335805352,-1159.9075726396607,1159.9075726396607,-1617.6107335805352,3329.0121471592865,0.0
432154.6038362722,4680833.5216966402,-37500.0,87.158893381417698,1072.6850966554239,801.28006744297284,992.06548361314685,-498.37866102033752,-1008.6291628210595,1775.0975687682112,1303.1770785112833,-1013.4770506821212,1013.4770506821212,-1303.1770785112833,3105.3069991464622,0.0
437154.6038362722,4680833.5216966402,-37500.0,-200.06264304512206,978.84053252811998,707.16188031441698,971.66470223034344,-466.62258891664817,-884.50165822129804,1635.1634962844189,1048.6545265581635,-877.05864702628458,877.05864702628458,-1048.6545265581635,2876.1860383318271,0.0
442154.6038362722,4680833.5216966402,-37500.0,-392.39155766021497,886.42683715448527,624.18515324405314,921.66982421753517,-424.61121901290011,-765.87849899458877,1497.0633497706631,842.5312219146083,-753.93318280267408,753.93318280267408,-842.5312219146083,2645.5937519440063,0.0
447154.6038362722,4680833.5216966402,-37500.0,-516.6699139525997,798.4320217987655,551.56414570146319,856.4687277179703,-379.61067166320527,-657.51354700075899,1364.1348835851968,675.74355048674124,-644.97003715148571,644.97003715148571,-675.74355048674124,2420.087769520343,0.0
452154.6038362722,4680833.5216966402,-37500.0,-592.19416899016107,716.58952429785404,488.24091009213248,784.97777161568581,-335.65214367781783,-561.31865117255677,1238.8587456547498,540.98703546184083,-549.86700680551962,549.86700680551962,-540.98703546184083,2204.9928105633589,0.0
457154.6038362722,4680833.5216966402,-37500.0,-632.95878505524274,641.72195379153072,433.10795650961495,712.68412369237797,-294.78915501055923,-477.55577827987321,1122.6933676387566,432.28167828411404,-467.70980885357699,467.70980885357699,-432.28167828411404,2003.7109400016338,0.0
462154.6038362722,4680833.5216966402,-37500.0,-649.16788638010439,574.03453985571286,385.11153282489039,642.86412310870833,-257.90419584698924,-405.5723060996807,1016.2570408387429,344.70593072051605,-397.27857631177159,397.27857631177159,-344.70593072051605,1817.9769944417205,0.0
467154.6038362722,4680833.5216966402,-37500.0,-648.27604265273033,513.34128318222713,343.29520267902001,577.354998723785,-225.21254715010329,-344.26276718506779,919.5716143744653,274.21590614852153,-337.23792683771103,337.23792683771103,-274.21590614852153,1648.3091521221199,0.0
472154.6038362722,4680833.5216966402,-37500.0,-635.72251974299957,459.22748457739806,306.81268828080709,517.06177202878246,-196.56957631013768,-292.35178113903891,832.27404150948041,217.50479366462952,-286.25694243759443,286.25694243759443,-217.50479366462952,1494.4176601610632,0.0
477154.6038362722,4680833.5216966402,-37500.0,-615.46191412256371,411.16120015262396,274.92646753972588,462.29683169189997,-171.65386128312301,-248.55908632920915,753.77671665641617,171.88371803964287,-243.08135534385508,243.08135534385508,-171.88371803964287,1355.5198131218408,0.0
482154.6038362722,4680833.5216966402,-37500.0,-590.35342601270565,368.56607978054751,246.9997502625811,413.00789064751467,-150.0733524687333,-211.68829138581583,683.37981296115606,135.17746505146971,-206.57202136684481,206.57202136684481,-135.17746505146971,1230.5635395399631,0.0
267154.6038362722,4685833.5216966402,-37500.0,-787.83809820001943,364.96721576862694,321.35522590315378,-460.68930373184008,144.6005111163272,-199.90779850409979,787.40591838829198,179.1963237131144,12.901095468302401,-12.901095468302401,-179.1963237131144,1422.2793456268332,0.0
272154.6038362722,4685833.5216966402,-37500.0,-853.12078782698836,412.60597350773531,363.59225618394049,-523.61167588771036,166.73538666829111,-233.92752977189332,880.68553179950936,220.81210175615064,3.0290868941719395,-3.0290868941719395,-220.81210175615064,1589.6701247274052,0.0
277154.6038362722,4685833.5216966402,-37500.0,-923.82945344974144,468.33056781077426,413.17317914588915,-597.19548940159245,193.01483296729586,-274.56346260011139,988.70834544859463,272.10948198074527,-10.168447917623382,10.168447917623382,-272.10948198074527,1783.464079980228,0.0
282154.6038362722,4685833.5216966402,-37500.0,-1000.0526101357417,533.88361146719535,471.67459103052789,-683.85103533097924,224.37180777177096,-323.40064451339134,1114.5647000723404,335.67535830310482,-27.654737315951763,27.654737315951763,-335.67535830310482,2009.2465516760485,0.0
287154.6038362722,4685833.5216966402,-37500.0,-1081.5557094348414,611.48989542414915,541.06409656548635,-786.79033351986482,262.00301226183899,-382.63660321177946,1262.2292447764662,415.01142559205772,-50.767797902302618,50.767797902302618,-415.01142559205772,2274.2287628995991,0.0
292154.6038362722,4685833.5216966402,-37500.0,-1167.4286699860952,704.02917909029884,623.79896324628805,-910.36787340613625,307.47251997334331,-455.49263136455659,1436.8942033357844,515.01385094201305,-81.490913160746402,81.490913160746402,-515.01385094201305,2587.8578309305371,0.0
297154.6038362722,4685833.5216966402,-37500.0,-1255.3672848260667,815.28589381080599,722.93812831558,-1060.5299356576863,362.87445314667661,-546.96454887531843,1645.4432516068066,642.7876598746227,-122.99509117025138,122.99509117025138,-642.7876598746227,2962.6622963494783,0.0
302154.6038362722,4685833.5216966402,-37500.0,-1340.2295469452945,950.31395403799638,842.25129503947085,-1245.3056723675613,431.09821287629671,-665.17501874261609,1897.1148152138348,809.04278102093497,-180.72894731717292,180.72894731717292,-809.04278102093497,3415.3789190404536,0.0
307154.6038362722,4685833.5216966402,-37500.0,-1411.1999933405029,1115.9729148550855,986.27973086522979,-1475.0545731906964,516.27720155866314,-823.73125430186576,2204.4016524142512,1030.4680428339263,-264.57795891300015,264.57795891300015,-1030.4680428339263,3968.3441414733634,0.0
312154.6038362722,4685833.5216966402,-37500.0,-1446.4069262152377,1321.7107238798931,1160.2398972226549,-1761.6299919499395,624.57070534156526,-1045.5911944660763,2584.2043471957604,1333.637197252807,-393.01539883337631,393.01539883337631,-1333.637197252807,4650.9697865489443,0.0
317154.6038362722,4685833.5216966402,-37500.0,-1403.2144578114103,1580.6765591212877,1369.5280962954157,-2114.3449471936183,765.56045748962799,-1368.6920265497436,3059.1611012405342,1760.98221820751,-600.69493676000536,600.69493676000536,-1760.98221820751,5500.7998071585826,0.0
322154.6038362722,4685833.5216966402,-37500.0,-1202.1143195397881,1911.1845994864893,1618.3228264243335,-2528.0177924197055,954.7794702321471,-1852.0690426199246,3658.8426803586372,2378.5436443754384,-951.20625304289149,951.20625304289149,-2378.5436443754384,6563.2138763873591,0.0
327154.6038362722,4685833.5216966402,-37500.0,-703.88125624275744,2338.232791875088,1906.3186851824594,-2953.8647657342885,1218.2800443186154,-2576.0070437714471,4420.1369966983639,3281.8698764650253,-1555.2195805097199,1555.2195805097199,-3281.8698764650253,7888.9282572722386,0.0
332154.6038362722,4685833.5216966402,-37500.0,311.84093989277602,2893.6397594418609,2221.9432098686066,-3238.8224336589474,1600.5709947621258,-3615.8371580540597,5386.4082207566216,4586.7125108391601,-2586.4536368785698,2586.4536368785698,-4586.7125108391601,9531.6452275505835,0.0
337154.6038362722,4685833.5216966402,-37500.0,2133.2403647025749,3609.8880479083159,2529.8814010856527,-3022.4415456582256,2176.6527198111821,-4939.1533860299223,6609.1230438946386,6368.8217605226055,-4263.2092448800158,4263.2092448800158,-6368.8217605226055,11562.614933404286,0.0
342154.6038362722,4685833.5216966402,-37500.0,4984.2218397187708,4494.1925995908905,2751.9690036972202,-1625.9426109571853,3062.3316300321444,-6135.3574353120512,8168.7396813416144,8482.5155333108996,-6706.5658371420686,6706.5658371420686,-8482.5155333108996,14158.540819289412,0.0
347154.6038362722,4685833.5216966402,-37500.0,8650.6248019714567,5457.5035047336232,2747.7536301003856,1877.5065092299019,4389.3984877658286,-5913.6207638258384,10244.2928930083,10192.828004521198,-9517.0509988586018,9517.0509988586018,-10192.828004521198,17852.698802267976,0.0
352154.6038362722,4685833.5216966402,-37500.0,11920.048068457365,6197.5659490761527,2320.5214646859395,7976.242846938525,6148.9222930430342,-1665.2185704435155,13194.607974172239,9800.2774961903997,-11030.814637847478,11030.814637847478,-9800.2774961903997,23786.904153003907,0.0
357154.6038362722,4685833.5216966402,-37500.0,12558.299807051773,6210.0606967537924,1304.0843877139787,15195.498850428166,7822.2436806409023,9736.7719531168714,17377.049166250854,5111.0396932532931,-7989.9984976502201,7989.9984976502201,-5111.0396932532931,33088.22914520686,0.0
362154.6038362722,4685833.5216966402,-37500.0,8957.1118918706998,5299.4407496080839,-221.7441874216166,19088.947099958456,8223.5140991163353,28642.498032216656,22673.232667518918,-4239.9386498625245,2562.8023040644675,-2562.8023040644675,4239.9386498625245,45086.024730645375,0.0
367154.6038362722,4685833.5216966402,-37500.0,2889.3492352986009,4222.3708643758273,-1722.8739932103692,14570.865296197413,6538.4785684045055,48687.33268128286,29139.821826023093,-14097.185484726546,18781.597929434382,-18781.597929434382,14097.185484726546,56112.646644530294,0.0
372154.6038362722,4685833.5216966402,-37500.0,-353.47148532730847,3991.3725661822,-2443.9204037413247,1915.6533295943511,3747.2625916378011,58443.199979470519,32164.199219983191,-17567.561236596972,31955.963649193385,-31955.963649193385,17567.561236596972,60706.328080403924,0.0
377154.6038362722,4685833.5216966402,-37500.0,2344.4342242704793,4455.2248226133042,-2097.7671692271438,-10907.707503723203,1710.5135318554753,51988.419498427837,30075.234303694338,-12379.196150604319,33767.144870712567,-33767.144870712567,12379.196150604319,55946.813233044719,0.0
382154.6038362722,4685833.5216966402,-37500.0,7756.1138245210486,4677.3625756858464,-1094.101691494968,-16427.648965560824,1030.2253678720647,35541.693289546565,24198.496609624221,-3602.1958010852777,25402.283914138978,-25402.283914138978,3602.1958010852777,44437.521464593607,0.0
387154.6038362722,4685833.5216966402,-37500.0,11157.494088496702,4258.8513268644774,-21.028639103777355,-14692.268539166522,1022.2146232716947,19262.803362447736,17316.95106261133,3003.0807886922721,14311.914696831847,-14311.914696831847,-3003.0807886922721,31406.962114999507,0.0
392154.6038362722,4685833.5216966402,-37500.0,11235.013897216213,3482.3605167465953,791.62131760554587,-9930.1615038111122,992.15499567478628,8189.8474590339592,11444.20673219745,5833.2382030917088,5807.8490101533353,-5807.8490101533353,-5833.2382030917088,20535.178597015842,0.0
397154.6038362722,4685833.5216966402,-37500.0,9250.5954772901441,2725.922018370874,1278.7391471645806,-5403.7799381015348,753.66216663634691,2205.0180368587876,7282.0120115486543,6079.4443360903097,949.49419176602942,-949.49419176602942,-6079.4443360903097,12985.484553633189,0.0
402154.6038362722,4685833.5216966402,-37500.0,6711.7670195882692,2158.1991476144472,1499.8205999118197,-2234.0609096845274,408.86621182945566,-530.14592592509462,4744.2832662799465,5236.9175922797631,-1269.7817527147006,1269.7817527147006,-5236.9175922797631,8444.720019536182,0.0
407154.6038362722,4685833.5216966402,-37500.0,4446.6879625990869,1778.1205001421174,1542.254024155744,-339.43200927976596,84.449658350030248,-1585.3350263035941,3459.0332149003357,4179.2027921037716,-2044.5895167080917,2044.5895167080917,-4179.2027921037716,6095.3753449009928,0.0
412154.6038362722,4685833.5216966402,-37500.0,2704.7764235148979,1526.5606399125718,1480.5972559115626,681.25315031921275,-157.47613677611704,-1873.2383798690676,2898.4915816521511,3243.1635756249389,-2156.0268573480871,2156.0268573480871,-3243.1635756249389,5030.9442205739651,0.0
417154.6038362722,4685833.5216966402,-37500.0,1458.8342694494154,1348.3746546880529,1366.7843058419708,1178.3151519907653,-308.87590250054296,-1838.1476770768302,2608.8800769976597,2499.9517127213321,-2005.1784427660305,2005.1784427660305,-2499.9517127213321,4525.58410298748,0.0
422154.6038362722,4685833.5216966402,-37500.0,600.78195424469186,1208.4294062157394,1232.9253496067774,1380.7004733720064,-386.63811559168738,-1678.2080284000276,2397.3982832047841,1928.9736642056298,-1771.2983447678996,1771.2983447678996,-1928.9736642056298,4193.1399281606136,0.0
427154.6038362722,4685833.5216966402,-37500.0,23.680473454911461,1088.4818290374701,1097.162261031629,1422.2314372823962,-413.07634972600403,-1479.1266438612006,2206.2026789243273,1491.9500085952909,-1527.311498851444,1527.311498851444,-1491.9500085952909,3893.3956288721265,0.0
432154.6038362722,4685833.5216966402,-37500.0,-356.01813697624215,980.48941140964882,968.83667598938246,1378.1828759426769,-407.44556945585072,-1278.0324075401497,2021.3928170865283,1155.5431233233219,-1300.4197653089634,1300.4197653089634,-1155.5431233233219,3592.6541563352662,0.0
437154.6038362722,4685833.5216966402,-37500.0,-598.44754087481328,881.49151128566496,852.1194868562809,1290.8124755272413,-383.78887609306514,-1090.9012602272878,1842.2080908376474,894.85831278468686,-1099.2804779306416,1099.2804779306416,-894.85831278468686,3291.2834265975389,0.0
442154.6038362722,4685833.5216966402,-37500.0,-745.74218932997098,790.64427839938958,748.30584135826575,1184.1107103432471,-351.40986625195239,-924.01453090048301,1671.14450258639,691.86896035327572,-925.21422589248368,925.21422589248368,-691.86896035327572,2997.0792977272927,0.0
447154.6038362722,4685833.5216966402,-37500.0,-827.30514669453282,707.76678097018373,657.18227856776082,1071.790352689022,-316.05653279596095,-778.94202492941429,1510.7186941391278,533.36219329633968,-776.67419708857005,776.67419708857005,-533.36219329633968,2717.1543544777637,0.0
452154.6038362722,4685833.5216966402,-37500.0,-863.73560071391989,632.73526363248186,577.81064207273141,961.60382815501146,-281.05470165653071,-654.91011792850088,1362.5657680782117,409.42903847893115,-651.0537764318002,651.0537764318002,-409.42903847893115,2456.1585467380737,0.0
457154.6038362722,4685833.5216966402,-37500.0,-869.53589600275291,565.29044016643513,508.9636500794407,857.75203582117877,-248.1766310777729,-550.03661318236141,1227.3819270309004,312.49023203563252,-545.4581996528002,545.4581996528002,-312.49023203563252,2216.4299232473413,0.0
462154.6038362722,4685833.5216966402,-37500.0,-854.94477998308776,505.01899085937049,449.35675832385709,762.28702320557386,-218.24230742847675,-462.01003084394989,1105.1272295157971,236.67345532731673,-457.05399023938622,457.05399023938622,-236.67345532731673,1998.5897520597568,0.0
467154.6038362722,4685833.5216966402,-37500.0,-827.19053808881529,451.39584089453763,397.76554679185381,675.96386792630892,-191.51292203462438,-388.4656940125243,995.26743853767675,177.39827248704319,-383.23116327925572,383.23116327925572,-177.39827248704319,1802.1281577710945,0.0
472154.6038362722,4685833.5216966402,-37500.0,-791.35933340694578,403.83569188555339,353.07814857430066,598.77033011395929,-167.93812426376772,-327.18242964604099,896.97565615715166,131.08165676259344,-321.67024562226914,321.67024562226914,-131.08165676259344,1625.8576397565503,0.0
477154.6038362722,4685833.5216966402,-37500.0,-751.00712396301981,361.73689260775416,314.3131607572916,530.26109291319483,-147.30709076796427,-276.17368218089661,809.28106062166592,94.918866708748098,-270.35880463483346,270.35880463483346,-94.918866708748098,1468.2349145970336,0.0
267154.6038362722,4690833.5216966402,-37500.0,-648.19345576976752,417.19383601634775,281.38238512838376,-400.47857207284289,166.55615191726577,-180.4040308029428,735.43957464138805,247.54321750425467,-43.421543261590926,43.421543261590926,-247.54321750425467,1317.0484606644418,0.0
272154.6038362722,4690833.5216966402,-37500.0,-689.99810482004068,472.51692002018223,315.88149796580541,-450.79272661077488,192.85355030173574,-209.59594463379614,819.87022059427011,298.70209246958586,-62.796338339353753,62.796338339353753,-298.70209246958586,1466.4207167624784,0.0
277154.6038362722,4690833.5216966402,-37500.0,-732.28995205950264,537.31836775775059,355.89506912271668,-508.53904624903186,224.26369412886714,-243.99778104461993,917.16383039141647,361.12126658944663,-87.483271573801971,87.483271573801971,-361.12126658944663,1638.3147564869812,0.0
282154.6038362722,4690833.5216966402,-37500.0,-773.89164889058463,613.63920740023468,402.48014057986552,-575.12237424188856,262.0044917928289,-284.7107476078989,1029.9202980169484,437.67075501781358,-118.956592544405,118.956592544405,-437.67075501781358,1837.2766413420361,0.0
287154.6038362722,4690833.5216966402,-37500.0,-812.91664894154383,704.06810021565957,456.90823798653872,-652.36556374958082,307.66829390883726,-333.24512298209112,1161.4655590953032,532.16947999901947,-159.22514214555045,159.22514214555045,-532.16947999901947,2069.1299301438798,0.0
292154.6038362722,4690833.5216966402,-37500.0,-846.28456068172318,811.915260151182,520.69250224687119,-742.67053311289305,363.3801495675213,-391.82167129814337,1316.1218011864312,649.8383230047134,-211.15673027146471,211.15673027146471,-649.8383230047134,2341.4430578643037,0.0
297154.6038362722,4690833.5216966402,-37500.0,-868.8295046856382,941.43820092959788,595.5941358864103,-849.18774010588277,432.04328276146629,-463.93528427515645,1499.589018451733,798.03741973664296,-279.08300123086775,279.08300123086775,-798.03741973664296,2664.169770749043,0.0
302154.6038362722,4690833.5216966402,-37500.0,-871.64350117265167,1098.1173437289942,683.57480705303885,-975.86670202499886,517.72436189879159,-555.37651338986029,1719.4747895087064,987.46985296438561,-369.93955712708129,369.93955712708129,-987.46985296438561,3050.4938437872042,0.0
307154.6038362722,4690833.5216966402,-37500.0,-839.01891753416578,1288.9451575610451,786.62322346815949,-1127.0077850574266,626.25542589858367,-675.98484685825565,1986.0072262734359,1234.1042275943742,-495.39354556531157,495.39354556531157,-1234.1042275943742,3517.872012856134,0.0
312154.6038362722,4690833.5216966402,-37500.0,-742.94358814266059,1522.6035470176621,906.31241174606475,-1305.3399725108404,766.14781083107005,-842.38095104241552,2312.9541520255616,1562.065658938724,-675.68648160385555,675.68648160385555,-1562.065658938724,4089.2028843632584,0.0
317154.6038362722,4690833.5216966402,-37500.0,-533.67980473232717,1809.194858227165,1042.8060674761771,-1506.3580381331599,949.88211885959004,-1081.4335301247756,2718.7515262796815,2007.3988895775037,-946.13618400733048,946.13618400733048,-2007.3988895775037,4794.0168647935125,0.0
322154.6038362722,4690833.5216966402,-37500.0,-125.12747097111209,2158.7421924066821,1192.7981799494805,-1704.1629134507068,1195.4250330736795,-1432.250706810343,3227.8836415074179,2621.1817419608296,-1366.7877274483794,1366.7877274483794,-2621.1817419608296,5669.9497980248989,0.0
327154.6038362722,4690833.5216966402,-37500.0,623.58642538322431,2576.8050374378399,1345.5307163550281,-1820.1490943248527,1527.0807607995475,-1938.6059714552448,3873.0027501421737,3466.1904662166239,-2032.62879812043,2032.62879812043,-3466.1904662166239,6766.8546120464825,0.0
332154.6038362722,4690833.5216966402,-37500.0,1918.4399131703831,3054.1514209401021,1475.7965011069755,-1662.8490841974333,1972.69908465656,-2609.1549870004351,4700.4616168377652,4590.8042721340353,-3070.9972018204353,3070.9972018204353,-4590.8042721340353,8163.5952672580488,0.0
337154.6038362722,4690833.5216966402,-37500.0,3993.328660216393,3546.0892453922484,1533.6416017121865,-837.03698726373557,2549.2642316853144,-3294.5537144094333,5788.8818780020392,5943.7440402191778,-4584.2390876383697,4584.2390876383697,-5943.7440402191778,10027.949137447769,0.0
342154.6038362722,4690833.5216966402,-37500.0,6936.9378007208634,3939.4417483310776,1435.3721953066604,1319.735404819558,3219.2931552816794,-3402.7326792937615,7301.2277457904147,7174.6615712428547,-6442.2032310406039,6442.2032310406039,-7174.6615712428547,12773.640358269526,0.0
347154.6038362722,4690833.5216966402,-37500.0,10284.867189891824,4023.797432486761,1075.5656606268185,5542.1518526396576,3790.8876954348161,-1452.5526901502506,9569.3455649705375,7326.7224907900236,-7805.6514039576032,7805.6514039576032,-7326.7224907900236,17271.840915514549,0.0
352154.6038362722,4690833.5216966402,-37500.0,12558.2427029357,3542.8004810155107,404.14696886697448,11757.886866013732,3761.8626954664101,5057.1651307894017,13071.871800733212,4773.2868453888268,-6547.7593985711183,6547.7593985711183,-4773.2868453888268,24651.008948137034,0.0
357154.6038362722,4690833.5216966402,-37500.0,11688.969202650884,2478.4936013115375,-410.66378080509935,17650.407665346273,2281.8243979389904,18155.541116120177,18151.233858854517,-1682.4322752568216,298.39876449978988,-298.39876449978988,1682.4322752568216,35144.280460176837,0.0
362154.6038362722,4690833.5216966402,-37500.0,7128.8722852880683,1537.0611181963509,-910.20305410045557,18737.562587795732,-1272.2558355042158,35941.652026474127,24356.240549266444,-10432.876733083425,13636.127306027522,-13636.127306027522,10432.876733083425,46815.205290310238,0.0
367154.6038362722,4690833.5216966402,-37500.0,1658.3724303269457,2017.2748089535578,-701.15442505057183,11909.888586086305,-5981.0677285041702,51024.176523604969,29354.012287321711,-16442.594894611189,28954.69145729547,-28954.69145729547,16442.594894611189,55714.396399269128,0.0
372154.6038362722,4690833.5216966402,-37500.0,-252.83315585397992,4265.1524263870551,42.407141064075873,-423.91352635421867,-9157.281591975403,54908.187708921534,30730.074886290578,-15159.258571182279,37829.140883605331,-37829.140883605331,15159.258571182279,57734.051786249387,0.0
377154.6038362722,4690833.5216966402,-37500.0,2886.9201724576474,6690.9445615930626,792.21038025631447,-11092.062551420977,-8910.3829982550833,45632.981515476851,27703.227515174949,-7514.2671973708402,35260.530697178488,-35260.530697178488,7514.2671973708402,51601.809179209857,0.0
382154.6038362722,4690833.5216966402,-37500.0,7763.8676010893269,7552.7374627325471,1279.9247035356045,-14902.661636564231,-6180.6253283088108,29739.102823465422,21779.829058018186,990.54072489543978,24595.568721146239,-24595.568721146239,-990.54072489543978,40242.248177396221,0.0
387154.6038362722,4690833.5216966402,-37500.0,10543.921926516728,6737.1297092193954,1560.8223421165203,-12696.587472643443,-3157.3684218526996,15234.048952491301,15371.200217219703,6171.5779837588616,12908.139134704559,-12908.139134704559,-6171.5779837588616,28187.034685521314,0.0
392154.6038362722,4690833.5216966402,-37500.0,10350.943198516701,5182.7842988345246,1735.1212377318611,-8175.3534765092572,-1109.4936976009135,5640.2182698270235,10121.995403729783,7662.9724587047849,4469.4285130682229,-4469.4285130682229,-7662.9724587047849,18455.959784831051,0.0
397154.6038362722,4690833.5216966402,-37500.0,8362.7056848607954,3700.6545459635236,1833.6442772285359,-4027.279595098516,-132.2099071584671,540.45624858908548,6581.5886087521685,7005.0222445959789,-209.17003284801513,209.17003284801513,-7005.0222445959789,11938.936116265815,0.0
402154.6038362722,4690833.5216966402,-37500.0,5910.2997195182552,2607.4221736281293,1854.0743237097224,-1153.764674297784,159.40109736471004,-1709.186374517998,4633.2622317952919,5622.4902690009167,-2264.3120517573166,2264.3120517573166,-5622.4902690009167,8250.3864076934387,0.0
407154.6038362722,4690833.5216966402,-37500.0,3732.8209466695362,1897.3985579410335,1801.0840222262407,538.26365934595708,136.23565127738544,-2474.9735514304484,3727.7477751972147,4255.5333150649112,-2890.1220086754292,2890.1220086754292,-4255.5333150649112,6480.8735403915271,0.0
412154.6038362722,4690833.5216966402,-37500.0,2061.2139080922848,1459.5991174659218,1692.5412772343166,1412.814996700776,18.634548006098907,-2562.3296044527879,3268.8955920864819,3146.7285194433239,-2860.0037249209913,2860.0037249209913,-3146.7285194433239,5673.5323481454634,0.0
417154.6038362722,4690833.5216966402,-37500.0,874.10285428193311,1187.5175875956281,1550.8893459922679,1792.9408438103453,-95.754316689531365,-2373.376194306134,2962.1886215630993,2311.9123799279369,-2577.4549752150087,2577.4549752150087,-2311.9123799279369,5206.1522660048731,0.0
422154.6038362722,4690833.5216966402,-37500.0,70.451687937353668,1008.4576315699804,1395.6722310053419,1895.5126941323106,-176.73062225163261,-2091.5746943992381,2705.413092871996,1698.3945935991817,-2226.9357729427356,2226.9357729427356,-1698.3945935991817,4818.6404706728263,0.0
427154.6038362722,4690833.5216966402,-37500.0,-453.64906835815503,880.00965376201714,1240.7313399739223,1850.501067349302,-222.98622253889701,-1796.394649637142,2467.7439885643339,1248.4300005527057,-1884.4163546789014,1884.4163546789014,-1248.4300005527057,4437.8479705516793,0.0
432154.6038362722,4690833.5216966402,-37500.0,-781.65712432840144,779.58847343339698,1094.4423446138746,1732.1105888984523,-242.36025195398597,-1520.5845988596755,2241.7795684982443,916.42315306839214,-1577.2716812225347,1577.2716812225347,-916.42315306839214,4056.128176965356,0.0
437154.6038362722,4690833.5216966402,-37500.0,-974.75007985513332,695.82640810424527,961.06182548400727,1581.8984499488545,-243.6388622638828,-1276.1179889490479,2027.6165029558333,669.6744067057607,-1312.4311088584975,1312.4311088584975,-669.6744067057607,3682.3080954625198,0.0
442154.6038362722,4690833.5216966402,-37500.0,-1076.1525414795835,623.1675189216445,842.13549803762396,1422.8653230702803,-233.9194778358991,-1065.6277273400149,1827.22541721175,485.24462055971827,-1088.6649114874838,1088.6649114874838,-485.24462055971827,3326.0420274288454,0.0
447154.6038362722,4690833.5216966402,-37500.0,-1115.9872209188079,558.88030295892281,737.59708563590686,1267.4622719737351,-218.22443894733348,-887.5550767305449,1642.3393477699638,346.91340449736032,-901.76942980927151,901.76942980927151,-346.91340449736032,2993.9650828663375,0.0
452154.6038362722,4690833.5216966402,-37500.0,-1115.1515984644382,501.53387264239461,646.51894824620467,1122.0821279549264,-199.84559020338909,-738.58408265568676,1473.8290593470399,243.00827696457534,-746.73773668511615,746.73773668511615,-243.00827696457534,2689.5216432078951,0.0
457154.6038362722,4690833.5216966402,-37500.0,-1088.1138454559934,450.2658926562479,567.58262916482136,989.61396498593001,-180.81826276645876,-614.84238379508815,1321.7094175147463,164.9822593727954,-618.66240311229262,618.66240311229262,-164.9822593727954,2413.717890659053,0.0
462154.6038362722,4690833.5216966402,-37500.0,-1044.8631351873316,404.4516994243333,499.35517218037205,870.93124826248913,-162.32843868191733,-512.49885560638427,1185.355568257919,106.49208190730857,-513.09493919102488,513.09493919102488,-106.49208190730857,2165.9395317927037,0.0
467154.6038362722,4690833.5216966402,-37500.0,-992.26027636841923,363.56497689658306,440.44001393806474,765.77636583265064,-145.01353399499888,-428.0453695464613,1063.7398505978688,62.78624795509694,-426.16279234814448,426.16279234814448,-62.78624795509694,1944.6036362023774,0.0
472154.6038362722,4690833.5216966402,-37500.0,-934.9763735102041,327.1253938251578,389.55147161575712,673.29215852210211,-129.16898922578437,-358.40765581418754,955.62441747580237,30.284343572608378,-354.57524163605854,354.57524163605854,-30.284343572608378,1747.6207033831417,0.0
477154.6038362722,4690833.5216966402,-37500.0,-876.149556719217,294.68348174415735,345.54506722533279,592.34186360744707,-114.88466720935651,-300.96524976838674,859.69913178852744,6.2785616434239557,-295.5799004921837,295.5799004921837,-6.2785616434239557,1572.7022411194826,0.0
267154.6038362722,4695833.5216966402,-37500.0,-502.85550613060309,449.59956365100157,236.30126351975761,-337.33706828192925,180.48053375210267,-159.67429632763952,679.71523950351241,301.05648178380955,-92.020672365938466,92.020672365938466,-301.05648178380955,1206.6437848205683,0.0
272154.6038362722,4695833.5216966402,-37500.0,-520.46314401748884,508.05097126860903,262.13196543830281,-374.47488728262903,208.80705516372515,-183.76233681781247,754.59183819856764,358.20312838620538,-118.83954208669007,118.83954208669007,-358.20312838620538,1337.2228627061897,0.0
277154.6038362722,4695833.5216966402,-37500.0,-533.56681173556694,576.09776454927805,291.45414862174164,-415.68724064749739,242.53536272592993,-211.58320634805793,840.29227827576165,427.16048478309153,-152.30568515869072,152.30568515869072,-427.16048478309153,1486.3423426035922,0.0
282154.6038362722,4695833.5216966402,-37500.0,-539.75545870815245,655.65187677459573,324.76369743293492,-461.33666667004599,282.91013719746519,-243.72857802628334,938.88260014781474,510.72446202364819,-194.15829411844544,194.15829411844544,-510.72446202364819,1657.513657296093,0.0
287154.6038362722,4695833.5216966402,-37500.0,-535.56118665806775,749.06937265674514,362.58908992027455,-511.80612386027315,331.54326404666756,-280.97874317070188,1052.9821922256374,612.52372029766434,-246.71667963479817,246.71667963479817,-612.52372029766434,1855.1945871103333,0.0
292154.6038362722,4695833.5216966402,-37500.0,-515.88082356371683,859.24891622506448,405.45201915409581,-567.47608887592878,390.56174282516577,-324.47805377728815,1185.9658255520903,737.36935713859702,-313.19136266243186,313.19136266243186,-737.36935713859702,2085.1312737275107,0.0
297154.6038362722,4695833.5216966402,-37500.0,-472.98892246083648,989.72010962204774,453.78377945621156,-628.6144502591701,462.82899650582283,-376.07967315734982,1342.2478176530103,891.79374950400643,-398.2353838418087,398.2353838418087,-891.79374950400643,2354.8299947588475,0.0
302154.6038362722,4695833.5216966402,-37500.0,-394.82854966374464,1144.663172764225,507.75984331417885,-695.00630525466909,552.26995451980622,-438.97652369542766,1527.6766017301406,1084.8679850885346,-508.92889965671782,508.92889965671782,-1084.8679850885346,2674.1973072230867,0.0
307154.6038362722,4695833.5216966402,-37500.0,-262.05969724214663,1328.7147506964916,566.98916616326267,-764.89493740897024,664.31938927428473,-518.74521220566191,1750.0758090217378,1329.3709784833404,-656.505445285272,656.505445285272,-1329.3709784833404,3056.4058174289025,0.0
312154.6038362722,4695833.5216966402,-37500.0,-43.097382589527214,1546.2303037142328,629.95492949661252,-832.24733261658048,806.44314631225529,-624.78873862330943,2019.9947636753132,1643.2207009033591,-859.22434643796305,859.22434643796305,-1643.2207009033591,3519.135679340151,0.0
317154.6038362722,4695833.5216966402,-37500.0,313.71535655816911,1799.3063078484615,693.06213937015696,-880.24414311029477,988.43794765767007,-771.50655433243958,2351.8397621646709,2050.4765007093997,-1146.6348928854347,1146.6348928854347,-2050.4765007093997,4086.7240633518613,0.0
322154.6038362722,4695833.5216966402,-37500.0,890.85114160969681,2083.2148943693919,749.15212101031341,-866.97103925413103,1221.5171785957373,-976.42749458809476,2765.9608989724497,2579.491420200151,-1564.3127325764563,1564.3127325764563,-2579.491420200151,4795.080651417783,0.0
327154.6038362722,4695833.5216966402,-37500.0,1811.5988343783863,2376.9907655744755,785.56564118674157,-696.92061913464238,1513.4394333282348,-1247.011082571719,3293.5963165235034,3251.5678226148407,-2173.9679360859141,2173.9679360859141,-3251.5678226148407,5705.1249363921306,0.0
332154.6038362722,4695833.5216966402,-37500.0,3234.5722677994022,2626.4745753926895,782.76069458594725,-172.41804871885086,1853.1303667442544,-1535.6564326803393,3990.3043510304251,4044.9760257364342,-3032.2577075977388,3032.2577075977388,-4044.9760257364342,6939.5479979092725,0.0
337154.6038362722,4695833.5216966402,-37500.0,5293.2897368289914,2720.3534747353051,717.18854160162482,1064.8871116957523,2171.852594046396,-1623.0593237085657,4970.7660670256791,4807.9334740805689,-4106.7031229513477,4106.7031229513477,-4807.9334740805689,8768.1484424536957,0.0
342154.6038362722,4695833.5216966402,-37500.0,7909.2075171354563,2475.722029646271,578.02579067701663,3528.8167352204059,2264.1224832659486,-886.10106843331755,6478.256799009635,5101.0863704752328,-5055.7006796153191,5055.7006796153191,-5101.0863704752328,11736.595172999982,0.0
347154.6038362722,4695833.5216966402,-37500.0,10443.110460229449,1691.793109047107,413.99237928889244,7604.5843135548812,1677.6119283076939,1976.9865139282686,8946.4545661263328,4053.6520922304794,-4843.7643629601944,4843.7643629601944,-4053.6520922304794,16669.416674665114,0.0
352154.6038362722,4695833.5216966402,-37500.0,11473.102923348213,374.27006792995456,411.78106666598507,12715.539652610993,-298.73347643933687,8754.3324564054292,12823.479656469517,627.73326365090043,-1534.909468405976,1534.909468405976,-627.73326365090043,24195.333520581771,0.0
357154.6038362722,4695833.5216966402,-37500.0,9556.4233990902576,-895.36959623805342,919.16771072342897,16401.368468124387,-4229.550085642024,20108.897356382902,17896.271147962325,-5147.5182144202417,6665.5379314470601,-6665.5379314470601,5147.5182144202417,33766.674591430441,0.0
362154.6038362722,4695833.5216966402,-37500.0,5122.84842371174,-932.55969960399545,2203.2098260216321,15261.154189359213,-9614.3823046562411,33126.677543154903,22888.654478626697,-10763.363508626804,18727.868329160156,-18727.868329160156,10763.363508626804,43047.953736812691,0.0
367154.6038362722,4695833.5216966402,-37500.0,1049.6023622265741,1157.2071163842083,3955.497494218353,8248.0822004480215,-14374.294092273425,41788.198704368115,26020.057584219649,-12364.428819632305,29600.911536740387,-29600.911536740387,12364.428819632305,48761.319983071058,0.0
372154.6038362722,4695833.5216966402,-37500.0,318.24534731848769,4738.5507802750917,5245.1269663736402,-1530.9962362990195,-15974.899933721388,41451.58829459457,25973.827672793646,-8332.8852818353298,33495.013980516029,-33495.013980516029,8332.8852818353298,48513.427788652938,0.0
377154.6038362722,4695833.5216966402,-37500.0,3163.5395747691718,7760.0202419038906,5391.7489318699145,-9002.9230215094649,-13653.973887684895,32638.161683944651,22717.702838076046,-1080.6358145886988,28704.68541165987,-28704.68541165987,1080.6358145886988,42321.947694686605,0.0
382154.6038362722,4695833.5216966402,-37500.0,6924.9452169779361,8656.5231345238462,4633.8638994821504,-11271.492759563949,-9134.0040403756684,20326.057248838886,17595.024169159842,5234.8602858628637,18820.303743077944,-18820.303743077944,-5234.8602858628637,32738.017801248669,0.0
387154.6038362722,4695833.5216966402,-37500.0,8955.8608667238805,7595.0244741382567,3657.4538294462532,-9280.2103895287401,-4782.9126863436695,9580.2074313981793,12378.986540093647,8309.1817006371766,8988.181997266589,-8988.181997266589,-8309.1817006371766,23061.219269653851,0.0
392154.6038362722,4695833.5216966402,-37500.0,8675.902495093138,5699.7728353469493,2899.7848278070464,-5659.4589758769353,-1826.4083913415852,2516.4108435408684,8298.9948682186368,8483.0187056269606,2067.7034725697094,-2067.7034725697094,-8483.0187056269606,15468.771309328748,0.0
397154.6038362722,4695833.5216966402,-37500.0,6956.8944924702228,3894.05034485943,2429.3705435004936,-2337.0490590394079,-281.01680350786279,-1223.936353507383,5829.3706495305778,7159.6354576320446,-1720.2119755539316,1720.2119755539316,-7159.6354576320446,10606.542762412779,0.0
402154.6038362722,4695833.5216966402,-37500.0,4827.5698475054578,2551.2922725785729,2148.3763796382686,-8.7182057348189215,325.15440481317319,-2808.0717224242012,4603.2559184618758,5470.6825974167205,-3313.2043134905452,3313.2043134905452,-5470.6825974167205,8054.0933548208086,0.0
407154.6038362722,4695833.5216966402,-37500.0,2901.7184961145686,1678.9569857668125,1953.3375232706001,1363.8604970680444,446.92612047643905,-3236.594966339409,3971.1626811787364,3965.9282140811547,-3686.1701997018972,3686.1701997018972,-3965.9282140811547,6884.2663993993456,0.0
412154.6038362722,4695833.5216966402,-37500.0,1398.8996855294045,1153.7709875992753,1784.6936753834354,2049.4385268905698,372.85056199803654,-3127.4211347324608,3566.39986949064,2798.5377928851917,-3490.6792479269038,3490.6792479269038,-2798.5377928851917,6276.4523790024941,0.0
417154.6038362722,4695833.5216966402,-37500.0,322.69377315532017,848.25914704637933,1620.0474722143999,2306.1352271902997,248.16686604271194,-2804.8210177559881,3242.4212262860929,1946.4725222021352,-3081.0586773278583,3081.0586773278583,-1946.4725222021352,5815.5084430163261,0.0
422154.6038362722,4695833.5216966402,-37500.0,-403.28206243744131,669.9330366874201,1456.4189883260296,2317.8203635376094,132.48972465677895,-2423.3412908894165,2951.170373121578,1339.5325230445851,-2626.1523302739652,2626.1523302739652,-1339.5325230445851,5367.6623095780487,0.0
427154.6038362722,4695833.5216966402,-37500.0,-867.3887894420277,561.38745966033059,1297.6454910507766,2200.1751057281085,43.57693777322546,-2051.3922824374349,2678.5552048574896,910.04164763190283,-2197.529240522937,2197.529240522937,-910.04164763190283,4911.8348744026798,0.0
432154.6038362722,4695833.5216966402,-37500.0,-1145.1493675270151,490.01051304366388,1148.257394513832,2021.6311291799232,-18.072819561011336,-1716.294815106269,2421.3685567496614,605.88764247333256,-1820.5731321847738,1820.5731321847738,-605.88764247333256,4458.4838887856004,0.0
437154.6038362722,4695833.5216966402,-37500.0,-1294.2368325635189,438.29906374705666,1011.3729613402164,1821.2071770970892,-57.545157278309624,-1426.3145572007584,2180.271147835575,389.98012263238718,-1500.2098203715796,1500.2098203715796,-389.98012263238718,4021.7458934551496,0.0
442154.6038362722,4695833.5216966402,-37500.0,-1356.4808861649578,397.2317957858557,888.44175870086178,1620.406326427867,-80.699984238832727,-1181.0975096279838,1956.9426290873471,236.54874178998216,-1232.9616159271295,1232.9616159271295,-236.54874178998216,3612.0328965800627,0.0
447154.6038362722,4695833.5216966402,-37500.0,-1361.4454031113098,362.3043810814267,779.61537630367491,1430.4752248286056,-92.532841915605701,-976.62482329501711,1752.6558097369752,127.68824022771361,-1012.3788637162672,1012.3788637162672,-127.68824022771361,3235.2066966330799,0.0
452154.6038362722,4695833.5216966402,-37500.0,-1329.7225489587086,331.32511018200898,684.21555073886191,1256.7090038799104,-96.838433450560885,-807.60225369769876,1567.8026424113866,50.839717875659062,-831.42522954053356,831.42522954053356,-50.839717875659062,2893.5191222237945,0.0
457154.6038362722,4695833.5216966402,-37500.0,-1275.5066380235439,303.24472016429786,601.11569350775562,1100.9921261053291,-96.333845357765782,-668.6099230754254,1401.9446232903908,-2.9075679643829062,-683.47835553743403,683.47835553743403,2.9075679643829062,2586.770721393138,0.0
462154.6038362722,4695833.5216966402,-37500.0,-1208.4843620811027,277.55602910948636,529.00411515248754,963.30550376411179,-92.896087120381978,-554.6315054055957,1254.0478904534975,-39.940714143442278,-562.70168794057327,562.70168794057327,39.940714143442278,2313.2664221962978,0.0
467154.6038362722,4695833.5216966402,-37500.0,-1135.1869248718917,253.99547558828274,466.54703637911217,842.62248770644408,-87.789201595013338,-461.26360100055967,1122.7275532648196,-64.874046493898447,-464.12956287466346,464.12956287466346,64.874046493898447,2070.5019586884141,0.0
472154.6038362722,4695833.5216966402,-37500.0,-1059.9471195552658,232.40044551398083,412.480296000767,737.4397485277857,-81.846111836817812,-384.76135519817421,1006.4411647787333,-81.059644219750112,-383.62550013146245,383.62550013146245,81.059644219750112,1855.6224529410144,0.0
477154.6038362722,4695833.5216966402,-37500.0,-985.57268528355996,212.64428317944163,365.65404321528626,646.08622955430565,-75.603181083715853,-322.00343876426206,903.62149834835054,-90.941538533269551,-317.78918294330219,317.78918294330219,90.941538533269551,1665.7094161842547,0.0
267154.6038362722,4700833.5216966402,-37500.0,-358.29968077518055,462.09681089789632,189.90420534775782,-273.85588453000827,186.31138589168384,-138.50302847816792,621.82684882615467,338.87062064353921,-131.42912850256732,131.42912850256732,-338.87062064353921,1094.564759214835,0.0
272154.6038362722,4700833.5216966402,-37500.0,-352.75877095577079,519.23319921093969,207.22981694826552,-298.06775553736122,214.56172736368055,-157.48724589165036,686.88936303753474,398.36769441299026,-163.28382834175881,163.28382834175881,-398.36769441299026,1206.5741055628043,0.0
277154.6038362722,4700833.5216966402,-37500.0,-338.24468175363097,584.89061286735534,226.20454881379101,-323.17485056409294,247.85100292076916,-178.76973136892875,760.72843200746229,469.22497138571993,-202.37533213458738,202.37533213458738,-469.22497138571993,1333.3893200291695,0.0
282154.6038362722,4700833.5216966402,-37500.0,-311.36313594970636,660.47699922042273,246.87153263104736,-348.59680209804515,287.21084025597901,-202.46215434335485,844.8945135581555,553.84165766077035,-250.43476656134607,250.43476656134607,-553.84165766077035,1477.6373224520894,0.0
287154.6038362722,4700833.5216966402,-37500.0,-267.44817904030492,747.60698079669146,269.18852797480895,-373.43376135867078,333.92748739271377,-228.660335669803,941.33457662867636,655.21334971988233,-309.69897969600311,309.69897969600311,-655.21334971988233,1642.6497154461488,0.0
292154.6038362722,4700833.5216966402,-37500.0,-199.97199472313969,848.0748221196535,292.96380625899195,-396.29920038332739,389.62431628996421,-257.50203411999894,1052.5384425809336,777.12905378577898,-383.14454214694933,383.14454214694933,-777.12905378577898,1832.7376324286113,0.0
297154.6038362722,4700833.5216966402,-37500.0,-99.602598172902304,963.74125997492365,317.75440778633629,-415.00409650815442,456.37142666230591,-289.30750442147621,1181.7486451337145,924.4443021010045,-474.88269307012314,474.88269307012314,-924.4443021010045,2053.594648336642,0.0
302154.6038362722,4700833.5216966402,-37500.0,47.316247972138385,1096.2256134902807,342.71099715361476,-425.9098792505913,536.81150312982652,-324.84995586984513,1333.2637556681016,1103.4299072831141,-590.82270162449345,590.82270162449345,-1103.4299072831141,2312.9052976694843,0.0
307154.6038362722,4700833.5216966402,-37500.0,261.19116978877918,1246.1791889773638,366.35984905354314,-422.54964337741603,634.23927721531209,-365.76523449176773,1512.8929693123746,1322.1153722253152,-739.73789084371629,739.73789084371629,-1322.1153722253152,2621.3320391978673,0.0
312154.6038362722,4700833.5216966402,-37500.0,572.88825421296565,1411.6959907294229,386.34681595742393,-392.68285426047908,752.41811375398663,-414.9084991951579,1728.700556667724,1590.2948876431758,-934.7949879367327,934.7949879367327,-1590.2948876431758,2994.3163399473251,0.0
317154.6038362722,4700833.5216966402,-37500.0,1028.8284954482899,1585.0445912728946,399.28787458287542,-312.18645253252203,894.51755586874981,-475.80415429241543,1992.4386727439196,1918.2052790432399,-1195.1666665317398,1195.1666665317398,-1918.2052790432399,3455.8614869769171,0.0
322154.6038362722,4700833.5216966402,-37500.0,1696.2623728085393,1746.392248310058,401.20677100331704,-133.12667053100787,1059.5990410327822,-548.53767797544822,2322.8226182452049,2311.3594077469188,-1545.8343867176397,1545.8343867176397,-2311.3594077469188,4047.2498771921169,0.0
327154.6038362722,4700833.5216966402,-37500.0,2663.5084923783447,1852.9173873016371,389.8607711435813,237.13884631035305,1233.0506933546383,-615.30509343904498,2753.8449008654343,2756.0239082471871,-2009.5707912591515,2009.5707912591515,-2756.0239082471871,4847.1724252391632,0.0
332154.6038362722,4700833.5216966402,-37500.0,4020.4617124794595,1823.2327795016104,371.97079662175662,965.32608005272846,1363.8639728204298,-601.24254624960781,3355.9979928114903,3185.5855391913556,-2575.9310733438397,2575.9310733438397,-3185.5855391913556,6013.1407476298709,0.0
337154.6038362722,4700833.5216966402,-37500.0,5788.6021244663152,1524.8925139190499,380.98158212454786,2311.5846804202101,1318.3743816631188,-288.46825838395307,4284.0761399931243,3417.7769376082924,-3117.6226621307833,3117.6226621307833,-3417.7769376082924,7844.1793388773913,0.0
342154.6038362722,4700833.5216966402,-37500.0,7762.4190391584716,795.30089436535934,511.45974832706634,4570.3554377853698,807.90037160117538,823.12555227566304,5833.3160562408793,3077.7524941961983,-3222.2156973516676,3222.2156973516676,-3077.7524941961983,10813.590347612935,0.0
347154.6038362722,4700833.5216966402,-37500.0,9294.7193264511207,-437.21561497663492,961.74202767408053,7790.1631663083608,-660.96907561973592,3605.4575916163499,8328.0605917012654,1618.0384628429447,-1991.374248750767,1991.374248750767,-1618.0384628429447,15438.321158016088,0.0
352154.6038362722,4700833.5216966402,-37500.0,9319.279423048627,-1883.7649691819599,2023.6975341376503,11201.857831953932,-3638.2278508022214,8975.0485863875583,11811.716340219187,-1299.17103673315,1844.1492226282778,-1844.1492226282778,1299.17103673315,21854.823710830926,0.0
357154.6038362722,4700833.5216966402,-37500.0,7130.1213683714077,-2678.156516626826,3896.1250175588339,12886.40367806766,-8164.3599635142264,16739.996164812736,15791.861952159621,-4962.915682646666,8874.8402386110483,-8874.8402386110483,4962.915682646666,29215.626180356045,0.0
362154.6038362722,4700833.5216966402,-37500.0,3589.4352615992834,-1761.6626040661474,6323.9152986346207,10862.771115677237,-13088.94937221391,24438.01218738034,19190.043966576297,-7267.3542599957846,17393.636889035035,-17393.636889035035,7267.3542599957846,35530.297843257889,0.0
367154.6038362722,4700833.5216966402,-37500.0,944.25923623030428,1096.946171146297,8449.8223718695535,5206.4353354445193,-16328.167754813087,28361.24689757419,20805.260100683543,-6180.483399989902,23572.946411673402,-23572.946411673402,6180.483399989902,38561.674297490208,0.0
372154.6038362722,4700833.5216966402,-37500.0,889.75638060714004,4759.5552020771793,9289.0663185306385,-1522.392720170252,-16291.781222827325,26451.20842970219,20009.954713696225,-1791.109475676938,24261.82548130631,-24261.82548130631,1791.109475676938,37153.966440385797,0.0
377154.6038362722,4700833.5216966402,-37500.0,3114.4066749652679,7444.8324712979575,8533.572453793322,-6219.6359552500389,-13121.845299797351,19798.340575689297,17100.119599439975,3627.9604418435119,19410.233538821791,-19410.233538821791,-3627.9604418435119,31877.651772537334,0.0
382154.6038362722,4700833.5216966402,-37500.0,5753.1886239189298,8107.1636090395978,6789.3721250985382,-7439.4039044774054,-8506.9242123410149,11524.906767439517,13113.925096207484,7531.7466012496479,11784.816081357279,-11784.816081357279,-7531.7466012496479,24672.284507908818,0.0
387154.6038362722,4700833.5216966402,-37500.0,7131.151855756515,7035.4631282446007,4953.6389086599838,-5909.5508025173776,-4295.7349244653897,4468.247724255697,9272.6930676885149,8883.9364547551595,4606.7582002710869,-4606.7582002710869,-8883.9364547551595,17738.537842736678,0.0
392154.6038362722,4700833.5216966402,-37500.0,6857.5354561729782,5208.1236203952258,3559.1258762319476,-3284.1367811884415,-1410.6237273522929,-189.28325030574581,6668.0655662507888,8221.3372742398606,-397.34754710481684,397.34754710481684,-8221.3372742398606,12529.715133976359,0.0
397154.6038362722,4700833.5216966402,-37500.0,5490.58058220985,3441.4968385051116,2683.4046811460717,-829.64373987536158,150.64453123723294,-2649.1850958456266,5315.8094523213849,6614.403990064282,-3113.6355855492907,3113.6355855492907,-6614.403990064282,9431.3825486754595,0.0
402154.6038362722,4700833.5216966402,-37500.0,3756.0577678901541,2099.0584504601766,2182.315883961096,934.93874775101506,792.65027984502956,-3622.7565473737941,4583.7655081653666,4877.4274976726674,-4182.5858985740115,4182.5858985740115,-4877.4274976726674,7939.5572291286753,0.0
407154.6038362722,4700833.5216966402,-37500.0,2135.8113929506044,1215.1352959244596,1889.6514541559059,1988.8846576075821,926.82830238799045,-3763.5691828481499,4121.3104650228743,3397.8448846526971,-4301.7357098825805,4301.7357098825805,-3397.8448846526971,7230.8211666753823,0.0
412154.6038362722,4700833.5216966402,-37500.0,834.68860733392728,687.77351793078185,1692.4447384883013,2501.2695373151996,833.46491800553338,-3505.0609818845837,3755.7652534398708,2271.7106065699654,-3965.6388802112051,3965.6388802112051,-2271.7106065699654,6750.0929871316293,0.0
417154.6038362722,4700833.5216966402,-37500.0,-116.41071818019488,396.55211198071538,1532.3055900009358,2658.6692121884871,666.69442815945035,-3091.0906703978972,3426.1832630082376,1463.299279525241,-3460.2791486685383,3460.2791486685383,-1463.299279525241,6283.483165053568,0.0
422154.6038362722,4700833.5216966402,-37500.0,-763.93141272342825,246.84830789115617,1385.6049144345661,2606.0357638983128,498.03587484421649,-2645.2124863474291,3117.1374462930821,900.56651855908626,-2930.1265287136457,2930.1265287136457,-900.56651855908626,5788.3327112796696,0.0
427154.6038362722,4700833.5216966402,-37500.0,-1175.3131537961483,175.90868755722019,1245.8882367721299,2440.9545935468973,354.34520871602496,-2224.4030636669822,2825.2446249676527,515.37319804790923,-2439.3804309256125,2439.3804309256125,-515.37319804790923,5277.0403565313372,0.0
432154.6038362722,4700833.5216966402,-37500.0,-1414.0096022859343,145.94157608018972,1113.3555321701501,2224.2517491526582,241.48992439571245,-1851.3235153112137,2549.9229073415972,254.62726806715489,-2011.1768080063525,2011.1768080063525,-254.62726806715489,4771.2478902744688,0.0
437154.6038362722,4700833.5216966402,-37500.0,-1531.4940516419722,135.63603934333113,989.82626175997871,1991.8872501602548,156.86562340823949,-1531.7397069221206,2292.3156572187613,80.053766926032381,-1649.2022681500907,1649.2022681500907,-80.053766926032381,4288.3017486819545,0.0
442154.6038362722,4700833.5216966402,-37500.0,-1566.6578154624215,133.61622176088497,876.80511641936755,1764.0438096519233,95.291046808927007,-1263.5269107459969,2054.2310645862012,-35.078455798405457,-1348.7201967521248,1348.7201967521248,35.078455798405457,3839.0184992735799,0.0
447154.6038362722,4700833.5216966402,-37500.0,-1547.7422228392541,134.15890466756284,774.99325404763988,1551.2355647827267,51.483521772621877,-1041.2492718772182,1836.9592017631621,-109.24614612773689,-1101.9385874945019,1101.9385874945019,109.24614612773689,3428.7211734782486,0.0
452154.6038362722,4700833.5216966402,-37500.0,-1494.743417399585,134.6183657014619,684.35886777706514,1358.2035836873724,20.928293103433266,-858.45979611724749,1640.8119792781426,-155.21295650979846,-900.52050900092104,900.52050900092104,155.21295650979846,3058.863798953817,0.0
457154.6038362722,4700833.5216966402,-37500.0,-1421.5524754216694,133.9546454534684,604.35816025634995,1186.3369004058122,0.056555766699060039,-708.81596544434785,1465.2054010062918,-181.82288592074394,-736.68239369198102,736.68239369198102,181.82288592074394,2728.4398536368085,0.0
462154.6038362722,4700833.5216966402,-37500.0,-1337.6544734170545,131.92182797236697,534.1508379118344,1035.1594677060461,-13.838648710291224,-586.57774170423318,1308.9319607300934,-195.22620094504515,-603.60796141184301,603.60796141184301,195.22620094504515,2435.0260709547529,0.0
467154.6038362722,4700833.5216966402,-37500.0,-1249.4056059832112,128.63422370152674,472.76285860112489,903.23040759376931,-22.762203852838979,-486.78256632360012,1170.4301358458138,-199.7114838784039,-495.5348179102532,495.5348179102532,199.7114838784039,2175.4914211878254,0.0
472154.6038362722,4700833.5216966402,-37500.0,-1160.9665286182355,124.34250195362951,419.19493161014839,788.68037817953189,-28.177450120969656,-405.25763966386904,1047.9912665188913,-198.27257506495022,-407.69375018030843,407.69375018030843,198.27257506495022,1946.453030513836,0.0
477154.6038362722,4700833.5216966402,-37500.0,-1074.9733779299681,119.32387677333217,372.4877830921962,689.52268215566141,-31.142329779299654,-338.55594683634655,939.89906690256794,-192.99804851815225,-336.18974571730109,336.18974571730109,192.99804851815225,1744.5536678809108,0.0
267154.6038362722,4705833.5216966402,-37500.0,-220.53275696824787,456.04354656489113,145.72025034523051,-212.4716263599795,184.53850707105846,-117.64041615745458,563.33883413014314,361.26493978380245,-160.90699139817013,160.90699139817013,-361.26493978380245,984.15780076310705,0.0
272154.6038362722,4705833.5216966402,-37500.0,-194.43876312924948,508.00693254921555,155.6623339748385,-224.74549140577287,210.83844927549418,-131.77536652227204,618.74970893594036,419.77141242820755,-195.3044442177378,195.3044442177378,-419.77141242820755,1078.7317780254641,0.0
277154.6038362722,4705833.5216966402,-37500.0,-155.88681410448407,566.48953056503933,165.89312889104971,-235.17530518425448,241.27670820980677,-146.91657155255805,681.01817446523955,488.3589751869024,-236.8006635827478,236.8006635827478,-488.3589751869024,1184.919043575228,0.0
282154.6038362722,4705833.5216966402,-37500.0,-100.90450867940017,632.15160752678673,176.21814106704082,-242.44571013519604,276.49392646634692,-162.77202090123717,751.24973132269474,568.80592069787781,-286.87439960805557,286.87439960805557,-568.80592069787781,1304.7232836484745,0.0
287154.6038362722,4705833.5216966402,-37500.0,-24.21942934812499,705.56188613711242,186.344515902144,-244.69193947802233,317.20517583988004,-178.87241548049849,830.82894594868458,663.19170076030946,-347.34181856088162,347.34181856088162,-663.19170076030946,1440.746888265681,0.0
292154.6038362722,4705833.5216966402,-37500.0,81.24745570875217,787.04106475940307,195.84859971539879,-239.25573025517713,364.18880751192495,-194.53909093631842,921.5339614826064,773.93540203298107,-420.47400613496529,420.47400613496529,-773.93540203298107,1596.4737342182448,0.0
297154.6038362722,4705833.5216966402,-37500.0,225.13191403063252,876.36141019179229,204.14514699945641,-222.27984883967127,418.24568580534145,-208.87098451086229,1025.7120147626588,903.81364678546777,-509.18183128513022,509.18183128513022,-903.81364678546777,1776.7194379291395,0.0
302154.6038362722,4705833.5216966402,-37500.0,420.73353117567251,972.173897281922,210.48304522059061,-187.98822910301152,480.07894160987109,-220.75246293497301,1146.5582520873841,1055.8989969579129,-617.29393628200239,617.29393628200239,-1055.8989969579129,1988.3785249629689,0.0
307154.6038362722,4705833.5216966402,-37500.0,686.59385193220703,1070.9288527730898,214.03731904056102,-127.34934545757511,549.96668084814485,-228.82711840763108,1288.5927149793804,1233.2599050400295,-749.91456621483348,749.91456621483348,-1233.2599050400295,2241.7463082242057,0.0
312154.6038362722,4705833.5216966402,-37500.0,1048.5367271099253,1164.8822714241101,214.27591383086266,-25.560137325330487,626.91244519591373,-231.19078073827183,1458.5712397908546,1438.0250955959821,-913.6776891441375,913.6776891441375,-1438.0250955959821,2553.0250312056846,0.0
317154.6038362722,4705833.5216966402,-37500.0,1541.6627598447551,1238.5601442246052,212.02619873657432,142.57503740968684,706.53980736682433,-224.03419238248989,1667.4763065522013,1668.9128708370922,-1116.1898107376287,1116.1898107376287,-1668.9128708370922,2949.331450153667,0.0
322154.6038362722,4705833.5216966402,-37500.0,2210.3631641698239,1262.9449830248257,212.18106004423407,420.52998925391586,776.14375881126568,-197.24626855184133,1935.4153509615116,1915.4009416219692,-1362.5980297358988,1362.5980297358988,-1915.4009416219692,3478.6918128289531,0.0
327154.6038362722,4705833.5216966402,-37500.0,3101.1122666470701,1187.2902557560435,229.91770488130828,881.49466125461208,803.84491424498992,-122.63909119681648,2304.744118294333,2145.4720231313904,-1644.2703194754704,1644.2703194754704,-2145.4720231313904,4228.3432414789531,0.0
332154.6038362722,4705833.5216966402,-37500.0,4236.8660374841993,931.60767486181817,303.52074941814567,1638.8790042216169,717.17377987082182,72.651317980826477,2872.8767711916162,2283.7195662546064,-1909.6509253973773,1909.6509253973773,-2283.7195662546064,5351.3607131689732,0.0
337154.6038362722,4705833.5216966402,-37500.0,5556.2371412672837,391.97793316995165,516.81036541483877,2837.157284473019,367.88007825650277,554.42370363036298,3814.6730770412169,2182.912873510068,-2003.9125553418032,2003.9125553418032,-2182.912873510068,7086.8200947521764,0.0
342154.6038362722,4705833.5216966402,-37500.0,6811.869661283733,-511.70811206938976,1026.8466824930724,4576.9791940135556,-505.12240087100139,1637.8604558591221,5293.8530208851598,1617.2353939762838,-1579.1680176767654,1579.1680176767654,-1617.2353939762838,9731.5105250858069,0.0
347154.6038362722,4705833.5216966402,-37500.0,7491.6876078219584,-1705.6198946224024,2066.0397703117742,6713.8380139003157,-2255.7675293540333,3769.652983310968,7394.2427776776049,377.26143031955223,-51.657185386525754,51.657185386525754,-377.26143031955223,13502.462324926511,0.0
352154.6038362722,4705833.5216966402,-37500.0,6967.8274506722391,-2773.6319327765586,3843.5310201421548,8576.7387924113391,-5129.9954444341165,7254.3256209306228,10016.390526870382,-1437.6122973270421,3171.4386506055835,-3171.4386506055835,1437.6122973270421,18260.597515227557,0.0
357154.6038362722,4705833.5216966402,-37500.0,5061.3628131749783,-2941.9124138303087,6291.566493131907,8982.4543403443677,-8836.0671381852462,11656.803375323161,12719.791953709338,-3063.5686451135425,7999.3293153059767,-7999.3293153059767,3063.5686451135425,23219.512340812176,0.0
362154.6038362722,4705833.5216966402,-37500.0,2606.4876856998803,-1555.2814668515405,8828.4081194801001,7019.1010779264971,-12256.861979021234,15443.06544366968,14754.702450310451,-3245.9573032888993,12987.381545325123,-12987.381545325123,3245.9573032888993,27006.923090880737,0.0
367154.6038362722,4705833.5216966402,-37500.0,1059.515022698155,1210.7711221005843,10521.469236954978,3091.3623630443344,-13922.760465514039,16739.356816347619,15409.576649403467,-1248.5247807347341,15855.517423199621,-15855.517423199621,1248.5247807347341,28312.917757408701,0.0
372154.6038362722,4705833.5216966402,-37500.0,1286.7104647789688,4256.1046085288272,10679.331510312049,-1123.6817269684614,-13038.719306308103,14753.624804907133,14427.125473103028,2308.6554403533282,15134.954724512985,-15134.954724512985,-2308.6554403533282,26669.183593292182,0.0
377154.6038362722,4705833.5216966402,-37500.0,2886.8746596921856,6292.1515209500121,9343.6410691634992,-3879.335662053958,-10041.965726270775,10321.219175099281,12137.99463189177,5838.4639901566843,11221.535728803963,-11221.535728803963,-5838.4639901566843,22702.465937953657,0.0
382154.6038362722,4705833.5216966402,-37500.0,4647.6918836692612,6698.6485181850785,7214.9681252194951,-4465.7747136893922,-6216.263195850388,5181.885730779667,9259.6237054472476,7952.9887089432359,5907.0225201751527,-5907.0225201751527,-7952.9887089432359,17772.893372935494,0.0
387154.6038362722,4705833.5216966402,-37500.0,5540.9611984768662,5756.8387276028598,5112.2402319347739,-3352.1598282269515,-2812.5589758537785,843.29446427841924,6811.2548673094643,8260.1390416159666,1065.5933127546668,-1065.5933127546668,-8260.1390416159666,13308.037162435196,0.0
392154.6038362722,4705833.5216966402,-37500.0,5297.9616938088157,4199.4431288338237,3511.9497714527679,-1517.5116119195739,-455.84329071194549,-2039.4005381327295,5637.0144710837249,7243.077867490585,-2298.3238068228875,2298.3238068228875,-7243.077867490585,10215.673167028681,0.0
397154.6038362722,4705833.5216966402,-37500.0,4247.113992640684,2661.1048479473825,2490.2793638492053,241.58891902351525,843.89816095184597,-3546.097240653894,4942.0697121934609,5648.805290794653,-4102.0996367861135,4102.0996367861135,-5648.805290794653,8584.0113493865247,0.0
402154.6038362722,4705833.5216966402,-37500.0,2873.5646550920869,1458.6578127441237,1909.3290755161486,1548.9741772336906,1373.8931082503836,-4072.0789267731402,4503.3101158694026,4039.5779094187683,-4736.8555794678859,4736.8555794678859,-4039.5779094187683,7856.0954692824689,0.0
407154.6038362722,4705833.5216966402,-37500.0,1540.4920298868803,650.3537070075397,1594.0978912173962,2348.6290536920355,1451.5127604065319,-4018.016337613501,4154.885368085721,2689.3802740884116,-4664.9894764132641,4664.9894764132641,-2689.3802740884116,7438.7889133754006,0.0
412154.6038362722,4705833.5216966402,-37500.0,430.96272231136788,168.53416034624416,1412.9271651136269,2733.160666169375,1311.2289317140007,-3674.2753109499072,3826.9512600413536,1665.9628609758743,-4240.6604356878888,4240.6604356878888,-1665.9628609758743,7035.7734585156659,0.0
417154.6038362722,4705833.5216966402,-37500.0,-404.38652656383709,-85.147141796453752,1288.7936778828318,2828.7317686903839,1093.5315037304729,-3218.3624179497992,3506.1882460929992,936.81193279690046,-3684.6655609602158,3684.6655609602158,-936.81193279690046,6569.9498940960329,0.0
422154.6038362722,4705833.5216966402,-37500.0,-985.21987541311751,-196.12597774613081,1184.527806607322,2744.6875562398764,870.2857732988341,-2747.0817312726772,3196.9536348057763,438.38339551368222,-3116.7694205574562,3116.7694205574562,-438.38339551368222,6051.6341102012429,0.0
427154.6038362722,4705833.5216966402,-37500.0,-1358.0306302041517,-225.56041269909332,1085.7567137346218,2560.8741317210174,672.29402996833619,-2307.7480500223737,2902.3907697007362,108.49740571106418,-2593.7343954852022,2593.7343954852022,-108.49740571106418,5511.6028897090582,0.0
432154.6038362722,4705833.5216966402,-37500.0,-1572.9717549356237,-212.722068477634,988.98676684034785,2330.3585991924006,508.84376599191484,-1919.8014289927125,2622.9018727162147,-102.99978878852744,-2137.189638397972,2137.189638397972,102.99978878852744,4977.6216310072241,0.0
437154.6038362722,4705833.5216966402,-37500.0,-1674.0426781651513,-180.98961557315727,894.93063922310239,2086.1342375337103,379.26609572168024,-1587.926201376361,2359.9349496122659,-233.25070862449218,-1750.7626782228458,1750.7626782228458,233.25070862449218,4468.9458745803095,0.0
442154.6038362722,4705833.5216966402,-37500.0,-1696.3016056574788,-143.39031342060733,805.33041497109366,1847.4507836152859,279.03975349369432,-1309.5341618125037,2115.8898534074569,-308.62007389393193,-1429.7009386249465,1429.7009386249465,308.62007389393193,3996.8358850312538,0.0
447154.6038362722,4705833.5216966402,-37500.0,-1666.1879190336408,-106.65370071538315,721.69428411184629,1624.6384600471902,202.72594000575697,-1078.8779551808111,1892.582829128487,-347.4188527866711,-1165.9705484642977,1165.9705484642977,347.4188527866711,3566.5468218995238,0.0
452154.6038362722,4705833.5216966402,-37500.0,-1602.9348544504701,-73.869984988329762,644.94442473116817,1422.4654009655535,145.2282144786636,-889.23575028355049,1690.6511181718372,-362.21700578817979,-950.82186319328287,950.82186319328287,362.21700578817979,3179.2901275215972,0.0
457154.6038362722,4705833.5216966402,-37500.0,-1520.1607201419433,-46.126710316563894,575.4378849066353,1242.364995776669,102.23097221233263,-734.01275533855721,1509.6765267921364,-361.58269660130816,-775.99101384795847,775.99101384795847,361.58269660130816,2833.7714165204143,0.0
462154.6038362722,4705833.5216966402,-37500.0,-1427.2849489590699,-23.473731167180699,513.10437608067184,1083.868467066507,70.265130233103278,-607.24408413289973,1348.5185063036133,-351.32352501167873,-634.18788290231362,634.18788290231362,351.32352501167873,2527.2824115947219,0.0
467154.6038362722,4705833.5216966402,-37500.0,-1330.6691823617928,-5.4717648487174806,457.59348548902886,945.50213931020858,46.62347717783026,-503.7734814170434,1205.6265810103871,-335.35137070144282,-519.22234164210158,519.22234164210158,335.35137070144282,2256.4279536667441,0.0
472154.6038362722,4705833.5216966402,-37500.0,-1234.4915077209309,8.5070126647521658,408.39500774436078,825.33577733465836,29.230635720857325,-419.26587037412122,1079.2735000840391,-316.27937403619552,-425.95913098610589,425.95913098610589,316.27937403619552,2017.588553164325,0.0
477154.6038362722,4705833.5216966402,-37500.0,-1141.3948573425046,19.122161650362525,364.92562241462002,721.30618757772731,16.512851272960322,-350.14065921015521,967.70942670485442,-295.83230199895542,-350.20006186654967,350.20006186654967,295.83230199895542,1807.1981167379029,0.0
267154.6038362722,4710833.5216966402,-37500.0,-94.596045641061963,433.99044014250381,106.65988092133041,-155.27522838504922,176.11508763699663,-97.746753727995625,505.68830502911231,369.51883517922386,-180.44192597677875,180.44192597677875,-369.51883517922386,878.39162219866387,0.0
272154.6038362722,4710833.5216966402,-37500.0,-51.693674034615185,477.85833061578154,111.03193500406886,-157.17779035638981,198.97794724694,-107.49499618213615,551.97301461297479,424.28859504457489,-215.05425318999286,215.05425318999286,-424.28859504457489,957.39788581055222,0.0
277154.6038362722,4710833.5216966402,-37500.0,5.8878407733596898,525.69365072915411,114.98827746532652,-155.11736653186685,224.71462554484711,-117.17395685137775,603.43081228004633,487.30223338340215,-256.01595369438348,256.01595369438348,-487.30223338340215,1045.5662730948393,0.0
282154.6038362722,4710833.5216966402,-37500.0,82.23371086687338,577.33430924344361,118.35094463872663,-147.31313353209501,253.48405275947286,-126.19476300320218,660.82776362421748,559.62434716650341,-304.3809515496967,304.3809515496967,-559.62434716650341,1144.5896339049484,0.0
287154.6038362722,4710833.5216966402,-37500.0,182.57228481165004,632.25127672943199,120.93597784156084,-131.33605245192766,285.32126966401916,-133.68814165881562,725.14280837021738,642.33691790878834,-361.32541444430717,361.32541444430717,-642.33691790878834,1256.7910544425386,0.0
292154.6038362722,4710833.5216966402,-37500.0,313.62312549567685,689.30317826960788,122.59730074032376,-103.85997089831362,320.03621643690656,-138.41986290085308,797.67759070853003,736.4545544022393,-428.14358302497033,428.14358302497033,-736.4545544022393,1385.4705623993254,0.0
297154.6038362722,4710833.5216966402,-37500.0,484.05629302185162,746.330412869209,123.32776517671142,-60.282003488639042,357.03850493271693,-138.69068799985362,880.23937512586281,842.76363284897275,-506.23058564489628,506.23058564489628,-842.76363284897275,1535.4656521254917,0.0
302154.6038362722,4710833.5216966402,-37500.0,705.07249818171442,799.47989861625319,123.48137271537512,5.8861230553230239,395.01881455103938,-132.2040239879353,975.46033866275809,961.51205265102863,-597.02333554584357,597.02333554584357,-961.51205265102863,1714.075690481221,0.0
307154.6038362722,4710833.5216966402,-37500.0,991.04474756455431,842.08725426350975,124.24996206182297,104.0280594990201,431.34019975734526,-115.83489037425065,1087.4002341732069,1091.7979258465678,-701.80483876986114,701.80483876986114,-1091.7979258465678,1932.6250752182746,0.0
312154.6038362722,4710833.5216966402,-37500.0,1359.9567826544746,862.87079451865009,128.66531217561126,248.10514521145387,460.83198039207514,-85.095792586899151,1222.8295712482347,1230.3556951857854,-821.10039042265726,821.10039042265726,-1230.3556951857854,2209.158114756543,0.0
317154.6038362722,4710833.5216966402,-37500.0,1832.8552351517806,843.18557848355852,143.65536631315993,459.33288817373801,473.37172314821373,-32.773047998873921,1394.5021723115974,1369.1939827882927,-952.97366754273594,952.97366754273594,-1369.1939827882927,2573.0593205690639,0.0
322154.6038362722,4710833.5216966402,-37500.0,2430.4156640399401,753.38252516359751,184.102234989832,769.90955200065707,449.13378920064298,54.425056154739437,1631.4844928088321,1491.2634998084832,-1088.6605773228976,1088.6605773228976,-1491.2634998084832,3072.4968844176969,0.0
327154.6038362722,4710833.5216966402,-37500.0,3162.768001532495,549.52780756097661,280.33584750505679,1226.5391314561209,349.81506298688515,203.28438574395562,2002.9009914061071,1563.4456973325955,-1202.5465478169108,1202.5465478169108,-1563.4456973325955,3784.5338620404868,0.0
332154.6038362722,4710833.5216966402,-37500.0,4006.5790171471494,175.03734313246056,490.38248587695978,1888.6438671601259,104.42166751199282,468.00581135177578,2593.0378957713915,1528.0230750895334,-1232.2499669924146,1232.2499669924146,-1528.0230750895334,4823.7301320369652,0.0
337154.6038362722,4710833.5216966402,-37500.0,4865.0062544254652,-421.69661917021546,915.36214119501005,2808.2582593004099,-407.7742998246141,949.6487340127245,3462.0582381233398,1300.4034859016781,-1047.2895190904253,1047.2895190904253,-1300.4034859016781,6336.9323382513612,0.0
342154.6038362722,4710833.5216966402,-37500.0,5522.4506943593105,-1235.7815507496989,1706.033849608536,3970.0328181296791,-1360.8824784458741,1805.738403999499,4669.297446926771,794.96823739394233,-421.38924657250539,421.38924657250539,-794.96823739394233,8462.5892967348154,0.0
347154.6038362722,4710833.5216966402,-37500.0,5650.0602976485188,-2112.823369471022,3027.7012317653462,5181.9882590146699,-2930.645922938887,3204.6979094049425,6222.5534320039278,12.913724000237721,935.06610998234476,-935.06610998234476,-12.913724000237721,11232.14482413921,0.0
352154.6038362722,4710833.5216966402,-37500.0,4962.3096688264768,-2669.5582918433215,4939.1390511551444,5984.0612773583798,-5135.6235463745415,5164.3759212602035,7990.5396128765678,-810.11512279591602,3187.5309223868717,-3187.5309223868717,810.11512279591602,14421.391396539837,0.0
357154.6038362722,4710833.5216966402,-37500.0,3536.0338722148767,-2384.6655890219604,7204.7460568263632,5764.0333178419623,-7611.3001562705113,7312.3278853114443,9645.8051619669677,-1136.5878759528473,6035.4082643859128,-6035.4082643859128,1136.5878759528473,17446.876800643924,0.0
362154.6038362722,4710833.5216966402,-37500.0,1997.0138543933372,-962.73767767596132,9220.734609436644,4197.7066071653526,-9563.4808300483564,8839.2313674513152,10730.591891852282,-381.22693556402373,8533.6302094465955,-8533.6302094465955,381.22693556402373,19483.201069919713,0.0
367154.6038362722,4710833.5216966402,-37500.0,1185.5551607681496,1290.5810884100242,10264.506166806033,1678.3367158020023,-10143.714288542704,8912.094992067623,10868.95595722926,1568.1140542274052,9506.2666552428964,-9506.2666552428964,-1568.1140542274052,19852.202706374781,0.0
372154.6038362722,4710833.5216966402,-37500.0,1503.2808563240951,3540.5625442543155,9945.6461750189301,-812.37887926218525,-9019.1631039332842,7275.1100635426437,9982.9012357058946,4099.8460452644822,8352.0635841824878,-8352.0635841824878,-4099.8460452644822,18425.042492568333,0.0
377154.6038362722,4710833.5216966402,-37500.0,2617.3144889753985,4944.4034047639834,8454.9790095165972,-2338.3444014953766,-6597.5013044591096,4438.6300986315282,8340.5375778048037,6236.6102701698856,5462.7031975325535,-5462.7031975325535,-6236.6102701698856,15719.074310636839,0.0
382154.6038362722,4710833.5216966402,-37500.0,3770.396402585362,5146.1318851511487,6405.4105382745438,-2547.5888450039133,-3732.0369550542268,1317.4976193288014,6471.8262426399115,7259.6357249535622,1903.292472781618,-1903.292472781618,-7259.6357249535622,12654.105314593497,0.0
387154.6038362722,4710833.5216966402,-37500.0,4333.6846219383406,4364.4130351250351,4439.10592591561,-1718.8296109252858,-1214.570103206041,-1299.5698163252703,5472.3726619813006,7052.9762474069958,-1266.0910017514384,1266.0910017514384,-7052.9762474069958,10137.628172830213,0.0
392154.6038362722,4710833.5216966402,-37500.0,4119.8702168836144,3108.2686583801492,2932.1059064963142,-420.25315422569469,546.35545493738778,-3044.4957452175067,4934.5716923214404,5982.5909298734077,-3461.9334940366934,3461.9334940366934,-5982.5909298734077,8639.3691116851824,0.0
397154.6038362722,4710833.5216966402,-37500.0,3313.593280138216,1839.9946706794578,1956.3345539140139,853.35214357029724,1525.8846419189686,-3934.4099140518447,4604.654269129529,4552.1104604530128,-4615.4438637889389,4615.4438637889389,-4552.1104604530128,7991.5348086842923,0.0
402154.6038362722,4710833.5216966402,-37500.0,2231.0838792947479,818.01845660915728,1405.0364348389116,1834.6273295346061,1907.1134496764298,-4180.1177213211949,4344.2906339739038,3147.8927817557528,-4952.2960448317845,4952.2960448317845,-3147.8927817557528,7714.0251280928605,0.0
407154.6038362722,4710833.5216966402,-37500.0,1139.1809295960604,113.3000763869746,1125.9950382687787,2455.7783234230501,1914.7078316469469,-4021.9599220471177,4078.0745706864204,1969.4618078507388,-4768.8589629783,4768.8589629783,-1969.4618078507388,7463.1672231605171,0.0
412154.6038362722,4710833.5216966402,-37500.0,194.55475815688368,-309.90114815261984,993.42048174208549,2760.045926236251,1729.9550587743188,-3651.8549165827549,3789.035582895076,1072.2278204154445,-4312.6443306574283,4312.6443306574283,-1072.2278204154445,7115.1759573521094,0.0
417154.6038362722,4710833.5216966402,-37500.0,-542.19692239938297,-524.37654227237635,926.20763201050693,2828.9467926705956,1471.3724729266248,-3197.9470932236477,3488.8540298059761,433.98910153003135,-3751.0938294822058,3751.0938294822058,-433.98910153003135,6666.1442795109824,0.0
422154.6038362722,4710833.5216966402,-37500.0,-1070.5126247790404,-601.50104502355782,880.61978410845472,2742.750413737996,1205.4223761973674,-2735.8831899255106,3194.3508458185179,3.9808824904023368,-3182.3789132824268,3182.3789132824268,-3.9808824904023368,6151.6107330939794,0.0
427154.6038362722,4710833.5216966402,-37500.0,-1418.6673660349916,-596.93218931583567,837.037365653444,2565.5264360271021,963.90619905484766,-2305.329643035252,2912.2194716546555,-270.94503831525003,-2656.7087234097135,2656.7087234097135,270.94503831525003,5610.3947635769,0.0
432154.6038362722,4710833.5216966402,-37500.0,-1623.9770826183262,-549.02426101137041,788.98656758444054,2342.9704761234489,758.47812685060774,-1923.7115251236387,2641.4266231697438,-435.84084958111771,-2194.978109458581,2194.978109458581,435.84084958111771,5072.885244900679,0.0
437154.6038362722,4710833.5216966402,-37500.0,-1722.5467439952433,-482.05176056774707,736.10273565102511,2105.2217891693113,590.34196991659348,-1595.7221718462913,2383.3997525208742,-525.32419489964923,-1801.7501013603501,1801.7501013603501,525.32419489964923,4559.3567020205101,0.0
442154.6038362722,4710833.5216966402,-37500.0,-1745.046901266571,-410.2955970246627,680.26854244967444,1870.8188456047269,455.97674634723785,-1319.3380281599905,2141.6562671083066,-564.5905594854604,-1473.3318282694204,1473.3318282694204,564.5905594854604,4081.6131628743183,0.0
447154.6038362722,4710833.5216966402,-37500.0,-1715.7106597541544,-341.50126422538779,623.76167358440409,1650.2612742923525,350.22169203946498,-1089.4057848057298,1918.9856976328936,-571.37985004948564,-1202.4451238759118,1202.4451238759118,571.37985004948564,3645.2829148199776,0.0
452154.6038362722,4710833.5216966402,-37500.0,-1652.806455442972,-279.38798216138571,568.50849623303588,1448.7640112130066,267.79467961750527,-899.67767719647259,1716.6653898194022,-557.90516653686552,-980.76909703189642,980.76909703189642,557.90516653686552,3251.8568912372161,0.0
457154.6038362722,4710833.5216966402,-37500.0,-1569.6422033853769,-225.32325569101019,515.88090995181835,1268.2270547787411,203.94966279187568,-743.8980249850656,1534.684572138472,-532.42945446046315,-800.22784188178889,800.22784188178889,532.42945446046315,2900.2498557211952,0.0
462154.6038362722,4710833.5216966402,-37500.0,-1475.639601856152,-179.38050088613014,466.72486816638309,1108.5735363371818,154.69069836666105,-616.32895360968109,1372.1652754921697,-500.45325239294209,-653.56748695897193,653.56748695897193,500.45325239294209,2587.89985082674,0.0
467154.6038362722,4710833.5216966402,-37500.0,-1377.2913825799199,-140.97999464825867,421.46795111382062,968.62787586399384,116.77609380896982,-511.95939716366496,1227.7294898751131,-465.57364440558837,-534.55077852969202,534.55077852969202,465.57364440558837,2311.5074152281791,0.0
472154.6038362722,4710833.5216966402,-37500.0,-1278.9416793983473,-109.26191674131788,380.23642830529144,846.67266649610883,87.634804195922854,-426.5428783255241,1099.7636162736671,-430.09024609936569,-437.95609875289324,437.95609875289324,430.09024609936569,2067.5086863239017,0.0
267154.6038362722,4715833.5216966402,-37500.0,15.772533011101576,399.30663128236245,74.779326376141128,-103.87651760733348,162.32338326703515,-79.351404636967033,450.10922085781795,365.66368681506083,-190.66445016259533,190.66445016259533,-365.66368681506083,779.67834141036803,0.0
272154.6038362722,4715833.5216966402,-37500.0,71.083419366560378,433.27483224008,75.752126017861727,-97.347704320705745,180.74061075874545,-85.320980909478052,488.07233319711213,414.72563671021805,-223.52676331540113,223.52676331540113,-414.72563671021805,845.47431185769346,0.0
277154.6038362722,4715833.5216966402,-37500.0,141.95986186077309,468.51598308948547,76.289848739802906,-85.439537726442694,200.60066022084524,-90.403215869500841,529.82609873036438,469.94261877757731,-261.55912677172955,261.55912677172955,-469.94261877757731,918.79767187720938,0.0
282154.6038362722,4715833.5216966402,-37500.0,232.17066799562224,504.13154265897538,76.455316874461928,-66.184257253087893,221.58028299084623,-93.830089645702543,575.91796482745121,531.70147270473763,-305.3111784694629,305.3111784694629,-531.70147270473763,1001.3195355040845,0.0
287154.6038362722,4715833.5216966402,-37500.0,346.33403537601066,538.66924166708759,76.468536706380419,-36.988125633325517,243.06141898201321,-94.510409125246198,627.09484347224361,600.19067551122225,-355.24398659152001,355.24398659152001,-600.19067551122225,1095.4620422586984,0.0
292154.6038362722,4715833.5216966402,-37500.0,490.07498150091726,569.85399035789953,76.841867896614104,5.5659929963010404,263.96833434753023,-90.929039825817526,684.43429524316184,675.25140288988314,-411.6294347333619,411.6294347333619,-675.25140288988314,1204.8106385057663,0.0
297154.6038362722,4715833.5216966402,-37500.0,670.17464901800281,594.18649968837167,78.61961358447698,65.991774499012223,282.51220669060365,-81.021645960551723,749.57875040320096,756.14407261228973,-474.38794106225976,474.38794106225976,-756.14407261228973,1334.7420183580875,0.0
302154.6038362722,4715833.5216966402,-37500.0,894.65113243491237,606.34842526445641,83.80540806884305,150.28803847688204,295.77843065507255,-62.009701839484201,825.19090286276253,841.1779329475188,-542.81577770138563,542.81577770138563,-841.1779329475188,1493.3706022047988,0.0
307154.6038362722,4715833.5216966402,-37500.0,1172.6224640481462,598.34058077694351,96.12666649657659,266.49842029336878,299.03679786787853,-30.149700782028543,916.00982297435826,927.11539397916454,-615.09605830719124,615.09605830719124,-927.11539397916454,1692.9537787819384,0.0
312154.6038362722,4715833.5216966402,-37500.0,1513.6091999358541,558.30675784594337,122.39571898050347,425.49052798249454,284.55816069906786,19.723075937749254,1032.2256572164711,1008.2160030070065,-687.36544857447439,687.36544857447439,-1008.2160030070065,1951.9277913352246,0.0
317154.6038362722,4715833.5216966402,-37500.0,1925.5629401372164,469.14932497529441,174.8863156248006,641.89739580809385,239.57489438377331,95.123053182308411,1201.6389218735201,1074.763538479192,-751.87592582943671,751.87592582943671,-1074.763538479192,2297.7073265256231,0.0
322154.6038362722,4715833.5216966402,-37500.0,2410.3022135294414,307.52224015356421,275.2950607497404,934.770111525331,142.87566910451059,207.80352192250808,1468.1751549968508,1111.0514251392183,-793.42992688692857,793.42992688692857,-1111.0514251392183,2770.0615891381613,0.0
327154.6038362722,4715833.5216966402,-37500.0,2954.3949980640791,44.957809128208112,460.73917126965188,1326.4409889170818,-40.36441341431226,377.2295373760582,1851.7078864162188,1093.4490938182548,-782.97234407933365,782.97234407933365,-1093.4490938182548,3423.8612835897275,0.0
332154.6038362722,4715833.5216966402,-37500.0,3513.8591831264284,-344.89401317181705,791.09306726767466,1835.9741932674299,-364.78048012099288,635.66188912176881,2378.012036151677,991.02803049194313,-667.8548687252835,667.8548687252835,-991.02803049194313,4327.7327401355569,0.0
337154.6038362722,4715833.5216966402,-37500.0,3995.1505017792574,-866.26371932908069,1353.2339790138283,2460.8606094630622,-907.56671760330414,1032.0267208519169,3081.1143510947345,774.92425493337919,-362.09445592565697,362.09445592565697,-774.92425493337919,5551.6911955843671,0.0
342154.6038362722,4715833.5216966402,-37500.0,4246.9992714168711,-1462.941085389619,2249.9564200299401,3141.3343862787488,-1755.5255747374742,1624.82885735944,3979.3159241301819,446.38809514063564,249.85131294315963,-249.85131294315963,-446.38809514063564,7134.2495273160102,0.0
347154.6038362722,4715833.5216966402,-37500.0,4096.1617953746827,-1971.4863595842203,3553.0212352381795,3716.3608245904516,-2956.3584021802708,2446.0826551065925,5040.721475671121,87.901962196561044,1267.7275158403679,-1267.7275158403679,-87.901962196561044,9024.1892527171622,0.0
352154.6038362722,4715833.5216966402,-37500.0,3458.8645196189732,-2113.4012784437364,5209.6136083758829,3917.1654723780712,-4425.7956380552641,3425.8621037314874,6146.1284014917546,-90.28775576394969,2664.8093674156607,-2664.8093674156607,90.28775576394969,11014.487844444786,0.0
357154.6038362722,4715833.5216966402,-37500.0,2488.0814924162414,-1600.7732468044699,6946.6635616969215,3471.0706136126537,-5860.2880758200763,4317.3014544128964,7080.1646985501393,213.04248057406494,4155.3870554594178,-4155.3870554594178,-213.04248057406494,12725.196265144874,0.0
362154.6038362722,4715833.5216966402,-37500.0,1598.0602479535362,-356.34429071253015,8289.8093926567235,2315.4150511608427,-6775.9301716770997,4728.0544009342339,7588.1214659252619,1207.5960414563738,5192.9501368535057,-5192.9501368535057,-1207.5960414563738,13705.302175783045,0.0
367154.6038362722,4715833.5216966402,-37500.0,1239.83851936772,1324.915560666157,8771.9435784532288,749.24824502386116,-6739.4189226592307,4319.1310679977605,7493.2275603015405,2784.4429400179297,5221.4018148750538,-5221.4018148750538,-2784.4429400179297,13646.637644826702,0.0
372154.6038362722,4715833.5216966402,-37500.0,1575.0872934673614,2876.210799834857,8209.2425847052527,-675.28716722689865,-5645.5354746158046,3041.8585767594504,6803.4276982676074,4481.3771878718253,4036.2781116437,-4036.2781116437,-4481.3771878718253,12579.135992230251,0.0
377154.6038362722,4715833.5216966402,-37500.0,2357.1242490710756,3776.9610106456284,6812.4980177482757,-1467.7311385316973,-3797.8674735256473,1196.1690526669454,5753.1941267391767,5723.7053718390616,1936.647549777781,-1936.647549777781,-5723.7053718390616,10904.176322290172,0.0
382154.6038362722,4715833.5216966402,-37500.0,3117.7206416334552,3826.0977265049014,5048.8425965242523,-1455.6980398362391,-1730.1012512579412,-738.11095243578882,4934.1644090441241,6143.7536899418765,-457.90648491696084,457.90648491696084,-6143.7536899418765,9235.6235923088971,0.0
387154.6038362722,4715833.5216966402,-37500.0,3469.4365420750487,3178.3132632284696,3384.4597272119531,-804.57456777867151,70.36094893597722,-2344.045791322249,4573.732992268061,5730.1041687574143,-2546.6907495431792,2546.6907495431792,-5730.1041687574143,8097.6345299246532,0.0
392154.6038362722,4715833.5216966402,-37500.0,3281.7627068737661,2175.7896379719568,2099.6078314099327,152.29458767279957,1339.2995451073257,-3411.735001078921,4394.7158733110027,4742.6875756705304,-3986.1869462075574,3986.1869462075574,-4742.6875756705304,7611.8711990931852,0.0
397154.6038362722,4715833.5216966402,-37500.0,2656.6046317341043,1145.5188612128713,1259.712471259792,1105.1364240333096,2045.5334600895123,-3935.143907387524,4268.6654314411689,3520.046946394571,-4721.2400384192997,4721.2400384192997,-3520.046946394571,7506.5129050235937,0.0
402154.6038362722,4715833.5216966402,-37500.0,1798.8983733661046,290.23168395180443,791.76638627729199,1865.5995546363529,2299.3755464176152,-4026.8432933911349,4117.3987488763032,2331.1011550517551,-4880.1752303799158,4880.1752303799158,-2331.1011550517551,7459.3405956812294,0.0
407154.6038362722,4715833.5216966402,-37500.0,902.069706500454,-317.05626891458405,576.0554956061103,2368.2010716885443,2253.4623198625973,-3832.0110381595891,3913.4337994623475,1325.5726145818207,-4652.0788652084138,4652.0788652084138,-1325.5726145818207,7303.1095039251313,0.0
412154.6038362722,4715833.5216966402,-37500.0,95.668459693706041,-688.48377623423698,504.00298202839309,2627.5562467690902,2042.6215269203817,-3478.1502874971925,3663.4608051612181,552.69431947717794,-4209.2316665676881,4209.2316665676881,-552.69431947717794,7003.5222865271953,0.0
417154.6038362722,4715833.5216966402,-37500.0,-557.6889755233226,-873.97787648416022,499.03494067811437,2694.3011203602264,1762.936480742479,-3057.9811699515972,3390.1742082737414,1.1968636178589804,-3678.0060476020517,3678.0060476020517,-1.1968636178589804,6588.1232323483146,0.0
422154.6038362722,4715833.5216966402,-37500.0,-1043.961734616008,-930.08044093150625,515.74133357693552,2626.0776566704353,1473.2716046079672,-2630.6974507052564,3120.4619586252884,-366.67212892387442,-3138.507321477508,3138.507321477508,366.67212892387442,6100.8875237684042,0.0
427154.6038362722,4715833.5216966402,-37500.0,-1376.8671498948045,-905.16050568033006,531.31890060620367,2473.3599186873871,1204.8004803405001,-2229.7687256485351,2863.2863684060635,-594.29824358739734,-2635.1296740435478,2635.1296740435478,594.29824358739734,5582.2233086896285,0.0
432154.6038362722,4715833.5216966402,-37500.0,-1582.1934843493339,-835.13911516253938,536.77699964814053,2274.8618784916252,970.88941404350339,-1871.2360019254377,2611.4255377708346,-720.73078866723017,-2188.3447123752517,2188.3447123752517,720.73078866723017,5062.735874895634,0.0
437154.6038362722,4715833.5216966402,-37500.0,-1688.2335585367846,-744.30263664289316,530.45149426026944,2057.7713330190868,774.66517785642066,-1560.3483535954863,2366.4726231511349,-777.32263006880612,-1804.1399363271094,1804.1399363271094,777.32263006880612,4562.9735076534134,0.0
442154.6038362722,4715833.5216966402,-37500.0,-1720.9089883600464,-647.85390161296311,513.96835613807025,1839.8327438411197,614.01146301255187,-1296.2247157843071,2133.829052473865,-787.63520343260802,-1480.5388019656978,1480.5388019656978,787.63520343260802,4095.2465196307344,0.0
447154.6038362722,4715833.5216966402,-37500.0,-1701.8433334275469,-554.58057489460123,490.02576659217658,1631.7667683415095,484.55928965862142,-1074.8750090439171,1917.5314346540315,-768.62206170667059,-1211.7173430178682,1211.7173430178682,768.62206170667059,3665.8160416229043,0.0
452154.6038362722,4715833.5216966402,-37500.0,-1648.0459667887642,-469.04082484902915,461.31944400847522,1439.3992029857834,381.33217202146585,-891.03755528345994,1719.629083722542,-732.09879163707456,-990.42788168850711,990.42788168850711,732.09879163707456,3276.8166826197444,0.0
457154.6038362722,4715833.5216966402,-37500.0,-1572.3527164975549,-393.15880621825721,430.11004510054607,1265.3192872543532,299.56829251649214,-739.22585802308731,1540.6337730379707,-686.08425453871257,-809.32693410713898,809.32693410713898,686.08425453871257,2927.7458370860213,0.0
462154.6038362722,4715833.5216966402,-37500.0,-1484.1362915674463,-327.30899615379019,398.11594579369233,1110.081444005775,235.07189338741205,-614.27546923413843,1380.0464277169285,-635.88160073304869,-661.63388314089582,661.63388314089582,635.88160073304869,2616.5332436835956,0.0
467154.6038362722,4715833.5216966402,-37500.0,-1390.0443522432686,-271.01815905764551,366.55219532664171,973.03624777744733,184.31406462515776,-511.59103621828081,1236.7725987193526,-584.89744346430018,-541.4028539564473,541.4028539564473,584.89744346430018,2340.2755749223979,0.0
472154.6038362722,4715833.5216966402,-37500.0,-1294.6550080362829,-223.40017790105807,336.22119950919068,852.88192702274375,144.41001043135086,-427.22172847249783,1109.4124250682896,-535.23818071869789,-443.58213084478223,443.58213084478223,535.23818071869789,2095.7170175579718,0.0
272154.6038362722,4720833.5216966402,-37500.0,171.45262577970007,379.14730784330959,50.954648570529891,-46.473325879700496,158.08061407477084,-65.70659655448118,428.21947192911119,394.39148259000012,-222.33413045352026,222.33413045352026,-394.39148259000012,744.91130177364573,0.0
277154.6038362722,4720833.5216966402,-37500.0,249.85116020171026,401.33519645510836,50.854532958292261,-27.50448359245464,171.57274601269455,-67.142873891778891,461.59456584686541,440.69848125686877,-255.73396213519453,255.73396213519453,-440.69848125686877,806.71870114760884,0.0
282154.6038362722,4720833.5216966402,-37500.0,346.61374448257527,420.8855048252824,51.336036253108851,-0.51874022436897493,184.36367477392287,-66.302517803839649,498.16464679634697,490.9451782269856,-292.95639673980259,292.95639673980259,-490.9451782269856,877.02241849226027,0.0
287154.6038362722,4720833.5216966402,-37500.0,465.36360489897379,435.74423613502279,53.187091797845007,36.910698328353554,195.31326983700598,-62.034367355695565,538.62627166636912,544.65657921937873,-333.80288631481591,333.80288631481591,-544.65657921937873,958.54325876364044,0.0
292154.6038362722,4720833.5216966402,-37500.0,610.19764560508065,443.00786426913811,57.744142083646565,87.842158391497492,202.68810400680101,-52.782908152484588,584.12193942520503,600.88786376932319,-377.66561418953819,377.66561418953819,-600.88786376932319,1055.2943659600394,0.0
297154.6038362722,4720833.5216966402,-37500.0,785.57892047986832,438.62057295500244,67.226831539028353,156.09967076318543,203.89200098580054,-36.481812498506059,636.69194992705377,658.01396922615606,-423.29793249969623,423.29793249969623,-658.01396922615606,1173.143518292876,0.0
302154.6038362722,4720833.5216966402,-37500.0,996.05535251021149,416.98996294643081,85.273906713975151,246.42059631079198,195.06914142868919,-10.425784082187889,700.64563003142962,713.44513151578985,-468.46937762869351,468.46937762869351,-713.44513151578985,1320.5339464915776,0.0
307154.6038362722,4720833.5216966402,-37500.0,1245.6476368299745,370.54129738557361,117.79682477046421,364.59617008552027,170.51214350338358,28.895441171630601,788.02597085816444,763.2546408036111,-509.4339363740545,509.4339363740545,-763.2546408036111,1509.3492777115036,0.0
312154.6038362722,4720833.5216966402,-37500.0,1536.6288262002515,289.31184103880526,174.31662572053054,517.53596832301878,121.77636977651235,86.042002804011517,923.66308799724038,801.73001206377785,-540.08883395723706,540.08883395723706,-801.73001206377785,1755.8665805654582,0.0
317154.6038362722,4720833.5216966402,-37500.0,1867.2458526276114,160.88790596827113,269.9750214315938,713.05753891158122,36.386361108931268,167.02673999425235,1117.3386895031585,820.94880095971257,-550.63459969143469,550.63459969143469,-820.94880095971257,2081.6552457078192,0.0
322154.6038362722,4720833.5216966402,-37500.0,2227.7821494874511,-28.59208413543254,428.31135053729804,958.90687427126841,-103.90518362971565,279.97419418642266,1374.3171249453662,810.72669384573965,-525.52120615828244,525.52120615828244,-810.72669384573965,2514.035801940051,0.0
327154.6038362722,4720833.5216966402,-37500.0,2594.5228289497927,-290.90850095141423,684.41268495396821,1259.9622291697394,-324.97265962296649,436.00507331983647,1708.913665865053,759.84729686051367,-440.69425661472962,440.69425661472962,-759.84729686051367,3085.114651942366,0.0
332154.6038362722,4720833.5216966402,-37500.0,2922.3915351349233,-627.36721968044264,1086.6908491748652,1611.859734821327,-660.88616735990331,649.73096417875263,2137.8622952667261,660.46119434713034,-261.14473397832933,261.14473397832933,-660.46119434713034,3827.2985757556171,0.0
337154.6038362722,4720833.5216966402,-37500.0,3140.4505296788775,-1013.2623970967055,1692.7932651026713,1989.2293066009649,-1149.5953576842558,937.26179391928747,2672.1614477169956,518.49201173715301,57.711263244366307,-57.711263244366307,-518.49201173715301,4761.9534017629658,0.0
342154.6038362722,4720833.5216966402,-37500.0,3160.3822649589556,-1376.7618389007816,2551.6547449189561,2329.6697465298148,-1817.3599405622238,1307.38271679488,3304.4314270427221,371.7060630550165,557.24363459212213,-557.24363459212213,-371.7060630550165,5878.1867125067929,0.0
347154.6038362722,4720833.5216966402,-37500.0,2911.7504135185818,-1585.0024296500767,3664.0147090983573,2523.5966398605315,-2646.132497988131,1741.1643321956731,3992.3211441501362,309.46191646551944,1242.1337736154674,-1242.1337736154674,-309.46191646551944,7103.8815556662876,0.0
352154.6038362722,4720833.5216966402,-37500.0,2405.527423152635,-1465.441364888419,4927.6944020915107,2432.6744462058086,-3530.3448414340423,2163.1745213048644,4646.0939943937237,472.30051318750043,2028.210329783785,-2028.210329783785,-472.30051318750043,8283.5734951010327,0.0
357154.6038362722,4720833.5216966402,-37500.0,1788.502029558503,-887.23444978598229,6105.3745527899018,1957.0828190820048,-4256.2202870095925,2426.979049735196,5136.037968328993,1000.2094856219719,2705.4812079762505,-2705.4812079762505,-1000.2094856219719,9191.5790354847904,0.0
362154.6038362722,4720833.5216966402,-37500.0,1316.820699598175,123.10869199476328,6872.6797898863424,1130.0773953747557,-4552.0411381315307,2350.6461829710934,5332.3079646305096,1928.9491557173669,2977.1375792546287,-2977.1375792546287,-1928.9491557173669,9603.7755195605296,0.0
367154.6038362722,4720833.5216966402,-37500.0,1220.1054835049254,1326.2072140055886,6959.5620645003155,161.02315120517554,-4215.7582844723847,1808.6406294618114,5168.7029233137782,3104.0899385356297,2597.0988419709693,-2597.0988419709693,-3104.0899385356297,9411.800007169426,0.0
372154.6038362722,4720833.5216966402,-37500.0,1544.5799035373714,2354.3830051557516,6301.3451245391452,-639.33472450813167,-3241.5677029426547,822.76576470158136,4704.5160798976003,4207.4965528577768,1526.1466831666521,-1526.1466831666521,-4207.4965528577768,8715.5160262295431,0.0
377154.6038362722,4720833.5216966402,-37500.0,2111.7031129407387,2894.8576044946831,5081.6113037218447,-1014.4622351553368,-1842.5066152321399,-425.27485640708124,4204.1281609089383,4904.1166118628389,-20.456063487717984,20.456063487717984,-4904.1166118628389,7823.2792319919108,0.0
382154.6038362722,4720833.5216966402,-37500.0,2628.0648593417513,2836.920112605329,3634.7727791686484,-883.39012666394751,-348.79486690734353,-1674.5113357334658,3981.450751221711,5004.9217598977248,-1675.4431935951652,1675.4431935951652,-5004.9217598977248,7120.9209644981784,0.0
387154.6038362722,4720833.5216966402,-37500.0,2851.0577126883913,2288.0689877026384,2286.9676022614153,-349.19515330175898,939.78462177275628,-2697.4841001257255,3937.745811116698,4532.9722034068091,-3090.3021905464993,3090.3021905464993,-4532.9722034068091,6833.4334405201325,0.0
392154.6038362722,4720833.5216966402,-37500.0,2690.0282810657732,1477.3726995999109,1241.2861656238208,386.25936164717962,1852.1057559586047,-3372.1990551393101,3946.0410090783607,3669.6869726576051,-4058.3147282129521,4058.3147282129521,-3669.6869726576051,6881.3673274472339,0.0
397154.6038362722,4720833.5216966402,-37500.0,2201.0969552046213,634.38109123732761,554.42091522020849,1124.9855800974938,2358.0829134048377,-3687.5271974842308,3928.0316126745383,2645.3813991534676,-4537.7978645184285,4537.7978645184285,-2645.3813991534676,7026.8443090834744,0.0
402154.6038362722,4720833.5216966402,-37500.0,1517.7442301694853,-85.072475584046956,180.08318861043026,1734.1411509402017,2522.6620203128919,-3705.2619907771673,3844.4992029796472,1650.5237971253555,-4602.5661812858625,4602.5661812858625,-1650.5237971253555,7086.4263689970985,0.0
407154.6038362722,4720833.5216966402,-37500.0,779.35461132692865,-612.64865835478452,28.960173622625156,2156.491909833534,2448.027351180257,-3514.8654891118372,3689.8557988757493,799.72585474350308,-4374.4915293804152,4374.4915293804152,-799.72585474350308,6988.3445929037243,0.0
412154.6038362722,4720833.5216966402,-37500.0,90.373723720436203,-945.27371076833219,12.282356348396741,2391.2632305055336,2232.7222166219449,-3201.9544976677371,3478.2244417451129,137.48928826373617,-3973.9907189165642,3973.9907189165642,-137.48928826373617,6736.3649792499627,0.0
417154.6038362722,4720833.5216966402,-37500.0,-489.75644748522006,-1114.6900540480181,61.906022363944487,2468.3604174510228,1952.9639231456019,-2833.8006086186183,3232.6083506866394,-338.67099427644598,-3496.2889105646113,3496.2889105646113,338.67099427644598,6367.119533805886,0.0
422154.6038362722,4720833.5216966402,-37500.0,-939.15054992806461,-1163.7911415198794,133.71777309536634,2428.143350475475,1659.4957083557426,-2456.6098645499114,2990.9991194827612,-655.1572143665237,-3006.3626598129194,3006.3626598129194,655.1572143665237,5924.0536048370595,0.0
427154.6038362722,4720833.5216966402,-37500.0,-1260.6527931384783,-1133.0718214927006,203.22180300508464,2309.4879868929429,1381.8270955998437,-2098.5253735167926,2769.3827287187714,-846.11294755775884,-2543.1448349085967,2543.1448349085967,846.11294755775884,5445.4198725716187,0.0
432154.6038362722,4720833.5216966402,-37500.0,-1470.2427241939331,-1055.0070708579628,259.25410144194063,2144.4660946865174,1134.4168806768937,-1774.3340076484308,2542.2403237026074,-944.41921168722843,-2126.5098775287734,2126.5098775287734,944.41921168722843,4960.4016891730416,0.0
437154.6038362722,4720833.5216966402,-37500.0,-1588.8523953850136,-953.09267546554679,298.56300460399876,1957.0692644630751,922.20965815631598,-1489.8989535237333,2315.3233301829528,-977.80049569280936,-1763.8354452716967,1763.8354452716967,977.80049569280936,4489.1303888735183,0.0
442154.6038362722,4720833.5216966402,-37500.0,-1637.4927006607331,-843.02375067956586,321.99745217918917,1763.9316802901274,744.73465682082747,-1245.6272868569856,2096.5575789529289,-967.88473858956695,-1455.0528545597249,1455.0528545597249,967.88473858956695,4044.2088126181502,0.0
447154.6038362722,4720833.5216966402,-37500.0,-1634.8181654542657,-734.51911795622789,332.15157170465733,1575.7848752396412,598.81633470197528,-1038.9122382486437,1891.0418073117366,-930.68331351635334,-1196.1248175297883,1196.1248175297883,930.68331351635334,3632.5661490357061,0.0
452154.6038362722,4720833.5216966402,-37500.0,-1596.229267007885,-633.07211511030539,332.05984420453655,1398.984434189842,480.21864181978816,-865.72700321142111,1701.4656800911348,-877.59011013015629,-981.25534252796092,981.25534252796092,877.59011013015629,3257.1392317182654,0.0
457154.6038362722,4720833.5216966402,-37500.0,-1533.8265914298595,-541.36620377427175,324.5582714274035,1236.8265171592623,384.56329505211869,-721.59593079307012,1528.8310877447855,-816.44518148974623,-804.1957927814484,804.1957927814484,816.44518148974623,2918.2176347584805,0.0
462154.6038362722,4720833.5216966402,-37500.0,-1456.7688078905755,-460.31679403654806,312.02946140201487,1090.5743621284614,307.79106901069576,-602.14267058857843,1373.0432567208957,-752.46861992494269,-658.95459775717586,658.95459775717586,752.46861992494269,2614.442563255197,0.0
467154.6038362722,4720833.5216966402,-37500.0,-1371.7754582938003,-389.79282150737072,296.34968731456223,960.21056010046289,246.35450223776948,-503.36804464264344,1233.3427669340526,-689.00921329790924,-540.13716065140386,540.13716065140386,689.00921329790924,2343.5145842837878,0.0
472154.6038362722,4720833.5216966402,-37500.0,-1283.6350324094051,-329.0930542295693,278.92960750724251,844.96241385638848,197.26265806158412,-421.76336274911671,1108.603410864966,-628.11215039442857,-443.0681085669238,443.0681085669238,628.11215039442857,2102.6720286427976,0.0
272154.6038362722,4725833.5216966402,-37500.0,248.82450339401618,320.22057063354021,36.589232867639616,-5.0288738365638883,132.93279835797091,-48.883876801607443,373.24570544733336,366.68407731557357,-213.44826592025703,213.44826592025703,-366.68407731557357,656.66031402085218,0.0
277154.6038362722,4725833.5216966402,-37500.0,329.49956753600867,330.14850994107803,38.195640917979397,18.339035163085065,140.16951102627925,-47.618575897191185,399.69030723746425,403.94983444760675,-241.2333919876308,241.2333919876308,-403.94983444760675,710.04621520976571,0.0
282154.6038362722,4725833.5216966402,-37500.0,426.41900390456306,335.15987701932193,41.789607083834191,49.610069400118242,145.16982327266967,-43.791293003099291,428.68505994212563,442.98562521944717,-270.99215584868472,270.99215584868472,-442.98562521944717,771.87015265114928,0.0
287154.6038362722,4725833.5216966402,-37500.0,542.0418435583947,332.96934297518646,48.742896585639215,90.817793239254613,146.45922060154177,-36.31729777829996,461.16433103034859,482.93366045644751,-302.01231342482839,302.01231342482839,-482.93366045644751,845.12689387265925,0.0
292154.6038362722,4725833.5216966402,-37500.0,678.82523724087355,320.57334258144823,61.163111577800827,144.38511957836641,141.93921444783544,-23.778274129356646,499.1130744451437,522.48486833985419,-333.06249220894767,333.06249220894767,-522.48486833985419,934.06093554962354,0.0
297154.6038362722,4725833.5216966402,-37500.0,838.95563965140957,294.09625154799159,82.253982128147129,213.1297043163548,128.65853351410098,-4.3565955502670146,547.89942255857432,559.75089804965717,-362.1664171839808,362.1664171839808,-559.75089804965717,1044.531876584057,0.0
302154.6038362722,4725833.5216966402,-37500.0,1023.8845601065042,248.66126617873181,116.83930667712696,300.21480359006222,102.510380248983,24.226993109013637,621.02111075454195,592.13626050589608,-386.29763603479239,386.29763603479239,-592.13626050589608,1184.3651830315405,0.0
307154.6038362722,4725833.5216966402,-37500.0,1233.5587840173662,178.36285486562809,172.10705758205037,408.99448147349688,57.840560236566752,64.764835839658872,727.72323872226661,616.24992511367691,-400.97197989341271,400.97197989341271,-616.24992511367691,1363.6152974901615,0.0
312154.6038362722,4725833.5216966402,-37500.0,1465.1941871322699,76.504488890183708,258.61934868513424,542.65567593840478,-13.035732327188915,120.59407696236605,867.77412904111259,627.94589870937807,-399.71635864522437,399.71635864522437,-627.94589870937807,1594.6491105054615,0.0
317154.6038362722,4725833.5216966402,-37500.0,1711.4302674368314,-63.576921459887402,391.56173520544513,703.47470684925145,-120.35935947250876,195.59073002168259,1045.5648012236998,622.68370009154125,-373.42163008469618,373.42163008469618,-622.68370009154125,1891.9113961319479,0.0
322154.6038362722,4725833.5216966402,-37500.0,1957.8079844806571,-246.53842746496227,591.9843866551895,891.36702629933382,-277.30340501252232,294.0676621350849,1268.6360634801856,596.57794871038107,-309.69482996374904,309.69482996374904,-596.57794871038107,2271.0726140589568,0.0
327154.6038362722,4725833.5216966402,-37500.0,2179.9449934910449,-471.0886301772299,887.26659639561592,1101.2525538109037,-499.6728136727051,420.38552929698977,1544.8308284858488,548.76657069763348,-192.63354051448212,192.63354051448212,-548.76657069763348,2746.9230522579801,0.0
332154.6038362722,4725833.5216966402,-37500.0,2341.8496119493916,-723.29101513104195,1309.0612099237264,1318.7817782493962,-803.77073332207715,577.77417911096006,1879.1929571683572,485.91564273801652,-4.1144884522865937,4.1144884522865937,-485.91564273801652,3328.9405758649441,0.0
337154.6038362722,4725833.5216966402,-37500.0,2398.6552565412389,-967.44769981711227,1885.6861890387031,1514.6969753673989,-1200.4509126845594,765.36119385543441,2269.1424087438559,429.25758913017353,271.26016751090151,-271.26016751090151,-429.25758913017353,4013.3515352666336,0.0
342154.6038362722,4725833.5216966402,-37500.0,2308.7356733656661,-1138.2544993809515,2625.4900564441823,1640.3629072906322,-1683.1889770913838,972.12818707693748,2697.781845904477,422.43835356581826,634.71606023671006,-634.71606023671006,-422.43835356581826,4771.6711860807973,0.0
347154.6038362722,4725833.5216966402,-37500.0,2058.3405922077704,-1143.5399413016742,3491.024693500578,1630.8677837798652,-2210.5319156449577,1167.7287396348777,3127.3019236262653,533.76807113804671,1054.4788771897515,-1054.4788771897515,-533.76807113804671,5539.2538012325604,0.0
352154.6038362722,4725833.5216966402,-37500.0,1691.8385760006086,-890.19167054815864,4374.0017446395941,1424.3915004343564,-2690.686475161066,1294.3912457415206,3497.5671996985047,841.56165370934752,1446.3792910374586,-1446.3792910374586,-841.56165370934752,6212.9993101191767,0.0
357154.6038362722,4725833.5216966402,-37500.0,1324.1161647330484,-336.38496276503963,5094.4276348888279,999.77665220202175,-2985.4615671728361,1270.1873209415739,3736.8187359281292,1394.716701787969,1672.3735944966722,-1672.3735944966722,-1394.716701787969,6670.7235244826716,0.0
362154.6038362722,4725833.5216966402,-37500.0,1107.0139185343992,453.73674069263774,5447.171610056118,414.86192570775472,-2949.6781776764237,1013.9233279241129,3788.1248412419591,2160.974105432334,1577.5080261610171,-1577.5080261610171,-2160.974105432334,6818.0223588318759,0.0
367154.6038362722,4725833.5216966402,-37500.0,1151.0368370064889,1299.544139454262,5288.9743015391359,-188.33244646363926,-2498.5112742793508,487.37509717220541,3647.9946632605261,3000.9887410721503,1062.1106492738172,-1062.1106492738172,-3000.9887410721503,6649.0369338563351,0.0
372154.6038362722,4725833.5216966402,-37500.0,1451.4715775805116,1965.4413970431776,4616.1247200772323,-631.60891153778414,-1663.1586329019383,-270.39951245048815,3418.7224747154478,3703.3378625321079,148.04729477977753,-148.04729477977753,-3703.3378625321079,6285.9329729693591,0.0
377154.6038362722,4725833.5216966402,-37500.0,1878.7791875571113,2264.9149409610022,3576.3588028537856,-779.2063200152013,-592.14881200327852,-1144.7213710480889,3307.846478787505,4071.252093499389,-1011.6077910166498,1011.6077910166498,-4071.252093499389,5951.3773428319755,0.0
382154.6038362722,4725833.5216966402,-37500.0,2244.1678823866396,2139.2530382632367,2404.6017130217047,-595.83381460130818,506.64552167620712,-1986.2281517844565,3351.8521418022992,4007.0120719389624,-2191.3456346341272,2191.3456346341272,-4007.0120719389624,5845.0852691585624,0.0
387154.6038362722,4725833.5216966402,-37500.0,2392.0379753928582,1664.5643072230334,1326.661225165047,-149.56762901134576,1445.597564357068,-2665.4367564911117,3457.4775638137999,3541.8615802242048,-3181.7928973254939,3181.7928973254939,-3541.8615802242048,5997.8040705885996,0.0
392154.6038362722,4725833.5216966402,-37500.0,2259.0875467949922,996.25834032519424,488.21354531089122,432.45533168250535,2112.5667345143288,-3109.5593514129537,3551.6749202322117,2802.9210240060211,-3855.0232834527806,3855.0232834527806,-2802.9210240060211,6275.239161866215,0.0
397154.6038362722,4725833.5216966402,-37500.0,1876.1801833659551,296.38604909625042,-63.583007528622339,1020.3940665748441,2481.8101826838056,-3308.323472830486,3588.1463285150385,1949.5796189684954,-4180.5201200799856,4180.5201200799856,-1949.5796189684954,6515.3926677319096,0.0
402154.6038362722,4725833.5216966402,-37500.0,1330.9788812969434,-316.20037273674347,-356.5976366566955,1519.8529098632139,2591.2685078480508,-3296.772711122951,3548.1833014996646,1118.9250548645298,-4201.5628449966644,4201.5628449966644,-1118.9250548645298,6620.282354712208,0.0
407154.6038362722,4725833.5216966402,-37500.0,723.66381465797269,-780.92978691260396,-455.69734401750037,1883.2120412394454,2509.1630710253166,-3131.1237649986524,3434.6376464643427,399.6187953753456,-3997.7335689195274,3997.7335689195274,-399.6187953753456,6562.0734531500857,0.0
412154.6038362722,4725833.5216966402,-37500.0,136.84887604923739,-1085.930267354506,-431.30452340119342,2102.0684528493884,2306.9175717626408,-2869.3286843652768,3262.4351386782419,-168.60035516243647,-3653.5738369862465,3653.5738369862465,168.60035516243647,6356.9919644853408,0.0
417154.6038362722,4725833.5216966402,-37500.0,-376.07669118172646,-1249.3750528214796,-341.93950269185603,2192.6480179227547,2044.0952097205484,-2560.1323826462308,3050.843831391107,-582.12792758390538,-3240.6037038059339,3240.6037038059339,582.12792758390538,6040.4244776684072,0.0
422154.6038362722,4725833.5216966402,-37500.0,-789.64080774313379,-1302.4195206452687,-228.68983218656351,2182.2788078396839,1763.4915755498253,-2239.3123211522475,2838.146137390992,-858.23099245672938,-2811.0157837966631,2811.0157837966631,858.23099245672938,5651.1085605630415,0.0
427154.6038362722,4725833.5216966402,-37500.0,-1099.1458079945958,-1277.7763646330657,-116.56341159400034,2100.0785943576666,1492.1937734154158,-1930.2371909982101,2648.4122579875525,-1022.876358670087,-2398.4304740525167,2398.4304740525167,1022.876358670087,5223.2031560241367,0.0
432154.6038362722,4725833.5216966402,-37500.0,-1312.6654226892138,-1203.8059348897109,-18.47432979839493,1971.8880279360694,1245.0618288457567,-1646.3031394901859,2444.3672016443329,-1103.0109831951452,-2021.6774054102054,2021.6774054102054,1103.0109831951452,4783.4136258588851,0.0
437154.6038362722,4725833.5216966402,-37500.0,-1444.5377316617637,-1102.4589790684242,60.598950912678234,1818.2799714765081,1028.5211435556193,-1393.7419335308118,2237.0976533090266,-1122.5863870833277,-1689.1297991383608,1689.1297991383608,1122.5863870833277,4350.8393237486844,0.0
442154.6038362722,4725833.5216966402,-37500.0,-1510.9502060246127,-989.37340603668929,120.29619669724786,1654.3870304778493,843.73370120438585,-1174.0864170158493,2034.9643554634895,-1101.0757462949196,-1402.4483356705009,1402.4483356705009,1101.0757462949196,3938.0404289332237,0.0
447154.6038362722,4725833.5216966402,-37500.0,-1527.3597606438102,-874.90911739759031,162.58893100128051,1490.6000051276201,688.90802144553118,-986.05745942146473,1843.2390017315436,-1053.3872843602298,-1159.3896567360189,1159.3896567360189,1053.3872843602298,3552.4649820903296,0.0
452154.6038362722,4725833.5216966402,-37500.0,-1507.2377505078657,-765.41716370751578,190.36433181165305,1333.5580487062632,560.83236516428758,-826.88650314606059,1664.8850590200625,-990.42719555464862,-955.72979847680369,955.72979847680369,990.42719555464862,3197.8250878060076,0.0
457154.6038362722,4725833.5216966402,-37500.0,-1461.6509696706662,-664.40299226247976,206.63233395787449,1187.1229517539662,455.81465564327584,-693.17697849624471,1501.2463856118206,-919.87260861818834,-786.48550505748756,786.48550505748756,919.87260861818834,2875.2507446396712,0.0
462154.6038362722,4725833.5216966402,-37500.0,-1399.310820982402,-573.46171661424557,214.13374682673359,1053.2066872150426,370.2126173161206,-581.42765072321686,1352.584071819346,-846.93126089741929,-646.63385563678651,646.63385563678651,846.93126089741929,2584.1840570553231,0.0
467154.6038362722,4725833.5216966402,-37500.0,-1326.84661783917,-492.97356761667584,215.18590374892224,932.41782843653073,300.700740174543,-488.32437360277959,1218.4725029701333,-774.99384890943736,-531.49757159270109,531.49757159270109,774.99384890943736,2323.0359278144188,0.0
272154.6038362722,4730833.5216966402,-37500.0,304.16306218580979,260.66803771182367,31.662334927440206,27.156154751998244,107.04159012652453,-34.887222237077623,323.71788807214955,334.753045227749,-198.95103158161842,198.95103158161842,-334.753045227749,580.73216422717076,0.0
277154.6038362722,4730833.5216966402,-37500.0,382.77734100853962,260.03021319000879,36.664801894463139,52.585557221284986,108.6018408690382,-31.786848474018299,344.82732146422501,363.60246349670842,-220.79326082426996,220.79326082426996,-363.60246349670842,628.24949662209963,0.0
282154.6038362722,4730833.5216966402,-37500.0,474.82121471718045,253.06381481331221,45.208596142738045,85.226159444662073,106.78704988830312,-26.109400092090134,368.63501910039014,392.6218547293505,-243.00015378155845,243.00015378155845,-392.6218547293505,684.41008881771143,0.0
287154.6038362722,4730833.5216966402,-37500.0,581.61436698005002,237.58679401177494,59.142429197322002,126.60410389229385,99.985657085309995,-16.919513246313542,397.55228651283721,420.83525261078421,-264.53297050386186,264.53297050386186,-420.83525261078421,752.2780214924652,0.0
292154.6038362722,4730833.5216966402,-37500.0,704.12367284923323,210.92892009485755,81.131783276982958,178.39978082737227,86.018527971121003,-3.0422492854112284,438.26581127397799,446.92978399087963,-283.82622729100456,283.82622729100456,-446.92978399087963,835.93895512019776,0.0
297154.6038362722,4730833.5216966402,-37500.0,842.63440549055247,169.92943233131302,114.97766438773309,242.3599508003268,61.982121304091422,16.958377657867722,499.11616563824253,469.22799827818153,-298.61325229208728,298.61325229208728,-469.22799827818153,940.63007151998227,0.0
302154.6038362722,4730833.5216966402,-37500.0,996.26311530248483,111.03163217131683,166.03125345591502,320.12601323256393,24.073293458890152,44.777211219470033,580.44099317128291,485.71703651445614,-305.72245779734283,305.72245779734283,-485.71703651445614,1072.7632962926011,0.0
307154.6038362722,4730833.5216966402,-37500.0,1162.2657252485499,30.565540399891312,241.70124405802386,412.92891344638679,-32.582837350731161,82.322757427653684,682.64231514918538,494.1945918927953,-300.86047517223494,300.86047517223494,-494.1945918927953,1239.7891688578802,0.0
312154.6038362722,4730833.5216966402,-37500.0,1335.1100325335146,-74.630287955304084,352.00365867202282,521.07625285917493,-114.04935284634227,131.5994877296427,808.82268835888738,492.63335168767458,-278.42529219749872,278.42529219749872,-492.63335168767458,1449.8445000589404,0.0
317154.6038362722,4730833.5216966402,-37500.0,1505.3523154702073,-206.0183156410817,509.9959385528108,643.12779033444406,-227.52306135278388,194.47076117094949,963.05099763806038,479.92622830959613,-231.44970412756081,231.44970412756081,-479.92622830959613,1711.0877784611739,0.0
322154.6038362722,4730833.5216966402,-37500.0,1658.5352248330983,-361.30895304810025,731.7208574161757,774.63477119474635,-380.87623551553082,272.22026882656195,1149.1212568580409,457.238003110421,-151.88674740775173,151.88674740775173,-457.238003110421,2030.518922624809,0.0
327154.6038362722,4730833.5216966402,-37500.0,1774.7021609709836,-531.30355992409034,1034.9232712531943,906.36791531686765,-581.37055578063973,364.76498466719033,1369.1261584970277,430.20075270262112,-31.64745938001451,31.64745938001451,-430.20075270262112,2411.9469043565991,0.0
332154.6038362722,4730833.5216966402,-37500.0,1829.7230352471229,-695.79658890922076,1435.3401135420966,1022.2044838598187,-832.88914800078089,469.27918777906791,1621.4143161073991,411.98550949595136,134.92758708023001,-134.92758708023001,-411.98550949595136,2852.722774845301,0.0
337154.6038362722,4730833.5216966402,-37500.0,1800.2222184237319,-819.80579521002187,1939.1357448701478,1097.4944235941452,-1130.9690980084863,577.94671593628118,1897.8628444548326,426.56889951193455,346.3146777287219,-346.3146777287219,-426.56889951193455,3339.1682990141821,0.0
342154.6038362722,4730833.5216966402,-37500.0,1673.6400889298097,-853.35296713247033,2530.9103102742156,1099.8681866824479,-1455.5425172454725,674.81779016079918,2180.989341418735,510.02069627249887,586.39874499474251,-586.39874499474251,-510.02069627249887,3841.665632556947,0.0
347154.6038362722,4730833.5216966402,-37500.0,1462.3504539785279,-739.89096631612097,3159.8424390106215,995.52352312602102,-1763.3284336981217,732.71345787917983,2442.4915137868761,705.76706260161359,816.01434544068093,-816.01434544068093,-705.76706260161359,4312.2964664841593,0.0
352154.6038362722,4730833.5216966402,-37500.0,1215.0846460657674,-437.35366002580577,3731.997616902308,763.23142513675089,-1985.2258055792327,712.87873792220546,2645.9725847264185,1049.6035548864772,968.75155397325784,-968.75155397325784,-1049.6035548864772,4689.971858695174,0.0
357154.6038362722,4730833.5216966402,-37500.0,1013.4757434833883,51.810329798115404,4120.8685834617781,413.42166019003668,-2036.3234773612965,571.3785998588113,2756.7921037118153,1545.1195210493768,959.38880363794328,-959.38880363794328,-1545.1195210493768,4917.90147283844,0.0
362154.6038362722,4730833.5216966402,-37500.0,944.62292132289315,657.66052057616253,4203.2165287597372,1.8051409586535263,-1842.3220219582861,274.27985529521908,2760.6568352665804,2140.5723872447343,710.20307332545258,-710.20307332545258,-2140.5723872447343,4973.1459770149122,0.0
367154.6038362722,4730833.5216966402,-37500.0,1057.1184228248289,1248.4219497119643,3910.0774864557052,-376.44039835428435,-1374.3867804288186,-182.87926778304637,2693.2185551059865,2726.0327391188644,188.1479029193647,-188.1479029193647,-2726.0327391188644,4897.1668975569191,0.0
372154.6038362722,4730833.5216966402,-37500.0,1326.9271474457598,1672.6025687276949,3265.0843850840379,-616.67973643387722,-672.83406942238526,-762.60772262918204,2664.8003326255421,3162.5385320853215,-567.67700817469859,567.67700817469859,-3162.5385320853215,4802.5257301191459,0.0
377154.6038362722,4730833.5216966402,-37500.0,1659.4122147064982,1818.4870714861768,2383.7609705894811,-645.78005743357789,157.99181936772575,-1390.3117410319542,2749.7685523586902,3333.1206085932495,-1448.617590000908,1448.617590000908,-3333.1206085932495,4825.0623477490044,0.0
382154.6038362722,4730833.5216966402,-37500.0,1929.428459238356,1656.5448657044158,1431.7312660071143,-450.44837022091923,983.63425671198991,-1976.3615987681883,2904.1451322065241,3187.5162312604575,-2311.2348284508084,2311.2348284508084,-3187.5162312604575,5030.1829644719428,0.0
387154.6038362722,4730833.5216966402,-37500.0,2034.3444700151147,1242.0631805480807,566.27290136108354,-77.56733410339686,1683.5785015057997,-2443.8397006762107,3067.6182339926095,2755.8993702260373,-3025.1245439533391,3025.1245439533391,-2755.8993702260373,5365.127711127584,0.0
392154.6038362722,4730833.5216966402,-37500.0,1929.2859512715665,682.63676912476944,-107.86667348877711,389.87812282765782,2182.9379435888909,-2747.9790653571567,3194.2972757129287,2128.4225163179804,-3508.727462521912,3508.727462521912,-2128.4225163179804,5713.8554471883808,0.0
397154.6038362722,4730833.5216966402,-37500.0,1630.8984633412872,94.01083195917991,-552.38011102594669,864.63360733869001,2460.8039468931051,-2880.556055219583,3256.6484324769899,1417.306061460632,-3739.8407875909033,3739.8407875909033,-1417.306061460632,5975.45992759199,0.0
402154.6038362722,4730833.5216966402,-37500.0,1197.1168757301691,-433.22820163827492,-783.1748229208215,1278.9938266996385,2539.1361321812874,-2861.8958380281629,3245.7514902683652,722.53102610188625,-3744.1801745350199,3744.1801745350199,-722.53102610188625,6096.8256317497362,0.0
407154.6038362722,4730833.5216966402,-37500.0,699.77654144997268,-847.09472569017328,-846.64705981431064,1594.3728539313322,2463.4600907581134,-2727.7764342908886,3167.0296262921784,113.02538728494164,-3574.2183762320665,3574.2183762320665,-113.02538728494164,6068.2605589244104,0.0
412154.6038362722,4730833.5216966402,-37500.0,203.21648805357898,-1131.2837789565344,-797.60872819783515,1799.1510400940533,2285.2166237410756,-2517.5347371313146,3034.6175945979085,-376.39027324576364,-3289.4082891296739,3289.4082891296739,376.39027324576364,5907.4554016590419,0.0
417154.6038362722,4730833.5216966402,-37500.0,-246.4812990398872,-1294.2858675132532,-685.07108004965266,1900.7270335297462,2050.3387310893713,-2266.2990437516837,2867.7970398173247,-738.35999300352523,-2943.1518873100467,2943.1518873100467,738.35999300352523,5644.6113702049988,0.0
422154.6038362722,4730833.5216966402,-37500.0,-623.25450683988254,-1357.6021763812182,-546.09944318443831,1916.7886672397967,1794.1801871925099,-2001.4384722200775,2690.2692774281977,-983.16487078648129,-2576.8475783560443,2576.8475783560443,983.16487078648129,5312.288851589381,0.0
427154.6038362722,4730833.5216966402,-37500.0,-917.68157269387257,-1346.6880530169201,-405.20131796536202,1868.4410715479071,1540.8724426823817,-1742.011737812217,2511.4058508481794,-1129.8440154971292,-2218.968479535898,2218.968479535898,1129.8440154971292,4939.7768238475664,0.0
432154.6038362722,4730833.5216966402,-37500.0,-1131.8495763806891,-1285.4457211641138,-276.46346470633881,1775.8669054124398,1304.9781999700017,-1499.836842141231,2326.2009019326033,-1199.8767220324498,-1886.8161576835319,1886.8161576835319,1199.8767220324498,4550.7139478105591,0.0
437154.6038362722,4730833.5216966402,-37500.0,-1274.511085100703,-1193.649573985756,-166.47877666597489,1656.1560514162393,1093.9020422904691,-1281.1588450621077,2138.5152481531923,-1213.4592118325647,-1589.2154366720326,1589.2154366720326,1213.4592118325647,4162.6875060232951,0.0
442154.6038362722,4730833.5216966402,-37500.0,-1357.3784184260694,-1086.2899981104338,-77.027752059658127,1522.6158979783415,910.2000369912198,-1088.3150948390009,1954.3348828084008,-1187.7536416969365,-1329.1586768483139,1329.1586768483139,1187.7536416969365,3787.8417622235884,0.0
447154.6038362722,4730833.5216966402,-37500.0,-1392.6757842426823,-973.94974321451002,-7.1354289340470869,1384.9307254228211,753.43817811178474,-921.12880768410992,1778.2134210101401,-1136.3962836522223,-1105.9761123098924,1105.9761123098924,1136.3962836522223,3433.8858711578096,0.0
452154.6038362722,4730833.5216966402,-37500.0,-1391.7332520916732,-863.60425286408497,45.522004492565827,1249.7109683166,621.5343289518936,-777.95680524281943,1613.0169218765463,-1069.6904820512384,-916.93376718045761,916.93376718045761,1069.6904820512384,3105.1497501036238,0.0
457154.6038362722,4730833.5216966402,-37500.0,-1364.3237358927238,-759.4967925912631,83.74070370130822,1121.1545099535249,511.65256216818847,-656.41917783271879,1460.2561526564871,-995.1027658188674,-758.32092710604286,758.32092710604286,995.1027658188674,2803.5266255097586,0.0
462154.6038362722,4730833.5216966402,-37500.0,-1318.468733073383,-663.91901113580525,110.29249133387249,1001.6703122582772,420.75582605519605,-553.87300028025425,1320.4639007006513,-917.83657041628339,-626.13798042116764,626.13798042116764,917.83657041628339,2529.2375401517156,0.0
277154.6038362722,4735833.5216966402,-37500.0,412.88748273412818,194.8347141831369,43.907339511188297,76.343710367857838,78.616031775893589,-19.398822543228857,298.28006796080422,322.82178378367104,-196.9233056027187,196.9233056027187,-322.82178378367104,559.84011845869668,0.0
282154.6038362722,4735833.5216966402,-37500.0,496.54456376600388,178.94654949102272,58.247346817323724,108.09509935177167,71.3000825304957,-12.807680454729669,321.86572508099368,343.5314667729927,-212.12476392879051,212.12476392879051,-343.5314667729927,612.10035740191165,0.0
287154.6038362722,4735833.5216966402,-37500.0,590.89388812374773,154.32940931112907,79.710910822614622,147.00465342179882,58.32255163311239,-3.0740893430656557,356.86286808174691,362.51094168498003,-225.25178347374219,225.25178347374219,-362.51094168498003,675.99411210482879,0.0
292154.6038362722,4735833.5216966402,-37500.0,695.72244128716159,118.92456169461811,111.2316647051902,194.0360743940754,37.651130587610012,10.691330793496494,405.57449549013876,378.69176386434708,-234.66489670350992,234.66489670350992,-378.69176386434708,755.07264287846033,0.0
297154.6038362722,4735833.5216966402,-37500.0,809.9517483961996,70.564505123354721,156.76404200040392,249.97795194876159,6.7209215580581887,29.507740038838168,467.18691548995344,390.8846625512893,-238.16241448784075,238.16241448784075,-390.8846625512893,853.52860998878703,0.0
302154.6038362722,4735833.5216966402,-37500.0,931.23471438705269,7.2169138207706496,221.53825317132103,315.22245786652803,-37.618322469144189,54.474807952269849,542.5986514385803,397.92290927952189,-232.8925754213065,232.8925754213065,-397.92290927952189,976.03322565513702,0.0
307154.6038362722,4735833.5216966402,-37500.0,1055.4640778919977,-72.570009056899082,312.29391664422934,389.42884751917364,-99.091848799602545,86.667682095103828,633.85541178429014,398.94440077749135,-215.31746744555727,215.31746744555727,-398.94440077749135,1127.4347233329802,0.0
312154.6038362722,4735833.5216966402,-37500.0,1176.2405396466741,-168.92174138466132,437.39216302539961,471.03608908996199,-181.8578690353379,126.94612284871833,743.29372870892928,393.88683113076627,-181.2956814336186,181.2956814336186,-393.88683113076627,1312.284927031214,0.0
317154.6038362722,4735833.5216966402,-37500.0,1284.4335854019344,-279.48357904436938,606.61037021711684,556.59755072331654,-290.11975350580559,175.63695976449154,872.89644191564889,384.28246469203748,-126.39716308806999,126.39716308806999,-384.28246469203748,1534.128515377887,0.0
322154.6038362722,4735833.5216966402,-37500.0,1368.1149255682169,-397.79609050199809,830.27899916220508,639.94848508668963,-427.31514867487914,232.03552730345075,1023.5365933597194,374.41802436891066,-46.629527978908214,46.629527978908214,-374.41802436891066,1794.4474513536197,0.0
327154.6038362722,4735833.5216966402,-37500.0,1413.3597942420661,-511.31385093240186,1117.2515188660766,711.32373073074746,-594.64292731174385,293.66215007316697,1193.9981201043404,372.81738260166151,60.173363045594471,-60.173363045594471,-372.81738260166151,2091.1532062285269,0.0
332154.6038362722,4735833.5216966402,-37500.0,1406.6126415676308,-599.59676282599844,1471.1153782980405,756.76625130642435,-788.68946922114355,355.2238242653612,1379.778517775311,393.72081748734684,192.03091610411676,-192.03091610411676,-393.72081748734684,2416.6348611617141,0.0
337154.6038362722,4735833.5216966402,-37500.0,1339.2609170187911,-633.91844438931116,1884.3237705238869,758.53440732603053,-998.12516825887849,407.32647250023609,1571.8615853213507,457.69757547576864,339.47272931438897,-339.47272931438897,-457.69757547576864,2755.7214752218501,0.0
342154.6038362722,4735833.5216966402,-37500.0,1214.2932646741804,-580.33902351501945,2330.9674064746382,697.60265267653347,-1200.0740255663584,435.2525775848423,1756.0070945593134,589.82708014336254,481.69394900688712,-481.69394900688712,-589.82708014336254,3084.5845185395356,0.0
347154.6038362722,4735833.5216966402,-37500.0,1053.0316684287475,-408.3817474348462,2760.9469318311872,559.31534538178244,-1357.912806264874,418.62036298349864,1913.603497309437,813.55400674830764,583.92298786422168,-583.92298786422168,-813.55400674830764,3372.4742390701326,0.0
352154.6038362722,4735833.5216966402,-37500.0,897.39149394172091,-105.50655530038911,3100.624167227973,342.06259727934389,-1423.4688792040047,333.28198949657076,2025.5234981035371,1139.4499009293841,599.07848209720771,-599.07848209720771,-1139.4499009293841,3588.6661238320494,0.0
357154.6038362722,4735833.5216966402,-37500.0,802.17229098554355,307.04470649431067,3265.2721311211712,66.16332971951374,-1346.4679923933782,156.74290402721203,2080.5218219477879,1551.5645955821647,476.89642617434663,-476.89642617434663,-1551.5645955821647,3715.9234671126173,0.0
362154.6038362722,4735833.5216966402,-37500.0,815.63686209090451,766.47246976259066,3184.0061930072252,-222.70140722657845,-1091.0384614692289,-123.13089829987487,2090.3844398985343,1998.6103026013598,180.74590436572953,-180.74590436572953,-1998.6103026013598,3767.7751568274439,0.0
367154.6038362722,4735833.5216966402,-37500.0,955.17971543084741,1178.1511180026948,2828.9038536584635,-460.98387246003733,-653.56634947694397,-499.15575248821443,2109.8623267593684,2398.6713689068392,-293.46728319968997,293.46728319968997,-2398.6713689068392,3799.2160708241231,0.0
372154.6038362722,4735833.5216966402,-37500.0,1192.0503646349846,1443.6887619261267,2233.1605737858681,-585.83548748629994,-72.24474710527717,-940.72818022407307,2204.3807178266852,2660.4900921922108,-906.48440552625561,906.48440552625561,-2660.4900921922108,3892.4403136725523,0.0
377154.6038362722,4735833.5216966402,-37500.0,1456.6963049650951,1495.4750531981588,1486.1496524181787,-557.11756180260988,578.9669553596126,-1398.4162737702304,2367.7285937700872,2713.6928583364261,-1581.1659718712754,1581.1659718712754,-2713.6928583364261,4108.857870886256,0.0
382154.6038362722,4735833.5216966402,-37500.0,1663.8633716288496,1319.8805178893729,706.10166460008816,-371.59534082473164,1210.7417195255657,-1816.411316109467,2557.2007854268913,2533.0502169202055,-2223.5997495838901,2223.5997495838901,-2533.0502169202055,4442.3569345995065,0.0
387154.6038362722,4735833.5216966402,-37500.0,1743.9386563433054,957.85841999006595,4.0892235033299862,-62.31520705766269,1743.5602683041884,-2147.318461166486,2733.3069433009587,2144.7689258949003,-2749.9517841842035,2749.9517841842035,-2144.7689258949003,4825.2348705059621,0.0
392154.6038362722,4735833.5216966402,-37500.0,1664.4564294464431,485.40276147853342,-543.81408147229899,315.04165208531225,2126.3314281235889,-2362.7701388402888,2866.3924077079691,1613.6426831654794,-3106.7600110299149,3106.7600110299149,-1613.6426831654794,5173.9988487676492,0.0
397154.6038362722,4735833.5216966402,-37500.0,1433.8618348930477,-13.749630585399316,-906.77003894909637,700.65833062400498,2342.3988842651061,-2456.4180369910291,2939.4154630900866,1019.8963997281544,-3277.7558142404132,3277.7558142404132,-1019.8963997281544,5425.9518085765549,0.0
402154.6038362722,4735833.5216966402,-37500.0,1090.5176011312258,-470.3989102554238,-1093.0791665945501,1045.5700146117429,2404.1749227637042,-2440.1414890601172,2947.8624806063149,437.22350902206949,-3278.2517178123071,3278.2517178123071,-437.22350902206949,5550.4737839486697,0.0
407154.6038362722,4735833.5216966402,-37500.0,685.76357971887251,-840.82689203672965,-1135.5123392735657,1319.0166141155353,2341.9542368159637,-2336.8366796382206,2897.0897597566777,-80.664793376808575,-3143.0226664493007,3143.0226664493007,80.664793376808575,5544.6192159548291,0.0
412154.6038362722,4735833.5216966402,-37500.0,269.03667721778965,-1107.1097948782217,-1076.0978853286565,1508.6325597237908,2192.5262171358945,-2173.1689051995691,2798.794294508029,-503.79334794883471,-2913.8374756855101,2913.8374756855101,503.79334794883471,5423.5750657108965,0.0
417154.6038362722,4735833.5216966402,-37500.0,-121.08871201380741,-1271.1347354469062,-955.04460566429873,1616.3357910585391,1990.8485134737566,-1974.2545821787619,2667.81133819672,-822.82289112219974,-2630.2770735378899,2630.2770735378899,822.82289112219974,5211.4926558246416,0.0
422154.6038362722,4735833.5216966402,-37500.0,-459.90480463876401,-1346.7721424263789,-804.88318502125571,1652.8811306294697,1765.5469828751684,-1760.7447407605546,2518.3653343211181,-1042.9143247777033,-2324.7360973043974,2324.7360973043974,1042.9143247777033,4934.7071970968482,0.0
427154.6038362722,4735833.5216966402,-37500.0,-735.50321611266213,-1353.0397194245932,-648.77256147310914,1633.0069853755588,1537.5137223865095,-1547.8789459617665,2358.9194032677601,-1177.4430462055154,-2020.8436859414762,2020.8436859414762,1177.4430462055154,4617.5821206799883,0.0
432154.6038362722,4735833.5216966402,-37500.0,-945.77014330774261,-1309.3639020216201,-501.29591421966808,1571.9718809229296,1320.4175551384592,-1345.7876201590157,2193.20207270842,-1243.0339026043166,-1734.0150118396223,1734.0150118396223,1243.0339026043166,4280.4748111042054,0.0
437154.6038362722,4735833.5216966402,-37500.0,-1095.0051195499464,-1232.9167989811917,-370.31977147860351,1483.5191369878112,1122.0918543580683,-1160.3972525084985,2025.2624543954576,-1256.2886354395314,-1472.9963626972517,1472.9963626972517,1256.2886354395314,3939.1423791612042,0.0
442154.6038362722,4735833.5216966402,-37500.0,-1191.0090472427426,-1137.5183167633606,-259.00933327036012,1378.9580320403643,946.1138809645953,-994.49568598914664,1859.6153342219775,-1231.9876034542815,-1241.6416801771491,1241.6416801771491,1231.9876034542815,3604.9832904022869,0.0
447154.6038362722,4735833.5216966402,-37500.0,-1242.9406945039818,-1033.5194228833614,-167.55483810779066,1266.9770503955358,793.21662168488672,-848.71323104184262,1700.0232296082845,-1182.3472202045966,-1040.5154937867198,1040.5154937867198,1182.3472202045966,3285.678157176168,0.0
452154.6038362722,4735833.5216966402,-37500.0,-1259.9263861936518,-928.19452646892864,-94.467953378047369,1153.8627692423688,662.3976439068,-722.31652283451092,1549.1022886950109,-1116.9285922141203,-868.16372806236757,868.16372806236757,1116.9285922141203,2985.950568676039,0.0
457154.6038362722,4735833.5216966402,-37500.0,-1250.2751449905829,-826.32951618475306,-37.467317915125228,1043.8978014931347,551.7173400036088,-613.79890609216238,1408.4103343345832,-1042.8911185413453,-722.03796823806863,722.03796823806863,1042.8911185413453,2708.2996144143967,0.0
462154.6038362722,4735833.5216966402,-37500.0,-1221.1181815284544,-730.82254816014927,5.964961305871836,939.7954928116601,458.83238919356029,-521.28848488714641,1278.6710320434672,-965.38553626167698,-599.11946956317126,599.11946956317126,965.38553626167698,2453.6255622792678,0.0
277154.6038362722,4740833.5216966402,-37500.0,423.75891586233087,137.1261705709187,57.296979021562237,91.095811454410807,51.445647317336451,-10.070141784350101,264.63640226403805,283.93085403098235,-171.73526791307006,171.73526791307006,-283.93085403098235,502.75862014721599,0.0
282154.6038362722,4740833.5216966402,-37500.0,496.96884980190595,115.40956363820703,77.413831243188412,120.37422584987836,40.064637705855908,-3.2817317540214734,294.09087566306692,298.21420431999945,-180.88145345287509,180.88145345287509,-298.21420431999945,551.94012934738134,0.0
287154.6038362722,4740833.5216966402,-37500.0,577.12990976492347,85.597563155825881,105.88205261041475,155.11439238638434,22.873689211689744,6.1503838984623975,332.37885547343177,310.49442995997458,-187.09162655707942,187.09162655707942,-310.49442995997458,612.16921957334273,0.0
292154.6038362722,4740833.5216966402,-37500.0,663.2191909170956,46.35978779481605,145.61476552211158,195.67287039118511,-1.8631420421758793,18.835722813827044,379.21521023631686,320.07461290002027,-188.84761168675763,188.84761168675763,-320.07461290002027,686.24367443421545,0.0
297154.6038362722,4740833.5216966402,-37500.0,753.34632337904418,-3.4302567248798193,200.32813010093471,242.08663574172925,-36.208962900569503,35.408183414920188,435.44854339269318,326.34929695071446,-184.24794050218841,184.24794050218841,-326.34929695071446,777.18583777895174,0.0
302154.6038362722,4740833.5216966402,-37500.0,844.48205781300123,-64.384751871269629,274.63291607456057,293.85686681135689,-82.512381013128262,56.451149480852052,502.43073999719286,329.00509376438004,-171.01845803907537,171.01845803907537,-329.00509376438004,888.01951693017202,0.0
307154.6038362722,4740833.5216966402,-37500.0,932.19336769444669,-136.12491522949691,374.02795992732786,349.65535232934531,-143.27619435577472,82.368846400135922,581.59390499977405,328.34216411644695,-146.60746009775258,146.60746009775258,-328.34216411644695,1021.4491991508008,0.0
312154.6038362722,4740833.5216966402,-37500.0,1010.4654335691115,-216.59787558680239,504.68752353371127,406.9511451385203,-220.87667658699311,113.1822981528547,674.07992031819924,325.75120091061501,-108.42763776564711,108.42763776564711,-325.75120091061501,1179.4208205456243,0.0
317154.6038362722,4740833.5216966402,-37500.0,1071.755866023241,-301.17883404262699,672.87364457462604,461.58004041133842,-317.05147500947982,148.22632850460232,780.30320903346262,324.36096908583056,-54.331331792400476,54.331331792400476,-324.36096908583056,1362.5320930237258,0.0
322154.6038362722,4740833.5216966402,-37500.0,1107.5084704434094,-381.63641628084383,883.73950664273673,507.33032401280798,-432.05778692352362,185.72698966333274,899.4280123637194,329.81266341170624,16.575253183922285,-16.575253183922285,-329.81266341170624,1569.2675329823044,0.0
327154.6038362722,4740833.5216966402,-37500.0,1109.4269343706565,-445.21642228810043,1139.2658135880006,535.71002732024397,-563.41626273750705,222.25630009922554,1028.7897969886569,350.99120331871484,102.6826961680197,-102.6826961680197,-350.99120331871484,1795.0923691884036,0.0
332154.6038362722,4740833.5216966402,-37500.0,1071.7834242830759,-474.38574428116084,1435.1803407086115,536.19478756750277,-704.24509170736803,252.10677648497602,1163.3520853228733,400.32553553911464,198.18284443080583,-198.18284443080583,-400.32553553911464,2031.5803192209696,0.0
337154.6038362722,4740833.5216966402,-37500.0,994.76857032143744,-448.11468538061058,1757.0976756155778,497.39610477231861,-841.41975379651421,266.72569642695584,1295.4180796988355,492.98939904406552,291.14641552514342,-291.14641552514342,-492.98939904406552,2266.0077093437108,0.0
342154.6038362722,4740833.5216966402,-37500.0,888.21592622974367,-345.72584145340005,2076.9046657805484,409.61431482524938,-954.21390951451178,254.5146010694269,1415.0199348919843,644.14936913036695,362.02289295811755,-362.02289295811755,-644.14936913036695,2482.2036997211717,0.0
347154.6038362722,4740833.5216966402,-37500.0,773.98708143663191,-153.84243160902201,2351.4750823416248,268.91788557679763,-1014.5916401256428,201.49391732589626,1511.6303936573181,863.66751363140293,383.75901905986797,-383.75901905986797,-863.66751363140293,2663.7303674387745,0.0
352154.6038362722,4740833.5216966402,-37500.0,684.44890490962825,124.60489491520032,2526.4751201413096,82.016988085029638,-990.56862167710165,93.404052480764577,1578.0725292771519,1148.7840545787628,325.0287039818113,-325.0287039818113,-1148.7840545787628,2800.2772700222099,0.0
357154.6038362722,4740833.5216966402,-37500.0,654.95632097528585,462.76733426224177,2547.1450179474296,-130.07546092165819,-853.41802333740213,-80.509291692246435,1618.0875431914551,1477.2580767206559,157.46204773883289,-157.46204773883289,-1477.2580767206559,2896.7419824555691,0.0
362154.6038362722,4740833.5216966402,-37500.0,711.00918440936368,808.81404216765509,2374.7384209171341,-332.42720524699462,-587.59925809753827,-322.67045055409812,1658.7090819919965,1805.1654106353212,-134.17468930989764,134.17468930989764,-1805.1654106353212,2980.9619687541108,0.0
367154.6038362722,4740833.5216966402,-37500.0,854.93981924766967,1095.2489933104246,2002.8661021825517,-482.58508919980216,-199.81430448868656,-623.1122732137402,1746.369738931546,2073.1149660187798,-542.51168266912509,542.51168266912509,-2073.1149660187798,3101.0032295044334,0.0
372154.6038362722,4740833.5216966402,-37500.0,1059.4775399073558,1257.3923647362876,1465.5993378916587,-542.03670338768939,277.57562558194155,-958.51128434094198,1894.8933172950301,2220.9733726662894,-1033.8293408871291,1033.8293408871291,-2220.9733726662894,3303.3960984275132,0.0
377154.6038362722,4740833.5216966402,-37500.0,1273.2539823502482,1253.8120158562251,831.81323637173432,-488.37435486009389,791.75123540012646,-1295.7207803102272,2079.2503355659619,2205.9717292775476,-1553.2953811002892,1553.2953811002892,-2205.9717292775476,3601.7667093819332,0.0
382154.6038362722,4740833.5216966402,-37500.0,1436.8373059354292,1079.2614530318765,187.12476905506733,-322.59403546185973,1282.0068123406743,-1599.0267304217189,2268.9137290863191,2016.1686477367643,-2038.0370754729015,2038.0370754729015,-2016.1686477367643,3965.0391566029625,0.0
387154.6038362722,4740833.5216966402,-37500.0,1501.8029493256697,764.43578697976477,-388.74950543999978,-68.256418990556938,1694.590061661894,-1838.3499375752192,2437.3644325055111,1673.2664072996279,-2432.741652479338,2432.741652479338,-1673.2664072996279,4335.6712418224106,0.0
392154.6038362722,4740833.5216966402,-37500.0,1444.1724779176197,363.91393215895408,-839.83061593730304,236.52487694120603,1993.9214917517343,-1995.2276170085993,2564.8754583093005,1224.3931861068813,-2701.5128830112581,2701.5128830112581,-1224.3931861068813,4656.4840315417878,0.0
397154.6038362722,4740833.5216966402,-37500.0,1267.6065330098068,-61.024517394419298,-1141.3044187429025,550.11236657723475,2166.8058722126079,-2064.7854867961028,2640.2879259515144,727.64247757688463,-2832.299743174558,2832.299743174558,-727.64247757688463,4887.1708381654562,0.0
402154.6038362722,4740833.5216966402,-37500.0,997.44332941240089,-457.36629184988635,-1296.6816926218257,836.86814118624534,2219.9118113211248,-2053.9240943331874,2660.9426009769663,237.79734735852594,-2834.1328166784442,2834.1328166784442,-237.79734735852594,5008.6182121691681,0.0
407154.6038362722,4740833.5216966402,-37500.0,670.21623699749694,-788.86375137884249,-1328.7853084226317,1072.5533462994508,2173.271953727507,-1977.3032646148195,2631.0436497346009,-203.23845069206823,-2730.0986722385915,2730.0986722385915,203.23845069206823,5019.9934428269253,0.0
412154.6038362722,4740833.5216966402,-37500.0,323.46302440219461,-1037.7177248443766,-1269.4005488582923,1245.3890085434782,2052.9875942133303,-1852.934355377894,2559.284499300129,-570.04076388363774,-2549.4745390869821,2549.4745390869821,570.04076388363774,4933.0564129852955,0.0
417154.6038362722,4740833.5216966402,-37500.0,-11.307827744547666,-1201.5706587895966,-1150.9112654988649,1354.0998164097698,1885.3230582712745,-1698.6239335871514,2456.3313360457005,-852.52950463513707,-2321.3796536631476,2321.3796536631476,852.52950463513707,4766.368070798143,0.0
422154.6038362722,4740833.5216966402,-37500.0,-311.85695375883097,-1288.5053680699737,-1001.1717399562899,1404.6312681722854,1693.0244969479959,-1529.74555282185,2332.3368004917011,-1052.2770338259072,-2070.8396636395628,2070.8396636395628,1052.2770338259072,4540.6607433211748,0.0
427154.6038362722,4740833.5216966402,-37500.0,-565.44221896452405,-1312.0940343628811,-841.35847889008687,1406.8467957753376,1493.7108093901179,-1358.2553483012291,2195.1098923846325,-1178.1860364168253,-1817.0953102129727,1817.0953102129727,1178.1860364168253,4275.7308543361496,0.0
432154.6038362722,4740833.5216966402,-37500.0,-767.28330672771631,-1287.5539466529669,-685.88509926998256,1371.9043209817778,1299.7344633697126,-1192.6034144157757,2050.231172215038,-1242.7226696693579,-1573.50029609792,1573.50029609792,1242.7226696693579,3988.7118317529312,0.0
437154.6038362722,4740833.5216966402,-37500.0,-918.35794890224167,-1229.2729206038666,-543.41866517410108,1310.512084471625,1118.8638996850357,-1038.1595246227589,1902.2761602723333,-1259.1804917850814,-1348.3050851833641,1348.3050851833641,1259.1804917850814,3693.3834068102692,0.0
442154.6038362722,4740833.5216966402,-37500.0,-1023.2460365309453,-1149.5224433426445,-418.2793746497926,1231.9725068878154,955.28709393864187,-897.85212137815336,1755.2621376470618,-1239.9868991296294,-1145.7841632799109,1145.7841632799109,1239.9868991296294,3400.1534920705653,0.0
447154.6038362722,4740833.5216966402,-37500.0,-1088.3723952092514,-1058.0168697142897,-311.79672268896246,1143.8074442713651,810.62466183989773,-772.82643268130721,1612.4636605287969,-1195.8434183152485,-967.3685444715361,967.3685444715361,1195.8434183152485,3116.4107940414106,0.0
452154.6038362722,4740833.5216966402,-37500.0,-1120.7461272643509,-961.98634585576497,-223.42739861325489,1051.7529670803262,684.79828706436672,-663.02074973822187,1476.2743173923836,-1135.4395535383092,-812.61588133045188,812.61588133045188,1135.4395535383092,2847.0370651276803,0.0
457154.6038362722,4740833.5216966402,-37500.0,-1127.1538103689782,-866.50732742155833,-151.58576935087254,959.95244433268454,576.70305672851794,-567.62290135230717,1348.2481700555222,-1065.5103590165372,-679.96210926533206,679.96210926533206,1065.5103590165372,2594.9446133760052,0.0
282154.6038362722,4745833.5216966402,-37500.0,481.46104796665009,63.537689776028657,99.509680780217352,124.31832012525057,13.77796855088252,3.1344850063490002,274.55724462786981,258.10385806598089,-151.09993777764282,151.09993777764282,-258.10385806598089,501.03034690466643,0.0
287154.6038362722,4745833.5216966402,-37500.0,547.1751784482442,31.899348750028288,133.72671609536914,153.99428682903095,-5.8279972655554104,11.716893141757318,310.38945538998655,265.95781160443164,-152.00940085991766,152.00940085991766,-265.95781160443164,557.28639382960137,0.0
292154.6038362722,4745833.5216966402,-37500.0,615.18836348697232,-7.2510315985899227,179.59605526014093,187.40663673278999,-32.350209717000418,22.766212515439719,352.74349427061645,271.70077455224202,-148.31674948489615,148.31674948489615,-271.70077455224202,625.54873097157065,0.0
297154.6038362722,4745833.5216966402,-37500.0,683.26882655790621,-54.114423963743391,240.31637816998162,224.07248698919588,-67.298378549201516,36.59861891737274,402.52881878943884,275.2745106792413,-138.53838172590577,138.53838172590577,-275.2745106792413,707.77315814759072,0.0
302154.6038362722,4745833.5216966402,-37500.0,748.29604348688929,-108.16713952141976,319.58366650784285,262.95010131192561,-112.22457413353875,53.399280796327162,460.67418484780592,277.07001063834639,-121.06123002499713,121.06123002499713,-277.07001063834639,805.65296049830829,0.0
307154.6038362722,4745833.5216966402,-37500.0,806.18886380270226,-167.74165630914672,421.41416973719686,302.22100497766831,-168.53184057839755,73.096429805828905,527.90373300070053,278.21902382971115,-94.310676390088133,94.310676390088133,-278.21902382971115,920.34450406527105,0.0
312154.6038362722,4745833.5216966402,-37500.0,851.9787097937492,-229.50282543984068,549.74470880628098,339.05160022367323,-237.15114103464418,95.180173893794574,604.46962127297888,280.97007312216761,-57.053232558494415,57.053232558494415,-280.97007312216761,1052.1234530349177,0.0
317154.6038362722,4745833.5216966402,-37500.0,880.14236641110335,-287.87029051805393,707.69549616243205,369.37832341237987,-318.04203487142246,118.45820014515833,689.84936753566501,289.117648303615,-8.8833438529721889,8.8833438529721889,-289.117648303615,1199.9715827274465,0.0
322154.6038362722,4745833.5216966402,-37500.0,885.3351375191985,-334.52081013946457,896.37446013613805,387.80184501529044,-409.48343774574806,140.75121540854531,782.43874607032456,308.39209966559213,49.066421952974196,-49.066421952974196,-308.39209966559213,1361.1245987954958,0.0
327154.6038362722,4745833.5216966402,-37500.0,863.65192405287007,-358.23092789973919,1113.1538789034964,387.73251765033672,-507.16406711785464,158.55485525266641,879.29383590845634,346.62084069580737,113.19578124424933,-113.19578124424933,-346.62084069580737,1530.6796139946214,0.0
332154.6038362722,4745833.5216966402,-37500.0,814.43307705631526,-345.46888813462971,1349.5121017316908,361.98524965645635,-603.17937830162612,166.73664927913109,976.02279272391604,413.34906898114582,176.39159074617518,-176.39159074617518,-413.34906898114582,1701.4732751947938,0.0
337154.6038362722,4745833.5216966402,-37500.0,742.36459638911845,-282.2355535072594,1588.8580061214723,304.03792400786,-685.21031281850378,158.40119204583308,1067.0110501339529,518.51531519173045,227.14568227992424,-227.14568227992424,-518.51531519173045,1864.594578643877,0.0
342154.6038362722,4745833.5216966402,-37500.0,659.1858717308296,-157.5279078202727,1805.2317443530103,210.06798949017889,-736.38089871889986,125.13347245109854,1146.27564710145,669.83508370047718,249.34539376038845,-249.34539376038845,-669.83508370047718,2011.0402644242304,0.0
347154.6038362722,4745833.5216966402,-37500.0,583.84979447576461,31.745371517529914,1964.2059682249023,81.578005095214948,-736.4579821979205,57.874924699668632,1209.3944929828128,868.92001451613646,223.42558511093438,-223.42558511093438,-868.92001451613646,2134.9858748921674,0.0
352154.6038362722,4745833.5216966402,-37500.0,539.86765420432891,275.57927293785406,2027.2948618405414,-72.093933215987633,-664.96427633987048,-51.380695641342051,1257.3483793489418,1106.9409683539518,129.48397312937442,-129.48397312937442,-1106.9409683539518,2238.6178928761601,0.0
357154.6038362722,4745833.5216966402,-37500.0,549.30007137529151,547.72241601064593,1960.2171089609571,-232.61511807442079,-506.19223659674577,-207.15715690370831,1303.6258805987206,1361.6076183096541,-47.6329046116673,47.6329046116673,-1361.6076183096541,2336.9282129310536,0.0
362154.6038362722,4745833.5216966402,-37500.0,624.57735333955543,807.219158957182,1743.4010529459854,-374.19103035579781,-255.04262555318877,-407.88634609608539,1378.2300256373869,1597.7268436507827,-312.3670977715974,312.3670977715974,-1597.7268436507827,2458.2306509502496,0.0
367154.6038362722,4745833.5216966402,-37500.0,761.30125873163001,1006.0019816743137,1381.0235142131353,-468.36869631699125,78.453362890384852,-644.1295511067699,1501.9562227712786,1772.8172925040462,-653.81928034802047,653.81928034802047,-1772.8172925040462,2634.9498373767492,0.0
372154.6038362722,4745833.5216966402,-37500.0,935.88510921372028,1101.0270401478995,904.22507502509734,-491.13141545043413,468.28882354479396,-898.70086695718066,1664.343112268316,1847.0503411905145,-1044.9075027005204,1044.9075027005204,-1847.0503411905145,2885.6403284035064,0.0
377154.6038362722,4745833.5216966402,-37500.0,1110.2143907777995,1066.5829819561984,366.03801945601265,-429.78959901676279,876.49554882042662,-1149.1750816864931,1843.6915718389118,1794.2351083422557,-1446.5597349812094,1446.5597349812094,-1794.2351083422557,3201.3971032450472,0.0
382154.6038362722,4745833.5216966402,-37500.0,1242.0658994822163,901.65569095873718,-170.70078415480927,-286.83028144660841,1261.049366584014,-1372.2154220153079,2018.8944862930116,1609.4457428378423,-1815.9395869690247,1815.9395869690247,-1609.4457428378423,3548.7331935106381,0.0
387154.6038362722,4745833.5216966402,-37500.0,1297.0170986782948,629.4056217943496,-647.88170501790046,-79.151222561371839,1584.8620913217974,-1548.2710631842481,2171.7372996086765,1310.2064048016011,-2115.773069700399,2115.773069700399,-1310.2064048016011,3884.2130660329631,0.0
392154.6038362722,4745833.5216966402,-37500.0,1257.0365626319647,289.55349162943253,-1023.7549974047945,166.77527485155761,1822.7038880167297,-1665.0458840462688,2288.6637197446898,931.14576523335779,-2321.4662103873884,2321.4662103873884,-931.14576523335779,4168.6483449708776,0.0
397154.6038362722,4745833.5216966402,-37500.0,1123.0217336080991,-72.623726565604528,-1278.2932252610442,421.62437303285583,1964.1300339588593,-1718.789121550398,2361.9371958980955,514.78787990655303,-2424.0007815801873,2424.0007815801873,-514.78787990655303,4375.0044428664469,0.0
402154.6038362722,4745833.5216966402,-37500.0,911.60015488886017,-416.40816023428135,-1412.0447303365629,659.33172784434396,2012.3683407841872,-1713.4344460894301,2389.6459020129541,102.14914916810835,-2428.5877312666034,2428.5877312666034,-102.14914916810835,4490.401457730899,0.0
407154.6038362722,4745833.5216966402,-37500.0,648.64279814150962,-712.06523072342111,-1440.6290298419678,860.96505408320388,1980.5390642567622,-1658.3454269292242,2374.7030365249279,-274.05169001932768,-2350.5532301220965,2350.5532301220965,274.05169001932768,4514.401847676475,0.0
412154.6038362722,4745833.5216966402,-37500.0,362.36005211242696,-942.93610689557511,-1387.7643931071254,1015.9804276269881,1887.0053282020644,-1565.6378289847532,2323.2839848085546,-592.50813710239845,-2210.3702715848426,2210.3702715848426,592.50813710239845,4455.5893774275291,0.0
417154.6038362722,4745833.5216966402,-37500.0,77.984298032005128,-1104.1652866171421,-1279.0979403477686,1121.4319438792365,1751.2653044361568,-1447.8377547029725,2243.115634102106,-843.22073100851549,-2029.3231142884806,2029.3231142884806,843.22073100851549,4327.8518211669716,0.0
422154.6038362722,4745833.5216966402,-37500.0,-185.21102147591347,-1199.6386763290207,-1137.9577939567621,1180.0689958313635,1591.0904553461094,-1316.2534242075217,2141.942254883877,-1025.380495485816,-1826.5310426086294,1826.5310426086294,1025.380495485816,4147.1894347605066,0.0
427154.6038362722,4745833.5216966402,-37500.0,-414.7708188751983,-1238.5270148577613,-983.14949005519691,1198.1617148238199,1420.9990970976646,-1180.1071362206164,2026.519630957991,-1144.4814883035001,-1617.4048230626631,1617.4048230626631,1144.4814883035001,3929.3931388326155,0.0
432154.6038362722,4745833.5216966402,-37500.0,-604.4686903389005,-1232.3086741694938,-828.35805745718631,1183.5939791004826,1251.797921338368,-1046.2792923845648,1902.3730382176225,-1209.5503571463837,-1413.2356001425351,1413.2356001425351,1209.5503571463837,3688.6093037485648,0.0
437154.6038362722,4745833.5216966402,-37500.0,-752.98517537027146,-1192.6304826560663,-682.55337974748238,1144.4594967381354,1090.8130740670629,-919.45324425424428,1774.0323971216351,-1230.9501765097598,-1221.5054626987521,1221.5054626987521,1230.9501765097598,3436.6380973225146,0.0
442154.6038362722,4745833.5216966402,-37500.0,-862.40239366678588,-1130.0131795841517,-550.87269182516479,1088.1811604011646,942.46956574637261,-802.46759932161899,1645.232682327128,-1218.8811381026994,-1046.5539349146416,1046.5539349146416,1218.8811381026994,3182.7538680869789,0.0
447154.6038362722,4745833.5216966402,-37500.0,-936.84377086212066,-1053.2346570193758,-435.61687214493526,1021.0634194639149,808.97580315621985,-696.73555752868572,1518.9520332223358,-1182.5059656837045,-890.34268991709064,890.34268991709064,1182.5059656837045,2933.8504496993583,0.0
452154.6038362722,4745833.5216966402,-37500.0,-981.40423082681605,-969.17789296748401,-337.15710134456549,948.15142680223914,690.96874662165135,-602.64527428047904,1397.4181931779419,-1129.5492221177483,-753.16676097897391,753.16676097897391,1129.5492221177483,2694.7546300183335,0.0
287154.6038362722,4750833.5216966402,-37500.0,506.97526952039374,-7.6087346314310951,160.218932304677,146.40922398524916,-27.906651653936247,14.526521353809461,288.38627456649016,229.05599696628613,-121.11663737212902,121.11663737212902,-229.05599696628613,508.7268496363759,0.0
292154.6038362722,4750833.5216966402,-37500.0,558.67127962933876,-43.865285067972259,209.86455390808996,172.75257329606194,-54.414880938456058,23.703557829111794,325.80933887955314,233.05236591893271,-113.93934265546672,113.93934265546672,-233.05236591893271,570.47527388570188,0.0
297154.6038362722,4750833.5216966402,-37500.0,607.77657180319966,-85.005448819094198,273.36256957435864,200.30345360121228,-87.904926205308655,34.705890872765622,369.0755072799293,236.14046042695921,-101.39307270930229,101.39307270930229,-236.14046042695921,643.29145647430812,0.0
302154.6038362722,4750833.5216966402,-37500.0,651.45917550142349,-129.71841043663005,353.38969601178439,227.76324969993698,-129.23276661224918,47.442453762736569,418.68334285394462,239.20190275913393,-82.489831563631753,82.489831563631753,-239.20190275913393,727.91131365743979,0.0
307154.6038362722,4750833.5216966402,-37500.0,686.34486320760971,-175.58571693706119,452.49821770555275,253.18709532460451,-178.92099756570795,61.545056788533572,474.82979023046181,243.84781802278451,-56.486252012254326,56.486252012254326,-243.84781802278451,824.49501555546374,0.0
312154.6038362722,4750833.5216966402,-37500.0,708.73264922565932,-218.74122891898645,572.64857211887534,273.86361960986704,-236.85546804440631,76.225337240082325,537.22283238193313,252.6675288451101,-23.179040588189594,23.179040588189594,-252.6675288451101,932.39410245582235,0.0
317154.6038362722,4750833.5216966402,-37500.0,715.03437684817084,-253.58289764118692,714.4859240120087,286.25904301988999,-301.86816354270366,90.09937257864128,604.90393678731436,269.44932498298704,16.677680404368999,-16.677680404368999,-269.44932498298704,1049.9143081835714,0.0
322154.6038362722,4750833.5216966402,-37500.0,702.50172636375669,-272.67049255251203,876.32643353835294,286.09775467970758,-371.21296374904443,100.99428889866719,676.11462881070554,299.27519333453756,60.837231127128206,-60.837231127128206,-299.27519333453756,1174.131015654433,0.0
327154.6038362722,4750833.5216966402,-37500.0,670.25497124207823,-267.01394009703142,1052.8942158593118,268.67733258027607,-439.9863090874656,105.77135494608918,748.25785549068075,348.33414681522072,104.95852022752598,-104.95852022752598,-348.33414681522072,1300.8704183834595,0.0
332154.6038362722,4750833.5216966402,-37500.0,620.51083084701315,-227.00676963729242,1233.9949623805176,229.52458743874124,-500.61921806502465,100.22864303490041,818.03861313371578,423.25129958985826,142.06697323920278,-142.06697323920278,-423.25129958985826,1425.0406430444714,0.0
337154.6038362722,4750833.5216966402,-37500.0,559.71337651687941,-144.22847438352716,1403.5303526122382,165.4648196958432,-542.66696132926302,79.179965461854934,881.92218113581794,529.73823967964915,162.31207265511833,-162.31207265511833,-529.73823967964915,1541.5658821507027,0.0
342154.6038362722,4750833.5216966402,-37500.0,499.03838747177559,-14.144122468074752,1539.4934171903769,76.062660452797402,-553.21478119898109,36.83133898129546,937.13591910054004,670.50249953040793,153.35149678376109,-153.35149678376109,-670.50249953040793,1647.1746139593356,0.0
347154.6038362722,4750833.5216966402,-37500.0,453.5932491486426,160.6881181441195,1615.6894098210976,-34.818285706775839,-518.22897700875274,-32.43616875499248,983.67102198356713,842.66587823458497,101.70339645355159,-101.70339645355159,-842.66587823458497,1743.06849351036,0.0
352154.6038362722,4750833.5216966402,-37500.0,439.77986136581984,367.86357440239163,1605.6882543140782,-157.85628050792175,-425.01597060080894,-132.85319320241294,1028.2549794363886,1035.4056982932193,-4.7661559314138913,4.7661559314138913,-1035.4056982932193,1837.8060425771205,0.0
357154.6038362722,4750833.5216966402,-37500.0,470.89657153736596,584.2436538156461,1488.769135335222,-278.21578347710584,-265.54463905189158,-265.77218784703206,1089.1803720020325,1228.9499830259515,-173.47649034107224,173.47649034107224,-1228.9499830259515,1948.4240322774351,0.0
362154.6038362722,4750833.5216966402,-37500.0,552.04712020619922,778.23379081648216,1256.499745013637,-377.19096553438436,-39.825040097183702,-428.28575644711344,1186.8125182970546,1396.0759173513002,-403.72343837982532,403.72343837982532,-1396.0759173513002,2096.7653164322392,0.0
367154.6038362722,4750833.5216966402,-37500.0,676.3099653676901,915.55157856817857,917.6477615086676,-435.61373560482843,241.89497646057916,-612.50259346867472,1321.1407543887583,1506.5832858386391,-684.50645264917534,684.50645264917534,-1506.5832858386391,2299.9657658665983,0.0
372154.6038362722,4750833.5216966402,-37500.0,824.19240031624247,967.20983593308256,499.09943036676333,-438.27047990629944,559.28627639158719,-805.97217735727054,1478.0347236562284,1533.9369309541592,-994.78958622002187,994.78958622002187,-1533.9369309541592,2560.1363250965014,0.0
377154.6038362722,4750833.5216966402,-37500.0,967.27482069571226,917.06530397060669,41.724034156241366,-377.89314334804345,884.88619388518612,-993.39928350211767,1641.7729456291886,1462.0187247549507,-1306.6244314679725,1306.6244314679725,-1462.0187247549507,2861.2393239717389,0.0
382154.6038362722,4750833.5216966402,-37500.0,1075.0830188857474,766.0969243725765,-407.81118744326164,-257.2382641155898,1189.1544093107468,-1159.2732561419361,1797.5832494185231,1289.5303314841988,-1590.3981202587936,1590.3981202587936,-1289.5303314841988,3174.8231304327574,0.0
387154.6038362722,4750833.5216966402,-37500.0,1122.6980052413151,531.85409027888943,-806.54979849304766,-88.475293782378102,1446.0536394512367,-1290.63100422255,1932.6663309044047,1030.4214384330296,-1820.5459564843993,1820.5459564843993,-1030.4214384330296,3469.2286811792046,0.0
392154.6038362722,4750833.5216966402,-37500.0,1096.3625182305259,243.55217445800977,-1122.9651464728936,109.79796223634088,1637.4135167012432,-1379.1201648792016,2037.4156267909734,710.35999876056894,-1979.9270116077064,1979.9270116077064,-710.35999876056894,3717.1240808164625,0.0
397154.6038362722,4750833.5216966402,-37500.0,995.4371456419891,-65.086650025411799,-1340.8331537223869,316.73104485981753,1754.9633274696996,-1421.8466396444453,2106.2069361632962,360.76485579824191,-2061.7365688196501,2061.7365688196501,-360.76485579824191,3899.6595774836774,0.0
402154.6038362722,4750833.5216966402,-37500.0,830.72328835520671,-362.71617194245414,-1458.9382932056324,513.18400296042353,1799.9075869141839,-1420.9782690346508,2137.457121948129,12.538264242170726,-2068.8705609226217,2068.8705609226217,-12.538264242170726,4007.5977846678002,0.0
407154.6038362722,4750833.5216966402,-37500.0,620.45122600182106,-625.14497584103583,-1487.7370603687277,684.4677069441226,1780.7304451728962,-1382.4717155736882,2133.0288134451148,-308.75057042392427,-2011.4961900258372,2011.4961900258372,308.75057042392427,4040.3624936198516,0.0
412154.6038362722,4750833.5216966402,-37500.0,385.63869975383545,-837.37778914465787,-1444.6971108066082,821.51088137960744,1710.2437331559274,-1314.4456249196489,2097.2330118707764,-585.4161873706953,-1903.9058325680312,1903.9058325680312,585.4161873706953,4003.9651122767254,0.0
417154.6038362722,4750833.5216966402,-37500.0,146.17331421159085,-993.30224452832783,-1349.8258478901259,920.66849712657688,1602.7699820243297,-1225.6546318915441,2035.7097240169551,-808.04333775647592,-1761.5800645361001,1761.5800645361001,808.04333775647592,3908.5964599065928,0.0
422154.6038362722,4750833.5216966402,-37500.0,-81.713169515916661,-1093.9100176912559,-1222.2844283020465,982.67191957492059,1471.9931844214361,-1124.3337480178548,1954.4278053942587,-974.35613271322154,-1598.9960656471026,1598.9960656471026,974.35613271322154,3766.4199037487733,0.0
427154.6038362722,4750833.5216966402,-37500.0,-286.53190812317814,-1144.9655015682176,-1078.353494918947,1011.2410861118032,1329.642226195052,-1017.4951004031328,1858.986732025915,-1087.3460247546102,-1428.3298202812437,1428.3298202812437,1087.3460247546102,3589.8475079161899,0.0
432154.6038362722,4750833.5216966402,-37500.0,-461.50897307559035,-1154.7872188883234,-930.58987124886175,1011.7451675483841,1184.9182129422491,-910.62783880548432,1754.2871316940625,-1153.2904424727458,-1258.9390616948731,1258.9390616948731,1153.2904424727458,3390.3761579867778,0.0
437154.6038362722,4750833.5216966402,-37500.0,-603.88253811278742,-1132.4946061141341,-787.82610974603097,990.12383148730601,1044.4609890183087,-807.6920586308014,1644.4700069104315,-1180.048768764558,-1097.4001827507952,1097.4001827507952,1180.048768764558,3177.9314157916433,0.0
442154.6038362722,4750833.5216966402,-37500.0,-713.91564290463555,-1086.8191856209369,-655.6523074349891,952.13623640890194,912.6363434767718,-711.28952788503864,1532.9519090490028,-1175.7964273809066,-947.86500432710045,947.86500432710045,1175.7964273809066,2960.604981684271,0.0
447154.6038362722,4750833.5216966402,-37500.0,-793.89767578094359,-1025.4258740109892,-537.09614046993772,902.91468614501537,791.96726751132621,-622.91534821484993,1422.4633111417957,-1148.2043848072074,-812.55196892926574,812.55196892926574,1148.2043848072074,2744.6619791367234,0.0
292154.6038362722,4755833.5216966402,-37500.0,499.04090098222622,-66.202518161289149,234.42196376489562,154.52262238542014,-69.119521233232447,22.657656200460867,298.89496824608676,202.95615986643278,-85.802611346298562,85.802611346298562,-202.95615986643278,519.63132821872978,0.0
297154.6038362722,4755833.5216966402,-37500.0,532.59805325070511,-100.15866473479363,297.82037551321309,174.07185136727193,-99.80103261192906,31.001315666597154,335.97108427546357,206.89723383721397,-72.317008703155551,72.317008703155551,-206.89723383721397,582.95383086399931,0.0
302154.6038362722,4755833.5216966402,-37500.0,559.66341670584427,-134.70358947897404,375.18264511259434,191.9867859304934,-136.27239849935114,40.133334495875815,377.73191534178721,212.25472145139406,-53.937901398322595,53.937901398322595,-212.25472145139406,654.84639399355217,0.0
307154.6038362722,4755833.5216966402,-37500.0,577.68545533549946,-167.11372951872761,467.78032803305473,206.42808150001491,-178.41809611894286,49.531643770252614,424.04347348567853,220.82008627787246,-30.553586482058606,30.553586482058606,-220.82008627787246,734.91256563440663,0.0
312154.6038362722,4755833.5216966402,-37500.0,584.17825266887246,-193.53131888639018,576.00729269367173,215.03238231692734,-225.45055870828031,58.310066802682954,474.34859387215909,235.14889104385287,-2.6565463861286105,2.6565463861286105,-235.14889104385287,822.11375086674798,0.0
317154.6038362722,4755833.5216966402,-37500.0,577.15694606657235,-208.89396387531065,698.76058570557689,214.95517004934686,-275.59683400257046,65.104324158300741,527.59058872038531,258.62040784348915,28.338274100733685,-28.338274100733685,-258.62040784348915,914.68075296657446,0.0
322154.6038362722,4755833.5216966402,-37500.0,555.74802951361994,-207.07767182315379,832.67255999421661,203.04073985835157,-325.75006670931549,67.964385122402916,582.19949112576739,295.34441425827868,59.733657684014503,-59.733657684014503,-295.34441425827868,1010.128094119638,0.0
327154.6038362722,4755833.5216966402,-37500.0,520.93117451869205,-181.38949921296199,971.2833873253669,176.17637452595687,-371.14776966704903,64.284524367097845,636.1810660619193,349.80873404800229,87.212024925311681,-87.212024925311681,-349.80873404800229,1105.4718019583581,0.0
332154.6038362722,4755833.5216966402,-37500.0,476.27709995916194,-125.5405027370121,1104.3466438328551,131.87432075274157,-405.18563459189642,50.818097139214409,687.37325566020081,426.15800347026641,104.63217942597839,-104.63217942597839,-426.15800347026641,1197.78316702299,0.0
337154.6038362722,4755833.5216966402,-37500.0,428.42972973343808,-35.156782105537914,1217.5855312661702,69.08024540760843,-419.52511523991228,23.837841846936403,733.98466327411018,527.04241833994706,104.12511360359014,-104.12511360359014,-527.04241833994706,1285.2142686209979,0.0
342154.6038362722,4755833.5216966402,-37500.0,386.98004606604866,90.28898909964316,1293.3062266911843,-10.882930593370283,-404.67627689998153,-20.497169812686899,775.66169604068978,652.10361864873471,76.676277951851773,-76.676277951851773,-652.10361864873471,1368.5292771277007,0.0
347154.6038362722,4755833.5216966402,-37500.0,363.37735381894976,245.51728787312339,1312.2370596553853,-103.45441921143681,-351.19355406660708,-85.533973578227631,815.68505404994573,796.37869617503475,13.33433219881789,-13.33433219881789,-796.37869617503475,1452.8473405822397,0.0
352154.6038362722,4755833.5216966402,-37500.0,368.71806868527295,418.13601001322132,1256.7061660816173,-200.39872966916772,-251.47511067682098,-173.30994827531089,864.68141553840735,949.15060512389982,-92.969809684249242,92.969809684249242,-949.15060512389982,1548.6584435705252,0.0
357154.6038362722,4755833.5216966402,-37500.0,410.67636890164852,588.80703541086791,1114.7618905643908,-290.17066964972651,-101.90070251871211,-283.66554952122675,939.20474857444128,1093.9178505620589,-245.27495466641312,245.27495466641312,-1093.9178505620589,1670.4947471583598,0.0
362154.6038362722,4755833.5216966402,-37500.0,490.38472958177721,733.47784898004261,884.23398136024434,-359.32226396735746,95.239233238724538,-413.52939060676124,1045.6741626505782,1210.0318742903207,-440.68260828267063,440.68260828267063,-1210.0318742903207,1832.1304913503516,0.0
367154.6038362722,4755833.5216966402,-37500.0,600.44546430031573,827.61239397201939,575.3348973794341,-394.85545083157768,330.7294948258637,-556.66975732780395,1176.2355464785333,1276.0618612893745,-669.41384163597434,669.41384163597434,-1276.0618612893745,2039.9008943702499,0.0
372154.6038362722,4755833.5216966402,-37500.0,725.13532917848272,851.46766165431745,210.56226863661968,-386.99327750692385,588.91117702054282,-704.13582525883555,1319.5386871108458,1274.2206074804769,-915.40819352835865,915.40819352835865,-1274.2206074804769,2288.4206531042369,0.0
377154.6038362722,4755833.5216966402,-37500.0,843.14863843792227,794.80206958399049,-178.52149489591645,-331.53865444203581,849.79377805042304,-845.40930773177411,1464.4216476335337,1194.5691377202916,-1158.5724528105156,1158.5724528105156,-1194.5691377202916,2561.4881612387803,0.0
382154.6038362722,4755833.5216966402,-37500.0,932.19204123022496,659.40975038582883,-556.89398674120832,-231.02224913693297,1092.3370461614959,-970.02725557256804,1600.3443784838439,1037.6018465520026,-1378.1718209556304,1378.1718209556304,-1037.6018465520026,2836.798448528376,0.0
387154.6038362722,4755833.5216966402,-37500.0,973.94684509692661,458.63485106380392,-892.40551108948114,-94.244091134178362,1297.987606439536,-1069.2448849574962,1718.1161961674443,814.3355252146257,-1556.4030806895112,1556.4030806895112,-814.3355252146257,3091.3729909316462,0.0
392154.6038362722,4755833.5216966402,-37500.0,957.79693390246939,214.15783498995305,-1160.9853503639972,65.602835035800837,1453.4841570367391,-1137.2908612204315,1810.7494727266569,543.94659490389108,-1681.1421951512041,1681.1421951512041,-543.94659490389108,3305.7445225141691,0.0
397154.6038362722,4755833.5216966402,-37500.0,882.31354917290878,-48.729335323464426,-1349.4467890979508,233.57001912097434,1552.2734758527786,-1171.928023900733,1874.0120273201705,249.84433734362574,-1747.2209075103665,1747.2209075103665,-249.84433734362574,3466.3431909402661,0.0
402154.6038362722,4755833.5216966402,-37500.0,754.41391470848373,-305.84066981092792,-1455.5983782510609,395.54840345880103,1594.4123284737991,-1174.2833017958014,1906.5127544846105,-44.553693668590995,-1756.1472347410315,1756.1472347410315,44.553693668590995,3566.2341361789031,0.0
407154.6038362722,4755833.5216966402,-37500.0,586.88297181886526,-537.61714306679198,-1486.2419677212674,540.19453881408981,1585.2970479365836,-1148.126392778157,1909.3580437579637,-319.241937514661,-1714.6603864744193,1714.6603864744193,319.241937514661,3604.6137814669992,0.0
412154.6038362722,4755833.5216966402,-37500.0,395.2700027601669,-730.92457076560254,-1454.0773556803238,659.91139092989374,1533.7947577211698,-1098.8801943162459,1885.5251067875533,-559.64936791357945,-1632.7317582968465,1632.7317582968465,559.64936791357945,3585.5471180895461,0.0
417154.6038362722,4755833.5216966402,-37500.0,195.05384030457591,-879.23171443265153,-1374.5052184699134,750.93952115671243,1450.3313013598274,-1032.6330108709203,1839.1300574751749,-757.21837070716788,-1521.5844091365905,1521.5844091365905,757.21837070716788,3516.399009262097,0.0
422154.6038362722,4755833.5216966402,-37500.0,-0.39198781291408391,-981.65063176141462,-1263.0029387766092,812.81715704167914,1345.315738893931,-955.33454305067164,1774.7484016902349,-908.8703668109265,-1392.1077387568403,1392.1077387568403,908.8703668109265,3406.3078490231751,0.0
427154.6038362722,4755833.5216966402,-37500.0,-180.88912854857833,-1041.417916363833,-1133.3631636384359,847.52231594777686,1228.0684839434725,-872.25448643383936,1696.8969159552714,-1015.8318231644787,-1253.8190664109259,1253.8190664109259,1015.8318231644787,3264.9162247878157,0.0
432154.6038362722,4755833.5216966402,-37500.0,-339.72544237810104,-1064.2955314220924,-996.78225565720663,858.55943161535458,1106.2500489279878,-787.69917234385866,1609.7159447224631,-1082.2535074614259,-1114.3496601448248,1114.3496601448248,1082.2535074614259,3101.4472858479376,0.0
437154.6038362722,4755833.5216966402,-37500.0,-473.35955567299965,-1057.192742742119,-861.6173913806075,850.16040828964981,985.69096223355052,-704.93490271993585,1516.8206239608871,-1113.9258970833016,-979.33913733334339,979.33913733334339,1113.9258970833016,2924.1251699913223,0.0
442154.6038362722,4755833.5216966402,-37500.0,-580.82103217441511,-1027.1405915651619,-733.58072218050143,826.67786658094826,870.49106636700412,-626.25057130783409,1421.254228837862,-1117.2501232749983,-852.59487100952822,852.59487100952822,1117.2501232749983,2739.8842901266389,0.0
297154.6038362722,4760833.5216966402,-37500.0,461.45817313154197,-103.54222351181178,313.35369331214963,147.68863478028251,-104.84558651123874,26.417030847981202,304.01817247777348,185.40916883879243,-50.341316070621943,50.341316070621943,-185.40916883879243,526.63151828937748,0.0
302154.6038362722,4760833.5216966402,-37500.0,476.15378030557429,-128.20555457851324,385.55125388062731,157.99216620978581,-135.94646627749796,32.526594663127511,338.8448118121778,193.32593258243523,-33.693275872570752,33.693275872570752,-193.32593258243523,586.90633437625888,0.0
307154.6038362722,4760833.5216966402,-37500.0,482.43398221850708,-148.49104418591736,469.21025091416544,164.12953802340533,-170.49648355578003,38.169833482077848,376.75254021537108,205.46413597979745,-13.86735663479125,13.86735663479125,-205.46413597979745,652.56578999464216,0.0
312154.6038362722,4760833.5216966402,-37500.0,478.83777839392928,-160.88285613419731,563.59686823002846,164.17103464867463,-207.33518932506587,42.477476243449999,417.11180036721021,224.11606124529013,8.2345916911066581,-8.2345916911066581,-224.11606124529013,722.53015639314583,0.0
317154.6038362722,4760833.5216966402,-37500.0,464.58080002842837,-161.12586328601651,666.51139245755712,155.95953562572092,-244.45883068184392,44.218986249315236,458.96217831042117,252.06510024239572,30.908898076467537,-30.908898076467537,-252.06510024239572,795.29808886052956,0.0
322154.6038362722,4760833.5216966402,-37500.0,440.01510386028411,-144.49260554830269,773.75981299730324,137.30615485359391,-278.8128076220159,41.753391772682257,501.06841175640477,292.39538230437034,51.434400735329476,-51.434400735329476,-292.39538230437034,869.09072379795452,0.0
327154.6038362722,4760833.5216966402,-37500.0,407.1115806125938,-106.32392267371553,878.67527863070814,106.31541291325692,-306.14722866697912,33.021657462476213,542.06848969596786,348.09515669281041,65.918923262131187,-65.918923262131187,-348.09515669281041,942.19129001031615,0.0
332154.6038362722,4760833.5216966402,-37500.0,369.84059026524477,-42.892143323620317,971.8511485708608,61.847716578178776,-321.01640678789482,15.611924588385465,580.77078833914356,421.4087991932243,69.292107402231466,-69.292107402231466,-421.4087991932243,1013.554776509956,0.0
337154.6038362722,4760833.5216966402,-37500.0,334.26657692553965,47.43961623841242,1041.306616375517,4.0875457127911625,-317.02169031801088,-13.068305480725567,616.73280147717469,512.94685206305053,55.547146708293496,-55.547146708293496,-512.94685206305053,1083.7143253335505,0.0
342154.6038362722,4760833.5216966402,-37500.0,308.14516625106512,162.91817326052853,1073.3181548511823,-64.874792191315208,-287.38955301155283,-55.48702200304708,651.46940562526811,620.6622181521459,18.324822466552405,-18.324822466552405,-620.6622181521459,1155.8508009760997,0.0
347154.6038362722,4760833.5216966402,-37500.0,299.86262651806373,297.27946039400717,1054.0681845924153,-140.60897998488974,-225.92486046842612,-113.54881014308644,690.87627393281423,738.93131617574159,-48.123184035169743,48.123184035169743,-738.93131617574159,1236.5663181974855,0.0
352154.6038362722,4760833.5216966402,-37500.0,316.72509629209242,439.25619406642278,972.05325607701525,-216.26706785625362,-128.27132789294976,-188.06622068454053,746.81301924919865,858.09648704448705,-147.66884198121107,147.66884198121107,-858.09648704448705,1335.5097087646518,0.0
357154.6038362722,4760833.5216966402,-37500.0,362.87685488429514,573.16634914528095,820.87412611708021,-283.05538408133555,6.7383206485441356,-278.24202047836485,828.58649990886079,964.85034265116724,-280.97105547924866,280.97105547924866,-964.85034265116724,1463.0385729365662,0.0
362154.6038362722,4760833.5216966402,-37500.0,437.41206637838849,680.82243084500408,601.71176622679377,-331.33475039455578,175.99666097110446,-381.31039031353077,933.58118013088358,1043.6997431455193,-444.43459391733279,444.43459391733279,-1043.6997431455193,1626.2370300348784,0.0
367154.6038362722,4760833.5216966402,-37500.0,533.38545119564333,744.57888460573588,324.64847782915922,-352.22386090437095,371.69908487171449,-492.4927892520534,1053.7930958155237,1079.423008208993,-629.86721399707733,629.86721399707733,-1079.423008208993,1825.2992327772995,0.0
372154.6038362722,4760833.5216966402,-37500.0,638.27773729202443,750.84316387888418,8.1746404560641839,-339.35415442797233,581.87088868635988,-605.36790795376157,1180.9893167903222,1060.0235308922083,-825.1090740975269,825.1090740975269,-1060.0235308922083,2052.4523675497667,0.0
377154.6038362722,4760833.5216966402,-37500.0,736.02162196643201,693.06004256175368,-323.25904167283403,-290.2904138621987,791.86311537291897,-712.63998199636922,1307.1298972059894,979.38236607551016,-1015.6262216959217,1015.6262216959217,-979.38236607551016,2293.7089098911297,0.0
382154.6038362722,4760833.5216966402,-37500.0,810.11329372874752,573.24077310482664,-643.12124802620542,-207.17769925415089,986.51209468854745,-807.15497206986583,1424.5509629623352,838.7997171811902,-1186.7289883791404,1186.7289883791404,-838.7997171811902,2532.0699551396378,0.0
387154.6038362722,4760833.5216966402,-37500.0,846.90732996321469,401.5680619269674,-927.08532317885351,-96.408830520161118,1152.422782116153,-882.92200133900781,1526.5249143962285,646.94284567108434,-1325.8493687411546,1325.8493687411546,-646.94284567108434,2750.7352549859952,0.0
392154.6038362722,4760833.5216966402,-37500.0,838.13765208120856,194.25855820696654,-1156.5936044256198,32.574175172814833,1279.8035801882568,-935.89262283509026,1607.8605071472402,418.24511537024364,-1424.2991379141245,1424.2991379141245,-418.24511537024364,2935.5589871781699,0.0
397154.6038362722,4760833.5216966402,-37500.0,782.03560653124623,-29.597140574068526,-1320.8986586894291,168.97153992351608,1363.4582465543442,-964.33545509192618,1665.2967741507528,170.28477829035251,-1478.131753042629,1478.131753042629,-170.28477829035251,3076.5204614679378,0.0
402154.6038362722,4760833.5216966402,-37500.0,682.94309820859974,-251.29164359877134,-1417.3444940802831,302.34102134511937,1402.8322327331596,-968.77455787032432,1697.5957065206692,-79.092229856108247,-1488.0382499468324,1488.0382499468324,79.092229856108247,3168.2463061251246,0.0
407154.6038362722,4760833.5216966402,-37500.0,549.78482741845232,-455.08194541001586,-1450.1829968483551,423.94843727660145,1401.2829598273254,-951.57987432020388,1705.3504788764089,-314.20789105388371,-1458.4819982871425,1458.4819982871425,314.20789105388371,3209.760666123203,0.0
412154.6038362722,4760833.5216966402,-37500.0,394.00084050523321,-629.68827905850333,-1428.5296195800302,527.54941433073236,1364.8992822448272,-916.36447838031381,1690.5940183737,-523.12372174917891,-1396.4230922806887,1396.4230922806887,523.12372174917891,3203.7152076017596,0.0
417154.6038362722,4760833.5216966402,-37500.0,227.52143352103775,-768.69138512085067,-1364.1010541523647,609.59386914786035,1301.212999547653,-867.34734322968927,1656.3173792315856,-698.25405497640395,-1309.9851703768995,1309.9851703768995,698.25405497640395,3155.3638805379942,0.0
422154.6038362722,4760833.5216966402,-37500.0,61.181015366881198,-870.07706710372418,-1269.223331323331,668.98052861830479,1218.0637400724454,-808.80160702471915,1605.9990388328579,-836.17839192931308,-1207.3220906558472,1207.3220906558472,836.17839192931308,3071.5080664600891,0.0
427154.6038362722,4760833.5216966402,-37500.0,-96.264004950920267,-935.28366693484941,-1155.3709653973717,706.54490737341393,1122.7588579690439,-744.65126325231665,1543.2170014069213,-936.93419597868115,-1095.8130215286005,1095.8130215286005,936.93419597868115,2959.5689251674789,0.0
432154.6038362722,4760833.5216966402,-37500.0,-238.53754906605388,-968.08338693158043,-1032.2930157158746,724.45302887014043,1021.5608615563361,-678.22951158090586,1471.3752820131192,-1003.0784222062957,-981.60321094465417,981.60321094465417,1003.0784222062957,2826.8677985918939,0.0
437154.6038362722,4760833.5216966402,-37500.0,-361.79839970380192,-973.53557566585755,-907.64696406986741,725.62718231647477,919.46205637766388,-612.17758368152442,1393.5399899340277,-1038.7432215717868,-869.43660350050607,869.43660350050607,1038.7432215717868,2680.1346359155145,0.0
302154.6038362722,4765833.5216966402,-37500.0,402.39545139963207,-114.42280161401453,385.93891837924184,127.13470209029599,-130.5156678413893,25.280907983899787,302.75965903399515,179.98303521151581,-20.018634644975279,20.018634644975279,-179.98303521151581,524.54804076379298,0.0
307154.6038362722,4765833.5216966402,-37500.0,400.96085788874285,-124.4470906872362,459.40209010267716,127.27725659704264,-157.96408830555299,28.056746176016194,333.71473921053564,194.95791286001918,-4.0375245771964359,4.0375245771964359,-194.95791286001918,578.08608771172533,0.0
312154.6038362722,4765833.5216966402,-37500.0,391.52875767641081,-125.74308838350379,539.43658544966979,121.58163222591678,-185.80726560337001,29.132877745938721,366.13383473016137,216.56169811551985,12.545698053557956,-12.545698053557956,-216.56169811551985,634.1624076429498,0.0
317154.6038362722,4765833.5216966402,-37500.0,374.13872106803137,-114.93070072532733,623.2637692414728,108.49514128536242,-212.05253073920187,27.460260515672381,399.23817002398374,246.94203058369317,27.987278096575622,-27.987278096575622,-246.94203058369317,691.70452156835779,0.0
322154.6038362722,4765833.5216966402,-37500.0,349.85818888420152,-88.562708243455447,706.46259887644953,86.594657733033159,-233.92209110903011,21.716518960705748,432.1471103466057,288.25309338708939,39.782668834528394,-39.782668834528394,-288.25309338708939,749.69662237964769,0.0
327154.6038362722,4765833.5216966402,-37500.0,321.06299800084764,-43.627239131575166,782.74201816130073,54.855594421129439,-247.8189296051369,10.329805550973902,464.04674012407446,342.283459966848,44.628851216430093,-44.628851216430093,-342.283459966848,807.5529163346007,0.0
332154.6038362722,4765833.5216966402,-37500.0,291.58325520555803,21.752600938390895,843.93492173566585,12.994801698933497,-249.4192086104639,-8.4411949695731394,494.50890129098588,409.92837984542996,38.516047551795651,-38.516047551795651,-409.92837984542996,865.66851952894729,0.0
337154.6038362722,4765833.5216966402,-37500.0,266.59277497668336,107.48142564797493,880.35438721622359,-38.151070312220263,-233.94826302035065,-36.354000039809939,524.15488130853646,490.54592243519187,17.006676748589655,-17.006676748589655,-490.54592243519187,926.08629111722109,0.0
342154.6038362722,4765833.5216966402,-37500.0,252.12673699716032,210.6623307556348,881.63186873625,-96.287378072078965,-196.6798353397806,-74.948140617287592,556.10704175111687,581.3034815130402,-24.259968527735055,24.259968527735055,-581.3034815130402,993.05010124747014,0.0
347154.6038362722,4765833.5216966402,-37500.0,254.17326264640013,325.00937817950461,838.0737651060158,-157.47289323509909,-133.6536235177318,-125.24127175580878,598.03753797167974,676.69397661252674,-88.846699926169435,88.846699926169435,-676.69397661252674,1072.9919944854246,0.0
352154.6038362722,4765833.5216966402,-37500.0,277.40876318893299,440.78356958167603,742.42292236584046,-216.2029392541852,-42.534998936668011,-187.39452522705614,659.34776045975059,768.44876836844901,-178.66542854623867,178.66542854623867,-768.44876836844901,1173.4349800360958,0.0
357154.6038362722,4765833.5216966402,-37500.0,323.81132395473873,545.49080952566828,591.71791477469526,-265.85701898901061,76.543651634588457,-260.41546324624522,741.6240486306084,846.05202310488608,-293.1614024734119,293.1614024734119,-846.05202310488608,1300.7345664652014,0.0
362154.6038362722,4765833.5216966402,-37500.0,391.53109636241425,625.41456243877644,388.78432263636989,-299.52157904236032,220.38256574036794,-341.98622350005769,839.61855827125805,897.94225505259203,-428.76314732350409,428.76314732350409,-897.94225505259203,1457.503165251039,0.0
367154.6038362722,4765833.5216966402,-37500.0,474.43573568065597,667.79173675377149,142.85534766607188,-311.07746569993481,382.58005997014209,-428.49879147211834,947.18659791103278,913.27912365737438,-578.82022850619933,578.82022850619933,-913.27912365737438,1641.0631980714325,0.0
372154.6038362722,4765833.5216966402,-37500.0,562.62045095764188,663.1675800800441,-131.02606238330199,-296.32278917725654,554.00269941500267,-515.34001411276233,1058.3821819996749,883.9233329477139,-734.15409291303911,734.15409291303911,-883.9233329477139,1843.63038824265,0.0
377154.6038362722,4765833.5216966402,-37500.0,643.89154028403436,607.31615295691563,-413.84525523538912,-253.84367745469075,723.84031063190719,-597.40370963925352,1167.301897870424,806.13132315938208,-884.17988058563571,884.17988058563571,-806.13132315938208,2053.8501207965228,0.0
382154.6038362722,4765833.5216966402,-37500.0,705.89898350965495,502.17928198133006,-685.32870815028684,-185.38606545443554,881.04521054290831,-669.73596712590893,1268.2783805525182,681.48780349985077,-1018.3752028854904,1018.3752028854904,-681.48780349985077,2258.8587014511959,0.0
387154.6038362722,4765833.5216966402,-37500.0,738.36051874564953,355.55811624500308,-926.88700513919957,-95.618582213275857,1015.8313904047195,-728.17421085699391,1356.3045324197863,516.80465235698443,-1127.7566124250482,1127.7566124250482,-516.80465235698443,2446.2346177022055,0.0
392154.6038362722,4765833.5216966402,-37500.0,734.79218027685852,179.67198797895784,-1124.0886157570233,8.6442220438380151,1120.8939811993755,-769.8401594006466,1427.4575826634291,323.02362461826101,-1206.0243089355524,1206.0243089355524,-323.02362461826101,2605.5142139188265,0.0
397154.6038362722,4765833.5216966402,-37500.0,693.34784917287584,-10.981124505637434,-1268.1534198530642,119.54173052580877,1192.1084431432218,-793.3924854971367,1479.1838255360849,113.44358189562729,-1250.150341727619,1250.150341727619,-113.44358189562729,2729.146579041771,0.0
402154.6038362722,4765833.5216966402,-37500.0,616.67404605949866,-201.89079156245464,-1356.2842089301407,229.31217077842248,1228.631769870892,-799.015313404484,1510.386525285908,-98.259241458998531,-1260.3580105793208,1260.3580105793208,98.259241458998531,2812.8783475540781,0.0
407154.6038362722,4765833.5216966402,-37500.0,510.97162742404277,-380.42230154981593,-1390.9820789126538,331.23939650505241,1232.4884670646591,-788.18584121556489,1521.3235941086598,-299.77197402299953,-1239.6008322456257,1239.6008322456257,299.77197402299953,2855.6446079753196,0.0
412154.6038362722,4765833.5216966402,-37500.0,384.62160571401301,-537.02590745625855,-1378.7030727689414,420.25732683358615,1207.8260458857123,-763.30620596822098,1513.3636222283064,-481.35106535990155,-1192.744262477866,1192.744262477866,481.35106535990155,2859.1000599128565,0.0
417154.6038362722,4765833.5216966402,-37500.0,246.75114415883655,-665.70273138939172,-1328.2697604242194,493.18141111820336,1160.0508842279644,-727.2931739602144,1488.66705266944,-636.39367637967734,-1125.6678906175073,1125.6678906175073,636.39367637967734,2826.9473421087196,0.0
422154.6038362722,4765833.5216966402,-37500.0,106.02530821971826,-763.84648637320731,-1249.3827662699639,548.62604423255618,1095.0205559157032,-683.2027818335547,1449.8579524166055,-761.44058420499869,-1044.4612232437473,1044.4612232437473,761.44058420499869,2764.2090962420648,0.0
427154.6038362722,4765833.5216966402,-37500.0,-30.185841377708908,-831.67309628328906,-1151.445532839469,586.71201013596624,1018.4024734295833,-633.93670476197894,1399.7349774458594,-855.77286449315261,-954.81293254107482,954.81293254107482,855.77286449315261,2676.5539511387205,0.0
432154.6038362722,4765833.5216966402,-37500.0,-156.2407805685713,-871.46036152787178,-1042.7826723519286,608.67435476021387,935.24144147567085,-582.04773367579241,1341.0484557198924,-920.79008118986064,-861.62431867007865,861.62431867007865,920.79008118986064,2569.7441395187025,0.0
307154.6038362722,4770833.5216966402,-37500.0,332.52556863521608,-98.380754357963241,441.09649214562756,96.069015469712866,-142.95534272403066,19.43791379482688,295.29378795143424,187.27057371258365,0.93156042136695305,-0.93156042136695305,-187.27057371258365,511.69963513296443,0.0
312154.6038362722,4770833.5216966402,-37500.0,320.22376142982336,-91.35139367697667,507.24395016349251,86.800503592793675,-163.18763622408648,18.289453530763613,321.52172198667427,210.52820443273336,12.62539548439446,-12.62539548439446,-210.52820443273336,556.89991563133992,0.0
317154.6038362722,4770833.5216966402,-37500.0,302.3066583475071,-72.961951318316551,573.63826225390039,71.174893163817046,-180.67277745467121,14.456658038643891,348.03756907216103,241.65612585150993,22.112338678293753,-22.112338678293753,-241.65612585150993,603.05651230644594,0.0
322154.6038362722,4770833.5216966402,-37500.0,280.19173871397982,-40.841907353438991,636.01165936033931,48.339658928542931,-193.00734287838563,6.9062823770385142,374.27100717781622,282.03847045291144,27.215823678018339,-27.215823678018339,-282.03847045291144,649.84846021314434,0.0
327154.6038362722,4770833.5216966402,-37500.0,256.2970379932346,6.7677803667609746,688.7479092267821,17.858881618482069,-197.25423536609824,-5.531589678496605,399.84498443711681,332.56891912889171,25.245448677865255,-25.245448677865255,-332.56891912889171,697.5800542378629,0.0
332154.6038362722,4770833.5216966402,-37500.0,234.04686351950275,70.480519807546656,725.01784153564256,-20.044754004218106,-190.07107379006456,-24.08681007496892,424.94173546989134,393.24787695281941,13.127221546621485,-13.127221546621485,-393.24787695281941,747.603212715474,0.0
337154.6038362722,4770833.5216966402,-37500.0,217.67068174015537,149.18721653809263,737.19541000412437,-64.249403259216578,-167.96906280244309,-49.924712854613915,451.13042036684817,462.7400806035464,-12.334196171616185,12.334196171616185,-462.7400806035464,802.70225832276049,0.0
342154.6038362722,4770833.5216966402,-37500.0,211.7399461066407,239.55472016293876,717.60558720337667,-112.55087974881867,-127.71400682135706,-83.97468476585972,482.96690221096185,537.9811432454859,-54.051880034465626,54.051880034465626,-537.9811432454859,867.19902972218563,0.0
347154.6038362722,4770833.5216966402,-37500.0,220.44050825647224,335.76074818994607,659.58701662074009,-161.60733215120305,-66.848084587844525,-126.72530485876725,528.198757391453,613.95851545350695,-114.13739130864803,114.13739130864803,-613.95851545350695,946.46343880098595,0.0
352154.6038362722,4770833.5216966402,-37500.0,246.66340788910315,429.63518768627307,558.75118818396265,-207.0804960001262,15.733922870244514,-178.01586981317843,591.24731948159672,683.80547772089506,-193.33818481151047,193.33818481151047,-683.80547772089506,1045.6755388679253,0.0
357154.6038362722,4770833.5216966402,-37500.0,291.09268381224416,511.32560812869576,414.2073220019339,-244.01399950402271,119.26581658801929,-236.86883089397813,669.4745702895982,739.31192595332436,-290.5485756429527,290.5485756429527,-739.31192595332436,1168.1453246382546,0.0
362154.6038362722,4770833.5216966402,-37500.0,351.53871078550941,570.48634022642375,229.44724117304713,-267.43419999457205,240.78649164186419,-301.41401978489563,758.19440066924324,771.86759909496254,-402.53369224353378,402.53369224353378,-771.86759909496254,1313.9235851659289,0.0
367154.6038362722,4770833.5216966402,-37500.0,422.76386772600449,597.82719091569572,12.590933675814529,-273.08782503069364,375.13808834243127,-368.94769767635051,852.9603508606865,773.72309994652176,-523.98777187064536,523.98777187064536,-773.72309994652176,1479.3306155240339,0.0
372154.6038362722,4770833.5216966402,-37500.0,496.95006323354937,586.70679493030934,-224.18890234928193,-258.16837895454853,515.35186022177606,-436.1434123947331,949.39663390411351,739.32535401290056,-647.98073133840376,647.98073133840376,-739.32535401290056,1657.4693731606799,0.0
377154.6038362722,4770833.5216966402,-37500.0,564.78187972634805,534.38641261122382,-466.03891862699641,-221.85886400831953,653.39224065166059,-499.39431663223957,1043.0925916116173,666.41378488393093,-766.74695448615785,766.74695448615785,-666.41378488393093,1839.3537941065424,0.0
382154.6038362722,4770833.5216966402,-37500.0,616.92558540256698,442.61602707030164,-697.34146762723378,-165.54932425495841,781.12794635295552,-555.22849123614196,1129.7951299189294,556.59185633557047,-872.66947958232083,872.66947958232083,-556.59185633557047,2015.2292093761032,0.0
387154.6038362722,4770833.5216966402,-37500.0,645.55287628851681,317.39882806310925,-903.76275914663665,-92.669278981832633,891.33144063796078,-600.71566677393457,1205.7239544599654,415.21834250752107,-959.25232505449844,959.25232505449844,-415.21834250752107,2175.7998357135166,0.0
392154.6038362722,4770833.5216966402,-37500.0,645.54544204457829,168.00735816615037,-1073.9919913644428,-8.1774087013399477,978.50161329735477,-633.78448225745967,1267.8734576903548,250.64694592651085,-1021.8779807443784,1021.8779807443784,-250.64694592651085,2313.2043996373404,0.0
397154.6038362722,4770833.5216966402,-37500.0,615.12498256628965,5.5179576248219808,-1200.8404662585426,82.162958676168273,1039.3598803099624,-653.39460675735393,1314.2204578814772,73.012411568028085,-1058.2129903890461,1058.2129903890461,-73.012411568028085,2421.6595953503311,0.0
402154.6038362722,4770833.5216966402,-37500.0,555.83203396234535,-158.77827642276046,-1281.5656123578874,172.55538855812819,1072.963718029283,-659.54647452824861,1343.8019930399507,-107.14523563491764,-1068.2243145909638,1068.2243145909638,107.14523563491764,2497.7494968249903,0.0
407154.6038362722,4770833.5216966402,-37500.0,471.95294980292562,-314.75675543337832,-1317.4882389727093,257.83545917621177,1080.4763302303695,-653.14998865696077,1356.6645077789744,-280.13046680609546,-1053.8640623269785,1053.8640623269785,280.13046680609546,2540.3918926787915,0.0
412154.6038362722,4770833.5216966402,-37500.0,369.60774050760347,-454.41516229356051,-1313.1141659176678,333.92937123209771,1064.6978871051047,-635.7990028535952,1353.7120547320108,-438.01053661302967,-1018.5413732099282,1018.5413732099282,438.01053661302967,2550.5541453844007,0.0
417154.6038362722,4770833.5216966402,-37500.0,255.74070974894678,-572.33031537645036,-1275.0257113757361,398.07254524258326,1029.4878893972377,-609.50721712425218,1336.4946807057456,-575.11419151326265,-966.5167173022561,966.5167173022561,575.11419151326265,2530.8130127228255,0.0
422154.6038362722,4770833.5216966402,-37500.0,137.21466271986586,-665.6650383909689,-1210.7820516849774,448.81143207605021,979.1953228655226,-576.45412288964496,1306.9787810949274,-688.13009268469807,-902.33331778543231,902.33331778543231,688.13009268469807,2484.8522038713795,0.0
427154.6038362722,4770833.5216966402,-37500.0,20.131534725533108,-733.8482769628497,-1127.9947495655019,485.84670887880526,918.17821388605785,-538.77459974140493,1267.3335270806203,-775.89611386595948,-830.36044899465401,830.36044899465401,775.89611386595948,2416.9753536488179,0.0
312154.6038362722,4775833.5216966402,-37500.0,262.60387388859607,-59.643063610103752,470.17099064833747,58.976800172469986,-141.0068085482296,9.7445135342983171,282.99718968900447,204.84150432259432,10.192046400959185,-10.192046400959185,-204.84150432259432,490.16597863398175,0.0
317154.6038362722,4775833.5216966402,-37500.0,245.69726522775167,-36.480984541084489,521.23369869031774,42.413475592603852,-151.64869953360741,4.6697034178930492,304.58842612759292,235.44659264310275,14.982343007652432,-14.982343007652432,-235.44659264310275,528.02250530639299,0.0
322154.6038362722,4775833.5216966402,-37500.0,226.61345918067059,-1.5755892055747971,566.12531822132416,20.090964703467794,-156.9221957401071,-3.6761172198755063,325.98291866491007,273.62965138951029,15.167125080473994,-15.167125080473994,-273.62965138951029,567.08001922946369,0.0
327154.6038362722,4775833.5216966402,-37500.0,207.60992137517695,45.926678229846907,600.01682491512713,-8.050403397431479,-154.48981105722598,-16.146971512144052,347.15792002178949,319.65524423729545,8.6192378935503484,-8.6192378935503484,-319.65524423729545,608.25782856433023,0.0
332154.6038362722,4775833.5216966402,-37500.0,191.60703707977379,105.82524611784412,617.34926770264144,-41.517996362377325,-141.81869781047459,-33.595914114431814,368.84676899496969,372.97303150136145,-6.9621814006013381,6.9621814006013381,-372.97303150136145,653.41949183209306,0.0
337154.6038362722,4775833.5216966402,-37500.0,181.96271643518676,176.48428763976312,612.23884380721995,-79.120817357449511,-116.40212575325567,-56.779227686832073,393.56858740928027,431.92752365418016,-33.828047089148498,33.828047089148498,-431.92752365418016,705.49911979834144,0.0
342154.6038362722,4775833.5216966402,-37500.0,182.06978576854834,254.54902515677898,579.10158065504766,-118.88051568930621,-76.068002457758382,-86.23465383949133,426.7976541941328,493.53785786873493,-73.871228947185273,73.871228947185273,-493.53785786873493,768.30285978120787,0.0
347154.6038362722,4775833.5216966402,-37500.0,194.79606244482099,334.8660459846443,513.46034358137854,-158.04316334340697,-19.349909644965148,-122.14571064487249,474.11370056270277,553.43146521162612,-128.26211581203773,128.26211581203773,-553.43146521162612,845.84810787400727,0.0
352154.6038362722,4775833.5216966402,-37500.0,221.8423580159116,410.70635705403629,412.83113033186953,-193.22884652236996,54.131222736324666,-164.2133927763027,535.46467446913016,606.01293196323786,-197.0836351993112,197.0836351993112,-606.01293196323786,941.32350026093366,0.0
357154.6038362722,4775833.5216966402,-37500.0,263.14792891189575,474.34376530786085,277.52259830458314,-220.73364346510397,143.35021819335782,-211.56344414308316,607.36272000377767,644.91629930493161,-279.04366242151195,279.04366242151195,-644.91629930493161,1056.032783663562,0.0
362154.6038362722,4775833.5216966402,-37500.0,316.5041555198859,517.95994225400921,111.15045434285042,-236.96302123600006,245.71048290890732,-262.71864250488471,686.32577021133602,663.72733704823554,-371.34900315206625,371.34900315206625,-663.72733704823554,1188.758384547272,0.0
367154.6038362722,4775833.5216966402,-37500.0,377.52196060915571,534.74725282761858,-79.311042000483951,-238.93381262305576,357.09716941764839,-315.65842075940111,769.11098299318564,656.88144402289367,-469.806350688051,469.806350688051,-656.88144402289367,1335.7450719725739,0.0
372154.6038362722,4775833.5216966402,-37500.0,440.0285271328575,519.99669891673011,-284.03367597529297,-224.74941182897766,472.18087000003123,-367.97160795948491,852.43153193218575,620.57086487503091,-569.1705683905592,569.1705683905592,-620.57086487503091,1491.2004732227292,0.0
377154.6038362722,4775833.5216966402,-37500.0,496.85896649886712,471.92789366877827,-491.35790474430945,-193.94353654703164,584.94396777222937,-417.08650474450872,932.94310245231952,553.46248478553389,-663.70066343930353,663.70066343930353,-553.46248478553389,1648.0779738256761,0.0
382154.6038362722,4775833.5216966402,-37500.0,540.89353611617605,392.06055442490037,-689.15976989875355,-147.60974443414429,689.34355563567999,-460.54174093778698,1007.4126030646318,457.05227197092904,-747.82694454508578,747.82694454508578,-457.05227197092904,1798.9355003776952,0.0
387154.6038362722,4775833.5216966402,-37500.0,566.11613746821797,285.03684101131472,-866.2943371484165,-88.283226358736073,779.98749583591041,-496.24925640121438,1072.9503016623169,335.56575441294257,-816.80098189420232,816.80098189420232,-335.56575441294257,1936.7338348841788,0.0
392154.6038362722,4775833.5216966402,-37500.0,568.46354362972784,157.94173800381319,-1013.8329311060235,-19.601430878019762,852.6969335529061,-522.70180046174448,1127.2264305876065,195.42555882828918,-867.2042780825775,867.2042780825775,-195.42555882828918,2055.485945550995,0.0
397154.6038362722,4775833.5216966402,-37500.0,546.29868093515336,19.287981103982052,-1125.8768663894286,54.179269097017198,904.86088011750348,-539.09121533907705,1168.6239018541914,44.41029221237153,-897.23078810024458,897.23078810024458,-44.41029221237153,2150.7026153067864,0.0
402154.6038362722,4775833.5216966402,-37500.0,500.44898409993908,-122.10687800686651,-1199.8490287434568,128.70837832453634,935.54309325302927,-545.32572783436922,1196.3044520036128,-109.31063236911496,-906.71717993520883,906.71717993520883,109.31063236911496,2219.6125479325428,0.0
407154.6038362722,4775833.5216966402,-37500.0,433.85948794941254,-258.13261543033263,-1236.2917619281195,200.01014958087507,945.35811130065838,-541.95630700844299,1210.1867657557596,-258.07904110579307,-896.95130495681042,896.95130495681042,258.07904110579307,2261.1671965195892,0.0
412154.6038362722,4775833.5216966402,-37500.0,350.9878999974257,-382.13213014293086,-1238.2958208766836,264.82775713994039,936.17672191477368,-530.03818711393581,1210.8525266203076,-395.44437905751317,-870.32918906820794,870.32918906820794,395.44437905751317,2275.8703774991268,0.0
417154.6038362722,4775833.5216966402,-37500.0,257.09682734966981,-489.31317251271128,-1210.7301153113895,320.81298540493896,910.74048459734672,-510.96055545831422,1199.4055219457343,-516.58243124305488,-829.94487712884336,829.94487712884336,516.58243124305488,2265.4894625538968,0.0
422154.6038362722,4775833.5216966402,-37500.0,157.58222024913209,-576.83945533521705,-1159.4364172751109,366.56777715132347,872.26215450651534,-486.27526326173717,1177.3110275276447,-618.43402766376448,-779.18920767921463,779.18920767921463,618.43402766376448,2232.708919888621,0.0
317154.6038362722,4780833.5216966402,-37500.0,201.29830880743475,-5.8420301243094421,468.68880563268254,20.661864601693306,-125.63615077349861,-2.4740413445125928,267.91368449964483,228.07132444218502,7.6700223530220484,-7.6700223530220484,-228.07132444218502,465.02052800193479,0.0
322154.6038362722,4780833.5216966402,-37500.0,185.48719495109555,29.738445923183878,499.26754512699284,-0.30744510773230072,-125.8399023390444,-10.951482276371982,285.77084012655064,263.29883635525039,4.3918596173179481,-4.3918596173179481,-263.29883635525039,498.84397472884513,0.0
327154.6038362722,4780833.5216966402,-37500.0,170.95100531705165,75.351411090758376,518.4191282304638,-25.626390236649861,-118.98298310220831,-22.849613364736108,303.89146280177471,304.40415866324145,-5.0310300983614127,5.0310300983614127,-304.40415866324145,535.82348336809775,0.0
332154.6038362722,4780833.5216966402,-37500.0,160.10226940183802,130.30805159557889,521.70852156379783,-54.683200134017582,-103.17540224358579,-38.750674019196296,323.58494108372503,350.53147153211637,-22.287219367910467,22.287219367910467,-350.53147153211637,577.97478773616001,0.0
337154.6038362722,4780833.5216966402,-37500.0,155.55086304134602,192.76025720525143,504.66850395171411,-86.3357688267523,-76.642045621238211,-59.134076218783051,348.27239461804533,399.93998906817745,-48.929649208197304,48.929649208197304,-399.93998906817745,627.99379340458074,0.0
342154.6038362722,4780833.5216966402,-37500.0,159.77309534049658,259.55604342553465,463.30075821292746,-118.87732247738165,-37.953538947697361,-84.291607957041265,383.16108402806128,449.89417590187412,-86.147530027113305,86.147530027113305,-449.89417590187412,688.91356228220798,0.0
347154.6038362722,4780833.5216966402,-37500.0,174.69161527453815,326.25974272470154,394.67622322054518,-150.07792651962131,13.713769866731694,-114.23863473681433,430.42550582173692,496.67968773486507,-134.51515992329522,134.51515992329522,-496.67968773486507,763.48198314223202,0.0
352154.6038362722,4780833.5216966402,-37500.0,201.2275773592271,387.3921415462321,297.55222830811238,-177.32079557461859,78.327101707001617,-148.63598731700884,487.89008178527695,535.79091614193692,-193.75843957719223,193.75843957719223,-535.79091614193692,853.42536300838253,0.0
357154.6038362722,4780833.5216966402,-37500.0,238.9161821162289,436.9092111358346,172.88992718771962,-197.83589176066951,154.80580701031343,-186.73994203830671,552.67841572120267,562.30888980406689,-262.58986949984916,262.58986949984916,-562.30888980406689,958.86325030705507,0.0
362154.6038362722,4780833.5216966402,-37500.0,285.68882037381405,468.88371727709045,24.144274346985455,-209.01071661854996,240.94109338152995,-227.39744455274271,622.28898413416846,571.44657584655567,-338.66241365359258,338.66241365359258,-571.44657584655567,1078.0715384363214,0.0
367154.6038362722,4780833.5216966402,-37500.0,337.90760667791284,478.29273422002836,-142.77914189208585,-208.73373415165534,333.46649354469616,-269.09795840203066,694.30007410985252,559.18868153962626,-418.67697896262604,418.67697896262604,-559.18868153962626,1207.6161707841297,0.0
372154.6038362722,4780833.5216966402,-37500.0,390.68905045508785,461.76757872285589,-319.94579152844256,-195.708825151865,428.29150409125134,-310.08290284745812,766.19968941251523,522.9130349421722,-498.64844294122037,498.64844294122037,-522.9130349421722,1342.7526962589548,0.0
377154.6038362722,4780833.5216966402,-37500.0,438.48455214777931,418.15038584461212,-498.15574194049634,-169.67631587348575,520.87580383485908,-348.50145584131889,835.42007130409092,461.86596485149164,-574.29938818801804,574.29938818801804,-461.86596485149164,1477.9625883042993,0.0
382154.6038362722,4780833.5216966402,-37500.0,475.81565466777886,348.73305913500593,-667.92772892107268,-131.49133232167111,606.68698707748445,-382.58938147455763,899.47546186115596,377.38452788082952,-641.51753251745333,641.51753251745333,-377.38452788082952,1607.5243403899935,0.0
387154.6038362722,4780833.5216966402,-37500.0,498.01889563572621,257.12399283639553,-820.52836358603042,-83.040442049922191,681.66389890569258,-410.84170157882147,956.13256785031103,272.81173170006804,-696.79621205589297,696.79621205589297,-272.81173170006804,1726.0478590804955,0.0
392154.6038362722,4780833.5216966402,-37500.0,501.85156754226625,148.7733773770162,-948.86219418807354,-27.013118584077297,742.60626741975511,-432.15035224711369,1003.5672979947162,153.11978423750344,-737.58076981915315,737.58076981915315,-153.11978423750344,1828.9183826873573,0.0
397154.6038362722,4780833.5216966402,-37500.0,485.84828894374709,30.262750180549265,-1048.0778931620878,33.424425577732954,787.43008101486498,-445.88634055032185,1040.4779659393596,24.320864078709803,-762.46740656328257,762.46740656328257,-24.320864078709803,1912.6119013733305,0.0
402154.6038362722,4780833.5216966402,-37500.0,450.38385165699674,-91.494979422906013,-1115.8192416783902,94.989618806927254,815.26049841025986,-451.91807760045668,1066.1398940616457,-107.21661210504351,-771.23605260526097,771.23605260526097,107.21661210504351,1974.8632727396675,0.0
407154.6038362722,4780833.5216966402,-37500.0,397.46619347916123,-209.99925174897319,-1152.1294592593777,154.61553363215427,826.36899064656188,-450.57068098483978,1080.3994852782432,-235.42268870229253,-764.73381257246592,764.73381257246592,235.42268870229253,2014.6893175967748,0.0
412154.6038362722,4780833.5216966402,-37500.0,330.33546317363226,-319.73918978848548,-1159.0825257268357,209.70756243161637,821.98884035253718,-442.54076830685625,1083.6165499570345,-355.05308178986706,-744.65067625647384,744.65067625647384,355.05308178986706,2032.2883769687562,0.0
327154.6038362722,4785833.5216966402,-37500.0,143.23131332501694,96.645670217153352,444.7981158043724,-37.042985817483881,-89.919732838759273,-26.707150356267974,268.29117975142975,287.64865802059057,-15.83682175618415,15.83682175618415,-287.64865802059057,476.93164822432351,0.0
332154.6038362722,4785833.5216966402,-37500.0,136.49359019975822,146.21085603683255,437.94115385906707,-61.983079466277495,-72.607790938047089,-40.899682688462676,287.09844946200514,327.08040197837499,-33.555031618028977,33.555031618028977,-327.08040197837499,516.99903329501615,0.0
337154.6038362722,4785833.5216966402,-37500.0,135.68401517461695,200.80282779574782,413.01500128124849,-88.444958940312119,-46.359798590951293,-58.581079316362832,312.61053158787877,368.09241337667709,-58.991767526540087,58.991767526540087,-368.09241337667709,565.16164504334063,0.0
342154.6038362722,4785833.5216966402,-37500.0,142.58290833775689,257.57835869905716,367.20305193788329,-114.99199180151248,-10.258325968377006,-79.892214282771562,348.31403646911519,408.26225841070919,-92.859855894831128,92.859855894831128,-408.26225841070919,623.65598689277226,0.0
347154.6038362722,4785833.5216966402,-37500.0,158.44548948981273,312.78738692939913,298.65818491728544,-139.83794810319577,36.111342648464841,-104.76209444702177,393.63752436792458,444.48855427327658,-135.36631821474248,135.36631821474248,-444.48855427327658,694.20945517960558,0.0
352154.6038362722,4785833.5216966402,-37500.0,183.69207721033925,361.9989301965536,206.92910486317393,-160.96259893094316,92.497590328547489,-132.86073654986998,446.19810539091685,473.16956976135407,-186.06496221634643,186.06496221634643,-473.16956976135407,777.57659021121219,0.0
357154.6038362722,4785833.5216966402,-37500.0,217.66145914961515,400.48633368327813,93.292195238375783,-176.28920155944826,157.86836327247869,-163.57329947892623,503.91863851116102,490.50873702057777,-243.76505138824771,243.76505138824771,-490.50873702057777,873.24829642662019,0.0
362154.6038362722,4785833.5216966402,-37500.0,258.49341359517837,423.73792963553973,-39.093255374946587,-183.9070238318948,230.37830079434943,-196.00534248876303,564.97038707293552,492.92320247458042,-306.52595571001473,306.52595571001473,-492.92320247458042,979.39958018509037,0.0
367154.6038362722,4785833.5216966402,-37500.0,303.19089651759583,428.02186106812957,-185.26872474093938,-182.30786722774886,307.43908573999749,-229.02491761953638,627.5029157574661,477.50112319109172,-371.75576099364747,371.75576099364747,-477.50112319109172,1093.0478167740232,0.0
372154.6038362722,4785833.5216966402,-37500.0,347.87840892770271,410.90778099992571,-338.82014015396607,-170.596443368123,385.8970403465928,-261.34068467078504,689.5692268887201,442.43059511372184,-436.41227794501407,436.41227794501407,-442.43059511372184,1210.3501823200129,0.0
377154.6038362722,4785833.5216966402,-37500.0,388.22962697045006,371.64495179544832,-492.44929634939376,-148.63463821585992,462.30079605385691,-291.60825678643806,749.1763258715896,387.31829066796325,-497.28355512893455,497.28355512893455,-387.31829066796325,1326.9735394444294,0.0
382154.6038362722,4785833.5216966402,-37500.0,419.99414003970367,311.3179637467187,-638.6890406888424,-117.0896356201021,533.22080223134662,-318.5497682609917,804.39354618012817,313.33005007031142,-551.30501658565197,551.30501658565197,-313.33005007031142,1438.4828853545607,0.0
387154.6038362722,4785833.5216966402,-37500.0,439.52785818126438,232.74693033845136,-770.6451941081217,-77.374909537593567,595.57090872877689,-341.06876569451958,853.4779214614332,223.12123627611084,-595.86187637590808,595.86187637590808,-223.12123627611084,1540.7079734222721,0.0
392154.6038362722,4785833.5216966402,-37500.0,444.22984846344434,140.15244432486156,-882.64357722146883,-31.494600953907646,646.88149481755306,-358.34291265503043,894.98860654873079,120.56757528462734,-629.02816200064308,629.02816200064308,-120.56757528462734,1630.0535308394306,0.0
397154.6038362722,4785833.5216966402,-37500.0,432.81200622199549,38.6532017402902,-970.68448506400534,18.179107010325108,685.48471629250832,-369.88147135864619,927.87136013324925,10.347877579563828,-649.70793615971866,649.70793615971866,-10.347877579563828,1703.7262923548772,0.0
402154.6038362722,4785833.5216966402,-37500.0,405.36819432321875,-66.308331575521265,-1032.6530773436643,69.155795374983711,710.59214638848664,-375.54211746542978,951.50300358277798,-102.54470823837528,-657.66610145864126,657.66610145864126,102.54470823837528,1759.8642008251668,0.0
342154.6038362722,4790833.5216966402,-37500.0,128.96360919425504,250.87266902369953,287.91310414074877,-108.86878488390762,9.5051693255792848,-74.198156596681088,319.42272622980954,369.3384443914922,-95.562739968035515,95.562739968035515,-369.3384443914922,568.74570325865966,0.0
347154.6038362722,4790833.5216966402,-37500.0,144.94347061300397,296.4702008067926,221.39821224209061,-128.66718365056138,50.709461284255731,-94.810896791408382,361.64959516434243,397.13053355324359,-132.62654249074947,132.62654249074947,-397.13053355324359,634.60354801843766,0.0
352154.6038362722,4790833.5216966402,-37500.0,168.48575355216647,336.05672154158896,136.02197744767125,-145.0812351825881,99.685385643269214,-117.77633300428302,409.04745328625404,417.78331384018441,-175.86232692652797,175.86232692652797,-417.78331384018441,710.96154164071515,0.0
357154.6038362722,4790833.5216966402,-37500.0,198.85651393135782,365.93151476374072,33.17278543319258,-156.54829815099643,155.4971019236414,-142.5947319223059,460.14288732786838,428.3651504645141,-224.21334313530969,224.21334313530969,-428.3651504645141,797.02252869315146,0.0
362154.6038362722,4790833.5216966402,-37500.0,234.42301853840613,382.64468988242749,-84.33551482733823,-161.66155090615285,216.61939704074925,-168.57404755790415,513.55948812464135,426.1850370137372,-276.09016084424013,276.09016084424013,-426.1850370137372,891.05612666591071,0.0
367154.6038362722,4790833.5216966402,-37500.0,272.72326390872519,383.40435524032091,-212.35962301954584,-159.33402363964069,281.00070144012705,-194.86285555200132,567.85681800103202,409.12068580695359,-329.45509220035001,329.45509220035001,-409.12068580695359,990.53876064305064,0.0
372154.6038362722,4790833.5216966402,-37500.0,310.66989331315847,366.44313438609225,-345.70250676720559,-148.94100980153817,346.19737582828719,-220.50615041747164,621.5084225770629,375.91739985388892,-381.97342705756307,381.97342705756307,-375.91739985388892,1092.3704851566199,0.0
377154.6038362722,4790833.5216966402,-37500.0,344.86684083727528,331.27792201972346,-478.54302311566516,-130.41546166689218,409.56638744119545,-244.51851909944907,672.95251778061538,326.40370541610753,-431.21453190111822,431.21453190111822,-326.40370541610753,1193.1331977045843,0.0
382154.6038362722,4790833.5216966402,-37500.0,371.99051754550163,278.81276470774924,-604.96015371586952,-104.27801157776342,468.49070185819301,-265.96502671370285,720.6756639108014,261.58117530975727,-474.87411827189618,474.87411827189618,-261.58117530975727,1289.3606132113225,0.0
387154.6038362722,4790833.5216966402,-37500.0,389.17184494860663,211.26403464943411,-719.47359255333538,-71.595007366278168,520.60521641492164,-284.03876555827367,763.30546101543996,183.56835235611538,-510.98453889790107,510.98453889790107,-183.56835235611538,1377.7952484677307,0.0
392154.6038362722,4790833.5216966402,-37500.0,394.31453846360756,131.9215550204726,-817.51859420676874,-33.871385522572588,563.99029403065504,-298.12398704483667,799.69470309695657,95.406623483910948,-538.08163540546377,538.08163540546377,-95.406623483910948,1455.6090007582804,0.0
352154.6038362722,4580833.5216966402,-42500.0,371.14245977522108,137.78350417834056,-727.33622612113402,66.668540412908911,-405.91111502989958,-166.68935076707987,673.37312122941194,57.022287674144415,46.834884771555828,-46.834884771555828,-57.022287674144415,1212.3119087717603,0.0
357154.6038362722,4580833.5216966402,-42500.0,364.52972991161329,208.79013764962878,-642.22465324354278,96.927590592370734,-360.36919920546904,-147.81650486661488,641.10978786957082,125.23046841665547,2.1154598497022903,-2.1154598497022903,-125.23046841665547,1144.0318842317624,0.0
362154.6038362722,4580833.5216966402,-42500.0,347.04937687144894,269.41739420359704,-541.83592806165439,121.84455726552075,-307.95981342992843,-126.56730455006893,603.85471103499208,186.30106427578511,-39.648548777976686,39.648548777976686,-186.30106427578511,1067.8259049711367,0.0
367154.6038362722,4580833.5216966402,-42500.0,320.55035691929027,316.63596972376109,-429.9538358258003,140.18691287592375,-250.54267062139078,-103.66900641660209,562.62769891273842,237.87392762904767,-76.815331102856021,76.815331102856021,-237.87392762904767,986.3504517816632,0.0
372154.6038362722,4580833.5216966402,-42500.0,287.5964468485318,348.31202673463088,-311.25347423375774,151.13748813163542,-190.34507987174345,-79.963148303351105,518.63551194188949,278.23190695440081,-108.03644729202887,108.03644729202887,-278.23190695440081,902.65908435746553,0.0
377154.6038362722,4580833.5216966402,-42500.0,251.2001484108396,363.44353337872866,-190.91785004843862,154.38490850180293,-129.7894463562919,-56.342841031874158,473.19601858523538,306.46368579943288,-132.3792284406797,132.3792284406797,-306.46368579943288,819.99654323941991,0.0
382154.6038362722,4580833.5216966402,-42500.0,214.48963894281084,362.26069148219955,-74.177568992544266,150.15641401026079,-71.291021898967855,-33.681758047915245,427.6474820551507,322.52878477706133,-149.40146017443527,149.40146017443527,-322.52878477706133,741.52906629324832,0.0
387154.6038362722,4580833.5216966402,-42500.0,180.36430929544474,346.17257469031239,34.156804238450377,139.18703721737117,-17.055207143332883,-12.764808166616428,383.25786386111133,327.21489341918863,-159.16714329217177,159.16714329217177,-327.21489341918863,670.02735227152777,0.0
392154.6038362722,4580833.5216966402,-42500.0,151.19523880641955,317.56959113913683,130.10082020753055,122.62976059019482,31.097212465196659,5.7702508927772724,341.15178822801818,321.99705688420909,-162.20256984577532,162.20256984577532,-321.99705688420909,607.52972445905664,0.0
397154.6038362722,4580833.5216966402,-42500.0,128.61688267848146,279.51833875315702,210.78335525592837,101.92198612937574,71.853454338154705,21.472874726050581,302.30509819273539,308.82603741620886,-159.40266350854114,159.40266350854114,-308.82603741620886,555.04896037720107,0.0
402154.6038362722,4580833.5216966402,-42500.0,113.43587913955186,235.40355705017228,274.58299156423209,78.630734858666628,104.46740759225833,34.097302389812157,268.02080231304535,289.88483262789583,-151.90599602327444,151.90599602327444,-289.88483262789583,512.42695411794568,0.0
342154.6038362722,4585833.5216966402,-42500.0,386.69212777277681,-43.807733132268361,-930.32515616420653,-16.048410747801857,-543.0793569104402,-230.95683283652912,808.01936068003681,-107.36939253625081,164.79766591462834,-164.79766591462834,107.36939253625081,1481.1839787204906,0.0
347154.6038362722,4585833.5216966402,-42500.0,409.75871092819534,49.990340802215663,-880.81612180109084,27.639323105318173,-511.93718234100123,-216.05539835395783,786.36183732448058,-22.426509278119873,112.45223424637834,-112.45223424637834,22.426509278119873,1430.2428793389793,0.0
352154.6038362722,4585833.5216966402,-42500.0,418.47245541723407,141.23114054995676,-808.00986246271304,69.088808266126875,-469.41564260145975,-196.84508568767509,757.04404053855274,61.407670249800248,58.929364180679642,-58.929364180679642,-61.407670249800248,1365.0678006750704,0.0
357154.6038362722,4585833.5216966402,-42500.0,412.65955956080319,225.12109961465501,-713.27046838082163,106.14244055089857,-416.41233974498073,-173.77879458776715,720.62341055764205,140.47426259528802,6.4536062634755638,-6.4536062634755638,-140.47426259528802,1287.390659502265,0.0
362154.6038362722,4585833.5216966402,-42500.0,393.35422901977341,297.03978069343799,-599.6161472516726,136.78274688653562,-354.57653630266901,-147.57643974657981,678.02429032232624,211.25284260821695,-42.695834394766692,42.695834394766692,-211.25284260821695,1199.7783297896622,0.0
367154.6038362722,4585833.5216966402,-42500.0,362.77190851353879,353.03956300779919,-471.60878916054787,159.34555997784432,-286.24072757764714,-119.19071059526178,630.50354697256353,270.71982133183849,-86.397291681967062,86.397291681967062,-270.71982133183849,1105.5423521770626,0.0
372154.6038362722,4585833.5216966402,-42500.0,324.10805768727806,390.30688863445556,-335.02841324135665,172.71087495222739,-214.26003022286318,-89.741940644655813,579.5780753716125,316.67176969628451,-122.89727336193036,122.89727336193036,-316.67176969628451,1008.5517852908652,0.0
377154.6038362722,4585833.5216966402,-42500.0,281.18208099991512,407.50178538651437,-196.36295859798773,176.43776660471636,-141.7748476865257,-60.428835071832559,526.92123478572535,347.95619950796907,-150.98512182937105,150.98512182937105,-347.95619950796907,912.94960344148603,0.0
382154.6038362722,4585833.5216966402,-42500.0,237.98134771796816,404.90867052713719,-62.184027900603219,170.81706739787933,-71.927601495473297,-32.425875825967111,474.24026015688582,364.5657806040752,-170.10128047754,170.10128047754,-364.5657806040752,822.77680992964804,0.0
387154.6038362722,4585833.5216966402,-42500.0,198.18420569419652,384.36568071973892,61.493511262056572,156.82961811300166,-7.5757375450231752,-6.7821656870344427,423.15216230512817,367.57751743939775,-180.36026974337256,180.36026974337256,-367.57751743939775,741.51753586688733,0.0
392154.6038362722,4585833.5216966402,-42500.0,164.74838743142476,348.98766320621928,169.76309574191629,136.01744859746142,48.95429010255306,15.663331903933845,375.09431781757183,358.95220891991642,-182.4872256733978,182.4872256733978,-358.95220891991642,671.61603084324474,0.0
397154.6038362722,4585833.5216966402,-42500.0,139.63366509913149,302.73852079403537,259.20533464417389,110.29163686925959,96.036227555341227,34.338402627451522,331.39583512852738,341.23637965738038,-177.68345360907807,177.68345360907807,-341.23637965738038,614.07511690546335,0.0
402154.6038362722,4585833.5216966402,-42500.0,123.69464635483358,249.9349860311537,328.0494552285561,81.711421506736116,132.81713949182299,48.95981588220419,294.89056564679186,317.22491659766604,-167.44907572207603,167.44907572207603,-317.22491659766604,568.3067335185616,0.0
407154.6038362722,4585833.5216966402,-42500.0,116.74146504466241,194.7692462092574,376.11784935827825,52.271488140722823,159.1939671075059,59.521495251134013,279.0408042644716,289.64375613164793,-153.39566534289034,153.39566534289034,-289.64375613164793,532.3739318117839,0.0
412154.6038362722,4585833.5216966402,-42500.0,117.73281000565206,140.92158188582104,404.59429596028434,23.727920189943827,175.71055116660494,66.254756228667901,273.25851103502964,260.89863345145136,-137.07860540365368,137.07860540365368,-260.89863345145136,503.58205471633681,0.0
417154.6038362722,4585833.5216966402,-42500.0,125.0463434232084,91.304809112909368,415.6806108277172,-2.5187306583904876,183.40274281366175,69.570404859831555,266.66665489725165,232.91461896989898,-119.86955518494932,119.86955518494932,-232.91461896989898,479.17376873190079,0.0
332154.6038362722,4590833.5216966402,-42500.0,323.11251424002018,-276.41362847143114,-1047.8512803156796,-135.49106136412408,-653.50653207878781,-292.44612931810894,927.14795931077833,-309.67224573245329,303.63373966921114,-303.63373966921114,309.67224573245329,1726.2806502563715,0.0
337154.6038362722,4590833.5216966402,-42500.0,382.0342731685659,-179.5657777660368,-1050.4017901474731,-86.069634324297979,-647.4740101546065,-286.35591532685538,923.03842374083808,-223.04933506513754,253.91501750395827,-253.91501750395827,223.04933506513754,1708.161480120435,0.0
342154.6038362722,4590833.5216966402,-42500.0,428.459061672958,-74.313464989460655,-1027.8833539075592,-33.803136292312296,-627.96654807175435,-274.64559735213498,909.70084121414516,-129.13079196589064,197.84698484678546,-197.84698484678546,129.13079196589064,1671.6308328181926,0.0
347154.6038362722,4590833.5216966402,-42500.0,459.4661721549366,34.759583364436494,-977.92615380707707,18.993673909603075,-594.13019623617481,-257.14394414240962,886.83096059383251,-31.478062769812674,137.32252414109396,-137.32252414109396,31.478062769812674,1616.5568071469988,0.0
352154.6038362722,4590833.5216966402,-42500.0,473.13334977849894,142.11093365142196,-899.76896038614268,69.641134113305398,-545.92975800654779,-234.01063041145264,854.54838119814531,65.660920834337858,74.76637283331452,-74.76637283331452,-65.660920834337858,1543.8030557863767,0.0
357154.6038362722,4590833.5216966402,-42500.0,468.90630633177477,241.68283626155224,-794.64472240495684,115.30945522578973,-484.30254943612073,-205.77875812858306,813.45268325588063,157.6891685586898,12.973654986969692,-12.973654986969692,-157.6891685586898,1455.3451826800426,0.0
362154.6038362722,4590833.5216966402,-42500.0,447.823751753865,327.50857929401155,-665.9647810954616,153.29644706115411,-411.21556119870291,-173.36009747610228,764.63800717552635,240.10713403342334,-45.130443045209276,45.130443045209276,-240.10713403342334,1354.2918984773662,0.0
367154.6038362722,4590833.5216966402,-42500.0,412.52566310185233,394.40241012217615,-519.22474132943853,181.33227264509873,-329.59549233052752,-138.00448425344069,709.65624509589361,309.00741387101971,-96.782473711527018,96.782473711527018,-309.00741387101971,1244.7847605860484,0.0
372154.6038362722,4590833.5216966402,-42500.0,367.00906518397198,438.61631603423683,-361.6000587486734,197.86112656578072,-243.12118117008072,-101.21177206840544,650.42534210275733,361.53301093682251,-139.67947649424474,139.67947649424474,-361.53301093682251,1131.7577719504875,0.0
377154.6038362722,4590833.5216966402,-42500.0,316.15063164258419,458.33522160328295,-201.26502888624768,202.24630602221694,-155.89584740654652,-64.604253001941643,589.08930915150052,396.20987377942339,-172.23192673928423,172.23192673928423,-396.20987377942339,1020.5486193730953,0.0
382154.6038362722,4590833.5216966402,-42500.0,265.0747216531089,453.90478574484445,-46.536120942985413,194.85534895123277,-72.045278907705153,-29.776644681348742,527.84878108315866,413.08459940515684,-193.72274176523104,193.72274176523104,-413.08459940515684,916.36554605586332,0.0
387154.6038362722,4590833.5216966402,-42500.0,218.48563193770593,427.7383717615802,95.013882814949952,177.0042304984614,4.6935584728880428,1.8535836012542459,468.79149934790479,413.63723696075095,-204.3417934294684,204.3417934294684,-413.63723696075095,823.62898481169793,0.0
392154.6038362722,4590833.5216966402,-42500.0,180.09577836668328,383.92465392394269,217.31267631519435,150.77097939406627,71.323278161257548,29.171124138076038,413.79290004253534,400.49256558106208,-205.09339475087415,205.09339475087415,-400.49256558106208,745.27270886466431,0.0
397154.6038362722,4590833.5216966402,-42500.0,152.2533111095141,327.62094838341136,316.29134865491903,118.71566572673498,125.82094418124203,51.444241865924226,364.81048137150083,376.99489077560668,-197.60071403318048,197.60071403318048,-376.99489077560668,682.19270253993875,0.0
402154.6038362722,4590833.5216966402,-42500.0,135.82062782053012,264.35944668581527,390.07006838119287,83.561884315224404,167.22794508048378,68.352786035244691,328.30165897980527,346.73677213931819,-183.85145281025711,183.85145281025711,-346.73677213931819,633.12670316838319,0.0
407154.6038362722,4590833.5216966402,-42500.0,130.29364646424114,199.39703452719121,438.83576773598861,47.896777565136667,195.59749023787563,79.964260037423202,316.47981266358943,313.12991039397815,-165.93529349088902,165.93529349088902,-313.12991039397815,595.14283494599829,0.0
412154.6038362722,4590833.5216966402,-42500.0,134.10124170509951,137.21075923464588,464.48067903639316,13.935220044877521,211.8291738414884,86.668616834272399,309.84866676437258,279.08300350847088,-145.81719946811967,145.81719946811967,-279.08300350847088,564.57854681425238,0.0
417154.6038362722,4590833.5216966402,-42500.0,144.99841231565438,81.192130416855193,470.10362410892958,-16.627016519253282,217.43577216295481,89.088285862733017,301.64895360557318,246.81635821060991,-125.17453346402668,125.17453346402668,-246.81635821060991,537.99332587419372,0.0
422154.6038362722,4590833.5216966402,-42500.0,160.4669617381563,33.544381982641234,459.47851985538944,-42.667489541151717,214.28992125711994,87.980898194179517,291.31367575131407,217.80995384891892,-105.30784391713436,105.30784391713436,-217.80995384891892,512.77094675306921,0.0
427154.6038362722,4590833.5216966402,-42500.0,178.05754621246362,-4.6521886151040848,436.5742175838065,-63.612770627393921,204.39031939147478,84.149460383422195,278.97246527628488,192.85720074835723,-87.119016809423897,87.119016809423897,-192.85720074835723,487.29589988489613,0.0
322154.6038362722,4595833.5216966402,-42500.0,170.03286613137288,-511.42323098139696,-1046.169274298941,-273.78868564609684,-712.51803112436244,-340.09458815448141,1013.7543067408124,-512.69159236707094,438.51915652359872,-438.51915652359872,512.69159236707094,1910.9022201479961,0.0
327154.6038362722,4595833.5216966402,-42500.0,257.7334184135496,-436.14410067539683,-1101.8807452026042,-230.4738477616051,-736.55401665186685,-346.36834936533882,1031.6768617209082,-443.24265102273483,403.31151854249475,-403.31151854249475,443.24265102273483,1936.4140496049558,0.0
332154.6038362722,4595833.5216966402,-42500.0,340.71730546258743,-343.24873147233859,-1138.8256190724605,-179.21837330534169,-748.94588901416319,-347.09682350588673,1040.7637985363262,-359.21807607532918,357.7699329308993,-357.7699329308993,359.21807607532918,1943.4663873132038,0.0
337154.6038362722,4595833.5216966402,-42500.0,414.34823812321946,-234.76323852539582,-1151.6346315358562,-121.37178843431326,-747.13684928661144,-341.37627828611284,1039.7722712000666,-262.34234930346634,302.46252480640362,-302.46252480640362,262.34234930346634,1929.8044792535825,0.0
342154.6038362722,4595833.5216966402,-42500.0,474.00132468948141,-114.38172589540328,-1135.4940755457744,-59.047823673137991,-728.96855910055183,-328.52005538280753,1027.7329339127061,-155.59002258402475,238.74169600005595,-238.74169600005595,155.59002258402475,1893.8734101317905,0.0
347154.6038362722,4595833.5216966402,-42500.0,515.61133013353958,12.528648310665387,-1086.8263051007211,4.9109187630089046,-693.00271457054646,-308.17467023876731,1004.0869730982215,-43.159790432222707,168.78700528139919,-168.78700528139919,43.159790432222707,1835.1200501629557,0.0
352154.6038362722,4595833.5216966402,-42500.0,536.27879222513991,139.17994845419048,-1003.9911538486942,67.084018078360131,-638.83724040125139,-280.42576259189383,968.81137124766519,69.740923800856493,95.540977649289701,-95.540977649289701,-69.740923800856493,1754.2649132332033,0.0
357154.6038362722,4595833.5216966402,-42500.0,534.82878903100777,257.90429648948719,-887.88360531736623,123.7480236320539,-567.36111878712472,-245.87455177583482,922.51433241685686,177.31546155243328,22.51888203033846,-22.51888203033846,-177.31546155243328,1653.5030873694297,0.0
362154.6038362722,4595833.5216966402,-42500.0,512.19132022562155,360.95526413599669,-742.27568887060147,171.25762915285031,-480.88077736895866,-205.6625965765667,866.47509793935535,273.77306688060503,-46.505234030307378,46.505234030307378,-273.77306688060503,1536.5774525486058,0.0
367154.6038362722,4595833.5216966402,-42500.0,471.48292953539737,441.46524870689598,-573.77316744094458,206.4840455845553,-383.06379967289934,-161.42843132234768,802.61057907041777,354.01715976412498,-107.90154782233805,107.90154782233805,-354.01715976412498,1408.6795039102412,0.0
372154.6038362722,4595833.5216966402,-42500.0,417.71908106484261,494.38939752063578,-391.32007870246696,227.2354966930894,-278.67403489947736,-115.18994999547886,733.36031765378232,414.30221415000062,-158.61266752474651,158.61266752474651,-414.30221415000062,1276.1427498117812,0.0
377154.6038362722,4595833.5216966402,-42500.0,357.17197517668154,517.23672592221749,-205.28509184691961,232.57367236418403,-173.11700677657049,-69.161708038875148,661.49659547026158,452.71990003595988,-196.52507168155387,196.52507168155387,-452.71990003595988,1145.9081524795406,0.0
382154.6038362722,4595833.5216966402,-42500.0,296.4852646326691,510.41904876818757,-26.273808697527702,222.95396799798004,-71.863206604580498,-25.533083718620883,589.88812492738646,469.40369743708987,-220.70679592325763,220.70679592325763,-469.40369743708987,1024.7614772948639,0.0
387154.6038362722,4595833.5216966402,-42500.0,241.72764582807599,477.12897174097208,136.1108657069241,200.15216366842503,20.149805259409323,13.75671328784359,521.26821084094706,466.40252879977652,-231.46057257783761,231.46057257783761,-466.40252879977652,918.37082451128219,0.0
392154.6038362722,4595833.5216966402,-42500.0,197.58812680366034,422.77624524946344,274.3188596832066,166.99140985630427,99.025197440565066,47.206250441735044,458.14553017895946,447.25856892469773,-230.18697150557711,230.18697150557711,-447.25856892469773,830.26311998964388,0.0
397154.6038362722,4595833.5216966402,-42500.0,166.87293762259389,354.11709766017441,383.52298663533003,126.92904623410398,162.23639511771631,73.871196887272475,403.67891816452772,416.39314143601604,-219.09592374805658,219.09592374805658,-416.39314143601604,761.06967342515247,0.0
402154.6038362722,4595833.5216966402,-42500.0,150.37685435286289,278.27505238119642,461.82146943242839,83.591804787970517,208.73504868564294,93.39955702941046,370.00908310372728,378.44237138072242,-200.83760938718589,200.83760938718589,-378.44237138072242,708.50136102291071,0.0
407154.6038362722,4595833.5216966402,-42500.0,147.10216506326103,201.85122380014002,509.99976398654684,40.349306646478858,238.84644838705407,105.98626752355675,360.13883583996676,337.67508845470257,-178.13150140655358,178.13150140655358,-337.67508845470257,668.2550948853609,0.0
412154.6038362722,4595833.5216966402,-42500.0,154.72238853925288,130.2702231071633,530.96954086319101,-0.0058549358330501518,254.0043036248334,112.26642909948721,352.14569232104304,297.58399066470849,-153.45929620662852,153.45929620662852,-297.58399066470849,635.45567424489707,0.0
417154.6038362722,4595833.5216966402,-42500.0,170.15350090587239,67.42677787236984,529.04517750616571,-35.438404397199641,256.39877268817332,113.17486444204734,341.81871116893723,260.68288076931628,-128.85965743220879,128.85965743220879,-260.68288076931628,605.90981463131902,0.0
422154.6038362722,4595833.5216966402,-42500.0,190.10496687201311,15.621207340528775,509.21240775336491,-64.713181757314189,248.61179222262868,109.80041916480648,328.80859897714129,228.49185649659043,-105.83287992058447,105.83287992058447,-228.49185649659043,576.73484518496105,0.0
427154.6038362722,4595833.5216966402,-42500.0,211.52109613162472,-24.282333368075662,476.50315144948502,-87.328408969867397,233.2966869648925,103.25721338638006,313.37904902772055,201.65936231054079,-85.339818886113818,85.339818886113818,-201.65936231054079,546.40115733907999,0.0
432154.6038362722,4595833.5216966402,-42500.0,231.87107969904437,-52.563000295776455,435.53773781574819,-103.37939330431369,212.93518951147473,94.586284103950078,296.02015501039767,180.15982060507832,-67.866830167625011,67.866830167625011,-180.15982060507832,514.45334767707448,0.0
317154.6038362722,4600833.5216966402,-42500.0,45.482929056047674,-658.64677734956013,-1020.5339041687522,-378.61667302891107,-759.00344717507232,-384.61926323894272,1096.1424628176087,-636.41814280565563,530.14791382286535,-530.14791382286535,636.41814280565563,2079.0961481467111,0.0
322154.6038362722,4600833.5216966402,-42500.0,148.38418461243816,-602.66583593872701,-1106.4681170192252,-342.0353353865641,-803.25958077469807,-400.02674236581169,1129.9322606811929,-581.33699728849729,506.68658091267048,-506.68658091267048,581.33699728849729,2136.2337965405422,0.0
327154.6038362722,4600833.5216966402,-42500.0,252.97592275272933,-524.63104319901151,-1179.3929866845385,-294.45738817323053,-837.91165350288236,-410.16178362796222,1155.4990557158419,-507.99524718133159,470.94626317407517,-470.94626317407517,507.99524718133159,2175.7047017213895,0.0
332154.6038362722,4600833.5216966402,-42500.0,354.18603769150485,-424.43894331235919,-1232.6804429334443,-236.30913023946309,-859.45318944324936,-413.63048362489354,1171.0066487934796,-416.57197985353378,422.43641919596064,-422.43641919596064,416.57197985353378,2193.9042267671657,0.0
337154.6038362722,4600833.5216966402,-42500.0,446.18255202415565,-303.79679683844813,-1259.3860028152753,-168.93485791756538,-864.3747922349994,-409.12726892276879,1174.7359648697911,-308.64808859648105,361.47638179401991,-361.47638179401991,308.64808859648105,2187.6140505431003,0.0
342154.6038362722,4600833.5216966402,-42500.0,522.87789363463958,-166.58047237208748,-1252.9499763018518,-94.722811348908024,-849.53258486526408,-395.58448116018127,1165.2544468756719,-187.43559227757515,289.39319376871481,-289.39319376871481,187.43559227757515,2154.3880586951927,0.0
347154.6038362722,4600833.5216966402,-42500.0,578.6447332502338,-18.96628914001149,-1208.1026422115895,-17.116454931241481,-812.59845363572072,-372.34219203927387,1141.6095407659675,-57.829124413062544,208.6345128512036,-208.6345128512036,57.829124413062544,2092.9824994358487,0.0
352154.6038362722,4600833.5216966402,-42500.0,609.16622993845567,130.78366542618386,-1121.8628652411064,59.53711577177981,-752.53537446835412,-339.31560249483317,1103.5197067247402,73.801746479609108,122.74002338190019,-122.74002338190019,-73.801746479609108,2003.7728019892381,0.0
357154.6038362722,4600833.5216966402,-42500.0,612.27652740442807,272.95952492089708,-994.45436123966806,130.32872987056803,-670.01419102706905,-297.12960360421528,1051.5334597372157,200.12295555297214,36.129811510432091,-36.129811510432091,-200.12295555297214,1889.0916408111011,0.0
362154.6038362722,4600833.5216966402,-42500.0,588.59263544887745,397.45518441433512,-829.90765414809414,190.30686126843443,-567.66496631962775,-247.18400742981501,987.11566460354697,313.62795885935986,-46.30094393025368,46.30094393025368,-313.62795885935986,1753.3992059874672,0.0
367154.6038362722,4600833.5216966402,-42500.0,541.73772556515075,495.1020469633342,-636.13101184983691,235.11141675289124,-450.06645216227412,-191.61804143489604,912.62953839392458,407.60270900764846,-119.7406903778712,119.7406903778712,-407.60270900764846,1603.2087486942478,0.0
372154.6038362722,4600833.5216966402,-42500.0,478.02093157789892,559.03798886949471,-424.31744980157379,261.60855173746415,-323.41650739516348,-133.15742280006299,831.19511628049872,477.07868936094985,-180.08191590368153,180.08191590368153,-477.07868936094985,1446.7017944754282,0.0
377154.6038362722,4600833.5216966402,-42500.0,405.57163739296675,585.80136700852393,-207.71327385634066,268.38743637858101,-194.89925777684155,-74.852893951254487,746.43164522245138,519.55507087305739,-224.4754634745417,224.4754634745417,-519.55507087305739,1292.9931675947134,0.0
382154.6038362722,4600833.5216966402,-42500.0,333.08513615586753,575.87205441385595,0.047248208953942994,255.99508829053016,-71.846533809799865,-19.747560484422962,662.12391066932446,535.30713164135943,-251.6919557142414,251.6919557142414,-535.30713164135943,1151.0302292518152,0.0
387154.6038362722,4600833.5216966402,-42500.0,268.46243229015914,533.51119432377936,186.6986518325472,226.84257155602521,39.144471541642488,29.466762048285744,581.9034029629089,527.19971933983493,-262.2055330879557,262.2055330879557,-527.19971933983493,1028.1707863243041,0.0
392154.6038362722,4600833.5216966402,-42500.0,217.66296351378284,465.93899703474221,342.8163663749944,184.79958540531308,132.95806447379144,70.737843810251562,509.21943421047609,500.05855956189606,-257.98729138415621,257.98729138415621,-500.05855956189606,928.66688949338959,0.0
397154.6038362722,4600833.5216966402,-42500.0,184.02174586189457,382.07032544209346,462.71187943158816,134.57656360719659,206.42767330127171,102.83190534043199,449.55718271741972,459.77231261792178,-242.07352467475584,242.07352467475584,-459.77231261792178,852.63690767723585,0.0
402154.6038362722,4600833.5216966402,-42500.0,168.13132032833954,291.11812359642278,544.62973594320783,81.03722817414193,258.4597209528381,125.37769593881468,420.4319083116481,412.34603033900271,-218.02226614911797,218.02226614911797,-412.34603033900271,796.26017480331325,0.0
407154.6038362722,4600833.5216966402,-42500.0,168.23029109011472,201.37233387623962,590.31067575070472,28.587232254550688,289.83636947494142,138.78336063826018,410.87012466476847,363.11123673580971,-189.38488880643379,189.38488880643379,-363.11123673580971,753.37072405816434,0.0
412154.6038362722,4600833.5216966402,-42500.0,180.92077483957149,119.36050300128912,604.12328708722805,-19.258906541551802,302.78977843946291,144.06095251240134,400.93124081325078,316.21669852570631,-159.29066848739936,159.29066848739936,-316.21669852570631,717.60479202728811,0.0
417154.6038362722,4600833.5216966402,-42500.0,201.99691390503327,49.462873844764594,592.01703622092589,-60.091058652920374,300.46980540194261,142.60609883420378,387.77836930635641,274.42901810730621,-130.19391689119044,130.19391689119044,-274.42901810730621,683.97764818473843,0.0
422154.6038362722,4600833.5216966402,-42500.0,227.1966034136903,-6.0643352899751948,560.52350897674057,-92.612651032666321,286.41985217529867,135.97901283809477,371.27834904031619,239.19495486506918,-103.78489087368531,103.78489087368531,-239.19495486506918,649.44852378300072,0.0
427154.6038362722,4600833.5216966402,-42500.0,252.75931869256408,-46.777440127575382,515.95630851139208,-116.49928876973236,264.14174563653523,125.72048528303687,351.89447010400215,210.87481694986135,-81.030808988188056,81.030808988188056,-210.87481694986135,612.73239192750691,0.0
432154.6038362722,4600833.5216966402,-42500.0,275.75055127976685,-73.585014102665298,463.87382890746915,-132.17337111777456,236.78920276099436,113.22039070768132,330.34268602395349,189.05147784110417,-62.298620839127558,62.298620839127558,-189.05147784110417,573.79715042259988,0.0
437154.6038362722,4600833.5216966402,-42500.0,294.1736320358915,-88.259714322389016,408.79892806166328,-140.55535353661597,206.99343309438876,99.641487155970268,307.44310209559262,172.83845496339234,-47.512460859426263,47.512460859426263,-172.83845496339234,533.34380688894248,0.0
312154.6038362722,4605833.5216966402,-42500.0,-115.44992677568629,-787.73880830343114,-943.6465165719909,-488.24994545462857,-780.7076214854568,-423.55678341368849,1164.6743970204925,-745.70355518888459,612.54764764453421,-612.54764764453421,745.70355518888459,2220.5721936619934,0.0
317154.6038362722,4605833.5216966402,-42500.0,-5.6332676439256337,-759.38768619236998,-1053.8493692825971,-464.1933677535535,-845.18665677654496,-449.52759126755763,1215.8263847281314,-711.37113183578026,605.12286033275427,-605.12286033275427,711.37113183578026,2312.997809128201,0.0
322154.6038362722,4605833.5216966402,-42500.0,113.54178445184682,-707.20075192611671,-1159.1012550662442,-427.03230252383912,-903.8234130464125,-471.30337429526787,1260.374158300134,-656.93510543684818,584.81911208184431,-584.81911208184431,656.93510543684818,2390.7161696763674,0.0
327154.6038362722,4605833.5216966402,-42500.0,237.64237181456804,-628.56326568851227,-1252.6239369573402,-375.91507881018879,-952.60723472366396,-487.09973854892291,1296.0299339502492,-580.68985228974589,549.93485964660886,-549.93485964660886,580.68985228974589,2449.0160177640828,0.0
332154.6038362722,4605833.5216966402,-42500.0,360.71176414750579,-522.33424766408496,-1326.3550107781455,-310.84598413020461,-986.99833144486615,-495.01677114479639,1320.3898612383205,-482.14419040228387,499.38338251260387,-499.38338251260387,482.14419040228387,2483.0760045046959,0.0
337154.6038362722,4605833.5216966402,-42500.0,475.51610714585382,-389.5347720835104,-1371.4322740043472,-232.98861483721942,-1002.2294414884238,-493.18437060529379,1331.0955544026576,-362.50729972505559,433.02872220460137,-433.02872220460137,362.50729972505559,2488.3556456228457,0.0
342154.6038362722,4605833.5216966402,-42500.0,574.11319783802173,-233.95909297002589,-1379.0303770369587,-144.91150557116097,-993.77328504125865,-479.96193089081055,1326.0546859657832,-225.09345774094177,352.00778793385712,-352.00778793385712,225.09345774094177,2461.1072238006504,0.0
347154.6038362722,4605833.5216966402,-42500.0,648.7631431012943,-62.531812792536904,-1341.5426163880456,-50.696384895647746,-957.96348383168743,-454.18312159220972,1303.712625594171,-75.517091492250884,258.96367750421382,-258.96367750421382,75.517091492250884,2398.9852726212621,0.0
352154.6038362722,4605833.5216966402,-42500.0,693.10621578273333,114.78923504545629,-1253.9864046496075,44.177159667304224,-892.70174905197985,-415.41721571090966,1263.3414025676318,78.460367394038286,158.09792842114959,-158.09792842114959,-78.460367394038286,2301.6797965208102,0.0
357154.6038362722,4605833.5216966402,-42500.0,703.41902483441777,285.72346376139217,-1115.393540665696,133.2349611721346,-798.13251299471824,-364.20268874650912,1205.3015055748879,227.53011012595587,54.96012845170722,-54.96012845170722,-227.53011012595587,2171.4756196268163,0.0
362154.6038362722,4605833.5216966402,-42500.0,679.6511571058137,437.03045852502049,-929.83501758244086,209.70816353824276,-677.1155514030113,-302.19283682545847,1131.2115420392645,361.88602911768396,-44.065241530639696,44.065241530639696,-361.88602911768396,2013.5974914201172,0.0
367154.6038362722,4605833.5216966402,-42500.0,625.91116699796589,556.37246072905384,-706.71919605277787,267.45239094648019,-535.32600355320642,-232.15433854887937,1043.9693366759986,472.5881856861335,-132.53549036373369,132.53549036373369,-472.5881856861335,1836.2083296398382,0.0
372154.6038362722,4605833.5216966402,-42500.0,550.14913158303011,634.31856863606311,-460.11038525923539,301.91750689745624,-380.86317322404227,-157.77898426633661,947.5852186996035,552.96415944705325,-204.8595259109662,204.8595259109662,-552.96415944705325,1649.9419216812651,0.0
377154.6038362722,4605833.5216966402,-42500.0,462.98801937674875,666.00234453395421,-207.05978602967977,310.94061156623769,-223.36595336404378,-83.310080726129826,846.8304490154344,599.69849730930332,-257.1390901131461,257.1390901131461,-599.69849730930332,1466.890057413563,0.0
382154.6038362722,4605833.5216966402,-42500.0,375.92479786060255,651.97145281417829,34.757345106676773,295.14639136074157,-72.777319084269337,-13.037779843369238,746.76058134363416,613.30468898803133,-287.72904200142983,287.72904200142983,-613.30468898803133,1299.0034115404892,0.0
387154.6038362722,4605833.5216966402,-42500.0,299.34550400683764,597.97434750484081,249.56459574627229,257.83143384756676,61.980852237625221,49.237550285336098,652.27005369685344,597.8408804286986,-297.37036758200497,297.37036758200497,-597.8408804286986,1155.9660505551449,0.0
392154.6038362722,4605833.5216966402,-42500.0,240.86907202139196,513.74276708347168,425.56900087955705,204.35410432602015,174.12416139499678,100.65888600993642,568.2313220254797,559.95729299571121,-288.87231489339831,288.87231489339831,-559.95729299571121,1042.9305509783633,0.0
397154.6038362722,4605833.5216966402,-42500.0,204.41580948476764,411.12627502741668,556.15444897649297,141.19387247986015,259.67675520268148,139.58791162012321,504.37486605233573,507.5597966603346,-266.45218113171114,266.45218113171114,-507.5597966603346,959.11564785388214,0.0
402154.6038362722,4605833.5216966402,-42500.0,190.14280970028193,302.08406742138072,640.01944684966065,74.92153436062604,317.59879159078372,165.65941032313444,480.00803553548849,448.45098912829911,-234.92402746608087,234.92402746608087,-448.45098912829911,898.45087369195471,0.0
407154.6038362722,4605833.5216966402,-42500.0,195.11959633998268,197.00741230530619,680.4021199047346,11.316020583646742,349.42476676137403,179.6314390302808,469.64953600439605,389.26107353608143,-198.94017801064692,198.94017801064692,-389.26107353608143,852.27229458243744,0.0
412154.6038362722,4605833.5216966402,-42500.0,214.43769074322051,103.66205845811442,683.73844077103968,-45.218232333892189,358.57764607714722,183.09482604443542,457.00439140868855,334.83415298501222,-162.43180658719157,162.43180658719157,-334.83415298501222,812.42853011915474,0.0
417154.6038362722,4605833.5216966402,-42500.0,242.40784679699638,26.816638894178894,658.15471691658979,-91.88609443420205,349.56270838641831,178.12521867560417,440.08445771909891,288.07901126109618,-128.31018678035957,128.31018678035957,-288.07901126109618,773.15705935868061,0.0
422154.6038362722,4605833.5216966402,-42500.0,273.57229820758857,-31.560403140010628,612.12045160623268,-127.43529064157003,327.21741311523959,166.95300642906989,419.03382750666458,250.17656270265226,-98.410348507733971,98.410348507733971,-250.17656270265226,731.43655451210896,0.0
427154.6038362722,4605833.5216966402,-42500.0,303.38759304043333,-71.745122840744173,553.45052489272166,-151.88777489225942,296.12888834501501,151.70155737977166,394.61281040779653,220.98869210182551,-73.610421216687371,73.610421216687371,-220.98869210182551,686.44002656910573,0.0
432154.6038362722,4605833.5216966402,-42500.0,328.55637794147532,-95.558932652928974,488.70851065579018,-166.17808166009513,260.26021118978707,134.21499886678222,367.85225257844502,199.5239622774138,-54.045768370629048,54.045768370629048,-199.5239622774138,638.73906210180746,0.0
437154.6038362722,4605833.5216966402,-42500.0,347.06911655903127,-105.69261659516849,422.96552065340984,-171.7882293006775,222.77243653832238,115.9727228028011,339.85952039094582,184.3582323741071,-39.347942153265862,39.347942153265862,-184.3582323741071,589.60515845565419,0.0
442154.6038362722,4605833.5216966402,-42500.0,358.05221335890712,-105.15187165737019,359.82005278768008,-170.43625799085953,185.99849604238966,98.073076069743109,311.67647662316955,173.95767605546115,-28.86112001172414,28.86112001172414,-173.95767605546115,540.51318438539465,0.0
447154.6038362722,4605833.5216966402,-42500.0,361.51822875280055,-96.861456335963354,301.57705560543332,-163.84405521244418,151.51667624791992,81.263794020781219,284.18492184009972,166.89208783381144,-21.812277657779163,21.812277657779163,-166.89208783381144,492.83838205567389,0.0
307154.6038362722,4610833.5216966402,-42500.0,-303.49211286317626,-883.32463995190801,-819.14714874705453,-594.29111561689285,-773.56360944111486,-453.59755330256684,1214.7046471190113,-828.70830251960513,677.4429047261807,-677.4429047261807,828.70830251960513,2325.2019601536731,0.0
312154.6038362722,4610833.5216966402,-42500.0,-197.83920120006215,-887.73379385879946,-943.54895660911734,-588.03726974454389,-855.67562681107324,-490.66902226409888,1283.4134632560874,-819.25449758375191,688.77575585231068,-688.77575585231068,819.25449758375191,2453.8920070436507,0.0
317154.6038362722,4610833.5216966402,-42500.0,-75.364038865897314,-869.9631638900463,-1071.954363333545,-568.19710694863784,-937.04465456166508,-525.45691548137177,1348.1018245911616,-790.3105825052703,688.34718351758602,-688.34718351758602,790.3105825052703,2573.0191015603918,0.0
322154.6038362722,4610833.5216966402,-42500.0,61.282526098074911,-825.14913615753039,-1198.7494824884718,-532.55389148473989,-1013.842642654311,-556.02014448015905,1406.3063728487939,-738.3885298116752,673.39238951857487,-673.39238951857487,738.3885298116752,2677.3134054038451,0.0
327154.6038362722,4610833.5216966402,-42500.0,207.4697637782418,-749.09599409768168,-1316.2993159927091,-479.42277075889604,-1081.212347513434,-580.06850412423876,1455.1943966588535,-660.67372195187102,641.35477751244969,-641.35477751244969,660.67372195187102,2760.8143175235814,0.0
332154.6038362722,4610833.5216966402,-42500.0,356.41424162860943,-639.10815762528773,-1415.0041451231948,-408.06760376639892,-1133.3729519953024,-595.04977088126782,1491.6576377156389,-555.65032163716694,590.26972547362709,-590.26972547362709,555.65032163716694,2817.1446512444604,0.0
337154.6038362722,4610833.5216966402,-42500.0,499.31497581533671,-494.97368798454198,-1483.7392487571462,-319.1664003524524,-1163.9301682840799,-598.31445551007482,1512.4909833812446,-423.80998676918387,519.23788352657846,-519.23788352657846,423.80998676918387,2839.970859702591,0.0
342154.6038362722,4610833.5216966402,-42500.0,625.93462994009712,-319.94827857457517,-1510.8015844295644,-215.24870553832005,-1166.442423857585,-587.37056278106854,1514.6710534560277,-268.32284186745471,428.9301839826536,-428.9301839826536,268.32284186745471,2823.6675617418928,0.0
347154.6038362722,4610833.5216966402,-42500.0,725.71262739780752,-121.48955368452874,-1485.4111181664477,-100.9863505277343,-1135.2560028774817,-560.22665627676361,1495.7314632878924,-95.481676140031453,322.01986973621115,-322.01986973621115,95.481676140031453,2764.168883074808,0.0
352154.6038362722,4610833.5216966402,-42500.0,789.36764682111539,88.57916694360182,-1399.6596218818988,16.809500376299372,-1066.5437321967049,-515.79396530285669,1454.1969632189621,85.308965490704736,203.39582919774369,-203.39582919774369,-85.308965490704736,2659.9221680917399,0.0
357154.6038362722,4610833.5216966402,-42500.0,810.75846064754012,294.77793076174078,-1250.5959690877703,129.61965083248003,-959.38527441418705,-454.28639292249898,1390.0092645239608,262.19591591248729,80.005764790422376,-80.005764790422376,-262.19591591248729,2512.799418007663,0.0
362154.6038362722,4610833.5216966402,-42500.0,788.56900218905184,479.70150909015632,-1041.9310762336527,228.13859698116394,-816.6271785927679,-377.52235657756154,1304.8452671566783,422.2604354901739,-39.772760525825078,39.772760525825078,-422.2604354901739,2328.7531832811833,0.0
367154.6038362722,4610833.5216966402,-42500.0,727.2690383785025,626.62157198683792,-784.75977551197127,303.60863044700932,-645.21932397981675,-289.01679780787856,1202.2224321858694,553.46036317682831,-147.2139631600503,147.2139631600503,-553.46036317682831,2117.9794334223143,0.0
372154.6038362722,4610833.5216966402,-42500.0,636.88388664649153,722.44800223030313,-496.83104429892364,349.31888355985291,-455.79065065050264,-193.77443982229124,1087.3167411338175,646.72072851506391,-234.59615192888242,234.59615192888242,-646.72072851506391,1894.3792649372238,0.0
377154.6038362722,4610833.5216966402,-42500.0,531.41805557125804,760.27182970802551,-200.27310900012037,361.89328663016488,-261.40933670850654,-97.760024172512587,966.48017912215187,697.60366771495569,-296.50196455144624,296.50196455144624,-697.60366771495569,1674.1617353987131,0.0
382154.6038362722,4610833.5216966402,-42500.0,426.24022578742057,740.71465577449169,81.804134413614094,341.98451504364272,-75.734158084751286,-7.1213300946276066,846.54839139323417,707.03950040579457,-330.70391972091284,330.70391972091284,-707.03950040579457,1473.5042980006497,0.0
387154.6038362722,4610833.5216966402,-42500.0,335.13992451206934,671.63688893663368,328.98122407940707,294.14025565639736,89.01325531580332,72.669033291246322,734.20286125789801,680.87597499693743,-338.37618472211369,338.37618472211369,-680.87597499693743,1305.3452797394139,0.0
392154.6038362722,4610833.5216966402,-42500.0,267.90372287202104,566.29789444002927,526.50810081359862,225.86725657020722,223.74583110948049,137.5466114181317,636.47642573106168,628.40038942685203,-323.58996282883209,323.58996282883209,-628.40038942685203,1175.9654245958288,0.0
397154.6038362722,4610833.5216966402,-42500.0,229.04712919120374,440.56316768911802,666.87789501736472,146.17276589682504,323.48099171907518,185.29146978308199,570.08733914541085,560.31765898983417,-292.28068356400763,292.28068356400763,-560.31765898983417,1083.085829357633,0.0
402154.6038362722,4610833.5216966402,-42500.0,217.89396150874686,309.99356342436846,749.79018370344102,64.000112638238548,387.43661609581994,215.59277834464581,549.67635461231202,486.78538123532434,-251.01819172417078,251.01819172417078,-486.78538123532434,1017.3693248189571,0.0
407154.6038362722,4610833.5216966402,-42500.0,229.73849043510063,187.54723660012908,780.79896150457125,-13.055436789103148,418.37406067230029,229.77832011869137,537.54226069568062,415.97860410833368,-205.91034374356502,205.91034374356502,-415.97860410833368,966.84512249175395,0.0
412154.6038362722,4610833.5216966402,-42500.0,257.56012300066311,82.29336233112852,769.24759382093907,-79.518304470008985,421.4895507126634,230.3292324393673,521.14431451493147,353.39768124508811,-161.86032816050607,161.86032816050607,-353.39768124508811,921.27395137561359,0.0
417154.6038362722,4610833.5216966402,-42500.0,293.74048757737989,-0.84776499890818857,726.11652400696676,-132.25381565653541,403.19348090569315,220.32624083839042,499.18950876804388,301.86307190486298,-122.24083875868959,122.24083875868959,-301.86307190486298,874.21483060140747,0.0
422154.6038362722,4610833.5216966402,-42500.0,331.39839882468578,-60.590766934735449,662.24224982556564,-170.24921445103814,370.04626642712691,202.95135055646961,472.22283676676346,261.97999524737179,-88.923170815557086,88.923170815557086,-261.97999524737179,822.9356233141425,0.0
427154.6038362722,4610833.5216966402,-42500.0,365.18382872743484,-98.353480161916949,587.12260850091411,-194.13402993118757,327.99643902093675,181.11879814107385,441.43659380427511,232.81434955717876,-62.534641343360221,62.534641343360221,-232.81434955717876,767.34425369745281,0.0
432154.6038362722,4610833.5216966402,-42500.0,391.55909865865192,-117.22941492949268,508.31428927613689,-205.61481717755558,281.94982689002723,157.25662705007369,408.28390879126431,212.56938002905653,-42.812746769106212,42.812746769106212,-212.56938002905653,708.82517832381109,0.0
437154.6038362722,4610833.5216966402,-42500.0,408.7009427194526,-121.08194152226017,431.30282009520425,-206.95201838714118,235.62076588373179,133.22225128850638,374.22406530741966,199.13730869288088,-28.95592076878998,28.95592076878998,-199.13730869288088,649.34355257876643,0.0
442154.6038362722,4610833.5216966402,-42500.0,416.18422526233184,-113.86452507158414,359.68137800815822,-200.54812460921684,191.58166421625526,110.31606378915176,340.5456649446777,190.4795078382576,-19.913113842123494,19.913113842123494,-190.4795078382576,590.87234255543035,0.0
447154.6038362722,4610833.5216966402,-42500.0,414.58552276376258,-99.184012065963174,295.48757204640174,-188.6673551339471,151.42624530297323,89.354080229483927,308.26527290991169,184.84358334925429,-14.591204895927206,14.591204895927206,-184.84358334925429,535.08284918431798,0.0
452154.6038362722,4610833.5216966402,-42500.0,405.10079212558855,-80.072682023085633,239.5851602311248,-173.275119741027,115.97813822088393,70.766367667315308,278.09086177382625,180.85270738763177,-11.983643668106666,11.983643668106666,-180.85270738763177,483.21615087809852,0.0
302154.6038362722,4615833.5216966402,-42500.0,-503.77019508804159,-933.20058141257186,-657.61088516263146,-687.64145990270299,-736.74993207269176,-472.04221714979769,1242.7800846610403,-875.8574406078601,717.86137046515955,-717.86137046515955,875.8574406078601,2385.1830896877427,0.0
307154.6038362722,4615833.5216966402,-42500.0,-414.23100935012201,-970.78868605369496,-783.68841298435007,-702.84122393424695,-831.4444318499344,-519.61767241927419,1327.7670285492379,-892.02838053887854,748.32532646467098,-748.32532646467098,892.02838053887854,2547.9046579089886,0.0
312154.6038362722,4615833.5216966402,-42500.0,-302.29515381065784,-991.2084377920113,-921.79940229000374,-705.9839436622467,-931.03859591710886,-567.49359625662419,1412.0336058655218,-891.80227254968975,769.83116003126167,-769.83116003126167,891.80227254968975,2707.9596110010912,0.0
317154.6038362722,4615833.5216966402,-42500.0,-168.03705271071533,-988.27329545705368,-1068.5782765456102,-693.76848436278908,-1032.6355824147904,-613.9031169173121,1493.2913244559006,-870.49057444527375,779.00968054424789,-779.00968054424789,870.49057444527375,2860.2894013269415,0.0
322154.6038362722,4615833.5216966402,-42500.0,-13.427015719118806,-955.41714947751143,-1218.4149046904656,-662.89902225125957,-1132.013931661525,-656.53987779092552,1568.6885945296508,-823.32062540701429,772.18752289379756,-772.18752289379756,823.32062540701429,2998.6304390456598,0.0
327154.6038362722,4615833.5216966402,-42500.0,157.08153126687819,-886.38283968940073,-1363.0326121081575,-610.48075810887792,-1223.4658198539439,-692.54403378133554,1634.7967495210391,-745.99901434894002,745.68525258891157,-745.68525258891157,745.99901434894002,3115.5693688751794,0.0
332154.6038362722,4615833.5216966402,-42500.0,336.10338850320773,-776.25591768104857,-1491.3110492463529,-534.57122511680802,-1299.7896274128339,-718.55731540003569,1687.6645685345193,-635.51422034232348,696.287098021833,-696.287098021833,635.51422034232348,3202.7845213776886,0.0
337154.6038362722,4615833.5216966402,-42500.0,513.21599862191511,-622.81556450617381,-1589.5718095600016,-434.8637897606323,-1352.5469914450009,-730.8825911087331,1722.9896826581091,-491.13866944292278,621.88527430001977,-621.88527430001977,491.13866944292278,3251.5519128341634,0.0
342154.6038362722,4615833.5216966402,-42500.0,675.44020953099221,-428.04390204206089,-1642.558804909653,-313.41837651142805,-1372.6965656770963,-725.7829585571892,1736.4502857872908,-315.49028742291921,522.2448476510956,-522.2448476510956,315.49028742291921,3253.5761005071818,0.0
347154.6038362722,4615833.5216966402,-42500.0,808.51576532004117,-199.46180984370557,-1635.2729061135524,-175.27441343654053,-1351.6758287035016,-699.94102152979167,1724.2115705628853,-115.38999107523435,399.75338416749855,-399.75338416749855,115.38999107523435,3202.154958750215,0.0
352154.6038362722,4615833.5216966402,-42500.0,899.02377758148248,49.201378343019357,-1555.6207773589927,-28.707174310414505,-1282.8996329290369,-651.06449455096049,1683.5730925837092,97.850259257363462,259.93375204198838,-259.93375204198838,-97.850259257363462,3093.6009507701647,0.0
357154.6038362722,4615833.5216966402,-42500.0,937.11250754925913,298.55075436181068,-1397.5045115381317,115.13647551883676,-1163.4722840036145,-578.56257424423586,1613.6579512361275,309.08187712666472,111.44853251319537,-111.44853251319537,-309.08187712666472,2928.7124965979365,0.0
362154.6038362722,4615833.5216966402,-42500.0,919.21153816786159,525.65395686539375,-1163.6025021072726,243.40475087474022,-995.71554974820208,-484.14511701425482,1515.9887248589691,501.12214678242515,-34.629441014918598,34.629441014918598,-501.12214678242515,2713.96674932935,0.0
367154.6038362722,4615833.5216966402,-42500.0,849.83700964045727,707.67076057530824,-866.85069820148124,343.47252088452609,-787.98180063464156,-372.13721005573859,1394.7629667228534,657.5459022462336,-166.3248744626668,166.3248744626668,-657.5459022462336,2462.0213942871796,0.0
372154.6038362722,4615833.5216966402,-42500.0,741.62870594964261,826.26701520673191,-529.76383405153001,405.28602860798861,-554.28135619955606,-249.31402605535973,1256.6827449710347,765.85319002921017,-272.8013853400879,272.8013853400879,-765.85319002921017,2191.1491490873727,0.0
377154.6038362722,4615833.5216966402,-42500.0,613.22989709261947,871.56447166329417,-181.3123546106753,423.49210256236466,-312.54093321680426,-124.16133060572237,1110.287786874964,820.07179783020069,-346.41212022915306,346.41212022915306,-820.07179783020069,1923.3072553260524,0.0
382154.6038362722,4615833.5216966402,-42500.0,485.42708504312304,844.30115048956759,148.0350518688324,398.65857023244627,-81.787785614006495,-5.6578879927514194,964.9256618761965,821.89579691872405,-384.12519011859371,384.12519011859371,-821.89579691872405,1680.6833931224221,0.0
387154.6038362722,4615833.5216966402,-42500.0,376.71032389733796,755.41060780558712,431.72951701226958,337.13628236652295,121.01560836499775,98.134753176036426,829.80120644662929,779.93516932746786,-387.85684936245173,387.85684936245173,-779.93516932746786,1480.8142940826733,0.0
392154.6038362722,4615833.5216966402,-42500.0,299.68008891449171,623.17454752021922,651.42461027168963,249.58746269878722,283.59545696864905,181.2925557145482,715.20317438363429,707.35905867337294,-363.63683906231302,363.63683906231302,-707.35905867337294,1331.3836362229188,0.0
397154.6038362722,4615833.5216966402,-42500.0,259.33982645532012,468.97897533537576,799.00172617282215,148.67765642243958,399.76984405403124,240.73898227403225,648.46800006681588,618.786536151517,-319.95136634398284,319.95136634398284,-618.786536151517,1227.6831364162335,0.0
402154.6038362722,4615833.5216966402,-42500.0,253.50700210791786,313.06767992529115,876.11188542565492,46.663950269603248,469.4200175705642,276.31118027606891,630.81321282426973,527.42963096737105,-265.84671290436165,265.84671290436165,-527.42963096737105,1155.6777347855377,0.0
407154.6038362722,4615833.5216966402,-42500.0,274.80249050483877,171.43244934242963,891.84978224565725,-46.474753741968385,497.30152357271885,290.26748748665426,615.71168262763103,443.21162830877222,-209.34318180061868,209.34318180061868,-443.21162830877222,1099.098389673974,0.0
412154.6038362722,4615833.5216966402,-42500.0,313.29016296597302,54.345522798756548,859.59269628139316,-124.0292505736749,491.24526854614021,286.46541103405985,594.07298353618182,372.08685058583529,-156.4755870694915,156.4755870694915,-372.08685058583529,1045.3689632394567,0.0
417154.6038362722,4615833.5216966402,-42500.0,358.90666254867642,-33.590713435144906,793.97534746102451,-182.68120343407458,460.31684404692544,269.47406409425997,565.3724596269011,316.35917056902042,-110.99950250381127,110.99950250381127,-316.35917056902042,987.60788694051098,0.0
422154.6038362722,4615833.5216966402,-42500.0,403.1639250867201,-92.382965863317267,708.61063180380972,-221.99536606660502,413.33179377298723,243.82337254531512,530.75108616748184,275.58147383241044,-74.6051888968436,74.6051888968436,-275.58147383241044,923.76205236511134,0.0
427154.6038362722,4615833.5216966402,-42500.0,439.99257977012525,-125.15947552369167,614.7520285584975,-243.59972783171588,357.89623140696136,213.49197968260907,492.00639758526279,247.62071237616618,-47.407974120150584,47.407974120150584,-247.62071237616618,854.81741284757527,0.0
432154.6038362722,4615833.5216966402,-42500.0,465.86529041122515,-136.71385358166779,520.79518626479808,-250.32555066938818,299.95804123057508,181.64506462990633,451.13007412763477,229.60103190556202,-28.509293058259018,28.509293058259018,-229.60103190556202,783.19587226773092,0.0
437154.6038362722,4615833.5216966402,-42500.0,479.45475067515076,-132.34134943941041,432.37231174381282,-245.47970676945172,243.749256834546,150.57488566755697,409.98399689745492,218.58924552001145,-16.493115414025397,16.493115414025397,-218.58924552001145,711.65926801140608,0.0
442154.6038362722,4615833.5216966402,-42500.0,481.07684509345552,-117.05266880669841,352.77799708421736,-232.32169043216408,191.97187096340397,121.77516886917861,370.09760248687428,212.00534896529271,-9.7963758240989023,9.7963758240989023,-212.00534896529271,642.6849779436003,0.0
447154.6038362722,4615833.5216966402,-42500.0,472.10540806363895,-95.136549068811576,283.51851322882879,-213.74637343999277,146.09793146604167,96.084383016328701,332.57742349544799,207.80696241761294,-6.9456307748251049,6.9456307748251049,-207.80696241761294,578.18114185190541,0.0
452154.6038362722,4615833.5216966402,-42500.0,454.46668334964841,-69.989416319025565,224.84924677915532,-192.1347058730818,106.69199395529141,73.848577650161687,298.10379732747776,204.51837886415413,-6.6816247017658554,6.6816247017658554,-204.51837886415413,519.41321829131891,0.0
297154.6038362722,4620833.5216966402,-42500.0,-698.07226487647517,-931.07516204453873,-474.91575658110992,-760.06648576785926,-673.08135770548699,-477.29336945595497,1247.1344926951751,-881.89609558689972,729.55779614303947,-729.55779614303947,881.89609558689972,2396.2878590047603,0.0
302154.6038362722,4620833.5216966402,-42500.0,-635.019100895375,-997.15841946631076,-590.14317719886947,-797.87553031363041,-773.59523773816125,-533.62083787893948,1345.7446128410738,-920.6979454461059,776.90809255088766,-776.90809255088766,920.6979454461059,2587.6407627928556,0.0
307154.6038362722,4620833.5216966402,-42500.0,-547.21476972644211,-1053.4082820097242,-722.86144851989195,-827.077069348392,-884.18817744261992,-593.16661511757638,1447.2551806575807,-948.02460582372896,819.30137130555204,-819.30137130555204,948.02460582372896,2784.1398492123831,0.0
312154.6038362722,4620833.5216966402,-42500.0,-432.04859862644946,-1093.6279512070298,-872.40801121993229,-843.89510891856855,-1003.4621436972528,-654.67983396887519,1549.8713276499616,-958.88064818363159,853.40880649235442,-853.40880649235442,958.88064818363159,2981.7436664213401,0.0
317154.6038362722,4620833.5216966402,-42500.0,-288.16367081086565,-1110.3165661319738,-1036.2500474679839,-843.99359862117944,-1128.7271657059302,-716.29668970318562,1651.1637555549153,-947.45919655274929,875.14963851662333,-875.14963851662333,947.45919655274929,3174.9188790274484,0.0
322154.6038362722,4620833.5216966402,-42500.0,-116.25761482743394,-1094.9662511374447,-1209.2381651336959,-822.70208741831311,-1255.6054865870999,-775.41864606738943,1747.9602051209258,-907.4499901709936,879.78855813172834,-879.78855813172834,907.4499901709936,3356.4347785929363,0.0
327154.6038362722,4620833.5216966402,-42500.0,80.005270141907317,-1038.7523933307048,-1382.8584142565146,-775.44391263356033,-1377.6647626280458,-828.6174067135089,1836.246977729478,-832.64955893754586,862.21701847579857,-862.21701847579857,832.64955893754586,3517.2736877684197,0.0
332154.6038362722,4620833.5216966402,-42500.0,293.12705447138973,-933.73983815670897,-1544.6821904099295,-698.41952661846085,-1486.1932176813391,-871.60598169231457,1911.1264708163594,-717.94807126001695,817.49042959401606,-817.49042959401606,717.94807126001695,3646.762855854035,0.0
337154.6038362722,4620833.5216966402,-42500.0,511.23136526585535,-774.6536874165696,-1678.3251636735331,-589.56071677264561,-1570.2868159687366,-899.33447440754071,1966.9196348094183,-560.6991904630795,741.6690623183124,-741.6690623183124,560.6991904630795,3733.062109515894,0.0
342154.6038362722,4620833.5216966402,-42500.0,718.23154237788049,-561.09165167044034,-1764.3055925000508,-449.68702594248123,-1617.4581344502292,-906.28527540747848,1997.517839421804,-362.33751627503182,632.93775385195283,-632.93775385195283,362.33751627503182,3764.1415262517621,0.0
347154.6038362722,4620833.5216966402,-42500.0,895.13332687973423,-299.77886584808203,-1782.1649596016007,-283.66030400231784,-1614.962003112895,-887.04333278132651,1997.0506441090765,-129.89853500996367,492.85055824077688,-492.85055824077688,129.89853500996367,3729.3376982839391,0.0
352154.6038362722,4620833.5216966402,-42500.0,1022.7343241437741,-6.1395862931408587,-1713.9717430174896,-101.16690370393393,-1551.9014945803935,-837.17625493899448,1960.8423943239106,123.12802736019643,327.37379059894937,-327.37379059894937,-123.12802736019643,3621.4376912333155,0.0
357154.6038362722,4620833.5216966402,-42500.0,1085.5532972560854,295.75287569948318,-1548.8308432988731,83.359677813348654,-1421.9078557487464,-754.36186784772576,1886.5232504737969,377.28434465391126,147.25949568280987,-147.25949568280987,-377.28434465391126,3439.0327030575604,0.0
362154.6038362722,4620833.5216966402,-42500.0,1076.1626628078998,575.65285799326966,-1287.339831705387,252.11167041507514,-1225.8062784817571,-639.54468522890545,1775.0458816376199,609.45896197184015,-32.716923410129141,32.716923410129141,-609.45896197184015,3188.6250591218836,0.0
367154.6038362722,4620833.5216966402,-42500.0,998.47743844183833,802.18291783668349,-944.38913031768266,386.68398458081964,-973.35461113435133,-497.74578545972713,1631.288049766461,796.94303933575191,-195.86063438658232,195.86063438658232,-796.94303933575191,2885.7885869335937,0.0
372154.6038362722,4620833.5216966402,-42500.0,868.4211340736897,949.46831863420607,-548.73486811549674,471.78504567494321,-683.12159944282996,-338.10136083976465,1463.9513340307176,922.31265122269087,-326.69641616240284,326.69641616240284,-922.31265122269087,2554.6772948738299,0.0
377154.6038362722,4620833.5216966402,-42500.0,711.08871822490687,1003.3436031461043,-138.66984230988029,498.82002884691542,-380.03369162369535,-172.85838797411537,1284.6298370356415,977.54986600245638,-414.27317481319045,414.27317481319045,-977.54986600245638,2225.3419330461875,0.0
382154.6038362722,4620833.5216966402,-42500.0,554.94616141989457,964.82907705853131,245.330699747892,468.06403730211593,-90.994609891474923,-15.423254724656825,1106.2323414130203,965.81300629664599,-454.49709226687912,454.49709226687912,-965.81300629664599,1928.5655666385019,0.0
387154.6038362722,4620833.5216966402,-42500.0,425.01091510116316,849.46233202525855,568.7057341814201,388.54560020099677,160.16089762545153,122.02776752121612,941.47815192007931,900.10964978409231,-450.63409177002598,450.63409177002598,-900.10964978409231,1688.3721294798813,0.0
392154.6038362722,4620833.5216966402,-42500.0,337.46859028280682,682.77248988981614,808.97242624054422,275.65953292956459,356.78121815939181,230.64166038639593,805.48523304749904,799.42628847178332,-411.86029220498051,411.86029220498051,-799.42628847178332,1514.0921482966121,0.0
397154.6038362722,4620833.5216966402,-42500.0,297.43891335008357,493.73412327400865,958.19044927283392,147.42987405446016,491.40092509209086,306.06698077381247,741.68446863742997,683.86924018332309,-350.52581860720204,350.52581860720204,-683.86924018332309,1397.1104076844324,0.0
402154.6038362722,4620833.5216966402,-42500.0,300.10586007836304,308.56608609036721,1021.5855948150092,20.745703386843427,565.36255841464833,348.48484206263703,725.3526791162684,570.52217644419034,-279.18940306017942,279.18940306017942,-570.52217644419034,1316.7398326543293,0.0
407154.6038362722,4620833.5216966402,-42500.0,334.10713211265227,146.6249975919317,1013.5872050657441,-91.346504903688995,586.65884627313426,361.6913897713406,705.49663400668521,471.08877073636882,-208.33822187650449,208.33822187650449,-471.08877073636882,1251.2977802134362,0.0
412154.6038362722,4620833.5216966402,-42500.0,385.56522992484429,18.950177249776903,953.04882183085397,-180.83658887745486,567.0136698235973,351.6868835413095,676.43493496358133,391.46250547255949,-145.2208019171681,145.2208019171681,-391.46250547255949,1185.7939212671654,0.0
417154.6038362722,4620833.5216966402,-42500.0,441.44520471914433,-71.010192033293166,859.10930750618206,-244.58413395396312,519.13817479186832,325.2470634231878,638.66590952709657,332.69191222151329,-93.728837815615464,93.728837815615464,-332.69191222151329,1113.3651578300703,0.0
422154.6038362722,4620833.5216966402,-42500.0,491.60617751207104,-125.44479003956891,748.42678788350418,-283.28870973550914,454.71784233127823,288.80014207849587,594.19749528742102,292.57838853253685,-54.973922326119691,54.973922326119691,-292.57838853253685,1033.1715720852872,0.0
427154.6038362722,4620833.5216966402,-42500.0,529.54395062003766,-149.91180871260809,633.85643660507503,-300.13988504269548,383.28231437856283,247.73739435174915,545.63151972017943,267.276156708006,-28.154814896631422,28.154814896631422,-267.276156708006,947.67107840238828,0.0
432154.6038362722,4620833.5216966402,-42500.0,552.1777816465883,-151.36664227955589,524.25009579943162,-299.55019805756712,311.83220641401192,206.12983202271093,495.59963313931638,252.53795198466378,-11.409085275643861,11.409085275643861,-252.53795198466378,860.52852374314477,0.0
437154.6038362722,4620833.5216966402,-42500.0,559.12084477526707,-136.75082326919625,424.93582951749659,-286.18190044789714,244.97821541114476,166.74185815481005,446.37621592357016,244.50139535997695,-2.4844594166204672,2.4844594166204672,-244.50139535997695,775.34578651008155,0.0
442154.6038362722,4620833.5216966402,-42500.0,551.7973845173608,-112.15938611120279,338.49457888750777,-264.32015426482798,185.35053942660954,131.21770159779973,399.67505656940176,240.0697130083976,0.81634242700457094,-0.81634242700457094,-240.0697130083976,695.03497260505344,0.0
447154.6038362722,4620833.5216966402,-42500.0,532.63509665026891,-82.473970849311257,265.57177335234695,-237.54974629683784,134.09427073106673,100.33707260352821,356.60116811594207,237.00400507368204,0.39284476502302823,-0.39284476502302823,-237.00400507368204,621.60500892232528,0.0
452154.6038362722,4620833.5216966402,-42500.0,504.43819695423645,-51.311152907226138,205.58207505526957,-208.65346043104554,91.337366214003509,74.271016201179791,317.71080295228296,233.84652610784417,-2.2472018140737049,2.2472018140737049,-233.84652610784417,556.17940978945023,0.0
457154.6038362722,4620833.5216966402,-42500.0,469.9621283849599,-21.1503657355562,157.25410420428034,-179.64893952553382,56.577058896084317,52.801298774354976,283.13389524341909,229.76803276935817,-5.9882566680137757,5.9882566680137757,-229.76803276935817,499.12529135024835,0.0
292154.6038362722,4625833.5216966402,-42500.0,-868.19113701187314,-877.98357855294819,-289.21859352934558,-805.68522286983944,-588.57467104120417,-469.143117332369,1227.8890789744328,-847.01503814970113,711.88519718850955,-711.88519718850955,847.01503814970113,2358.5212822960552,0.0
297154.6038362722,4625833.5216966402,-42500.0,-838.22162468329793,-963.73240892254648,-383.54672485925556,-864.44248160629661,-687.61733471473144,-531.54399571410158,1336.4188149058816,-902.31933471291848,771.63457509728062,-771.63457509728062,902.31933471291848,2570.58699316923,0.0
302154.6038362722,4625833.5216966402,-42500.0,-784.845674176074,-1047.6379617341602,-497.3402546727055,-919.37854670027912,-800.53955604895464,-599.97954335753116,1451.3633986320415,-951.7679772267976,830.81242915154314,-830.81242915154314,951.7679772267976,2795.4753108316863,0.0
307154.6038362722,4625833.5216966402,-42500.0,-703.40821697461115,-1124.730365890571,-632.32152388447844,-967.00007939999296,-927.63829012031624,-673.96591563406935,1571.6318932561389,-990.95489379931473,886.74623195866093,-886.74623195866093,990.95489379931473,3030.7900375386066,0.0
312154.6038362722,4625833.5216966402,-42500.0,-589.5398281868238,-1188.2496065676792,-789.13805532520871,-1002.844415810661,-1068.2725811447667,-752.48547695894888,1695.5379253575327,-1014.1991060632522,935.77771213638744,-935.77771213638744,1014.1991060632522,3272.6729360700615,0.0
317154.6038362722,4625833.5216966402,-42500.0,-439.86903154820851,-1229.4805650401584,-966.5756041734993,-1021.4536853225129,-1220.3688236015814,-833.79830060205211,1820.6598454189198,-1014.5137320477093,973.12831776233247,-973.12831776233247,1014.5137320477093,3515.3926405980892,0.0
322154.6038362722,4625833.5216966402,-42500.0,-253.03971095551748,-1237.8543963627446,-1160.5445807501267,-1016.5034631951722,-1379.8125322623575,-915.22331976333066,1943.6707357127418,-983.81125520045725,992.8764175553647,-992.8764175553647,983.81125520045725,3750.9270367730755,0.0
327154.6038362722,4625833.5216966402,-42500.0,-31.016253523246014,-1201.5215703210624,-1362.9190705132021,-981.18972088560611,-1539.7807212419257,-992.90630800313284,2060.1157142353027,-913.4981071584981,988.15328120736092,-988.15328120736092,913.4981071584981,3968.6256541902171,0.0
332154.6038362722,4625833.5216966402,-42500.0,219.46247794764298,-1108.636239465678,-1560.4462697835738,-908.99542453596723,-1690.1464429640614,-1061.6179717371049,2164.1628777082547,-795.6232886202921,951.69441030735322,-951.69441030735322,795.6232886202921,4155.1007142688177,0.0
337154.6038362722,4625833.5216966402,-42500.0,485.61657138193277,-949.54680579802948,-1734.1348641166032,-794.93906540397006,-1817.1972398910134,-1114.667572226851,2248.4891726633091,-624.68479982274289,876.87966313796937,-876.87966313796937,624.68479982274289,4294.5653958258281,0.0
342154.6038362722,4625833.5216966402,-42500.0,748.12236029229734,-719.89112415385125,-1859.7270563202446,-637.3109544888523,-1904.0243278714479,-1144.0704021649005,2304.5625902417346,-400.01483397031939,759.3183236571715,-759.3183236571715,400.01483397031939,4369.88210501716,0.0
347154.6038362722,4625833.5216966402,-42500.0,982.13217530423242,-424.18741496866807,-1909.9419979699044,-439.6921748925912,-1931.9974991496645,-1141.153422907171,2323.5015740154849,-128.32784163146172,598.84249824572544,-598.84249824572544,128.32784163146172,4364.5584930688583,0.0
352154.6038362722,4625833.5216966402,-42500.0,1160.4962687162456,-78.921460799871241,-1858.951522130209,-212.7266641049176,-1883.6218649872967,-1097.7666939434314,2297.4939836500957,174.42007856942894,401.45945726067339,-401.45945726067339,-174.42007856942894,4265.7528220675786,0.0
357154.6038362722,4625833.5216966402,-42500.0,1259.300115105334,286.4169849188101,-1688.835314485799,25.211977145321949,-1746.6641629374403,-1008.1249421048743,2221.5749696252542,483.03882274520464,180.4764074142708,-180.4764074142708,-483.03882274520464,4067.9922381397937,0.0
362154.6038362722,4625833.5216966402,-42500.0,1264.7125284429417,631.94710571932171,-1396.6012910168972,249.40507068175816,-1518.7358559919833,-870.99809586852416,2095.3863019714577,766.01927064616007,-44.121717158679587,44.121717158679587,-766.01927064616007,3776.8254949826578,0.0
367154.6038362722,4625833.5216966402,-42500.0,1178.8494319978645,914.34523616245781,-999.20443196142526,432.72875211657356,-1210.7735427650337,-691.57829938082568,1924.3746625203003,991.50806939523,-248.61906199274387,248.61906199274387,-991.50806939523,3411.2003828587785,0.0
372154.6038362722,4625833.5216966402,-42500.0,1021.7683845642086,1096.8982844197258,-533.74125671930312,551.59720842221373,-847.59516982233822,-482.11410056375479,1719.877416442816,1134.974419927388,-410.50283829798786,410.50283829798786,-1134.974419927388,3003.2578584016869,0.0
377154.6038362722,4625833.5216966402,-42500.0,827.69193035711271,1159.358545821937,-51.351662387088894,592.10027619896869,-464.41599679975195,-260.6050250468989,1497.7952803703306,1185.8323068470204,-513.91259687765114,513.91259687765114,-1185.8323068470204,2594.5286689920449,0.0
382154.6038362722,4625833.5216966402,-42500.0,636.10772087526652,1103.5391066185191,393.88888666124035,553.90917013472927,-99.863516847310891,-47.581951203434933,1276.0938660743807,1150.1514217079157,-553.50867011435048,553.50867011435048,-1150.1514217079157,2228.0617064611515,0.0
387154.6038362722,4625833.5216966402,-42500.0,481.09560545935477,952.10348849573029,757.20107558734958,450.20384243805887,212.24171879576392,138.08219014752814,1072.2357291490541,1048.1551854618021,-535.15395283948351,535.15395283948351,-1048.1551854618021,1936.8256538110752,0.0
392154.6038362722,4625833.5216966402,-42500.0,383.21267416244081,741.15777925363784,1011.902897143349,303.64545414893138,449.39488155117056,282.86161310265095,908.25683524968179,907.66926860761396,-473.25546160018371,473.25546160018371,-907.66926860761396,1731.7115776870339,0.0
397154.6038362722,4625833.5216966402,-42500.0,346.76329449840131,510.02447139985293,1152.0399330165983,140.17907244457629,603.14956156970959,380.54456040338721,853.69317134504774,756.4350507070435,-386.11422529252155,386.11422529252155,-756.4350507070435,1597.8429073022219,0.0
402154.6038362722,4625833.5216966402,-42500.0,362.43355347575067,292.25341971269285,1189.1117326720864,-16.886546766620661,677.86028549407445,432.09601849233189,836.24465376418402,616.19705189552815,-291.24946035166045,291.24946035166045,-616.19705189552815,1505.4024649873659,0.0
407154.6038362722,4625833.5216966402,-42500.0,413.03007964227453,110.468449806872,1145.4110096681486,-150.72042372449411,686.75877787040758,443.90299308370408,808.61440150930753,500.0329982412469,-202.19656356234927,202.19656356234927,-500.0329982412469,1426.3228459673935,0.0
412154.6038362722,4625833.5216966402,-42500.0,479.53250921992947,-24.578307146010818,1046.9604383903854,-252.20551894805479,647.24875890235,425.32418459001752,768.82198617523272,412.70158224946596,-127.27058018377346,127.27058018377346,-412.70158224946596,1343.5402239093428,0.0
417154.6038362722,4625833.5216966402,-42500.0,545.54544977427065,-111.96815087610638,918.10285472587623,-319.10321707097597,576.91123158055086,386.39558193948176,718.79593920695595,352.7990975977616,-69.933912446234842,69.933912446234842,-352.7990975977616,1250.9960269374849,0.0
422154.6038362722,4625833.5216966402,-42500.0,599.52981502419175,-157.28716291402856,778.44821846599018,-354.12354741757582,490.91438825518878,336.18504978441609,661.73876472705319,315.41265709032416,-30.037394716954736,30.037394716954736,-315.41265709032416,1149.7384531136483,0.0
427154.6038362722,4625833.5216966402,-42500.0,635.1475703024812,-169.34916789649208,641.89857458221002,-362.78851322313142,400.84116287126068,281.91423464098568,601.23974216452268,294.38823210585986,-5.2647508224615933,5.2647508224615933,-294.38823210585986,1044.0828016875544,0.0
432154.6038362722,4625833.5216966402,-42500.0,650.44373829834819,-157.68254971996052,517.04636134659927,-351.6416245944701,314.57587279515405,228.71991536154874,540.60634677612347,283.85344429413965,7.6377183024668795,-7.6377183024668795,-283.85344429413965,939.04727589593699,0.0
437154.6038362722,4625833.5216966402,-42500.0,646.55719582445499,-130.95995271121444,408.24009728585628,-327.01674252671387,236.80404193586199,179.82986301575477,482.44891487522602,279.00656166246995,12.00848410641126,-12.00848410641126,-279.00656166246995,838.98759170511892,0.0
442154.6038362722,4625833.5216966402,-42500.0,626.43697553612708,-96.240412041965911,316.81017641755466,-294.35084733571153,169.75860120294354,136.94093887374621,428.52646142711461,276.35959099242126,10.786908970671732,-10.786908970671732,-276.35959099242126,747.04879116862742,0.0
447154.6038362722,4625833.5216966402,-42500.0,593.80636465868395,-58.780399883960804,242.16713730842548,-257.91553393533968,113.97293222453632,100.64453244521293,379.79051814385684,273.65331394790798,6.3114434410550757,-6.3114434410550757,-273.65331394790798,665.08635178601946,0.0
452154.6038362722,4625833.5216966402,-42500.0,552.4452538927361,-22.1767508445053,182.65655128144377,-220.81916431081962,68.918847038091499,70.81003448145772,336.54852345654638,269.6208372928686,0.29817356988687038,-0.29817356988687038,-269.6208372928686,593.81904944546466,0.0
457154.6038362722,4625833.5216966402,-42500.0,505.76344807134353,11.338801315395482,136.15887873625928,-185.15402522409551,33.489490879500337,46.888467483685581,298.67748108708872,263.71531187031098,-6.0850897970430822,6.0850897970430822,-263.71531187031098,533.07398953421057,0.0
462154.6038362722,4625833.5216966402,-42500.0,456.59723797979461,40.569323964810934,100.47246404613702,-152.19954435962356,6.3334369287353267,28.130736671550046,265.8414233582057,255.86393452234066,-12.107753151347282,12.107753151347282,-255.86393452234066,482.05073670391823,0.0
287154.6038362722,4630833.5216966402,-42500.0,-999.35341727532364,-781.88373640317445,-117.45923710816712,-821.94119372562079,-491.29688233952038,-448.77108868969157,1186.9560850354419,-776.66509415975042,667.82766903180845,-667.82766903180845,776.66509415975042,2276.0117055180513,0.0
292154.6038362722,4630833.5216966402,-42500.0,-1004.0759521546038,-876.32281660433262,-185.0277253050445,-897.50858419921644,-582.32130166272793,-514.06193846004601,1301.1055372704141,-840.58744324126963,734.1636401445445,-734.1636401445445,840.58744324126963,2499.4585274460778,0.0
297154.6038362722,4630833.5216966402,-42500.0,-989.90472163401432,-975.84157122798388,-270.64277848446756,-974.4777050158375,-689.10054479128644,-587.69120011865175,1424.7068612627249,-903.75321403628266,803.82633239168865,-803.82633239168865,903.75321403628266,2742.2647524137301,0.0
302154.6038362722,4630833.5216966402,-42500.0,-951.27367905770586,-1077.4405532897124,-377.50547957735068,-1050.2963413095451,-813.40446369980612,-670.02895476526714,1557.4713906228867,-962.94603870897424,875.18333787391396,-875.18333787391396,962.94603870897424,3003.967606122163,0.0
307154.6038362722,4630833.5216966402,-42500.0,-881.9707437979979,-1176.3875114913649,-508.62219738419725,-1121.3205671054964,-956.60620313506604,-761.12174055977403,1698.6181244149363,-1013.5789667622254,945.65082737829914,-945.65082737829914,1013.5789667622254,3282.9717142929821,0.0
312154.6038362722,4630833.5216966402,-42500.0,-775.5221243686866,-1265.7218930944662,-666.23359689864594,-1182.5655622997413,-1119.2551998661156,-860.50860511263159,1846.7247603376552,-1049.3834121321865,1011.3915661916894,-1011.3915661916894,1049.3834121321865,3576.0580249977797,0.0
317154.6038362722,4630833.5216966402,-42500.0,-625.91783037785422,-1335.8062797824114,-850.92265730077088,-1227.4952502804972,-1300.4508388729071,-966.96631505133621,1999.5753586662609,-1062.1823992983361,1067.0083203944248,-1067.0083203944248,1062.1823992983361,3877.7686700534459,0.0
322154.6038362722,4630833.5216966402,-42500.0,-428.79815825524037,-1374.0976203806881,-1060.3418069076447,-1247.9430468744151,-1496.9840057087645,-1078.1654556851688,2153.9813086167374,-1041.8992985613563,1105.3158608459612,-1105.3158608459612,1041.8992985613563,4179.6917554489555,0.0
327154.6038362722,4630833.5216966402,-42500.0,-183.18031132139339,-1365.4232022127139,-1287.5790155835962,-1234.3193536986166,-1702.2629268561959,-1190.2296153090865,2305.4495771833099,-977.03519107719524,1117.343071762295,-1117.343071762295,977.03519107719524,4469.7351636087369,0.0
332154.6038362722,4630833.5216966402,-42500.0,106.33204259574877,-1293.1568131223455,-1519.355210949223,-1176.3287302395677,-1905.1442422873911,-1297.222337754589,2447.5311372188098,-855.91328723481615,1092.7932412077157,-1092.7932412077157,855.91328723481615,4731.5767673835926,0.0
337154.6038362722,4630833.5216966402,-42500.0,427.19351248746102,-1141.7293180471238,-1734.5373987763514,-1064.4599466798663,-2088.9762068614577,-1390.6630040398913,2571.095828657948,-668.97162794994415,1021.2428125929441,-1021.2428125929441,668.97162794994415,4944.6226795577541,0.0
342154.6038362722,4630833.5216966402,-42500.0,757.18721596429839,-900.73814519114262,-1903.828957165973,-892.44131918395067,-2231.4094600473327,-1459.2983313630177,2664.325070362921,-412.1773446232379,894.30652118064165,-894.30652118064165,412.1773446232379,5084.9403186820136,0.0
347154.6038362722,4630833.5216966402,-42500.0,1064.5656380979719,-570.37909720973028,-1991.8041976750321,-660.5678820891319,-2305.7556049394061,-1489.510701436368,2713.8809275865369,-91.129665980042034,708.73726119719709,-708.73726119719709,91.129665980042034,5127.6772609097507,0.0
352154.6038362722,4630833.5216966402,-42500.0,1311.4937351899125,-166.94321771513918,-1962.3629313106323,-379.23105597230165,-2284.6658610836234,-1466.8317233331534,2707.0591010193602,275.37128919727417,469.89475634247134,-469.89475634247134,-275.37128919727417,5051.2912693529488,0.0
357154.6038362722,4630833.5216966402,-42500.0,1461.6097938578605,274.04840277147804,-1787.760498714478,-71.219390519766534,-2146.3586323838795,-1378.8705833073614,2634.5879598863025,654.29150642238278,194.30331297691436,-194.30331297691436,-654.29150642238278,4843.3515089745642,0.0
362154.6038362722,4630833.5216966402,-42500.0,1490.7232926212182,700.07422798884886,-1459.4588558590713,229.14036186798353,-1882.3853050841005,-1219.398909059704,2493.5842977197844,1001.9565434885229,-90.46417598463438,90.46417598463438,-1001.9565434885229,4506.7653498312602,0.0
367154.6038362722,4630833.5216966402,-42500.0,1397.1012464089472,1051.0943789828025,-996.76998119099005,481.45481816220439,-1504.3146190523762,-992.41597861278194,2289.7969177794926,1273.0145818281121,-349.95533113496623,349.95533113496623,-1273.0145818281121,4064.3446354657281,0.0
372154.6038362722,4630833.5216966402,-42500.0,1206.0960771911039,1274.9086194988331,-448.27225263045898,648.90469956761217,-1045.803195041801,-714.26393635684019,2038.0934106837194,1432.7229355481977,-550.80746552884864,550.80746552884864,-1432.7229355481977,3559.2492500441717,0.0
377154.6038362722,4630833.5216966402,-42500.0,965.12574287615109,1342.9423603879691,116.99686471802559,708.94026524625122,-557.5536943670196,-412.04465683650591,1760.525061458208,1467.7177513898116,-669.94543423015989,669.94543423015989,-1467.7177513898116,3049.3889114070125,0.0
382154.6038362722,4630833.5216966402,-42500.0,729.66815984007167,1259.182702144552,626.64741075095412,660.33101052957784,-95.841507539728184,-118.09387976953296,1482.244201245059,1389.9984661074227,-701.03350740960116,701.03350740960116,-1389.9984661074227,2595.0467850155787,0.0
387154.6038362722,4630833.5216966402,-42500.0,546.24864756826582,1057.6859698089156,1023.5398880438506,523.06645615588843,291.14463656310187,137.63203851585973,1226.8024999595762,1231.9225337739672,-655.15018623959975,655.15018623959975,-1231.9225337739672,2240.7573658695092,0.0
392154.6038362722,4630833.5216966402,-42500.0,440.23711193537827,790.08223254926031,1278.047850601695,331.23318781498892,573.58819879803468,334.19052424668905,1025.3445100072195,1034.8033366967472,-555.64402515987854,555.64402515987854,-1034.8033366967472,1997.7152010862183,0.0
397154.6038362722,4630833.5216966402,-42500.0,413.05794640365701,509.48213765659847,1389.911752558673,122.50507595619393,743.41685162149054,462.86787829597961,992.44162338716387,836.71400212040726,-430.03796400477722,430.03796400477722,-836.71400212040726,1841.1441656926972,0.0
402154.6038362722,4630833.5216966402,-42500.0,447.89035821103096,257.73826350635153,1381.2086722905267,-71.147560765289356,810.95627859512206,526.44811548182918,968.37692493718941,664.38995298494285,-302.68548516805276,302.68548516805276,-664.38995298494285,1729.554342616233,0.0
407154.6038362722,4630833.5216966402,-42500.0,519.26278941621081,59.641903307941263,1285.4054180493572,-228.63723570576801,797.82437714089008,535.77224563043285,927.56122600361641,530.9207811926085,-190.53239442456288,190.53239442456288,-530.9207811926085,1628.3937264055587,0.0
412154.6038362722,4630833.5216966402,-42500.0,601.85027684358533,-76.43655602598237,1137.3375776897262,-340.52412243595842,729.49366856821689,505.46767009463576,871.87370949745264,437.93243637592423,-102.27340466284909,102.27340466284909,-437.93243637592423,1519.7133383650828,0.0
417154.6038362722,4630833.5216966402,-42500.0,675.95537300460933,-154.19007822171301,966.68541539525268,-406.79277355044837,629.73542782660013,450.32369781788947,805.1559817690071,379.7704661365168,-39.815524063514346,39.815524063514346,-379.7704661365168,1399.4629207564744,0.0
422154.6038362722,4630833.5216966402,-42500.0,729.44946026631703,-184.10464778017959,795.19926486157181,-433.45895956009559,517.59704363614321,382.98251657152122,732.10921065396474,347.60476145170952,-0.65118247915330585,0.65118247915330585,-347.60476145170952,1271.3009814117022,0.0
427154.6038362722,4630833.5216966402,-42500.0,757.21464733053301,-179.03889098478294,636.64966906014786,-429.35160489639935,406.51210387280366,312.9371294860245,657.37607652516647,332.39647063785822,19.882260625853547,-19.882260625853547,-332.39647063785822,1141.6232148499241,0.0
432154.6038362722,4630833.5216966402,-42500.0,759.37306337025461,-151.29705495588209,498.22689342959438,-403.72850969266347,304.76346650470379,246.48593213450749,584.81445217846431,326.54066398944019,26.942023314165255,-26.942023314165255,-326.54066398944019,1016.6694931031818,0.0
437154.6038362722,4630833.5216966402,-42500.0,739.2768513090067,-111.11376491868435,382.39242452205644,-364.84493842838981,216.56814013287484,187.22085630530364,517.13662789384659,324.45903250024674,25.196172581475793,-25.196172581475793,-324.45903250024674,901.21678850700539,0.0
442154.6038362722,4630833.5216966402,-42500.0,701.79893055130299,-66.167097820749035,288.60344108012907,-319.30903430585738,143.28372515390086,136.71078873285762,455.88898300930691,322.54226383891069,18.385380971886178,-18.385380971886178,-322.54226383891069,798.22488030763225,0.0
447154.6038362722,4630833.5216966402,-42500.0,652.11800329868947,-21.705312761755149,214.66568573606696,-271.96793205019463,84.467114102101633,95.167991662659261,401.65737454865564,318.78404618256263,9.2417080039826658,-9.2417080039826658,-318.78404618256263,708.96818147009958,0.0
452154.6038362722,4630833.5216966402,-42500.0,594.98304590695614,19.037888677178501,157.67536746409138,-226.08920444403685,38.684953053413892,61.995179378288277,354.37756857966809,312.33319327313734,-0.40137888985347558,0.40137888985347558,-312.33319327313734,633.37214213644017,0.0
457154.6038362722,4630833.5216966402,-42500.0,534.3541800171181,54.349552268835197,114.61009713526914,-183.66657308682781,4.0742167486513505,36.186068138108347,313.66938190504368,303.08578560365942,-9.4236289546036005,9.4236289546036005,-303.08578560365942,570.40783216570208,0.0
462154.6038362722,4630833.5216966402,-42500.0,473.29800903679933,83.579002096259714,82.658433911110407,-145.74396764985792,-21.30475096502029,16.591918331198016,279.20746661928877,291.36527864077965,-17.22540927675351,17.22540927675351,-291.36527864077965,518.47294630062811,0.0
467154.6038362722,4630833.5216966402,-42500.0,414.03288479056579,106.76282519779252,59.373348067882354,-112.70352028567493,-39.2683587664622,2.0825732758681896,251.35356981755533,277.69645712964495,-23.56081013948814,23.56081013948814,-277.69645712964495,475.72208746122527,0.0
282154.6038362722,4635833.5216966402,-42500.0,-1082.6905169102893,-655.62591386426925,27.533028696254696,-809.79447230334574,-389.85442645182235,-418.46378885991851,1127.7097408749289,-680.16354414400291,603.21243670011415,-603.21243670011415,680.16354414400291,2156.18877066815,0.0
287154.6038362722,4635833.5216966402,-42500.0,-1118.8318402063042,-747.97979542223698,-12.087760868304093,-896.43123033887878,-468.04419571732808,-483.45060927893667,1243.0752550417151,-744.73806626309306,670.15125285729459,-670.15125285729459,744.73806626309306,2381.5481588679841,0.0
292154.6038362722,4635833.5216966402,-42500.0,-1142.4714468960583,-850.0575262058934,-65.879324642431357,-989.20061773934458,-561.8884897664044,-558.28840605197377,1370.1671010136802,-812.22937296846885,743.17407352122927,-743.17407352122927,812.22937296846885,2630.9497463773346,0.0
297154.6038362722,4635833.5216966402,-42500.0,-1148.3219664287917,-960.90935019075948,-137.4250306774814,-1086.8566154658856,-674.10413170015283,-644.11119992031433,1509.4971029444091,-880.77191299950834,821.74732574636948,-821.74732574636948,880.77191299950834,2905.7696707863529,0.0
302154.6038362722,4635833.5216966402,-42500.0,-1129.8547715754744,-1078.3188515018346,-230.76846636012331,-1187.2311439798943,-807.54840237320752,-742.00294832070631,1661.2480270791584,-947.34200413339966,904.6278684816142,-904.6278684816142,947.34200413339966,3206.7653841579004,0.0
307154.6038362722,4635833.5216966402,-42500.0,-1079.2920509414253,-1198.2126882324089,-350.16571867717568,-1286.8779156555111,-964.97597863096235,-852.88430682559897,1825.104963562696,-1007.3153082597639,989.51133478987435,-989.51133478987435,1007.3153082597639,3533.6450009963814,0.0
312154.6038362722,4635833.5216966402,-42500.0,-987.8247290034351,-1313.9308962019113,-499.56793146187272,-1380.6368063707828,-1148.600074252799,-977.32695776761057,2000.0665844884352,-1053.9558497097203,1072.5752100237498,-1072.5752100237498,1053.9558497097203,3884.4488489876085,0.0
317154.6038362722,4635833.5216966402,-42500.0,-846.22656044240603,-1415.421890674889,-681.69805444263341,-1461.1492163834093,-1359.3647229739429,-1115.2516463313864,2184.2947468282418,-1077.9181947709112,1147.9375491074861,-1147.9375491074861,1077.9181947709112,4254.6976690710399,0.0
322154.6038362722,4635833.5216966402,-42500.0,-646.08963796700402,-1488.5366869721965,-896.57763186748184,-1518.4177292857598,-1595.8274883342949,-1265.4487988022088,2375.0887808646135,-1066.9436552526345,1207.1158246105701,-1207.1158246105701,1066.9436552526345,4636.2922358584956,0.0
327154.6038362722,4635833.5216966402,-42500.0,-381.91944733498514,-1514.7728737763841,-1139.416930689938,-1539.6097426606589,-1852.5838353596077,-1424.851105872661,2568.7872407223717,-1006.0762050733623,1238.6796499119394,-1238.6796499119394,1006.0762050733623,5016.2233236366219,0.0
332154.6038362722,4635833.5216966402,-42500.0,-54.220687119847547,-1472.047500894146,-1397.9694166469596,-1509.4612162272831,-2118.2865372896713,-1587.5155508649623,2759.4834697958777,-878.88419241834447,1228.4469538243457,-1228.4469538243457,878.88419241834447,5375.3042098919459,0.0
337154.6038362722,4635833.5216966402,-42500.0,326.63748127535411,-1337.2779323667519,-1649.8471415485601,-1411.8024212967293,-2373.5865013135499,-1743.3839020304049,2936.316616940434,-670.2586600711669,1160.7332366968585,-1160.7332366968585,670.2586600711669,5687.3850082229228,0.0
342154.6038362722,4635833.5216966402,-42500.0,736.67370849853546,-1091.5124785672142,-1860.9155952517012,-1232.7784641626054,-2589.7784587450083,-1877.1390720040847,3082.7205835802411,-371.17428698564993,1021.2030519179792,-1021.2030519179792,371.17428698564993,5919.8107584355575,0.0
347154.6038362722,4635833.5216966402,-42500.0,1136.5328081363743,-727.74290399945505,-1986.5804610139432,-966.03536093174648,-2729.4898737488302,-1967.863345006695,3178.7162123387225,14.90427531223196,801.57504902959886,-801.57504902959886,-14.90427531223196,6036.1062134773956,0.0
352154.6038362722,4635833.5216966402,-42500.0,1474.3891715371249,-260.03513377668457,-1978.0452968682787,-619.21677553592474,-2751.0716990398528,-1990.5868276786275,3204.2518988949864,465.64652426682812,505.56950297664059,-505.56950297664059,-465.64652426682812,6001.757192636931,0.0
357154.6038362722,4635833.5216966402,-42500.0,1695.825741614804,269.62826562742964,-1794.6025661600579,-219.53457136084504,-2617.7716962558134,-1920.77789287477,3143.3168819296384,936.83259884496397,154.07528616567441,-154.07528616567441,-936.83259884496397,5793.1240593476923,0.0
362154.6038362722,4635833.5216966402,-42500.0,1760.3151669984516,792.15846509722246,-1420.0496467137245,185.33576296710223,-2310.697280199633,-1741.8527449591547,2988.7013100772706,1366.7084491415808,-213.76356898753249,213.76356898753249,-1366.7084491415808,5407.8912462888411,0.0
367154.6038362722,4635833.5216966402,-42500.0,1659.0213155342478,1224.1658670684662,-877.04394906779669,534.61955893307322,-1841.2588050029465,-1453.7250176473733,2746.0317521406369,1689.7780974581733,-546.59679957236483,546.59679957236483,-1689.7780974581733,4873.4578378834731,0.0
372154.6038362722,4635833.5216966402,-42500.0,1424.4233409132253,1491.6286170514561,-230.60278371765594,770.31607388004136,-1256.2921952625491,-1078.309699366906,2435.0614409161999,1856.9202113405065,-794.16527299551649,794.16527299551649,-1856.9202113405065,4248.5920225137224,0.0
377154.6038362722,4635833.5216966402,-42500.0,1123.5375751234362,1555.3338715607288,425.11911816450737,856.14216817098736,-630.44095223097486,-657.77718845317838,2086.7762361579717,1853.0161138801641,-923.17403265458017,923.17403265458017,-1853.0161138801641,3614.5903633198977,0.0
382154.6038362722,4635833.5216966402,-42500.0,835.199318433087,1424.8680997391295,993.68346311979201,790.22074341948792,-46.663235583680411,-244.56057139371319,1736.6588390985953,1702.2637203255342,-927.97945037922022,927.97945037922022,-1702.2637203255342,3054.9549283125957,0.0
387154.6038362722,4635833.5216966402,-42500.0,622.50010462765158,1152.9945562319708,1404.6314066862042,604.44601345767035,426.8384408848961,112.97191111537158,1416.3910032888766,1457.6852893569219,-830.37895819507662,830.37895819507662,-1457.6852893569219,2626.9171583014245,0.0
392154.6038362722,4635833.5216966402,-42500.0,514.77589245379829,813.99788113127738,1629.6405213706803,351.22343701824445,752.55738577229226,382.53410979882756,1189.8752577976702,1180.8820789257175,-669.20638740773245,669.20638740773245,-1180.8820789257175,2337.6744709367299,0.0
397154.6038362722,4635833.5216966402,-42500.0,506.32465647639197,478.43024391375639,1681.1228505145018,85.352463193813577,926.65298923357705,552.79440761503884,1172.5408354316007,922.96192351115383,-486.06050813609926,486.06050813609926,-922.96192351115383,2147.6304537632786,0.0
402154.6038362722,4635833.5216966402,-42500.0,568.18627207174745,195.96946901832729,1598.123402517562,-150.23990912123321,970.87315354397299,630.80005028822461,1129.9881732265812,714.48661003277425,-314.100980927992,314.100980927992,-714.48661003277425,2002.7268792544708,0.0
407154.6038362722,4635833.5216966402,-42500.0,663.77303399138259,-9.5171689810124676,1429.0165929878508,-330.68661222283487,919.90185397359926,635.13498761269079,1066.2231858097914,565.35721503267541,-173.19155437962377,173.19155437962377,-565.35721503267541,1864.2220419462342,0.0
412154.6038362722,4635833.5216966402,-42500.0,760.90450520610523,-135.69343359944691,1218.2832428262147,-448.18490421993454,810.08837935128815,588.57868580367108,986.46054938403995,470.7186575822563,-70.615717915442076,70.615717915442076,-470.7186575822563,1715.8923216085641,0.0
417154.6038362722,4635833.5216966402,-42500.0,837.63997171020571,-193.69319687304218,999.78096321587248,-507.15401971566769,672.3721553842646,512.62196004318514,896.83794255303303,418.24659594243406,-4.708914434051934,4.708914434051934,-418.24659594243406,1557.2555539787097,0.0
422154.6038362722,4635833.5216966402,-42500.0,882.95669359226372,-200.45692404877806,795.39417541463479,-518.66412316733818,529.42075043783689,424.49585090893385,803.63509446065405,393.94013465320597,31.01930548817333,-31.01930548817333,-393.94013465320597,1395.0465580599594,0.0
427154.6038362722,4635833.5216966402,-42500.0,894.56447697844214,-173.33965764217945,616.75311626681878,-495.92013676008088,395.66846914136323,336.2919428912939,712.2940963890037,385.54305152506777,44.621635779554509,-44.621635779554509,-385.54305152506777,1237.4828448907072,0.0
432154.6038362722,4635833.5216966402,-42500.0,875.83244309846896,-127.17042583341299,468.0542873577412,-451.36062973877637,278.81914075414977,255.39275551901531,626.77521233587822,383.9263794692331,43.685213022902872,-43.685213022902872,-383.9263794692331,1091.39508166413,0.0
437154.6038362722,4635833.5216966402,-42500.0,832.99647684807974,-73.170621518643472,348.80199602253452,-395.21300068484402,181.76733920229881,185.49658522634834,549.40845518923766,383.16422273121088,34.372969584548599,-34.372969584548599,-383.16422273121088,961.22026359569236,0.0
442154.6038362722,4635833.5216966402,-42500.0,773.11138881561703,-18.998513877459516,255.96551345435586,-335.07567418196686,104.35623344670724,127.74841519829845,481.1330024363117,379.97185279502673,21.185331127772258,-21.185331127772258,-379.97185279502673,848.9800041543873,0.0
447154.6038362722,4635833.5216966402,-42500.0,702.79027414593327,30.667682951490416,185.46264591721047,-276.09713125113001,44.741861610925163,81.720474684931915,421.94239073130336,372.9601169334864,7.1145047779874062,-7.1145047779874062,-372.9601169334864,754.70186493808262,0.0
452154.6038362722,4635833.5216966402,-42500.0,627.57391350622333,73.388577240420602,133.06753943357236,-221.42223475658122,0.33584321786772581,46.149675609125268,371.39431313759644,361.94726999321733,-6.0430040167416053,6.0430040167416053,-361.94726999321733,676.98900511468412,0.0
457154.6038362722,4635833.5216966402,-42500.0,551.73056702793076,108.267744143256,94.898527891022766,-172.70020102609169,-31.605854394640645,19.436013968832313,329.22843941329694,347.42393417236792,-17.35322565135175,17.35322565135175,-347.42393417236792,613.59789664561697,0.0
462154.6038362722,4635833.5216966402,-42500.0,478.30820635706618,135.38598665867013,67.630457390672049,-130.54540508662336,-53.654775634446715,-0.053152012718738595,296.45883491969482,330.1823157132543,-26.456643545542789,26.456643545542789,-330.1823157132543,561.94692471188569,0.0
467154.6038362722,4635833.5216966402,-42500.0,409.30987697513336,155.38220507455665,48.543481668366724,-94.90819551293113,-68.055880692614963,-13.818469428002953,274.87380728949847,311.08398284721181,-33.346352168363325,33.346352168363325,-311.08398284721181,519.50735856878646,0.0
282154.6038362722,4640833.5216966402,-42500.0,-1176.7711904129274,-595.68894290306775,124.1172790178131,-864.62657593950451,-354.71053011050407,-443.06610515841163,1167.0348961755981,-627.22864647365952,587.81844303948481,-587.81844303948481,627.22864647365952,2227.3072205520407,0.0
287154.6038362722,4640833.5216966402,-42500.0,-1231.6601733722071,-689.00067801415594,100.48612362111488,-965.77871555739682,-431.41112984480174,-515.45818565465038,1292.6526807309551,-690.63901532153295,657.66167200776317,-657.66167200776317,690.63901532153295,2472.6850369610943,0.0
292154.6038362722,4640833.5216966402,-42500.0,-1276.6345004259358,-794.62595897187816,64.610465154060861,-1076.6826286264475,-525.1113510750497,-600.00869372617331,1432.5392553522702,-758.10663240306883,735.27478476690487,-735.27478476690487,758.10663240306883,2747.4521048829283,0.0
297154.6038362722,4640833.5216966402,-42500.0,-1306.1494312059469,-912.5449422677865,12.672607817038712,-1196.8431440549025,-639.36990166531712,-698.60206414754612,1587.7771247019498,-828.09452235488732,820.61478098082387,-820.61478098082387,828.09452235488732,3054.3502548432639,0.0
302154.6038362722,4640833.5216966402,-42500.0,-1312.9691347003952,-1041.6004415926072,-59.914949607400857,-1324.8711279083373,-778.22884162475202,-813.31856546570759,1759.1875997510169,-897.84102678237196,912.95526027267329,-912.95526027267329,897.84102678237196,3395.7726059815718,0.0
307154.6038362722,4640833.5216966402,-42500.0,-1287.9213485828614,-1178.799167197199,-158.38900721309162,-1458.0119420367826,-946.05235758547622,-946.3860811982828,1947.1142560562057,-962.77589164913161,1010.4399277902014,-1010.4399277902014,962.77589164913161,3773.3087082609118,0.0
312154.6038362722,4640833.5216966402,-42500.0,-1219.8281316560281,-1318.3558281157066,-288.24254757512949,-1591.4933518719952,-1147.1405651246625,-1100.0509952856446,2151.1387257705132,-1015.7745141830202,1109.4455199127151,-1109.4455199127151,1015.7745141830202,4187.0215635366758,0.0
317154.6038362722,4640833.5216966402,-42500.0,-1095.8339986102862,-1450.4911468120504,-454.36951208976927,-1717.677269388055,-1384.9679632247389,-1276.288193558732,2369.8209703076409,-1046.3127943771167,1203.7403324981763,-1203.7403324981763,1046.3127943771167,4634.3525378610202,0.0
322154.6038362722,4640833.5216966402,-42500.0,-902.47981099258402,-1560.119020685253,-659.50383979515868,-1825.069623018529,-1660.8450850788863,-1476.2162964525744,2600.8936953399143,-1039.7194321422735,1283.5010218964139,-1283.5010218964139,1039.7194321422735,5108.560042682494,0.0
327154.6038362722,4640833.5216966402,-42500.0,-627.98859396673322,-1625.7997145122085,-901.7144811865985,-1897.4002470962253,-1971.7889768764703,-1699.0263207504556,2842.8733298198645,-976.95065786680038,1334.4126911893734,-1334.4126911893734,976.95065786680038,5596.6766440164829,0.0
332154.6038362722,4640833.5216966402,-42500.0,-266.23047874361401,-1619.7182602086207,-1170.8831423827492,-1913.2678698693155,-2307.4917129562596,-1940.2163504858916,3094.4901285376422,-835.62169213180778,1337.349320771506,-1337.349320771506,835.62169213180778,6077.1742555174587,0.0
337154.6038362722,4640833.5216966402,-42500.0,177.4952502049359,-1509.9069504210495,-1444.5632628647843,-1847.243478787361,-2646.6271215027018,-2189.0513207548179,3343.1050810380739,-593.30429977396011,1269.4815565261486,-1269.4815565261486,593.30429977396011,6517.915866879518,0.0
342154.6038362722,4640833.5216966402,-42500.0,679.6715605099705,-1266.2013228241083,-1684.5323199031825,-1673.6792599712501,-2953.4784619516713,-2425.5901457498867,3563.6397307015714,-234.04027172894678,1107.9130791740754,-1107.9130791740754,234.04027172894678,6875.5470850007368,0.0
347154.6038362722,4640833.5216966402,-42500.0,1193.3066737932927,-870.91605524533145,-1836.6191165626906,-1374.3427553632612,-3176.9980795429678,-2618.4591419599337,3726.7450028400699,241.88457864688519,836.69980855085998,-836.69980855085998,-241.88457864688519,7098.0652380089477,0.0
352154.6038362722,4640833.5216966402,-42500.0,1648.7827622634832,-333.15887306137455,-1837.3652346260669,-949.68288070663186,-3255.4660406017351,-2725.6330393379885,3802.3115376977958,807.0842638702461,456.79279965367527,-456.79279965367527,-807.0842638702461,7132.4424447419442,0.0
357154.6038362722,4640833.5216966402,-42500.0,1965.9922655585535,298.23173070563155,-1630.2712721412786,-430.53175909783369,-3129.6499477494167,-2701.0018696673706,3764.5398264937126,1400.5447199139114,-4.2062374081722282,4.2062374081722282,-1400.5447199139114,6938.0999214748254,0.0
362154.6038362722,4640833.5216966402,-42500.0,2079.3440032637768,932.28963782079654,-1190.0286114087719,116.7290472760869,-2764.1097191642116,-2508.0027646909543,3599.4741522833474,1932.9557256914791,-488.55731437851352,488.55731437851352,-1932.9557256914791,6504.1585391509298,0.0
367154.6038362722,4640833.5216966402,-42500.0,1968.2030230940202,1453.1199696948911,-545.4845708917203,599.68450124354342,-2169.7408686895878,-2137.171165810621,3312.1604932258579,2308.6712466139802,-917.62209290320027,917.62209290320027,-2308.6712466139802,5864.2951953003121,0.0
372154.6038362722,4640833.5216966402,-42500.0,1675.629991690188,1756.7517548558217,213.82350591617674,926.52402833632198,-1414.5354991847876,-1618.9606155583417,2929.4576293042528,2459.3494099571144,-1214.8984032863987,1214.8984032863987,-2459.3494099571144,5100.1719675671484,0.0
377154.6038362722,4640833.5216966402,-42500.0,1298.7057047443298,1792.235512073833,958.56433751882753,1040.1020631194201,-611.13496117734098,-1021.9124302887975,2495.641618980505,2372.7095897772365,-1333.9091201468636,1333.9091201468636,-2372.7095897772365,4325.9502508391579,0.0
382154.6038362722,4640833.5216966402,-42500.0,950.34335940838389,1582.6624652581625,1562.4422403688013,940.44887560250447,117.51239154741953,-433.37029774564667,2061.8186012487049,2097.9094963590942,-1275.3654830904109,1275.3654830904109,-2097.9094963590942,3653.1519667760826,0.0
387154.6038362722,4640833.5216966402,-42500.0,714.12551904086274,1211.9239661236509,1944.4938789772552,681.52394303102722,677.4162786723698,68.294203710208379,1678.6049773338609,1722.9095944323089,-1083.0882488366315,1083.0882488366315,-1722.9095944323089,3146.7279836097232,0.0
392154.6038362722,4640833.5216966402,-42500.0,619.03693268910331,786.48621609592794,2087.8635224443651,345.31839667503897,1026.9272723428517,435.11289750703554,1480.537471095035,1338.3580442223929,-822.40387279795686,822.40387279795686,-1338.3580442223929,2799.7476801451512,0.0
397154.6038362722,4640833.5216966402,-42500.0,644.09057184158644,396.60059084611123,2029.5326575510742,10.531173733521678,1175.6192098877113,655.43911144675087,1416.9921170124981,1009.1823820250694,-555.23561227980883,555.23561227980883,-1009.1823820250694,2553.8806159716992,0.0
402154.6038362722,4640833.5216966402,-42500.0,741.67693083537415,95.708729501091554,1833.8327748136448,-268.0424569935866,1166.0709615396147,746.13447402677161,1334.1732536712934,764.99934638278989,-324.32921594963807,324.32921594963807,-764.99934638278989,2347.3689838583737,0.0
407154.6038362722,4640833.5216966402,-42500.0,861.78682271964067,-99.756764885977262,1566.8853811988001,-464.68955659223445,1052.2181518507491,739.08383583281125,1230.5065734518271,606.26816359434815,-149.76343083348405,149.76343083348405,-606.26816359434815,2144.2691540539308,0.0
412154.6038362722,4640833.5216966402,-42500.0,966.64325691290253,-199.07113309280794,1281.3618306739938,-577.26327764744599,883.64978685045548,669.14564083687765,1113.8731103137825,516.75711389377295,-33.673083325255334,33.673083325255334,-516.75711389377295,1934.4968592184,0.0
417154.6038362722,4640833.5216966402,-42500.0,1034.9518066481967,-224.03340337554243,1011.8317723360493,-617.92895213771521,698.11494740229489,566.59512257626443,992.72442310916915,474.81856729254565,32.373895973207482,-32.373895973207482,-474.81856729254565,1722.5675613481867,0.0
422154.6038362722,4640833.5216966402,-42500.0,1059.6910785309678,-199.06253495929212,776.67516074392222,-604.81884743520993,520.24318127182823,453.95571271643206,874.39033764080853,460.49058219508663,60.951295710849763,-60.951295710849763,-460.49058219508663,1517.8388217194088,0.0
427154.6038362722,4640833.5216966402,-42500.0,1043.5021549361484,-145.62670240202362,582.50801915026636,-556.35321948917124,363.55107119979868,345.82340078089203,764.18859079195875,458.6040386324155,64.582022984586871,-64.582022984586871,-458.6040386324155,1329.0454058750415,0.0
432154.6038362722,4640833.5216966402,-42500.0,994.17017329601663,-80.06949801621829,428.65054595202594,-488.21011150010781,233.52222261598567,250.22545506491502,665.18418557123243,459.24577461681929,53.650687913583738,-53.650687913583738,-459.24577461681929,1162.0797953211895,0.0
437154.6038362722,4640833.5216966402,-42500.0,921.23087498336406,-13.484589772656282,310.61557996750162,-412.23846319474421,130.53717818731127,170.4580893903611,578.51585468642133,456.9116476630137,35.780162304729743,-35.780162304729743,-456.9116476630137,1019.5903524908696,0.0
442154.6038362722,4640833.5216966402,-42500.0,833.8514784328986,47.443751453889917,222.44403200601292,-336.53103491892466,52.161642905633371,106.80103694432437,504.04873942927509,449.25528249640695,16.020239450886834,-16.020239450886834,-449.25528249640695,901.42776093240775,0.0
447154.6038362722,4640833.5216966402,-42500.0,739.75660432546238,99.314072740463928,158.08215183718079,-266.04879276782384,-5.2797273195739942,57.857986497932281,441.14997260245548,435.91657086228901,-2.6264209105768828,2.6264209105768828,-435.91657086228901,805.42364665407308,0.0
452154.6038362722,4640833.5216966402,-42500.0,644.86582264374886,140.94860362622043,112.08138364348302,-203.40326783964446,-45.733209558694149,21.482811000494799,389.7099938152744,417.61611263648956,-18.622072253370817,18.622072253370817,-417.61611263648956,728.23735386980445,0.0
457154.6038362722,4640833.5216966402,-42500.0,553.34899628326457,172.54241382823599,79.872319525397629,-149.58716458885496,-72.886114521539511,-4.6456435244112342,351.80865638169945,395.53922332810009,-31.388990849704555,31.388990849704555,-395.53922332810009,666.12273943417767,0.0
462154.6038362722,4640833.5216966402,-42500.0,467.88311628273863,195.04489253609736,57.797793737536111,-104.56599627382279,-89.926280387873447,-22.707054497345755,328.28945284468961,370.96066818791866,-40.924816890234013,40.924816890234013,-370.96066818791866,615.51177061680812,0.0
467154.6038362722,4640833.5216966402,-42500.0,389.97413244842409,209.74417794262516,43.027037917803014,-67.714909266328334,-99.474581882277178,-34.593887073484353,311.96042550253162,345.04338991893019,-47.534619660318555,47.534619660318555,-345.04338991893019,573.36464267997439,0.0
472154.6038362722,4640833.5216966402,-42500.0,320.26799954088762,218.00813869645359,33.423832078531717,-38.118691862685836,-103.61048722631614,-41.868439419587894,297.7498321654154,318.7505429599953,-51.657632648020467,51.657632648020467,-318.7505429599953,537.30140545155268,0.0
277154.6038362722,4645833.5216966402,-42500.0,-1180.0739591145691,-436.66869374751354,219.51637016715242,-808.41116779774381,-250.30919819140547,-396.68942961290071,1078.4450900758366,-501.04996394316771,496.16917703821429,-496.16917703821429,501.04996394316771,2048.5886791490157,0.0
282154.6038362722,4645833.5216966402,-42500.0,-1256.5756626671625,-513.41674672294573,220.59910058153758,-910.73297414350225,-308.40891782775446,-463.76588420013445,1198.3530869140911,-554.31594322409569,557.90341483027282,-557.90341483027282,554.31594322409569,2281.2093566821281,0.0
287154.6038362722,4645833.5216966402,-42500.0,-1330.4574424424529,-602.94077262986161,215.3036524740163,-1025.9058459642254,-380.63153157186508,-543.10090399724584,1333.4098454231776,-612.57537495026622,627.94837621253578,-627.94837621253578,612.57537495026622,2544.5912844624986,0.0
292154.6038362722,4645833.5216966402,-42500.0,-1397.8641558294164,-706.60895544717221,200.84492861602578,-1154.8759635746371,-470.48712219069716,-637.03243203879879,1485.3827195494132,-675.33749112724036,707.05547385290038,-707.05547385290038,675.33749112724036,2842.8094515777634,0.0
297154.6038362722,4645833.5216966402,-42500.0,-1453.3363047097728,-825.36791835143595,173.57168081399902,-1298.2084917115558,-582.28174287409115,-748.36869583742418,1656.057621057239,-741.33268988216332,795.68085257052417,-795.68085257052417,741.33268988216332,3180.2169801054438,0.0
302154.6038362722,4645833.5216966402,-42500.0,-1489.3154462502991,-959.26619085237405,128.83571608750438,-1455.7382996673798,-721.19461633606625,-880.48366704572311,1847.0926538756275,-808.01438473362123,893.65530162902382,-893.65530162902382,808.01438473362123,3561.2314384697861,0.0
307154.6038362722,4645833.5216966402,-42500.0,-1495.6005760077662,-1106.6973427727269,60.964618492384005,-1626.0087690084517,-893.25170767103805,-1037.4043806307848,2059.7616960017922,-870.82709999391193,999.64239853060269,-999.64239853060269,870.82709999391193,3989.908911762333,0.0
312154.6038362722,4645833.5216966402,-42500.0,-1458.8673918600691,-1263.2632085939138,-36.523510166077493,-1805.4010723358158,-1105.0704752357381,-1223.8351081110395,2294.532820126386,-922.19580462491172,1110.2983098719872,-1110.2983098719872,922.19580462491172,4469.1686839560834,0.0
317154.6038362722,4645833.5216966402,-42500.0,-1362.5003949119307,-1420.1858116571559,-170.23200808466197,-1986.852223298898,-1363.1627456122349,-1444.9945071515119,2550.4449854388431,-950.26016785064701,1219.0610360963665,-1219.0610360963665,950.26016785064701,4999.483054332718,0.0
322154.6038362722,4645833.5216966402,-42500.0,-1187.206700850981,-1562.3133081267219,-345.38323655550602,-2158.1152192110103,-1672.4673213955805,-1706.0259035290781,2824.5209811423811,-937.54691786293313,1314.5792801427301,-1314.5792801427301,937.54691786293313,5576.8169800053447,0.0
327154.6038362722,4645833.5216966402,-42500.0,-913.16372614589716,-1666.0569887797012,-563.08570649903572,-2299.7097994595865,-2033.6829186859584,-2010.5827064570772,3115.3940357565552,-860.10708605485752,1379.0131565587963,-1379.0131565587963,860.10708605485752,6189.6604993794981,0.0
332154.6038362722,4645833.5216966402,-42500.0,-524.67857067041064,-1698.1491691140648,-816.04452964181235,-2383.1543422825193,-2438.995054697562,-2358.0538959602522,3444.7003447977572,-688.16689021832804,1386.8721093108368,-1386.8721093108368,688.16689021832804,6815.2382449366587,0.0
337154.6038362722,4645833.5216966402,-42500.0,-18.179880462416797,-1616.9361804217929,-1082.8815463368735,-2370.8387290038627,-2866.1723440953579,-2738.9596736157077,3788.8691543518107,-389.93827065080512,1305.7160137057824,-1305.7160137057824,389.93827065080512,7415.5459631490003,0.0
342154.6038362722,4645833.5216966402,-42500.0,586.76143977048071,-1378.7339875158791,-1322.4317897603796,-2219.8581652113453,-3272.0862379912382,-3128.6713479954524,4106.7935982814133,59.536280648974753,1100.7128495303002,-1100.7128495303002,-59.536280648974753,7934.8382817439087,0.0
347154.6038362722,4645833.5216966402,-42500.0,1236.4169685945274,-951.70075192584443,-1471.4031671539724,-1892.5942393590078,-3588.7217442698875,-3481.2101953288648,4360.2916556483606,663.69290143957346,745.04081335052206,-745.04081335052206,-663.69290143957346,8301.4169404702734,0.0
352154.6038362722,4645833.5216966402,-42500.0,1839.1000489408041,-337.14691615134296,-1450.9246459283409,-1375.3055718551234,-3727.2213354760438,-3727.4531978587152,4506.9517540668685,1386.6045481428453,236.23239146507535,-236.23239146507535,-1386.6045481428453,8437.3347049320273,0.0
357154.6038362722,4645833.5216966402,-42500.0,2278.828238304478,408.16836725940141,-1187.4498509275518,-700.73088375762154,-3596.325012782117,-3784.1971144603381,4507.5414120618279,2140.7081531226104,-386.24164563216959,386.24164563216959,-2140.7081531226104,8278.4518263107439,0.0
362154.6038362722,4645833.5216966402,-42500.0,2452.7395128275157,1163.7475947915798,-647.55075107420407,37.744606105427863,-3136.8748079428142,-3578.6911136955264,4338.4557467918767,2793.9031328731662,-1033.2626907505116,1033.2626907505116,-2793.9031328731662,7802.4303595312167,0.0
367154.6038362722,4645833.5216966402,-42500.0,2322.5820082684604,1768.690209756405,126.90887207926617,697.89585243265094,-2361.5578966784396,-3083.9914799877624,4004.160557675099,3206.0256478740221,-1581.444123360714,1581.444123360714,-3206.0256478740221,7053.9200004526911,0.0
372154.6038362722,4645833.5216966402,-42500.0,1949.4485949838886,2079.7977545258668,1008.8239239146122,1134.5501307049508,-1375.1392211435996,-2346.7886187674667,3542.5549953007421,3286.1341825008517,-1914.6400022180173,1914.6400022180173,-3286.1341825008517,6149.1945799143796,0.0
377154.6038362722,4645833.5216966402,-42500.0,1478.156342601503,2037.7016768011472,1820.7476568164582,1261.6114104317196,-351.72760949155111,-1484.5705210238173,3018.1754864274444,3038.379895039297,-1973.3551750339507,1973.3551750339507,-3038.379895039297,5245.2774115805432,0.0
382154.6038362722,4645833.5216966402,-42500.0,1070.5191901517032,1695.9538468589633,2403.6314620267076,1090.6694127143965,527.77447327732818,-645.68501224507963,2507.8451832475344,2561.7981614590617,-1780.1425262187704,1780.1425262187704,-2561.7981614590617,4477.0004932382626,0.0
387154.6038362722,4645833.5216966402,-42500.0,831.24707839681594,1189.7524364475166,2677.6112578206003,718.16723761107642,1141.9485368158407,45.496505643704616,2106.5630110379702,2001.1236952775544,-1422.8408998104733,1422.8408998104733,-2001.1236952775544,3896.563981634828,0.0
392154.6038362722,4645833.5216966402,-42500.0,776.6835388470646,668.34858600926452,2657.3861693864728,273.05739987791043,1458.8370883383925,524.65248527785434,1901.3624220259783,1483.7860589059524,-1009.7324992173649,1009.7324992173649,-1483.7860589059524,3467.4089722712556,0.0
397154.6038362722,4645833.5216966402,-42500.0,856.1566766116598,238.63841509833455,2422.0587389239613,-136.15645668554615,1520.5211267159391,789.4702588907295,1757.3676093678916,1082.476291669336,-628.21699761729656,628.21699761729656,-1082.476291669336,3118.2262358657931,0.0
402154.6038362722,4645833.5216966402,-42500.0,995.8752778758469,-53.320184291152977,2069.3557345777981,-446.99490853078044,1404.8499399326051,878.2428781231049,1599.3264523896132,814.01233989246657,-326.81144128487904,326.81144128487904,-814.01233989246657,2796.6455418418545,0.0
407154.6038362722,4645833.5216966402,-42500.0,1133.043760100267,-209.85368426908946,1682.131256088483,-640.98159674975363,1191.2202788636673,844.51858670578508,1428.3593579765418,659.205488205557,-118.59799547562255,118.59799547562255,-659.205488205557,2482.9165523169095,0.0
412154.6038362722,4645833.5216966402,-42500.0,1229.4078293878351,-258.93302889558481,1315.3725196894402,-728.64505205202818,942.17222474940866,739.34791611414573,1255.7650646874179,584.81920205547431,5.9063171450081313,-5.9063171450081313,-584.81920205547431,2178.6812007535318,0.0
417154.6038362722,4645833.5216966402,-42500.0,1269.9704429408744,-235.50626245590342,997.70856165326347,-734.03791154015539,698.81728852713127,602.84058320393262,1091.6040273273052,558.26091120016122,66.095706816415827,-66.095706816415827,-558.26091120016122,1893.5195074293697,0.0
422154.6038362722,4645833.5216966402,-42500.0,1255.825277968564,-170.93948908640871,738.76492512606637,-683.91217219105033,483.70317289989208,462.28341669932638,942.50969239427661,554.26550771518828,82.690700090860673,-82.690700090860673,-554.26550771518828,1636.9257290133755,0.0
427154.6038362722,4645833.5216966402,-42500.0,1196.738899803546,-88.979322010791122,536.8211214103635,-601.84736626814629,306.05656793631863,333.70343824222414,811.6008461185329,556.22401256092326,73.324286305100884,-73.324286305100884,-556.22401256092326,1414.9960502074784,0.0
432154.6038362722,4645833.5216966402,-42500.0,1105.6130569321965,-5.4678383221158189,384.60992404679581,-505.95552661124469,166.78487664166016,224.69826874637545,699.28920542735671,554.89161567688643,51.066519795414195,-51.066519795414195,-554.89161567688643,1229.726929570234,0.0
437154.6038362722,4645833.5216966402,-42500.0,995.08306850065333,70.300776228023082,273.01271382056416,-408.70442814513797,62.311113567208935,137.30424513463547,604.46895747260498,546.28413596624546,24.593041235220937,-24.593041235220937,-546.28413596624546,1079.5304527854355,0.0
442154.6038362722,4645833.5216966402,-42500.0,875.80739833684572,133.80214411506023,193.10153875206257,-317.76237988446661,-12.851051664632804,70.337918014036745,525.76895332291497,529.68884579348673,-0.94648534286534414,0.94648534286534414,-529.68884579348673,960.25669516819607,0.0
447154.6038362722,4645833.5216966402,-42500.0,755.88556919902351,183.65566647213024,137.08572249502754,-237.17397675278957,-64.550744004082404,21.062591014570678,463.21011534827244,506.13830274042203,-22.918040597358697,22.918040597358697,-506.13830274042203,866.3791353537157,0.0
452154.6038362722,4645833.5216966402,-42500.0,640.92898724839392,220.35431051383722,98.613625255957146,-168.49196270298262,-98.18323265640305,-13.753718191060797,420.13391077431783,477.3896247699854,-40.318926284694982,40.318926284694982,-477.3896247699854,792.10317557822339,0.0
457154.6038362722,4645833.5216966402,-42500.0,534.44031861174665,245.36726472013805,72.736122494149825,-111.70193901219334,-118.34034131837043,-37.242550051830612,394.36482714464069,445.3176573901543,-53.107524731568361,53.107524731568361,-445.3176573901543,732.19140270937214,0.0
462154.6038362722,4645833.5216966402,-42500.0,438.29009203318469,260.55608891965556,55.720828865060533,-65.904286058904546,-128.7316189536408,-52.150378921160531,375.26225941919438,411.60216349085988,-61.742759211786279,61.742759211786279,-411.60216349085988,682.405808450873,0.0
467154.6038362722,4645833.5216966402,-42500.0,353.17304460118385,267.82489977873445,44.822503133089818,-29.778030722931554,-132.24486253006432,-60.743037538367659,357.82489255698158,377.60104829944748,-66.89240819124737,66.89240819124737,-377.60104829944748,639.60313209817969,0.0
472154.6038362722,4645833.5216966402,-42500.0,278.99245846735477,268.93164222598682,38.062542931267117,-1.8739543247107922,-131.06549330074125,-64.813166959852126,340.78712906621149,344.32994294810328,-69.262962260524603,69.262962260524603,-344.32994294810328,601.60965938774791,0.0
272154.6038362722,4650833.5216966402,-42500.0,-1136.9671556246592,-285.39702424147168,276.11224366081893,-735.48051698169343,-160.10082948385272,-347.92437712346191,982.7995968655714,-377.48928813432235,403.41006781804026,-403.41006781804026,377.48928813432235,1856.9996723897859,0.0
277154.6038362722,4650833.5216966402,-42500.0,-1224.7104287189347,-341.85713160443413,294.67792256986962,-833.01379038947482,-200.45247727385257,-407.81085364626927,1093.8386641105799,-417.38403608231351,454.15535254931706,-454.15535254931706,417.38403608231351,2070.6415881091198,0.0
282154.6038362722,4650833.5216966402,-42500.0,-1315.3637886218562,-409.28800899692328,311.84231232956967,-944.64686489518897,-251.38550171282293,-479.19931172235215,1219.8549336942096,-461.61201627698915,512.42753859083075,-512.42753859083075,461.61201627698915,2314.2095673472581,0.0
287154.6038362722,4650833.5216966402,-42500.0,-1406.8311722078095,-489.5594019917117,326.10124003320016,-1072.2816430699181,-315.84131728457521,-564.53538969585099,1362.9990093800807,-510.1887249135188,579.3023765282245,-579.3023765282245,510.1887249135188,2592.3949297832264,0.0
292154.6038362722,4650833.5216966402,-42500.0,-1495.8146770910075,-584.60460870422696,335.29493919834772,-1217.8945378667859,-397.5961898607377,-666.87727273388975,1525.6684629279725,-562.70150210162626,655.83726284153579,-655.83726284153579,562.70150210162626,2910.594706759543,0.0
297154.6038362722,4650833.5216966402,-42500.0,-1577.2981576670682,-696.19427254478592,336.4053594650868,-1383.3737280685459,-501.46667157868933,-790.0905949784227,1710.4687755997509,-617.95695760062006,742.88181624470064,-742.88181624470064,617.95695760062006,3274.9212959739671,0.0
302154.6038362722,4650833.5216966402,-42500.0,-1643.8537015228012,-825.50750764525753,325.34465757603255,-1570.1964321568137,-633.51703973517829,-939.10567942316482,1920.1042196344531,-673.4084905623904,840.71594531364053,-840.71594531364053,673.4084905623904,3692.0987614835858,0.0
307154.6038362722,4650833.5216966402,-42500.0,-1684.7632186510691,-972.37774964072889,296.79635449316737,-1778.8290402434347,-801.20453210382345,-1120.2296376825841,2157.1418355780697,-724.26591940292747,948.40612145176419,-948.40612145176419,724.26591940292747,4169.1317343364844,0.0
312154.6038362722,4650833.5216966402,-42500.0,-1685.0219752171754,-1134.0506806256208,244.24124218370909,-2007.6718252540777,-1013.3224250689556,-1341.4569150968766,2423.5605396215506,-762.18947187191827,1062.7329887173614,-1062.7329887173614,762.18947187191827,4712.5560371373376,0.0
317154.6038362722,4650833.5216966402,-42500.0,-1624.4611955782575,-1303.2786778246034,160.41783311786827,-2251.3132675798224,-1279.4697428242587,-1612.610869653483,2719.9780677717517,-773.53342420626768,1176.5329379223815,-1176.5329379223815,773.53342420626768,5326.9832804360549,0.0
322154.6038362722,4650833.5216966402,-42500.0,-1477.5477225223933,-1465.6596804760727,38.631547990013829,-2497.8608109477273,-1608.5784130528862,-1944.9379226230653,3044.617596467182,-737.31000297326921,1276.375007708355,-1276.375007708355,737.31000297326921,6012.5597572464239,0.0
327154.6038362722,4650833.5216966402,-42500.0,-1214.9282689878826,-1596.4356693496532,-124.50011276183598,-2725.3080142002009,-2005.7901944750874,-2349.4422553608183,3396.9886197831725,-623.50568925154721,1339.7795703840104,-1339.7795703840104,623.50568925154721,6760.959718279948,0.0
332154.6038362722,4650833.5216966402,-42500.0,-808.38385723903343,-1657.6829348239587,-324.24870388037988,-2897.5068650181834,-2466.8373171614539,-2832.8554562865652,3817.8758070344147,-393.20003097050517,1332.8392844771322,-1332.8392844771322,393.20003097050517,7549.7831262802492,0.0
337154.6038362722,4650833.5216966402,-42500.0,-241.12871628332681,-1598.0979212517061,-540.74333447254412,-2961.6088106774869,-2969.3969728396128,-3389.9725515785694,4268.4721877084203,-3.0314972719860407,1210.2375544212805,-1210.2375544212805,3.0314972719860407,8335.9842287615847,0.0
342154.6038362722,4650833.5216966402,-42500.0,475.67001552266191,-1359.2046414950937,-730.96205038813957,-2850.8485990824224,-3462.309521458486,-3991.852442987627,4700.8152554759454,582.68458402822569,921.05020231072297,-921.05020231072297,-582.68458402822569,9050.4778133734508,0.0
347154.6038362722,4650833.5216966402,-42500.0,1283.1645069723349,-892.62739790656201,-823.87269060269352,-2498.3718829483446,-3856.798052234084,-4572.162173457712,5066.218941943649,1370.0171340148672,424.2822158967623,-424.2822158967623,-1370.0171340148672,9598.3163119920137,0.0
352154.6038362722,4650833.5216966402,-42500.0,2062.449466665094,-190.40077090195018,-726.59076376191751,-1866.6878087827035,-4028.7141992644406,-5019.4037099690277,5306.2560172412177,2306.9193371882402,-284.5220342474156,284.5220342474156,-2306.9193371882402,9870.8539748013754,0.0
357154.6038362722,4650833.5216966402,-42500.0,2648.1237087083264,679.32370058568176,-350.81126028349206,-988.79675661237343,-3844.143802859478,-5188.7820241435147,5364.1950804036787,3262.2675605562208,-1142.7593619724864,1142.7593619724864,-3262.2675605562208,9775.3903063912912,0.0
362154.6038362722,4650833.5216966402,-42500.0,2883.8388457733854,1554.7280749909316,338.79590409418108,0.44306056502426827,-3214.5879051044708,-4946.310054790546,5204.5165493029654,4037.3393488677193,-2006.6469548771875,2006.6469548771875,-4037.3393488677193,9279.6915432384521,0.0
367154.6038362722,4650833.5216966402,-42500.0,2708.6408254702678,2213.2926424825346,1273.6338391422673,878.97269594714294,-2164.9515808648484,-4238.9430409408906,4833.224900234678,4429.2524503362292,-2679.8431452989112,2679.8431452989112,-4429.2524503362292,8451.8136072773395,0.0
372154.6038362722,4650833.5216966402,-42500.0,2218.4857826936222,2464.6360472454198,2269.6890488538093,1419.4199590837713,-867.59064573709827,-3151.4136494335103,4306.3604587810269,4329.4420552237734,-2990.9222523310104,2990.9222523310104,-4329.4420552237734,7459.1614983249729,0.0
377154.6038362722,4650833.5216966402,-42500.0,1636.2103619561949,2255.3738003549006,3088.1898240184455,1502.991040961376,404.06118820220581,-1896.5288726383205,3718.5626822860982,3792.5324772251652,-2880.0204600682528,2880.0204600682528,-3792.5324772251652,6499.6023838688243,0.0
382154.6038362722,4650833.5216966402,-42500.0,1190.6177921705785,1702.692940127936,3544.3258646310978,1181.1704304850164,1391.7912721750283,-727.14470077863041,3182.1755966452965,3012.4395241470129,-2428.8003136047182,2428.8003136047182,-3012.4395241470129,5694.3688911936424,0.0
387154.6038362722,4650833.5216966402,-42500.0,997.0060509503295,1022.6096716713832,3587.1867355325426,632.57296590775707,1960.3667040563651,171.7805322167909,2792.6594732869949,2217.5910976907389,-1807.5898547314112,1807.5898547314112,-2217.5910976907389,5039.2724148529396,0.0
392154.6038362722,4650833.5216966402,-42500.0,1030.8478023854393,413.44499921685184,3295.6163574174088,56.157843536649182,2123.1319349723449,735.40003116723426,2508.6914548180625,1568.4427702347857,-1185.7349642606464,1185.7349642606464,-1568.4427702347857,4464.4065526664626,0.0
397154.6038362722,4650833.5216966402,-42500.0,1189.4595317258018,-16.951690408949609,2810.5076715305954,-412.27385105815824,1988.6438915416088,998.12957974491712,2232.2929572053877,1122.7873652912531,-671.60409822849476,671.60409822849476,-1122.7873652912531,3917.8366646858217,0.0
402154.6038362722,4650833.5216966402,-42500.0,1368.15121470386,-252.11107330250834,2264.8269305544468,-719.43530204806143,1687.6267982820068,1040.8401896275104,1946.5832388395233,862.07436941992012,-304.34046548669164,304.34046548669164,-862.07436941992012,3390.0362485424448,0.0
407154.6038362722,4650833.5216966402,-42500.0,1499.6346436274334,-329.0197611227685,1748.7464006480923,-870.92382124256756,1326.5042233858808,948.21926030779127,1668.0141425910542,734.84694523767507,-75.847382527168804,75.847382527168804,-734.84694523767507,2895.2732044260165,0.0
412154.6038362722,4650833.5216966402,-42500.0,1556.7733429140637,-300.68166135441254,1307.5975540487566,-899.99736200549637,973.83024675655895,788.51527496187884,1413.3864162746174,687.73718117446492,43.618517127539292,-43.618517127539292,-687.73718117446492,2450.9442895270136,0.0
417154.6038362722,4650833.5216966402,-42500.0,1539.6723316798707,-214.77967245606092,954.62457726325965,-846.07453277333582,665.35030394640387,608.94835340550173,1192.1953221611554,679.21399383544099,88.03187418311137,-88.03187418311137,-679.21399383544099,2068.3327522959748,0.0
422154.6038362722,4650833.5216966402,-42500.0,1462.1342057228931,-106.29797455627784,685.0265178986441,-744.09717962961463,414.3539674125409,438.15170860127336,1006.6440181252009,682.1858910641788,86.878000726139646,-86.878000726139646,-682.1858910641788,1751.1993288858862,0.0
427154.6038362722,4650833.5216966402,-42500.0,1342.3970689756402,2.44097018673419,486.12774234175407,-620.80807871230422,220.95920428670212,290.7332420057536,854.01090461731565,681.69319678304828,62.19714386830924,-62.19714386830924,-681.69319678304828,1497.124338320989,0.0
432154.6038362722,4650833.5216966402,-42500.0,1197.9997623582003,99.063716502534902,343.34743653194573,-494.53586660040293,78.692389185443204,171.85700430297626,729.64845046122707,671.29884457691401,28.691347921036879,-28.691347921036879,-671.29884457691401,1299.2766331075929,0.0
437154.6038362722,4650833.5216966402,-42500.0,1043.4465117515108,178.07523952425126,243.15800598031527,-376.49474054117906,-21.399010844691233,81.03670535278178,629.60888895583366,649.77772459823893,-4.8745505764496784,4.8745505764496784,-649.77772459823893,1148.1462523456271,0.0
442154.6038362722,4650833.5216966402,-42500.0,889.52880551573014,238.28703878522126,174.24297190701446,-272.54526420158606,-88.433044133640394,14.906907459622323,553.39503027437331,618.63165678831172,-33.979808724582085,33.979808724582085,-618.63165678831172,1033.2660579137091,0.0
447154.6038362722,4650833.5216966402,-42500.0,743.52496593971523,280.93082166232608,127.7026807692215,-184.88110022682346,-130.5584013695204,-30.967449185607151,504.85546194680785,580.45317211599513,-56.846743386876426,56.846743386876426,-580.45317211599513,944.76019757233541,0.0
452154.6038362722,4650833.5216966402,-42500.0,609.79859451603477,308.39339271791891,96.823848827092846,-113.41115171442638,-154.52983580536218,-61.041572700616122,476.18907988982028,537.97619865181798,-73.300023125875072,73.300023125875072,-537.97619865181798,874.40819298991596,0.0
457154.6038362722,4650833.5216966402,-42500.0,490.50120594418985,323.43240197238714,76.693954463646691,-56.777320691022574,-165.67345217683683,-79.270881949246885,453.57436870432065,493.60231943075468,-83.986938422203423,83.986938422203423,-493.60231943075468,816.05176214430367,0.0
462154.6038362722,4650833.5216966402,-42500.0,386.22794889240294,328.73217387619212,63.802155824097795,-13.043017118233912,-168.03861706740486,-88.920260846072736,432.07881731277564,449.22349619069007,-89.889689484065201,89.889689484065201,-449.22349619069007,765.46717283761313,0.0
467154.6038362722,4650833.5216966402,-42500.0,296.5587447898107,326.68301758702444,55.687889925565514,19.877766582399538,-164.61735160213911,-92.555706936560782,410.63260245445963,406.20845409448998,-92.046636705375334,92.046636705375334,-406.20845409448998,719.96518716927983,0.0
472154.6038362722,4650833.5216966402,-42500.0,220.47002593267874,319.29771066659481,50.656150617796023,43.977066672825224,-157.56790855636328,-92.122658174509269,389.1636923550459,365.46674567879347,-91.410400527422468,91.410400527422468,-365.46674567879347,677.94272031947867,0.0
477154.6038362722,4650833.5216966402,-42500.0,156.62862706637176,308.20550609357963,47.558250282794873,61.032550618659229,-148.4131566134225,-89.054526263867004,367.85801820375059,327.53964838801852,-88.788849727336796,88.788849727336796,-327.53964838801852,638.50295116861582,0.0
272154.6038362722,4655833.5216966402,-42500.0,-1148.8191728396068,-187.99493539376445,328.77954935803928,-742.0684812270365,-111.56162797488079,-351.57698939216988,985.22623380093069,-290.68887936901535,354.74909918558365,-354.74909918558365,290.68887936901535,1853.7125509545144,0.0
277154.6038362722,4655833.5216966402,-42500.0,-1244.8256559150882,-231.98659343232148,359.66461672233521,-844.44594690652536,-143.64831043270917,-413.56922942077176,1099.4237373653461,-319.33011687988289,399.52394017151335,-399.52394017151335,319.33011687988289,2072.2591905470767,0.0
282154.6038362722,4655833.5216966402,-42500.0,-1346.3743717714044,-285.65529678040332,392.22541701534431,-962.94717833296784,-184.96447754473394,-488.03844801049473,1229.8635879278818,-350.82763935210369,451.27370855153788,-451.27370855153788,350.82763935210369,2323.0155729576131,0.0
287154.6038362722,4655833.5216966402,-42500.0,-1452.0322152910035,-350.97289983325243,425.72196202971674,-1100.2628953077549,-238.34139539052487,-577.90036869139215,1379.1652030536311,-385.03883000878221,511.13336533294802,-511.13336533294802,385.03883000878221,2611.5825886038465,0.0
292154.6038362722,4655833.5216966402,-42500.0,-1559.2360466275723,-430.12800337115948,458.91420575496193,-1259.4513862154006,-307.52508154327273,-686.93210507374874,1550.3700454450332,-421.36737060291426,580.26777508958276,-580.26777508958276,421.36737060291426,2944.6227085566238,0.0
297154.6038362722,4655833.5216966402,-42500.0,-1663.694458660503,-525.36776909093953,489.85967348461145,-1443.861438588659,-397.45697236033783,-820.10732593033777,1746.9658653935981,-458.37172205398156,659.67537689519349,-659.67537689519349,458.37172205398156,3329.9972476916473,0.0
302154.6038362722,4655833.5216966402,-42500.0,-1758.5159022042744,-638.64268848364793,515.67486902298504,-1656.8886501051538,-514.59845723621254,-984.0687133340972,1972.8604564537911,-493.10417348405338,749.78185001571103,-749.78185001571103,493.10417348405338,3776.8160699622476,0.0
307154.6038362722,4655833.5216966402,-42500.0,-1832.9915940995668,-770.90669511951501,532.30305678686568,-1901.4029761725503,-667.24575451668147,-1187.757687667247,2232.2572234156301,-520.0407860459826,849.67112361048214,-849.67112361048214,520.0407860459826,4295.2670689914439,0.0
312154.6038362722,4655833.5216966402,-42500.0,-1871.019844715722,-920.85221706683524,534.40028262073304,-2178.5725008310355,-865.69147908618947,-1443.1607409738695,2529.3816656922759,-529.44233390863837,955.73214120859438,-955.73214120859438,529.44233390863837,4895.981469929693,0.0
317154.6038362722,4655833.5216966402,-42500.0,-1849.3417484313527,-1082.7975933665407,515.57880010757708,-2485.6672538734138,-1121.9170935115908,-1765.9708614708543,2868.1371377863907,-505.04132257709563,1059.4536679353805,-1059.4536679353805,505.04132257709563,5588.5333721513061,0.0
322154.6038362722,4655833.5216966402,-42500.0,-1736.1789915604545,-1243.4671040895107,469.45445347556034,-2812.3247641889429,-1448.2070614900604,-2175.6208241205577,3252.6301721259315,-421.19182317856666,1144.1629638741551,-1144.1629638741551,421.19182317856666,6378.4974527412141,0.0
327154.6038362722,4655833.5216966402,-42500.0,-1491.6454639004517,-1377.6879562251531,392.20483158286055,-3134.8785702090872,-1853.6604253230585,-2693.535504900522,3692.19963222566,-240.24296747984459,1180.8621032101796,-1180.8621032101796,240.24296747984459,7262.3857441341434,0.0
332154.6038362722,4655833.5216966402,-42500.0,-1072.44623404862,-1443.8786501164454,287.51781160570226,-3409.0991099626458,-2337.1881276885069,-3337.6006179319907,4199.4381530960754,87.881373285243512,1124.2712132624424,-1124.2712132624424,-87.881373285243512,8220.0077271430273,0.0
337154.6038362722,4655833.5216966402,-42500.0,-444.41160113736248,-1381.9724357166583,174.48372334528497,-3563.6744723898155,-2875.7141191012897,-4110.1601496849207,4754.7050271593744,620.08970031758486,912.03294081361287,-912.03294081361287,-620.08970031758486,9204.7555231193382,0.0
342154.6038362722,4655833.5216966402,-42500.0,394.15655467040625,-1119.1032919894715,97.388128342946118,-3500.4140693197473,-3408.0277073874827,-4977.5722580321144,5310.9288444231643,1403.0919561934454,472.60123360013063,-472.60123360013063,-1403.0919561934454,10134.555416846964,0.0
347154.6038362722,4655833.5216966402,-42500.0,1380.4079023912232,-590.61108501407352,132.63262297165065,-3111.5657593227279,-3819.5980597530624,-5843.8397875485871,5805.0235394889714,2440.6482915750885,-251.02863343935428,251.02863343935428,-2440.6482915750885,10890.015470733817,0.0
352154.6038362722,4655833.5216966402,-42500.0,2360.6849483719434,218.43133575576059,382.41485017284884,-2325.1995426686772,-3942.2266795697287,-6531.4599283249645,6160.003510811317,3649.2697088067393,-1258.2276617241582,1258.2276617241582,-3649.2697088067393,11330.444732467742,0.0
357154.6038362722,4655833.5216966402,-42500.0,3101.695417840454,1219.6585758428225,941.46526042886262,-1176.7033076969635,-3590.2886753774246,-6797.0178552900661,6300.3792436653475,4825.6198097889064,-2439.7505127341701,2439.7505127341701,-4825.6198097889064,11338.19788723057,0.0
362154.6038362722,4655833.5216966402,-42500.0,3373.4277391144219,2191.6315812544672,1832.4761850865184,129.62837499340006,-2648.0433990557572,-6411.4004161441608,6181.1070214729225,5669.9944781861686,-3556.2902491175719,3556.2902491175719,-5669.9944781861686,10887.424241232397,0.0
367154.6038362722,4655833.5216966402,-42500.0,3092.9878380160767,2829.9644027080408,2938.0170093259439,1241.5052202879431,-1181.5294840682764,-5296.9100140605915,5817.6389419222669,5901.1271627512906,-4297.6232228885165,4297.6232228885165,-5901.1271627512906,10097.145609835599,0.0
372154.6038362722,4655833.5216966402,-42500.0,2428.2060124250115,2896.7589035629176,3994.8084795678565,1810.7685559599706,512.23122932238766,-3635.7561052037177,5294.3900115036258,5424.0111195478476,-4430.2930233734314,4430.2930233734314,-5424.0111195478476,9193.6459085057668,0.0
377154.6038362722,4655833.5216966402,-42500.0,1730.6939280514521,2381.1975435405316,4699.0639218167862,1702.2598385185017,2006.042048610007,-1829.735796326436,4738.382819141515,4418.7168823805896,-3942.6775484988625,3942.6775484988625,-4418.7168823805896,8356.5865041198049,0.0
382154.6038362722,4655833.5216966402,-42500.0,1311.5247405089947,1520.6483643207191,4869.287171946944,1078.2672527073564,2957.219262648955,-299.22230101919098,4256.2642657255374,3243.9303915868954,-3054.2633644687162,3054.2633644687162,-3243.9303915868954,7592.3229193643374,0.0
387154.6038362722,4655833.5216966402,-42500.0,1258.4360163762474,645.85728484909578,4532.7691250466987,270.06063430271541,3267.3471517001203,721.05127739598072,3830.2122725775134,2226.0405046030637,-2071.6792703124065,2071.6792703124065,-2226.0405046030637,6801.9469030644677,0.0
392154.6038362722,4655833.5216966402,-42500.0,1451.2325816809994,-6.6481810120412153,3870.6446592243251,-433.87746317594531,3066.0835519753905,1228.3440075050273,3373.4646234079464,1518.3931111498523,-1225.8656641191264,1225.8656641191264,-1518.3931111498523,5933.7997963310827,0.0
397154.6038362722,4655833.5216966402,-42500.0,1707.8510212950382,-365.50475307613971,3094.0865586085661,-899.04211451258527,2575.9567831819168,1354.9338871466118,2879.0536914359695,1111.4705503133468,-612.28563471240523,612.28563471240523,-1111.4705503133468,5026.6984326293305,0.0
402154.6038362722,4655833.5216966402,-42500.0,1900.0849990866507,-477.37734904157941,2356.6712475313925,-1122.3967542089406,1991.7417205689578,1254.2648855017421,2391.6416584048457,919.76751929511443,-225.56707636646911,225.56707636646911,-919.76751929511443,4157.4659674237546,0.0
407154.6038362722,4655833.5216966402,-42500.0,1978.7248444391312,-429.55133195764654,1734.8625124490623,-1161.2987348799354,1435.0148431812252,1044.7104043531954,1953.1122846542526,852.56054694588397,-16.318871953390897,16.318871953390897,-852.56054694588397,3388.4024211260999,0.0
412154.6038362722,4655833.5216966402,-42500.0,1947.4108949861193,-300.88869023482169,1248.0611648885838,-1081.9638527011853,962.31442254782155,802.04169878795665,1585.614087650946,842.61089925189731,71.666871061856511,-71.666871061856511,-842.61089925189731,2749.8424488112396,0.0
417154.6038362722,4655833.5216966402,-42500.0,1831.9777890338701,-145.97415361977545,885.27867044549578,-938.52870879177124,589.04482877481428,569.4857674421271,1292.9264501418761,848.62859752590782,85.850250882718342,-85.850250882718342,-848.62859752590782,2245.5022700558952,0.0
422154.6038362722,4655833.5216966402,-42500.0,1662.1031477630365,3.2925980374470671,624.10446404183904,-769.38086612249492,309.55250888203346,368.5859104750993,1066.5155331722501,849.0378104499481,61.115623228966911,-61.115623228966911,-849.0378104499481,1863.1426309409569,0.0
427154.6038362722,4655833.5216966402,-42500.0,1463.5972799961862,131.18290612354008,440.84752692064473,-599.35938484089615,109.54107778639903,207.16239205033438,892.90358263466476,835.10158221891231,20.640709854332727,-20.640709854332727,-835.10158221891231,1582.7023845299896,0.0
432154.6038362722,4655833.5216966402,-42500.0,1256.236848570989,232.05554073835523,314.82508340018848,-442.99744810273393,-27.318744564316173,84.879800077376629,760.67795559978458,805.55225583392985,-21.694665008253708,21.694665008253708,-805.55225583392985,1381.3517366849269,0.0
437154.6038362722,4655833.5216966402,-42500.0,1053.8661930121004,305.96922035704426,229.57266995462686,-307.49085379726995,-116.24598502238983,-2.8621247136640688,666.03337751781226,762.87552331302459,-58.654028440014656,58.654028440014656,-762.87552331302459,1236.9814047637697,0.0
442154.6038362722,4655833.5216966402,-42500.0,865.29848566163434,355.83811609310322,172.67883998841828,-195.14960306415318,-170.09869853576222,-62.336265004828071,610.46853626942857,710.95993022199764,-87.313725850138155,87.313725850138155,-710.95993022199764,1130.7710868910603,0.0
447154.6038362722,4655833.5216966402,-42500.0,695.42175364840205,385.70426229119579,135.12197166477458,-105.29980317422344,-199.10397923703908,-99.925352268274153,577.75236681877379,653.75902407114563,-107.27522529477534,107.27522529477534,-653.75902407114563,1048.5107141431404,0.0
452154.6038362722,4655833.5216966402,-42500.0,546.27072206961464,399.75809516128544,110.51780671022907,-35.665065650419429,-211.0582875684504,-121.31511008367752,550.68087413669696,594.64818009567375,-119.43196568011754,119.43196568011754,-594.64818009567375,980.57196107223751,0.0
457154.6038362722,4655833.5216966402,-42500.0,417.94572662239568,401.8352755036301,94.442957144888908,16.705375231508928,-211.71427104102452,-131.18357136904584,524.06766740243552,536.2057176630849,-125.19625621195365,125.19625621195365,-536.2057176630849,921.0173458519273,0.0
462154.6038362722,4655833.5216966402,-42500.0,309.34104041193876,395.20388259613503,83.886874212742299,54.86441278027602,-205.20360518857709,-133.17636240865218,496.99837787600325,480.22607034557268,-126.06065170349942,126.06065170349942,-480.22607034557268,866.48602836261966,0.0
467154.6038362722,4655833.5216966402,-42500.0,218.6831128852196,382.51751710005641,76.833513632587668,81.651122473272935,-194.42335714050111,-130.02169075291337,469.63352396764753,427.83757546610036,-123.37916451048275,123.37916451048275,-427.83757546610036,815.23843610864276,0.0
472154.6038362722,4655833.5216966402,-42500.0,143.90428065621077,365.85479039159037,71.95394782948776,99.54448559744435,-181.35807864386658,-123.69536585765329,442.37307377830189,379.65107124575576,-118.28079091317835,118.28079091317835,-379.65107124575576,766.47328227500736,0.0
477154.6038362722,4655833.5216966402,-42500.0,82.88604781816386,346.79673145047212,68.386652948961029,110.62061756346128,-167.33360796430611,-115.58742776476446,415.61354524847059,335.90144572073609,-111.65554710758452,111.65554710758452,-335.90144572073609,719.8892266561669,0.0
272154.6038362722,4660833.5216966402,-42500.0,-1135.884272161102,-82.414339729014202,368.98050744986898,-736.08471938672085,-59.518432890239779,-350.32753129295588,978.59349824150684,-195.0293560761815,296.92784053805252,-296.92784053805252,195.0293560761815,1831.9461155837603,0.0
277154.6038362722,4660833.5216966402,-42500.0,-1235.9613677007032,-110.99497285967132,410.29350576573756,-840.57765629929941,-81.846093730404704,-413.16697828848669,1094.2136326932541,-209.90260824988661,333.34667176754306,-333.34667176754306,209.90260824988661,2051.6785401752218,0.0
282154.6038362722,4660833.5216966402,-42500.0,-1343.5706092448982,-146.96360687860002,456.2026040946044,-962.61743583137979,-111.44139285904512,-489.12243815896136,1226.9916894556068,-225.39038302952321,375.49771706196537,-375.49771706196537,225.39038302952321,2305.0817353591265,0.0
287154.6038362722,4660833.5216966402,-42500.0,-1457.9149099139511,-192.06935029315207,506.82015109513634,-1105.5774152582339,-150.77289256565467,-581.49890648489941,1379.9576892814719,-240.94967516385969,424.36050984677098,-424.36050984677098,240.94967516385969,2598.4874804027036,0.0
292154.6038362722,4660833.5216966402,-42500.0,-1577.1865726422534,-248.33862017482983,561.99623234879039,-1273.4980594374754,-203.19923408015262,-694.70546356511511,1556.7436058676919,-255.48250234379145,480.92371265975623,-480.92371265975623,255.48250234379145,2939.6199560413365,0.0
297154.6038362722,4660833.5216966402,-42500.0,-1697.916341451634,-317.97177476618066,621.16366428144931,-1471.1187859032661,-273.28487281770271,-834.74601517447968,1761.6873756830098,-266.88385508074714,545.95875656674423,-545.95875656674423,266.88385508074714,3337.8702042521436,0.0
302154.6038362722,4660833.5216966402,-42500.0,-1813.9559453872514,-403.05927436663643,683.1379563236336,-1703.7523253011971,-367.19116116032416,-1009.9412891156315,1999.9226056022494,-271.26590193800479,619.53694098192318,-619.53694098192318,271.26590193800479,3804.5225412354462,0.0
307154.6038362722,4660833.5216966402,-42500.0,-1914.9456440564093,-504.95617982118426,745.89661457728164,-1976.7955208730677,-493.10120786614004,-1231.9440430936727,2277.4268888807806,-261.67508688482053,700.08662728186778,-700.08662728186778,261.67508688482053,4352.7880051686216,0.0
312154.6038362722,4660833.5216966402,-42500.0,-1984.1434392073709,-623.05460987220806,806.42079748639412,-2294.4942803568952,-661.53928040142739,-1517.0409487489819,2601.0202110322093,-226.07924772077598,782.68290820297511,-782.68290820297511,226.07924772077598,4997.3552803383491,0.0
317154.6038362722,4660833.5216966402,-42500.0,-1995.6666628783814,-752.58114190306515,860.80382038780408,-2657.3269640588728,-885.23721606430308,-1887.5198852609601,2978.4456646792587,-144.44865393472685,856.17131372774236,-856.17131372774236,144.44865393472685,5752.9497618577088,0.0
322154.6038362722,4660833.5216966402,-42500.0,-1911.6977679449719,-880.99691725435355,905.04993833176525,-3057.0991944896509,-1177.8132424874079,-2372.3673323509756,3419.0019497989733,14.95163091148487,898.77152667162682,-898.77152667162682,-14.95163091148487,6631.1114671144214,0.0
327154.6038362722,4660833.5216966402,-42500.0,-1681.2952223546411,-982.8092963192762,937.3005751886983,-3468.8037286674262,-1549.9191764267362,-3005.5556481827821,3934.1517754623214,299.10059120424216,872.26729454272368,-872.26729454272368,-299.10059120424216,7634.1797879971682,0.0
332154.6038362722,4660833.5216966402,-42500.0,-1244.3105145117074,-1013.5471716100885,962.51573100145595,-3839.1263904287603,-2000.8117711619889,-3818.6065093607967,4530.4269017901679,770.8641673288804,716.26865563010676,-716.26865563010676,-770.8641673288804,8745.6478933976905,0.0
337154.6038362722,4660833.5216966402,-42500.0,-546.12895412105036,-905.94152580879313,1000.4320607068807,-4074.3078659042671,-2503.1530640957249,-4822.4791726370368,5192.2368243307901,1501.1561461716301,346.93456583753868,-346.93456583753868,-1501.1561461716301,9917.2641584074463,0.0
342154.6038362722,4660833.5216966402,-42500.0,430.55616700933786,-575.30411608467728,1095.9241920038196,-4036.1666889021453,-2980.8834423197486,-5974.1843253086081,5874.9157584055829,2544.1818539172627,-331.06512043483031,331.06512043483031,-2544.1818539172627,11056.526231346252,0.0
347154.6038362722,4660833.5216966402,-42500.0,1616.879378184198,54.824823160664522,1326.3822408252865,-3563.8312283721621,-3286.9638249687969,-7130.4558384860384,6506.8266869492527,3888.5989291819683,-1387.2451215723145,1387.2451215723145,-3888.5989291819683,12024.278608560195,0.0
352154.6038362722,4660833.5216966402,-42500.0,2811.2362183376335,997.44518797863566,1793.4147962345432,-2543.0296279114564,-3201.4994282708321,-8010.3187229314335,6997.1982569434731,5391.0427012091477,-2796.087674221932,2796.087674221932,-5391.0427012091477,12659.466295880509,0.0
357154.6038362722,4660833.5216966402,-42500.0,3686.4082156336744,2126.9529604752847,2581.306231257578,-1025.9992183091063,-2485.4776313979455,-8218.9590028441035,7260.182118184719,6731.5856492627945,-4356.126327691497,4356.126327691497,-6731.5856492627945,12847.7617159366,0.0
362154.6038362722,4660833.5216966402,-42500.0,3916.0890676574991,3137.2251669367315,3676.7170451382131,658.28047943120089,-1016.5492264102644,-7396.7477353282002,7255.9325788817532,7468.8872420539074,-5667.0990018928396,5667.0990018928396,-7468.8872420539074,12619.677518554949,0.0
367154.6038362722,4660833.5216966402,-42500.0,3412.7409886053038,3623.9340410867053,4889.4227308484533,1944.559572212652,1037.4426684478865,-5482.1160481121069,7025.7565500966302,7251.9193249398304,-6260.0465634899792,6260.0465634899792,-7251.9193249398304,12182.176945051344,0.0
372154.6038362722,4660833.5216966402,-42500.0,2490.8983381803164,3321.6450217484307,5868.7592426997207,2323.1237195761364,3165.4639000002339,-2900.0161137044638,6682.0828054669182,6093.8046060158131,-5876.9457241708906,5876.9457241708906,-6093.8046060158131,11748.737616950821,0.0
377154.6038362722,4660833.5216966402,-42500.0,1708.7898860479243,2332.2170389787657,6274.4011226256171,1714.5963221073737,4730.1303891699736,-414.67378808556066,6328.8572671562142,4441.0826983266634,-4685.8622516631403,4685.8622516631403,-4441.0826983266634,11283.104388408639,0.0
382154.6038362722,4660833.5216966402,-42500.0,1453.8086115095086,1088.2989714747966,5990.6851587618012,543.18130483188213,5342.4409025035429,1324.8850000668579,5921.3279535001766,2893.4327418578914,-3181.5816799388795,3181.5816799388795,-2893.4327418578914,10547.422753718613,0.0
387154.6038362722,4660833.5216966402,-42500.0,1694.5576813030884,51.817219747447488,5180.3162871466357,-603.31765533159705,5054.080611062539,2132.6737950991005,5325.0026863701578,1825.0916617203166,-1844.3145685915365,1844.3145685915365,-1825.0916617203166,9409.9158282740991,0.0
392154.6038362722,4660833.5216966402,-42500.0,2128.3869028629147,-549.42657655594746,4140.5341276658683,-1360.654881989964,4214.7144885408234,2227.5922792564461,4547.594187335435,1266.7099161938315,-899.25743177517757,899.25743177517757,-1266.7099161938315,7975.5984609724983,0.0
397154.6038362722,4660833.5216966402,-42500.0,2475.8048494975133,-740.50132440342054,3125.8573364570352,-1678.7408847907545,3199.792083665458,1944.4243247560303,3709.6169217174947,1056.5364608467628,-336.91607710432612,336.91607710432612,-1056.5364608467628,6470.386879832231,0.0
402154.6038362722,4660833.5216966402,-42500.0,2618.9799563557722,-664.31190496068189,2272.3424257720876,-1678.5714117880843,2252.9254145122895,1532.1145987984933,2929.3126425202622,1019.8493353602373,-51.770702040420758,51.770702040420758,-1019.8493353602373,5091.9977616007418,0.0
407154.6038362722,4660833.5216966402,-42500.0,2567.9619300697054,-462.33538130245444,1615.6562143955784,-1502.621212756221,1477.286197999807,1119.9732169640324,2274.7313977410413,1042.7418244566395,60.884392067295551,-60.884392067295551,-1042.7418244566395,3947.9902020590489,0.0
412154.6038362722,4660833.5216966402,-42500.0,2382.233651238741,-229.18450537240489,1137.5762159587637,-1252.8836365136901,888.78089667679842,759.79545894309649,1765.9818122136051,1068.3973798828958,76.218186950902634,-76.218186950902634,-1068.3973798828958,3065.7171002926602,0.0
417154.6038362722,4660833.5216966402,-42500.0,2121.7781289837922,-14.590674256714737,801.54357621312874,-988.5665165437963,464.85042127700399,466.69499584944737,1391.582882383226,1074.121390255842,42.771369664320559,-42.771369664320559,-1074.121390255842,2424.4399746226122,0.0
422154.6038362722,4660833.5216966402,-42500.0,1831.1490235124281,161.12728305913063,570.75241711237368,-740.43568341943626,172.11952507692422,240.4335445118526,1124.0291745510035,1054.2705652966897,-9.413425376427881,9.413425376427881,-1054.2705652966897,1981.2973905234508,0.0
427154.6038362722,4660833.5216966402,-42500.0,1539.3731671546077,293.65709351627049,414.7003237485074,-522.8956036879265,-21.627892456152324,74.18707986266871,935.4373518217842,1011.0808652532664,-62.783212496499345,62.783212496499345,-1011.0808652532664,1686.4668606757077,0.0
432154.6038362722,4660833.5216966402,-42500.0,1263.8941952029393,386.28818018005632,310.26173273587096,-341.11367557375354,-143.44495995403238,-41.676480707275239,811.03075632473883,950.02634096779002,-108.24958901888232,108.24958901888232,-950.02634096779002,1492.4328285433869,0.0
437154.6038362722,4660833.5216966402,-42500.0,1014.2385283076335,445.30450102553669,240.74535411035268,-194.97469555804722,-214.56443898697643,-117.48976730615074,743.47239012911723,877.36126961949287,-142.23985326173704,142.23985326173704,-877.36126961949287,1360.4278374752319,0.0
442154.6038362722,4660833.5216966402,-42500.0,794.6612931708828,477.63330524830053,194.47510536759134,-81.446769809230261,-250.969484676327,-162.96010270732796,704.36472050914222,798.82187721569858,-164.46818192252687,164.46818192252687,-798.82187721569858,1263.2377295754732,0.0
447154.6038362722,4660833.5216966402,-42500.0,605.98287788757796,489.7274826366662,163.46457664176179,3.8922879650981761,-264.32578840972741,-186.43872239540951,671.3656526031657,719.03828301735325,-176.34260804030998,176.34260804030998,-719.03828301735325,1184.1630875119508,0.0
452154.6038362722,4660833.5216966402,-42500.0,446.88800140226476,487.10620337192347,142.34731225459126,65.865367394427807,-262.93142133954376,-194.65683004122212,638.18465459342633,641.39072662235606,-179.92941833466168,179.92941833466168,-641.39072662235606,1114.0822204624758,0.0
457154.6038362722,4660833.5216966402,-42500.0,314.84893024098852,474.24235604709804,127.57221688716245,109.09849890594973,-252.55347842102671,-192.77147010257764,603.89920981723196,568.11440570712796,-177.35434233999811,177.35434233999811,-568.11440570712796,1048.5514868557764,0.0
462154.6038362722,4660833.5216966402,-42500.0,206.76595310950941,454.62100112906461,116.82199910192024,137.70637625261153,-237.11017925745421,-184.57317157570972,568.9402851184534,500.51100973007465,-170.50510392236413,170.50510392236413,-500.51100973007465,985.71357434450374,0.0
467154.6038362722,4660833.5216966402,-42500.0,119.39193038867181,430.87281409170743,108.60510589450311,155.16909708465664,-219.20061973419814,-172.74996247287203,533.99759139080652,439.18266084484151,-160.92078509562634,160.92078509562634,-439.18266084484151,925.01091060451586,0.0
472154.6038362722,4660833.5216966402,-42500.0,49.59475902017379,404.92833507656007,101.97505444272548,164.32542609039859,-200.50142337811357,-159.14486845453615,499.70128234600202,384.24269922769849,-149.78368628574265,149.78368628574265,-384.24269922769849,866.4650251067842,0.0
477154.6038362722,4660833.5216966402,-42500.0,-5.496346804865353,378.16559808323245,96.340575466243905,167.42846089004067,-182.05574332882165,-144.97787958019836,466.5385565642398,335.4861677978796,-137.95966733194348,137.95966733194348,-335.4861677978796,810.30095337504372,0.0
267154.6038362722,4665833.5216966402,-42500.0,-1005.3826822816125,34.717323709497578,351.4401090291322,-628.23332237742625,2.0619537201601785,-292.2393606520215,862.31078763984465,-93.20767997053386,208.98309580808976,-208.98309580808976,93.20767997053386,1602.9947993176106,0.0
272154.6038362722,4665833.5216966402,-42500.0,-1096.0390815821117,26.856547168605776,394.20698395005576,-716.57181001780259,-6.0504967159099321,-343.82302442002128,962.50717625121524,-94.03840930163939,231.70208575540664,-231.70208575540664,94.03840930163939,1791.193579018252,0.0
277154.6038362722,4665833.5216966402,-42500.0,-1195.0300618712299,15.706579777927331,443.10928307498216,-819.95180736017778,-17.642194005811692,-406.05762075803932,1077.5988568951982,-93.360078768238509,257.67961791708558,-257.67961791708558,93.360078768238509,2008.0258859346866,0.0
282154.6038362722,4665833.5216966402,-42500.0,-1302.5058453551978,0.2928365706244852,499.00787410611986,-941.45534787925055,-34.04816283163639,-481.60490034059484,1210.3104920216849,-90.433189938104334,287.47808500331121,-287.47808500331121,90.433189938104334,2258.9728492742829,0.0
287154.6038362722,4665833.5216966402,-42500.0,-1418.1244647325793,-20.584402190769566,562.81559838562691,-1084.9110586356562,-57.133597376026025,-574.01646764287068,1363.9731671148213,-84.089549233083389,321.68447944986588,-321.68447944986588,84.089549233083389,2550.8183799561157,0.0
292154.6038362722,4665833.5216966402,-42500.0,-1540.6478652027936,-48.343557175154622,635.45244638316569,-1255.061106753371,-89.509643136668615,-688.14651865483859,1542.6778800549105,-72.424371251583494,360.78429016750181,-360.78429016750181,72.424371251583494,2891.9932638855721,0.0
297154.6038362722,4665833.5216966402,-42500.0,-1667.2568914862561,-84.539702149721123,717.77082317637939,-1457.6980532388361,-134.82573758649991,-830.7891123738641,1751.4601429018862,-52.258694917855593,404.87022029634704,-404.87022029634704,52.258694917855593,3292.9716632718737,0.0
302154.6038362722,4665833.5216966402,-42500.0,-1792.4163477591451,-130.6199473674113,810.44577724602982,-1699.6596511788573,-198.14318535243061,-1011.6450864472121,1996.510481320008,-18.219952547504164,453.03411503683458,-453.03411503683458,18.219952547504164,3766.6630758680362,0.0
307154.6038362722,4665833.5216966402,-42500.0,-1906.0602470827141,-187.35432087530296,913.84069026965619,-1988.4329335593802,-286.35442641356093,-1244.7283707583642,2285.3990423187352,38.782246861086321,502.18353184367919,-502.18353184367919,-38.782246861086321,4328.6497733355554,0.0
312154.6038362722,4665833.5216966402,-42500.0,-1990.8484693727821,-253.6661191114251,1027.9003990411541,-2330.872810984411,-408.50997131313818,-1550.2488042687557,2627.308007177784,133.96108411381823,544.88251243562263,-544.88251243562263,-133.96108411381823,4996.9488618440864,0.0
317154.6038362722,4665833.5216966402,-42500.0,-2018.3889195121408,-324.43644881086198,1152.2210067045924,-2730.1480455979663,-575.68119877554329,-1956.7285251465191,3033.2852621283046,292.16119438291571,565.68326444631134,-565.68326444631134,-292.16119438291571,5790.6991683644264,0.0
322154.6038362722,4665833.5216966402,-42500.0,-1944.8840543078938,-386.74905371975683,1286.6366115911264,-3179.5342713285659,-799.52350496484769,-2502.3795779240631,3516.3539027383463,552.31238265374179,535.45739772484433,-535.45739772484433,-552.31238265374179,6726.7999764366559,0.0
327154.6038362722,4665833.5216966402,-42500.0,-1708.0821219121583,-414.21334983000196,1432.9694601865142,-3651.3870077360234,-1087.9181966497733,-3233.2296019315154,4089.9406373164893,971.53132190824692,403.86328033471625,-403.86328033471625,-971.53132190824692,7813.2031925702604,0.0
332154.6038362722,4665833.5216966402,-42500.0,-1230.1711342576627,-360.01729680607662,1598.9150029856644,-4080.4729296848236,-1435.0651065723846,-4192.8594152741789,4760.7030677173607,1625.058319628034,92.095449752972399,-92.095449752972399,-1625.058319628034,9037.7431640419782,0.0
337154.6038362722,4665833.5216966402,-42500.0,-435.1231084531492,-152.16146146384463,1804.9055116053783,-4344.7562152529881,-1802.9676082891106,-5395.5006962201596,5515.9113834877353,2593.9809308259937,-507.48823061471398,507.48823061471398,-2593.9809308259937,10353.101826284703,0.0
342154.6038362722,4665833.5216966402,-42500.0,708.77320257059921,300.35791582218729,2093.0483247818142,-4256.3487039381152,-2093.7352203580194,-6773.8976884852436,6313.8187349136215,3928.3028423046458,-1511.2176083011204,1511.2176083011204,-3928.3028423046458,11663.446980213481,0.0
347154.6038362722,4665833.5216966402,-42500.0,2117.7855516969562,1075.5719809506406,2532.208936720674,-3590.8309703736118,-2121.8236999619276,-8104.12272029409,7082.623877515367,5575.0746977861663,-2984.2941726470117,2984.2941726470117,-5575.0746977861663,12827.880852412656,0.0
352154.6038362722,4665833.5216966402,-42500.0,3519.1363844372831,2167.5590726158166,3205.1505948028384,-2193.7332127774503,-1615.6078647097386,-8943.9958064950151,7733.8222694291035,7284.2641126250537,-4832.1150446228448,4832.1150446228448,-7284.2641126250537,13706.856102927421,0.0
357154.6038362722,4665833.5216966402,-42500.0,4456.1335601391993,3389.7795228521154,4159.4411265406634,-174.9771209008444,-300.14494688697414,-8680.8253247977991,8198.1013760069018,8561.5635113924673,-6682.3186893748079,6682.3186893748079,-8561.5635113924673,14268.987575494211,0.0
362154.6038362722,4665833.5216966402,-42500.0,4487.0326472716024,4329.5571354808026,5321.2732520043955,1911.4899602360999,1901.3187992505352,-6811.8249604674666,8473.2549424931985,8799.4004108201298,-7887.4421274773804,7887.4421274773804,-8799.4004108201298,14691.076289080958,0.0
367154.6038362722,4665833.5216966402,-42500.0,3570.8778742823492,4486.7309985720976,6426.9838009293917,3166.2797972983867,4625.9850545638174,-3428.7442842446221,8635.8079096427991,7659.5920087539916,-7811.1624380508101,7811.1624380508101,-7659.5920087539916,15225.346477428877,0.0
372154.6038362722,4665833.5216966402,-42500.0,2299.4559388643161,3626.752465781793,7085.0199317800916,2904.4624883726142,7056.5235160294442,502.91725579593742,8766.1343498524457,5474.0737104186837,-6330.1131358186731,6330.1131358186731,-5474.0737104186837,15775.864622381525,0.0
377154.6038362722,4665833.5216966402,-42500.0,1533.527001042836,2059.7336599490727,7008.2261287168749,1288.4198520132959,8345.1446983861588,3595.4909989128291,8756.3364482426059,3159.0354221673556,-4065.3464418649814,4065.3464418649814,-3159.0354221673556,15797.699170214868,0.0
382154.6038362722,4665833.5216966402,-42500.0,1672.5169223517041,464.44894048747216,6227.2603080121453,-736.71617405578809,8185.8554187760074,4996.1030581385812,8292.6645421693647,1555.2501258758662,-1953.1114370013861,1953.1114370013861,-1555.2501258758662,14830.843117374801,0.0
387154.6038362722,4665833.5216966402,-42500.0,2400.6876997621221,-610.96796600966695,5049.5089894925959,-2226.1185984043891,6943.7568970145949,4855.6022802921598,7299.3144315141253,881.84504405935263,-568.76662631448926,568.76662631448926,-881.84504405935263,12929.584949282766,0.0
392154.6038362722,4665833.5216966402,-42500.0,3133.6071481798913,-1035.6953613554265,3826.0416289727295,-2841.1247923885812,5266.2578038035208,3903.7708782544382,5999.1335080041354,837.83537164910558,78.722337376669429,-78.722337376669429,-837.83537164910558,10543.894367333754,0.0
397154.6038362722,4665833.5216966402,-42500.0,3514.0399482596076,-985.62155659830262,2777.0567300951798,-2773.0310344271752,3660.7102233088299,2795.6402521701589,4674.0197473551607,1030.9426137979362,262.42506440163208,-262.42506440163208,-1030.9426137979362,8167.9645442754554,0.0
402154.6038362722,4665833.5216966402,-42500.0,3504.0989353711971,-703.57987325913223,1973.1277205977942,-2360.9153901572299,2360.9771175741807,1851.5687854323612,3515.8335377169346,1225.5088136697716,236.05671807009799,-236.05671807009799,-1225.5088136697716,6121.6198728405643,0.0
407154.6038362722,4665833.5216966402,-42500.0,3226.0657839048567,-364.50025837849341,1396.1096874370771,-1853.705100946489,1403.8904833922631,1141.9750857837644,2604.1365841640477,1342.1623981533635,140.4516211035467,-140.4516211035467,-1342.1623981533635,4527.5107356419521,0.0
412154.6038362722,4665833.5216966402,-42500.0,2816.3305923719495,-57.695304284107088,997.00089855002921,-1374.7594908948408,739.09530451775288,635.46276717684225,1940.7203812524551,1378.5205943393751,34.187346552967938,-34.187346552967938,-1378.5205943393751,3378.9185012990924,0.0
417154.6038362722,4665833.5216966402,-42500.0,2369.6634514541706,184.95497128784231,726.33067364756232,-967.15226788535404,296.45699866295774,282.74185777577992,1486.129768492418,1353.9363781156615,-61.76216612745543,61.76216612745543,-1353.9363781156615,2607.4342763297004,0.0
422154.6038362722,4665833.5216966402,-42500.0,1938.5584588152963,360.47299559159609,544.3833576957079,-637.39341405741391,13.230817279374794,43.009616643716512,1187.7441776539722,1288.1659921390174,-140.03245537600321,140.03245537600321,-1288.1659921390174,2122.0888824480062,0.0
427154.6038362722,4665833.5216966402,-42500.0,1547.6569391081732,477.44537615252852,422.19336991347387,-378.95571348385914,-159.38261134989909,-113.85017451579287,1006.4075996018628,1196.8187008293476,-198.41542844410276,198.41542844410276,-1196.8187008293476,1829.8091207124614,0.0
432154.6038362722,4665833.5216966402,-42500.0,1206.157997491161,547.60741424510149,339.61545027446448,-181.76756451756191,-257.14803554283765,-210.27466573009954,914.16966911667532,1091.6295336088874,-237.44443665112971,237.44443665112971,-1091.6295336088874,1651.3308654292673,0.0
437154.6038362722,4665833.5216966402,-42500.0,915.30455954904335,582.31548810298216,283.01202292874348,-35.41534267318405,-305.48639930861884,-263.43649424769558,863.35447495720734,981.2739707701088,-259.38445747811636,259.38445747811636,-981.2739707701088,1531.3124096275742,0.0
442154.6038362722,4665833.5216966402,-42500.0,672.36324456755221,591.29475491697406,243.3160313792325,69.825679534479676,-322.09574177674921,-286.55117587314834,821.67778946568365,871.94812658654996,-267.40768713769148,267.40768713769148,-871.94812658654996,1437.6825643562918,0.0
447154.6038362722,4665833.5216966402,-42500.0,472.70783869848702,582.36331546437702,214.58253066426528,142.60763824665125,-319.07586500125871,-289.62482411052503,779.7542467924909,767.80711433499027,-264.89952408805993,264.89952408805993,-767.80711433499027,1354.5783631650361,0.0
452154.6038362722,4665833.5216966402,-42500.0,310.96177812118839,561.55161942411598,192.95884397104825,190.35112726068627,-304.54795156032736,-280.02422125875125,736.1065362049892,671.37146228718689,-254.98665205977184,254.98665205977184,-671.37146228718689,1275.3120187402067,0.0
457154.6038362722,4665833.5216966402,-42500.0,181.65714134661525,533.36564458619739,175.97406520664759,219.21773422239633,-283.85382451524379,-262.9993362690152,691.35561475089105,583.92136863852647,-240.29516772360881,240.29516772360881,-583.92136863852647,1197.7268563260486,0.0
462154.6038362722,4665833.5216966402,-42500.0,79.614361095025785,501.07817125247601,162.05743949083811,234.1779024407204,-260.42412782615213,-242.16390354255512,646.52869716992689,505.85150720593526,-222.88059998578066,222.88059998578066,-505.85150720593526,1121.6436838942905,0.0
467154.6038362722,4665833.5216966402,-42500.0,0.14644937758155585,467.00154744492698,150.21809265740822,239.14117465824256,-236.39635703224889,-219.91399991078299,602.5564290031291,436.96830401201947,-204.26204583969314,204.26204583969314,-436.96830401201947,1047.5970054158722,0.0
472154.6038362722,4665833.5216966402,-42500.0,-60.853414277330046,432.72083396999307,139.83452745526193,237.11563460496572,-213.04692535069066,-197.77000059996831,560.14443664714122,376.71949873030928,-185.50440234790426,185.50440234790426,-376.71949873030928,976.25801899231817,0.0
477154.6038362722,4665833.5216966402,-42500.0,-106.89869399030101,399.28318514239652,130.51804985760356,230.37111822201067,-191.08869471633113,-176.64188882194097,519.7707039180325,324.36081762762706,-167.31361675423386,167.31361675423386,-324.36081762762706,908.20010768402153,0.0
267154.6038362722,4670833.5216966402,-42500.0,-944.41351331949909,127.22813892400509,357.27586237910765,-599.08927671139406,45.669702768548056,-282.2291874485739,839.19683005282627,-4.8163719405826697,148.77460579430249,-148.77460579430249,4.8163719405826697,1549.9893735643084,0.0
272154.6038362722,4670833.5216966402,-42500.0,-1028.7261722445003,134.55504198318525,402.95816790792293,-683.29450395158756,46.442467954304682,-331.96673310075107,936.94889829687463,8.0512886104041286,161.51105386966776,-161.51105386966776,-8.0512886104041286,1731.7950836769878,0.0
277154.6038362722,4670833.5216966402,-42500.0,-1120.9048785969919,141.56980080556895,455.90212076407897,-782.04913830511441,45.876309534647859,-392.03757262080103,1049.4509334550271,25.038020484992018,175.52202828701431,-175.52202828701431,-25.038020484992018,1941.5270511346489,0.0
282154.6038362722,4670833.5216966402,-42500.0,-1221.1791392785394,147.95188937242312,517.40027564518459,-898.47399351325521,43.231494853630636,-465.0973276167029,1179.5071054635805,47.483180137332752,190.90385942418072,-190.90385942418072,-47.483180137332752,2184.6859125229589,0.0
287154.6038362722,4670833.5216966402,-42500.0,-1329.337007386501,153.30117539713436,588.96581204966708,-1036.5162820957885,37.425165305680935,-554.74614918511691,1330.595484736511,77.326194977037048,207.63921161189865,-207.63921161189865,-77.326194977037048,2468.1532705135323,0.0
292154.6038362722,4670833.5216966402,-42500.0,-1444.3180750134313,157.16819710480135,672.35170679724729,-1201.1660519746822,26.879398765034185,-666.00016678597456,1507.0627767602161,117.48014173434365,225.41035961247724,-225.41035961247724,-117.48014173434365,2800.5892987972438,0.0
297154.6038362722,4670833.5216966402,-42500.0,-1563.49320696667,159.15492792231282,769.55904772875931,-1398.658488307979,9.3142200808160993,-806.03565442887088,1714.3730022251336,172.46847190692532,243.20730807454945,-243.20730807454945,-172.46847190692532,3192.9100448231352,0.0
302154.6038362722,4670833.5216966402,-42500.0,-1681.4209216542097,159.16536674617032,882.82862061514209,-1636.5380158413634,-18.513135922511577,-985.34152588779602,1959.414506921149,249.49654855159898,258.54746867614574,-258.54746867614574,-249.49654855159898,3658.7948904883019,0.0
307154.6038362722,4670833.5216966402,-42500.0,-1787.774845100186,157.9554804371337,1014.6145558644158,-1923.291166352258,-61.080934391629661,-1219.4289750721489,2250.8592477589218,360.2061930254124,265.99444699106834,-265.99444699106834,-360.2061930254124,4215.0760509287147,0.0
312154.6038362722,4670833.5216966402,-42500.0,-1864.0715697538817,158.24554861423917,1167.5592427491761,-2266.9339206417999,-124.24044491831199,-1531.1613570529685,2599.5455904224928,523.41255228118098,254.49159153986415,-254.49159153986415,-523.41255228118098,4881.6753232385145,0.0
317154.6038362722,4670833.5216966402,-42500.0,-1878.9339581227184,166.81386994297057,1344.5429488307645,-2671.3963053404309,-214.82612096564708,-1953.403607516887,3018.7703474249975,769.02983370572042,202.87213208071842,-202.87213208071842,-769.02983370572042,5680.4406820560425,0.0
322154.6038362722,4670833.5216966402,-42500.0,-1782.2488948242533,198.1190947242595,1549.0036229376474,-3128.7998505873679,-338.84590590674509,-2530.6882452473924,3524.0204547048124,1142.8586404395721,73.001633854887132,-73.001633854887132,-1142.8586404395721,6631.8182992965767,0.0
327154.6038362722,4670833.5216966402,-42500.0,-1500.3661840319044,279.85080330467787,1785.9361553331139,-3605.1374729297577,-496.47353269873514,-3316.3669565761629,4130.687580291723,1710.3464915970187,-199.06403489125864,199.06403489125864,-1710.3464915970187,7747.9691130777783,0.0
332154.6038362722,4670833.5216966402,-42500.0,-938.31392513138735,459.72281145999392,2064.2224570170029,-4017.7398940216217,-670.88536568757968,-4357.7134609484419,4847.5489163122702,2553.9526169819383,-710.56890605388651,710.56890605388651,-2553.9526169819383,9021.3850213208752,0.0
337154.6038362722,4670833.5216966402,-42500.0,-0.99554792148673377,809.59298359106208,2400.8047279562475,-4208.2989107812591,-807.47062536848364,-5656.3526012727625,5666.4893796993119,3752.8555256070345,-1588.2355002302861,1588.2355002302861,-3752.8555256070345,10410.880562863515,0.0
342154.6038362722,4670833.5216966402,-42500.0,1350.0964278710869,1416.5054525290529,2825.5585927902471,-3929.8037039157475,-783.216394249014,-7090.3496428428516,6554.3111245645196,5327.9226086426697,-2952.640999739886,2952.640999739886,-5327.9226086426697,11834.757944750792,0.0
347154.6038362722,4670833.5216966402,-42500.0,2997.3222515221373,2342.7513825835558,3380.9218012918709,-2890.9901306224583,-379.16197573803333,-8301.8101874454023,7455.6565431934314,7140.15861369299,-4823.0742510644423,4823.0742510644423,-7140.15861369299,13195.533333051997,0.0
352154.6038362722,4670833.5216966402,-42500.0,4561.8473950200751,3540.5768246495363,4103.3696540239616,-920.57214756244821,704.10065384081588,-8612.915180295824,8317.4792505400346,8770.7822436027855,-6955.8831712988685,6955.8831712988685,-8770.7822436027855,14470.000710221098,0.0
357154.6038362722,4670833.5216966402,-42500.0,5418.5212602455558,4744.9554429953396,4974.7600865523309,1732.5193058405641,2721.9314181875484,-7136.3509734928166,9134.0706772732992,9503.3091808204717,-8698.0234482199285,8698.0234482199285,-9503.3091808204717,15843.793225931524,0.0
362154.6038362722,4670833.5216966402,-42500.0,5012.2806059863733,5449.4481158471326,5857.866509583524,4141.7867786768138,5619.2138569011749,-3288.7150565896773,9967.9326507462101,8610.8281085074887,-9088.0529316207358,9088.0529316207358,-8610.8281085074887,17661.259581335933,0.0
367154.6038362722,4670833.5216966402,-42500.0,3452.3524980052712,5125.0560172000487,6480.8218900179008,4946.177229464548,8762.077819137141,2388.2903341950305,10884.41191810929,5993.5300045090971,-7442.7784958245957,7442.7784958245957,-5993.5300045090971,19900.777951152784,0.0
372154.6038362722,4670833.5216966402,-42500.0,1783.6653397080831,3671.0558634187619,6553.0114253108413,3364.7891387851673,11044.520523481542,7931.5783003024508,11770.222852160923,2637.9088888961883,-4150.1595006342141,4150.1595006342141,-2637.9088888961883,21715.470138253033,0.0
377154.6038362722,4670833.5216966402,-42500.0,1231.8819780725366,1660.0430100939125,5980.0193955961131,139.10459444569381,11569.902282686064,11092.985342330116,12035.36991772998,80.642330790292363,-682.9287615760893,682.9287615760893,-80.642330790292363,21974.473595008956,0.0
382154.6038362722,4670833.5216966402,-42500.0,2046.3696865269883,-52.963594200783469,4959.3047546478301,-2957.2927077225845,10325.346957719166,11082.957377919929,11231.201979813617,-830.06667866598514,1541.9800174881063,-1541.9800174881063,830.06667866598514,20246.126541369224,0.0
387154.6038362722,4670833.5216966402,-42500.0,3419.1548061449012,-972.48025955481705,3824.8500455019612,-4629.0530053347702,8074.6271835340158,8907.852847248605,9564.4823550594447,-425.8526698870545,2192.7713959576467,-2192.7713959576467,425.8526698870545,17052.390370607151,0.0
392154.6038362722,4670833.5216966402,-42500.0,4433.5343380098248,-1145.4121698924853,2827.3173133637656,-4787.4378462603736,5687.8619149530286,6138.2201825668799,7550.1223722680788,446.72342306363726,1842.3213638336842,-1842.3213638336842,-446.72342306363726,13340.685604085271,0.0
397154.6038362722,4670833.5216966402,-42500.0,4734.4612646491214,-884.17448051734107,2060.1580577025161,-4056.0139889386382,3680.4975384090226,3782.0405614157758,5636.3682988495175,1188.1578410297566,1181.9999200463899,-1181.9999200463899,-1188.1578410297566,9891.8739104231408,0.0
402154.6038362722,4670833.5216966402,-42500.0,4451.6635074241731,-476.76843861717572,1511.2088990796162,-3057.3812906121534,2196.2386758477255,2121.4979482715371,4063.2695647326236,1615.4629185492588,593.64396722314427,-593.64396722314427,-1615.4629185492588,7100.6518887203547,0.0
407154.6038362722,4670833.5216966402,-42500.0,3860.6572439476463,-87.251776062355972,1130.9981700011419,-2133.6143065498559,1179.4120902924037,1055.9962920951248,2893.8199019618905,1775.8411298717492,178.27865567829622,-178.27865567829622,-1775.8411298717492,5051.1583601250904,0.0
412154.6038362722,4670833.5216966402,-42500.0,3179.1853397350974,221.39074372945194,869.99716334872983,-1396.0993673348307,516.62328285091746,400.12905049675271,2091.7879264968251,1768.1400823815407,-87.033792863069607,87.033792863069607,-1768.1400823815407,3665.1276556066646,0.0
417154.6038362722,4670833.5216966402,-42500.0,2527.0205430292194,439.97990295704062,689.96186528901342,-844.67531847957468,101.89785411799144,4.436025845053635,1580.4905181861932,1670.0493386849946,-248.74308464952355,248.74308464952355,-1670.0493386849946,2802.9283077091254,0.0
422154.6038362722,4670833.5216966402,-42500.0,1953.4688787335801,580.52359907149116,564.05368488277179,-445.08700028349227,-145.87275547333209,-228.10794923110913,1284.6113887559072,1528.9942761121079,-342.97035779311818,342.97035779311818,-1528.9942761121079,2308.2033898592949,0.0
427154.6038362722,4670833.5216966402,-42500.0,1470.4921286817082,660.24427174299205,474.13223133448736,-161.2176063118817,-284.08602708923161,-356.85607980824676,1139.5473427656359,1371.5172158420958,-392.63644046234185,392.63644046234185,-1371.5172158420958,2034.4762234810378,0.0
432154.6038362722,4670833.5216966402,-42500.0,1073.8358859391508,695.34776512168253,408.1313970363625,36.27998423826093,-351.99176801345027,-418.74647384760067,1065.1106148199485,1212.3742296484638,-412.04509735850559,412.04509735850559,-1212.3742296484638,1871.7677900104477,0.0
437154.6038362722,4670833.5216966402,-42500.0,753.51612460362571,699.18131742638502,358.10033786927772,169.71823854908979,-375.94410876854045,-437.7908524908587,1009.2003716080416,1059.8979690253718,-410.76541088256886,410.76541088256886,-1059.8979690253718,1755.4152433652353,0.0
442154.6038362722,4670833.5216966402,-42500.0,498.30753205220691,682.07000168985098,318.83940535791123,255.92376433347505,-373.38846854039571,-430.13827712710145,955.00066021165219,918.70385550487208,-395.69704665421676,395.69704665421676,-918.70385550487208,1654.6903714458049,0.0
447154.6038362722,4670833.5216966402,-42500.0,297.47800524199556,651.70050756589762,286.96909337230016,307.65527532262081,-355.699785548183,-406.76988859265231,899.02059925882759,791.07091028258344,-371.99021571791775,371.99021571791775,-791.07091028258344,1557.670577000164,0.0
452154.6038362722,4670833.5216966402,-42500.0,141.39583025582954,613.62747074683216,260.30078810192077,334.60758837274011,-330.16028207465843,-375.07932315714191,841.65213443682342,677.74374257030422,-343.46881374083773,343.46881374083773,-677.74374257030422,1461.1011594590695,0.0
457154.6038362722,4670833.5216966402,-42500.0,21.697218821131941,571.75535066189491,237.41630265132201,344.11256780309128,-301.32421237945744,-339.92125125087415,784.1916195528346,578.47199913008717,-312.88924253880822,312.88924253880822,-578.47199913008717,1365.1565514532367,0.0
462154.6038362722,4670833.5216966402,-42500.0,-68.724369271014197,528.74844222224033,217.39063416696965,341.65896338402217,-271.95027048816962,-304.36329830730637,727.90258463335272,492.39832882109442,-282.15319110274811,282.15319110274811,-492.39832882109442,1271.0607653279471,0.0
467154.6038362722,4670833.5216966402,-42500.0,-135.80678832200621,486.36184610215798,199.61208627469316,331.30117363772672,-243.63273656054665,-270.2398196592714,673.75631832651379,418.33831359284613,-252.50060197220023,252.50060197220023,-418.33831359284613,1180.1123282954279,0.0
472154.6038362722,4670833.5216966402,-42500.0,-184.44312283611421,445.69776487529435,183.66650131348908,315.98794958951225,-217.22334815393745,-238.55555228723176,622.40410013437975,354.97336723355505,-224.67868014029483,224.67868014029483,-354.97336723355505,1093.3410955100928,0.0
477154.6038362722,4670833.5216966402,-42500.0,-218.6188184318253,407.39965308793529,169.26426202164808,297.82767923655143,-193.11047135386949,-209.77444307746771,574.22510559261048,300.97699722555734,-199.08272664409668,199.08272664409668,-300.97699722555734,1011.4362548014037,0.0
267154.6038362722,4675833.5216966402,-42500.0,-861.8616853656456,213.33982338541773,349.48714570132364,-559.47716607245036,86.24386879501273,-268.22571202269904,808.62735246852048,80.495908991243681,87.103108952088377,-87.103108952088377,-80.495908991243681,1482.7572864416472,0.0
272154.6038362722,4675833.5216966402,-42500.0,-935.2341445203316,235.08446835579306,395.01752954174816,-636.85963126228137,95.431043705556306,-314.95852604146501,902.31950575303551,106.63435174195897,89.329467431958307,-89.329467431958307,-106.63435174195897,1655.0149918511493,0.0
277154.6038362722,4675833.5216966402,-42500.0,-1014.853481121917,259.48044060797946,448.12795489151353,-727.48235170354076,105.38695639191357,-371.31338413416432,1010.1931497882173,139.46331343736875,90.63479433820757,-90.63479433820757,-139.46331343736875,1853.6376583234628,0.0
282154.6038362722,4675833.5216966402,-42500.0,-1100.7061951313412,286.91957968361305,510.3033276449886,-834.2160941024456,116.00199647755615,-439.78177620011866,1134.9999570332584,180.93018979625305,90.557511823259247,-90.557511823259247,-180.93018979625305,2083.8677111175753,0.0
287154.6038362722,4675833.5216966402,-42500.0,-1192.2950590361784,317.90043470778443,583.34143290699251,-960.721750519078,127.04623641477934,-523.77873217246395,1280.1844650203752,233.75782755391973,88.343445185262937,-88.343445185262937,-233.75782755391973,2352.3010412890567,0.0
292154.6038362722,4675833.5216966402,-42500.0,-1288.2074208247286,353.10227879325674,669.41147304689548,-1111.6657574733897,138.10810841331323,-628.13048482003637,1450.0998428722228,301.87923168344076,82.682422380188825,-82.682422380188825,-301.87923168344076,2667.2948261242086,0.0
297154.6038362722,4675833.5216966402,-42500.0,-1385.3395602520372,393.52990708237394,771.11365188803666,-1292.915467241653,148.51689621965184,-759.85589998766102,1650.2909537064418,391.15849845688172,71.197086430412327,-71.197086430412327,-391.15849845688172,3039.4661376761142,0.0
302154.6038362722,4675833.5216966402,-42500.0,-1477.5335761964109,440.79650776919385,891.53082518586552,-1511.5704832301235,157.26558712943608,-929.39021586494528,1887.853798985707,510.57524457993281,49.473613246409855,-49.473613246409855,-510.57524457993281,3482.2375587177562,0.0
307154.6038362722,4675833.5216966402,-42500.0,-1553.2623342667073,497.66761638610194,1034.2569460429445,-1775.4845499381863,162.99210860582289,-1152.4088161719187,2171.8657278296832,674.11716111074395,9.283331958581698,-9.283331958581698,-674.11716111074395,4012.2908637213895,0.0
312154.6038362722,4675833.5216966402,-42500.0,-1591.8964102180389,569.08102601902283,1203.3798030979624,-2091.5377445041804,164.17997450349461,-1452.2906456410303,2513.8369884970225,903.6466041244264,-64.535888888499528,64.535888888499528,-903.6466041244264,4649.6061607339252,0.0
317154.6038362722,4675833.5216966402,-42500.0,-1558.1763659285934,663.97847303791025,1403.3951345291046,-2461.2314900872211,159.96893376560476,-1862.7797099940972,2928.0079019872619,1232.8210686105463,-199.19362503622256,199.19362503622256,-1232.8210686105463,5416.4700029578426,0.0
322154.6038362722,4675833.5216966402,-42500.0,-1395.2210192533023,798.37172805662772,1639.0469297103969,-2871.1929535317981,152.43343072823819,-2429.0640916776129,3430.9784954059796,1711.3748924148622,-441.46233609375759,441.46233609375759,-1711.3748924148622,6334.4863575152149,0.0
327154.6038362722,4675833.5216966402,-42500.0,-1018.616210761163,999.86606029490281,1915.1404975392315,-3275.3358125192235,152.00342181570497,-3202.4602795936812,4039.5697647473917,2406.947964692592,-866.55992683757597,866.55992683757597,-2406.947964692592,7418.5548537383511,0.0
332154.6038362722,4675833.5216966402,-42500.0,-319.16627765601044,1312.7077439667014,2236.4314383260589,-3566.493630002074,188.74695399037429,-4218.305699672017,4765.7868103779902,3397.063383628265,-1583.0792336709164,1583.0792336709164,-3397.063383628265,8668.0511800012009,0.0
337154.6038362722,4675833.5216966402,-42500.0,809.70661350036198,1799.0045669267895,2607.5125216547808,-3542.7980293181213,332.36976251433407,-5439.4716948401028,5610.1953402579684,4736.3845331333741,-2719.2744219110318,2719.2744219110318,-4736.3845331333741,10060.51987716668,0.0
342154.6038362722,4675833.5216966402,-42500.0,2396.9300797085025,2524.9400456889848,3031.4657583882031,-2895.3319139744426,719.27003863537891,-6647.168905135788,6560.2932716353298,6378.3766129273608,-4361.8548055876672,4361.8548055876672,-6378.3766129273608,11565.63967133758,0.0
347154.6038362722,4675833.5216966402,-42500.0,4261.3332442028568,3513.8389331281251,3502.9819805976972,-1281.1682984823601,1568.7015856970154,-7290.2268345332413,7605.3052687462041,8043.7858944410282,-6412.5993425150909,6412.5993425150909,-8043.7858944410282,13213.680012595103,0.0
352154.6038362722,4675833.5216966402,-42500.0,5879.6241589374085,4657.2707819182879,3988.9977871022688,1429.623945357713,3139.7025461396011,-6400.5056415443669,8772.9596364212794,9096.2920921216974,-8372.5016507907385,8372.5016507907385,-9096.2920921216974,15229.382858890431,0.0
357154.6038362722,4675833.5216966402,-42500.0,6441.604074556456,5627.6556439974629,4399.6808280113755,4729.4528079854153,5565.2051775667396,-2837.744115941065,10152.970985579161,8620.9231697582618,-9215.5927354442356,9215.5927354442356,-8620.9231697582618,18065.360730931661,0.0
362154.6038362722,4675833.5216966402,-42500.0,5338.6997601303183,5918.4063510837814,4584.8621597805159,7179.7259550277331,8575.9930906233258,3853.4079584274914,11826.438143176138,5966.3295998375388,-7723.2601065770205,7723.2601065770205,-5966.3295998375388,21955.082830749958,0.0
367154.6038362722,4675833.5216966402,-42500.0,2983.2657655716353,5134.0037765469915,4405.288426020822,6940.9704428874866,11333.74182841469,12259.766199221836,13780.300391588713,1641.0745973441194,-3518.85171532306,3518.85171532306,-1641.0745973441194,26150.535803600767,0.0
372154.6038362722,4675833.5216966402,-42500.0,1005.8745547587781,3405.6570658236274,3853.7907872222386,3383.8083802218357,12738.652823977329,19039.232832226469,15444.035756428062,-2428.6375925319103,1949.8938299726119,-1949.8938299726119,2428.6375925319103,28946.864230656323,0.0
377154.6038362722,4675833.5216966402,-42500.0,925.44424322915916,1450.9882001494173,3099.4855599428392,-1791.2843085353547,12205.099822570821,21171.825894709342,15657.920414182092,-4249.7110797572459,6090.79818698501,-6090.79818698501,4249.7110797572459,28869.733963609509,0.0
382154.6038362722,4675833.5216966402,-42500.0,2607.8183896724795,34.275220757022325,2376.0597702808741,-5853.8271649782255,10126.742092512277,18498.169911533481,14198.017084390221,-3502.9536106496143,7336.7166668360787,-7336.7166668360787,3502.9536106496143,25820.492394717996,0.0
387154.6038362722,4675833.5216966402,-42500.0,4628.4743591414845,-574.91041753332286,1825.4332951188214,-7375.2819008729075,7456.0892074296562,13383.232913017149,11669.992738008134,-1463.229755288553,6178.5152041837355,-6178.5152041837355,1463.229755288553,20976.141170372972,0.0
392154.6038362722,4675833.5216966402,-42500.0,5807.4339716429267,-572.88810667898156,1457.6049539864255,-6778.4006254432097,4985.6557530237942,8339.1177095636085,8879.2117969309365,475.32445625247465,4095.9132635001201,-4095.9132635001201,-475.32445625247465,15803.096650554342,0.0
397154.6038362722,4675833.5216966402,-42500.0,5905.6683182905199,-282.20817742546262,1216.9488659521055,-5217.6361176510973,3063.2292624924316,4579.1277487706557,6394.8349010910024,1697.1804355674908,2203.0325627095267,-2203.0325627095267,-1697.1804355674908,11295.31975161986,0.0
402154.6038362722,4675833.5216966402,-42500.0,5274.1686214374195,66.208188512755839,1048.1183904258692,-3575.7902081299553,1710.7432572089178,2186.754560130521,4459.6564149626975,2232.3510993857362,888.17610971511158,-888.17610971511158,-2232.3510993857362,7841.9362481841135,0.0
407154.6038362722,4675833.5216966402,-42500.0,4341.9307508062966,363.33701034102319,917.80093786448094,-2237.6061333610751,817.41554185897951,797.63727960563119,3092.5752374705598,2327.9564292973132,103.00457510001297,-103.00457510001297,-2327.9564292973132,5437.99133163645,0.0
412154.6038362722,4675833.5216966402,-42500.0,3390.6112402753347,577.90859250848553,810.33004187994379,-1266.6998793262858,254.38107812100486,33.055250420870522,2208.8895878167914,2201.4543449286371,-322.02508113778231,322.02508113778231,-2201.4543449286371,3908.6116038918658,0.0
417154.6038362722,4675833.5216966402,-42500.0,2549.2892860951956,713.83037679318443,718.93747314591974,-601.58402648177923,-84.229383809604798,-369.74557921461479,1697.7118688619555,1984.5664596992519,-532.67131485246898,532.67131485246898,-1984.5664596992519,3027.1681084508723,0.0
422154.6038362722,4675833.5216966402,-42500.0,1854.4239389966162,786.39104466342894,640.29218836361417,-159.87576236370145,-275.36618191842717,-566.95776276926142,1446.2891547462425,1743.6122612368563,-622.42132053853072,622.42132053853072,-1743.6122612368563,2560.6096647114528,0.0
427154.6038362722,4675833.5216966402,-42500.0,1300.3880347098029,812.07571707598993,572.21379289999641,126.40636794102643,-372.09001977278592,-646.72352433365029,1324.1394055668241,1508.5309653168836,-644.69641192263794,644.69641192263794,-1508.5309653168836,2311.997888272273,0.0
432154.6038362722,4675833.5216966402,-42500.0,867.35619985084008,805.09305698370952,512.97012519664565,306.055970383378,-410.02176112874793,-659.1208954370353,1243.1000264869369,1291.7922909921563,-629.19696073180728,629.19696073180728,-1291.7922909921563,2155.1446314640066,0.0
437154.6038362722,4675833.5216966402,-42500.0,533.44152307745833,776.62280284589428,461.12355119098959,412.69344732743662,-412.63561346872274,-633.576153936943,1170.6966075771277,1097.9407917691155,-592.87752035402809,592.87752035402809,-1097.9407917691155,2028.2861786676701,0.0
442154.6038362722,4675833.5216966402,-42500.0,278.93524233206563,735.02051283868946,415.49872467769967,469.45808528452523,-395.13133224061511,-587.95328450279544,1098.2126092396204,927.87347665517439,-545.88628502234167,545.88628502234167,-927.87347665517439,1907.5783266359069,0.0
447154.6038362722,4675833.5216966402,-42500.0,87.299888186606367,686.29789713354592,375.15216498184805,492.45393160722864,-367.15669350308457,-533.25438996464959,1024.6669716944305,780.71377543267988,-494.52711065457254,494.52711065457254,-780.71377543267988,1786.4863993541301,0.0
452154.6038362722,4675833.5216966402,-42500.0,-54.953896764172939,634.63242709414988,339.33080157830716,492.99764168143565,-334.68661034257053,-476.19144226916922,951.26836152017097,654.69614625982217,-442.75113031558453,442.75113031558453,-654.69614625982217,1665.067376938983,0.0
457154.6038362722,4675833.5216966402,-42500.0,-158.68585397926981,582.82002568870303,307.42885318586269,479.06592929402115,-301.30164581246635,-420.7152509575277,879.5398543404483,547.64283384693249,-392.97330250834892,392.97330250834892,-547.64283384693249,1545.3013191374291,0.0
462154.6038362722,4675833.5216966402,-42500.0,-232.56910481490314,532.64834523975117,278.95135359881778,456.259162131962,-269.04716154994099,-368.9919319410389,810.73228002711789,457.25172511771399,-346.57521872069896,346.57521872069896,-457.25172511771399,1429.2888468636363,0.0
467154.6038362722,4675833.5216966402,-42500.0,-283.48583484767283,485.1875759442479,253.48558368417801,428.46875383047882,-239.00167317559101,-322.04926718243036,745.69854817887199,381.27290583216052,-304.24282420457473,304.24282420457473,-381.27290583216052,1318.6643521074989,0.0
472154.6038362722,4675833.5216966402,-42500.0,-316.86409404747195,441.01141180068709,230.68098241229737,398.35591285295533,-211.64888774775187,-280.21031564490858,684.92937874750658,317.61352312608147,-266.20476244649211,266.20476244649211,-317.61352312608147,1214.4960952235169,0.0
477154.6038362722,4675833.5216966402,-42500.0,-336.96030133748178,400.35914274553107,210.2351620327272,367.70034307691543,-187.11732228090261,-243.38120492432049,628.63219741853311,264.39117199573587,-232.40096165454253,232.40096165454253,-264.39117199573587,1117.3564779084852,0.0
482154.6038362722,4675833.5216966402,-42500.0,-347.09360805535863,363.25203398441204,191.88433133207383,337.65550243171344,-165.33259680153628,-211.23877967297017,576.81086604854704,219.95294028241452,-202.60022460351578,202.60022460351578,-219.95294028241452,1027.4363417398918,0.0
267154.6038362722,4680833.5216966402,-42500.0,-760.42552768356734,288.84348344826969,329.12068517233814,-510.60391485508984,121.94672463505812,-250.62953288724489,771.28936965243986,159.13758144880586,26.535890651931808,-26.535890651931808,-159.13758144880586,1403.0717619333861,0.0
272154.6038362722,4680833.5216966402,-42500.0,-818.7788900432646,323.06420673723073,371.58161115736561,-578.750512446313,138.4909262829126,-293.30686159203674,859.44630534368548,197.15824905395726,18.429451034054992,-18.429451034054992,-197.15824905395726,1563.0370917966486,0.0
277154.6038362722,4680833.5216966402,-42500.0,-880.70234219845418,362.5061718253919,421.12916150549177,-658.07032140443641,157.66140889406716,-344.52821759116961,960.82114512157773,244.09710327986596,7.2221301352210503,-7.2221301352210503,-244.09710327986596,1747.0583179126343,0.0
282154.6038362722,4680833.5216966402,-42500.0,-945.62496391422565,408.19209041741561,479.17744474955032,-750.90046254839865,179.92099919830372,-406.46514574121511,1077.9839259014125,302.40415612371709,-8.1118217191187227,8.1118217191187227,-302.40415612371709,1959.8700379210325,0.0
287154.6038362722,4680833.5216966402,-42500.0,-1012.3514428869998,461.42186190900162,547.44930397065457,-860.20867428936208,205.82630051451699,-482.11021533279091,1214.1657696377517,375.43490958573608,-29.072212201312539,29.072212201312539,-375.43490958573608,2207.4338400965248,0.0
292154.6038362722,4680833.5216966402,-42500.0,-1078.5800650315348,523.88592915290587,628.03565158108665,-989.7488467548477,236.05974140870526,-575.72977426819693,1373.4725521757045,467.91672164370408,-57.968322600530371,57.968322600530371,-467.91672164370408,2497.3133070527501,0.0
297154.6038362722,4680833.5216966402,-42500.0,-1140.0481288152264,597.84501566571805,723.45224075048725,-1144.1625056945093,271.48819617839382,-693.59530653812953,1561.1683845429629,586.699782375155,-98.534077171927379,98.534077171927379,-586.699782375155,2839.1346884494128,0.0
302154.6038362722,4680833.5216966402,-42500.0,-1189.0410104705534,686.42269326926396,836.67576062443925,-1328.8529002908519,313.28008600915882,-845.12860467819974,1784.03917451543,741.95197054628841,-157.04388351373893,157.04388351373893,-741.95197054628841,3245.0957954367454,0.0
307154.6038362722,4680833.5216966402,-42500.0,-1211.8688293405478,794.08880662386366,971.12276961560565,-1549.2258523279684,363.15200667720012,-1044.582912050997,2050.8309461898343,948.99592042399718,-244.28436768437928,244.28436768437928,-948.99592042399718,3730.4054216680938,0.0
312154.6038362722,4680833.5216966402,-42500.0,-1184.8065683847096,927.45730884211071,1130.4989066267858,-1808.4360901610873,423.89930760423346,-1313.205128380745,2372.7124106028964,1230.9399777526346,-378.8843541413795,378.8843541413795,-1230.9399777526346,4313.3900642646558,0.0
317154.6038362722,4680833.5216966402,-42500.0,-1068.1097795664768,1096.5670108993006,1318.389356948371,-2101.9837318720388,500.53693553227998,-1681.190022129121,2763.6050258097875,1621.9194823997927,-592.52325769249683,592.52325769249683,-1621.9194823997927,5014.8137661068704,0.0
322154.6038362722,4680833.5216966402,-42500.0,-798.57453998875144,1316.7907444374591,1537.3730785884895,-2406.3705259065941,602.69731718810704,-2187.0309068689812,3240.0157533605739,2169.6755696217942,-936.98983714749033,936.98983714749033,-2169.6755696217942,5855.8711383858881,0.0
327154.6038362722,4680833.5216966402,-42500.0,-283.81994860867837,1611.2050989499869,1787.3329931864498,-2658.1284684891857,749.43690803137144,-2868.0478803627866,3819.8406025542467,2933.4683557395601,-1490.8770135454176,1490.8770135454176,-2933.4683557395601,6854.932042673403,0.0
332154.6038362722,4680833.5216966402,-42500.0,592.26018950389062,2012.097748898535,2062.5324867842069,-2721.1930682675215,978.0645152755684,-3728.9019843330102,4520.2582286024808,3967.7954904732114,-2357.7994561869373,2357.7994561869373,-3967.7954904732114,8026.0541976023151,0.0
337154.6038362722,4680833.5216966402,-42500.0,1932.8261210487467,2557.2785132936719,2346.999127960833,-2350.883563525279,1357.8044630355339,-4666.4069151429248,5357.762511525696,5274.2739344469655,-3635.9378068664769,3635.9378068664769,-5274.2739344469655,9390.6613071960619,0.0
342154.6038362722,4680833.5216966402,-42500.0,3731.8738459226097,3271.4907661325483,2607.8817505883221,-1191.857658837507,2003.4100399905658,-5331.2146853429722,6358.5509692721735,6700.9367989685388,-5322.7457652584953,5322.7457652584953,-6700.9367989685388,11028.443996681484,0.0
347154.6038362722,4680833.5216966402,-42500.0,5711.5960587214786,4120.2710040155898,2787.0897634900521,1102.9774264932912,3067.2997398639013,-4955.6943024643278,7587.2818423862936,7796.7945633220306,-7121.9114095834748,7121.9114095834748,-7796.7945633220306,13189.079688837661,0.0
352154.6038362722,4680833.5216966402,-42500.0,7185.9382578364857,4942.0448597247678,2795.1875895767866,4526.6900558414209,4665.2382883106702,-2321.0295180026337,9172.8369644525173,7734.157821892195,-8206.2184937080001,8206.2184937080001,-7734.157821892195,16369.35973819665,0.0
357154.6038362722,4680833.5216966402,-42500.0,7209.3436899031012,5425.017289490911,2524.9240542381631,8199.3924885555771,6706.9081892660506,3775.1904679379945,11244.058538384965,5571.2108670288071,-7217.8661975454015,7217.8661975454015,-5571.2108670288071,21037.599259083338,0.0
362154.6038362722,4680833.5216966402,-42500.0,5269.4668223211047,5240.9691540274616,1918.4801628519785,10171.269142112435,8733.5303352667815,13301.855358248918,13798.685401508177,1077.840119355084,-2980.7128170271917,2980.7128170271917,-1077.840119355084,26912.0025502926,0.0
367154.6038362722,4680833.5216966402,-42500.0,2222.1828499170215,4319.8380195506879,1080.1153416288198,8381.0392531941834,10014.481224156016,23694.903917183936,16878.844396231634,-4329.6239626301985,4057.4083251282855,-4057.4083251282855,4329.6239626301985,32472.809029628621,0.0
372154.6038362722,4680833.5216966402,-42500.0,209.71708266083095,2998.4137629127899,297.84687125152089,2728.2423619409565,9994.5025172600162,30433.110844022365,18839.287494216474,-7937.5662524157688,11072.64565874485,-11072.64565874485,7937.5662524157688,35493.229384646766,0.0
377154.6038362722,4680833.5216966402,-42500.0,775.58874520967356,1803.9021282556339,-141.48047182006178,-4034.914874090141,8723.77726396658,30387.105948211785,18605.956510792126,-7928.4800675805727,14658.146451659713,-14658.146451659713,7928.4800675805727,34521.811220607618,0.0
382154.6038362722,4680833.5216966402,-42500.0,3250.2733971536263,1059.6794821369774,-168.88603929620001,-8539.5620903646068,6783.7281433861717,24545.920522305794,16355.637408554099,-5033.6744022249914,13772.131854047897,-13772.131854047897,5033.6744022249914,29970.093043305795,0.0
387154.6038362722,4680833.5216966402,-42500.0,5706.0775839603748,750.73832235730617,69.510270843378592,-9578.0045898345088,4806.5906279232795,16589.663908702172,13032.509245719486,-1447.877627189092,10129.78064987214,-10129.78064987214,1447.877627189092,23617.465773001437,0.0
392154.6038362722,4680833.5216966402,-42500.0,6880.7343188020395,701.36690342338045,377.38502582740978,-8163.8989128038766,3145.8439876465959,9620.1623033559299,9630.0973619659326,1220.286550704579,6072.1523532605534,-6072.1523532605534,-1220.286550704579,17283.690604567772,0.0
397154.6038362722,4680833.5216966402,-42500.0,6718.8874127355584,758.20420602384559,628.87905092867163,-5869.4714028161998,1890.1371568787697,4789.7325419109702,6755.3872212218557,2599.0214538272116,2927.1928142172196,-2927.1928142172196,-2599.0214538272116,12035.606797454433,0.0
402154.6038362722,4680833.5216966402,-42500.0,5763.7299716978205,837.2372184256152,783.29224258898739,-3718.7583604284896,999.83249020955702,1897.7059109391312,4613.7388373176045,3019.6261738258295,938.57163805479331,-938.57163805479331,-3019.6261738258295,8190.5918377738863,0.0
407154.6038362722,4680833.5216966402,-42500.0,4549.4857805528463,902.20798005946926,849.86610543398137,-2081.7856226725116,399.51546593514649,327.02293101673047,3172.9049381542281,2921.6586756535407,-156.09646577995477,156.09646577995477,-2921.6586756535407,5640.6685151095344,0.0
412154.6038362722,4680833.5216966402,-42500.0,3390.8447509528719,940.52344952554643,854.15724201037324,-961.72690017327648,14.926238045007441,-462.66794688818527,2309.9257640740734,2610.0531939294715,-690.90707580301921,690.90707580301921,-2610.0531939294715,4115.6243087655575,0.0
417154.6038362722,4680833.5216966402,-42500.0,2413.6792311767044,950.52553972365831,820.58558090524366,-240.50253838087298,-216.29922923096711,-822.918239737759,1869.5286336192528,2244.4222451292649,-912.57965910596215,912.57965910596215,-2244.4222451292649,3298.7398465881115,0.0
422154.6038362722,4680833.5216966402,-42500.0,1639.1433180831764,935.64573044798897,767.05237092461721,204.65060369914869,-342.81279227977899,-954.54327247906417,1658.570727080928,1893.3448261248241,-969.86844210403251,969.86844210403251,-1893.3448261248241,2886.2308282488971,0.0
427154.6038362722,4680833.5216966402,-42500.0,1045.3681505900761,901.40160804763582,705.07195662509559,467.33457655931164,-400.66703869810107,-966.48796268446404,1533.3057700080603,1580.5924343521278,-944.38403682346097,944.38403682346097,-1580.5924343521278,2655.771293995062,0.0
432154.6038362722,4680833.5216966402,-42500.0,599.15081196875167,853.66884175208986,641.45980936285866,611.5372404479881,-415.45258440755327,-917.53825409032413,1433.1153693463364,1311.052144574702,-879.33316724538452,879.33316724538452,-1311.052144574702,2488.4317915665752,0.0
437154.6038362722,4680833.5216966402,-42500.0,268.70417987946377,797.7299464413104,579.97585945778576,679.41462297930548,-404.65518784641944,-839.94709188287493,1338.3645682872302,1082.5967620378092,-797.57700986126019,797.57700986126019,-1082.5967620378092,2335.8636089401784,0.0
442154.6038362722,4680833.5216966402,-42500.0,27.418071863905212,737.85953888147242,522.51916742473952,698.60351044180697,-379.81211607580912,-751.70175828061599,1244.3551130581786,890.87047373385553,-711.3680723551372,711.3680723551372,-890.87047373385553,2183.6021405791007,0.0
447154.6038362722,4680833.5216966402,-42500.0,-145.85921741150787,677.2499452122421,469.89989176981771,687.34240894537277,-348.27879442567956,-662.81295815155033,1151.3112116128275,731.06480169099837,-627.29269252997938,627.29269252997938,-731.06480169099837,2030.2549120012486,0.0
452154.6038362722,4680833.5216966402,-42500.0,-267.59146504794717,618.11983433927458,422.31138084965522,657.74791033732447,-314.57239524973153,-578.6571796029391,1060.7185051617244,598.55211600752068,-548.77951245130498,548.77951245130498,-598.55211600752068,1878.3805903787249,0.0
457154.6038362722,4680833.5216966402,-42500.0,-350.48145847732485,561.89588230679408,379.6109137087131,617.87824533819094,-281.34003937276532,-501.85927828337509,974.04006962023709,489.10999361652057,-477.42841829878262,477.42841829878262,-489.10999361652057,1731.0193779739798,0.0
462154.6038362722,4680833.5216966402,-42500.0,-404.28642847926079,509.40384424423024,341.4841678575014,573.05633334210609,-250.02973673385358,-433.41160728220757,892.33867763302169,398.9963509990643,-413.76090089694691,413.76090089694691,-398.9963509990643,1590.5800455373444,0.0
467154.6038362722,4680833.5216966402,-42500.0,-436.47701333015027,461.03773486601489,307.54094545138622,526.74316738129642,-221.34123230051682,-373.36242132078303,816.23809949632323,324.9611892177893,-357.66970122602675,357.66970122602675,-324.9611892177893,1458.631577954676,0.0
472154.6038362722,4680833.5216966402,-42500.0,-452.75392518389447,416.89594883943482,277.36941876409014,481.12817355305026,-195.52173071126592,-321.24371459002583,745.9958692529176,264.22608177205808,-308.69786650012423,308.69786650012423,-264.22608177205808,1336.0023406876201,0.0
477154.6038362722,4680833.5216966402,-42500.0,-457.45133397577183,376.88477465612232,250.56646669455358,437.53580825130985,-172.55583902098371,-276.33546203717231,681.59988731659428,214.44579905713729,-266.21437313315414,266.21437313315414,-214.44579905713729,1222.9573202559211,0.0
482154.6038362722,4680833.5216966402,-42500.0,-453.8511295572942,340.79358564949956,226.75367049835418,396.70778834811489,-152.28515615906414,-237.82500643718078,622.85602902116773,173.66078534893424,-229.5233411254404,229.5233411254404,-173.66078534893424,1119.3686085570707,0.0
267154.6038362722,4685833.5216966402,-42500.0,-644.12708407186369,350.16842864643917,298.22717421337438,-454.26099027282305,151.21499154389082,-230.04333679492359,728.1621294476663,227.92229318192321,-30.378096384545216,30.378096384545216,-227.92229318192321,1313.3141906832668,0.0
272154.6038362722,4685833.5216966402,-42500.0,-684.34124421401589,393.9103177247726,335.19646568062291,-511.25715333904981,173.54970349349102,-267.80637208801534,809.54844112285969,275.58293144351308,-47.9214264938159,47.9214264938159,-275.58293144351308,1458.8665382668848,0.0
277154.6038362722,4685833.5216966402,-42500.0,-724.65354040373313,444.70878989662623,378.08028361425619,-576.7585220905404,199.92193060176501,-312.73619110936892,902.86232717014332,333.77109829021151,-70.488056972778679,70.488056972778679,-333.77109829021151,1625.6130635452814,0.0
282154.6038362722,4685833.5216966402,-42500.0,-763.70251940946366,504.00322957131522,427.99684738380529,-652.33960941416262,231.2205342614555,-366.55370301157166,1010.3854054425422,405.22980805511986,-99.577666592162331,99.577666592162331,-405.22980805511986,1817.6028281329598,0.0
287154.6038362722,4685833.5216966402,-42500.0,-799.29226029555059,573.60684262482107,486.28336504480842,-739.94367202413321,268.58702066321689,-431.62606424269438,1134.9861372451976,493.64646418088068,-137.30236867632016,137.30236867632016,-493.64646418088068,2039.9170880974609,0.0
292154.6038362722,4685833.5216966402,-42500.0,-827.8474537972935,655.82832364828766,554.52091196296055,-841.92845193329913,313.51625488951447,-511.3359302522253,1280.312237343787,604.09926755289621,-186.76425638353703,186.76425638353703,-604.09926755289621,2298.9838139287599,0.0
297154.6038362722,4685833.5216966402,-42500.0,-843.47795976962425,753.63821758885695,634.5387653600751,-961.00178334873442,368.01241008929333,-610.67852440230968,1451.047384320369,743.75029526945491,-252.7177695908496,252.7177695908496,-743.75029526945491,2602.9659874008898,0.0
302154.6038362722,4685833.5216966402,-42500.0,-836.38905151110521,870.89365197551092,728.36800210109425,-1099.8399195353634,434.83618341916161,-737.18146250756706,1653.2433360006023,922.89903570888055,-342.72151456648572,342.72151456648572,-922.89903570888055,2962.2000830591942,0.0
307154.6038362722,4685833.5216966402,-42500.0,-790.25236976533074,1012.6322050692822,838.08458845250402,-1259.9279494360953,517.90382656293832,-902.19200721817526,1894.7287131851679,1156.5006700814204,-469.0862438325014,469.0862438325014,-1156.5006700814204,3389.6146628978236,0.0
312154.6038362722,4685833.5216966402,-42500.0,-678.07988570926511,1185.4271465450704,965.42875698213868,-1438.6772567905273,622.93683245859222,-1122.3210767447206,2185.5726830746944,1466.1097360127744,-651.99107411421414,651.99107411421414,-1466.1097360127744,3901.0031184219492,0.0
317154.6038362722,4685833.5216966402,-42500.0,-456.3486975361601,1397.7382789970231,1110.9963747233219,-1623.0532981015688,758.51465758301265,-1420.0427864911708,2538.5477509544353,1881.6951422354382,-923.96887198262039,923.96887198262039,-1881.6951422354382,4515.0497701102677,0.0
322154.6038362722,4685833.5216966402,-42500.0,-58.209408499792076,1660.0310129675195,1272.6611582667585,-1776.8426825462475,937.73348568824747,-1820.4376278741308,2969.5440055362023,2441.373646469121,-1334.9952827649552,1334.9952827649552,-2441.373646469121,5253.4382407976336,0.0
327154.6038362722,4685833.5216966402,-42500.0,610.17308898727526,1984.0388608449632,1442.7291730315123,-1818.0810276374655,1180.6287207614359,-2336.7337446440652,3498.2149707551689,3183.9576562051525,-1954.3917857174092,1954.3917857174092,-3183.9576562051525,6143.1273578437786,0.0
332154.6038362722,4685833.5216966402,-42500.0,1658.876069984789,2379.6671185073074,1603.2906348855743,-1585.9499471077372,1517.0469408623953,-2929.7744687635727,4150.5301041245702,4123.4723878587001,-2858.4506375192714,2858.4506375192714,-4123.4723878587001,7227.8761833531571,0.0
337154.6038362722,4685833.5216966402,-42500.0,3166.1423125844199,2846.4712637903981,1719.7600654754854,-810.02707273142744,1987.8020986260588,-3418.7696236313586,4968.1311294521383,5188.130927715245,-4079.310496460781,4079.310496460781,-5188.130927715245,8605.724035866142,0.0
342154.6038362722,4685833.5216966402,-42500.0,5063.4617743682174,3355.2851087496556,1734.6322891069156,869.30714214589989,2636.7419401404272,-3329.8585826786084,6031.2917692039173,6110.5250049040133,-5477.6196825431161,5477.6196825431161,-6110.5250049040133,10511.285528231838,0.0
347154.6038362722,4685833.5216966402,-42500.0,6959.2885627414953,3819.961231907499,1568.2474099027354,3725.5976286617815,3476.749887123663,-1741.4269790571277,7486.5763792208181,6305.142731244131,-6524.9134115362149,6524.9134115362149,-6305.142731244131,13399.245275412341,0.0
352154.6038362722,4685833.5216966402,-42500.0,8040.2741775923387,4083.0474356542563,1140.1203165469656,7519.7367871619499,4411.0816034772515,2631.9211965982868,9516.2147519970113,4902.7472110192884,-6121.6421807649549,6121.6421807649549,-4902.7472110192884,17820.49419732879,0.0
357154.6038362722,4685833.5216966402,-42500.0,7364.4511943375437,3981.5012854498805,424.73607831081461,10988.082112777,5144.837890403327,10716.550107461941,12161.744710366907,1235.0652528360497,-2845.4139048079587,2845.4139048079587,-1235.0652528360497,23913.130248420053,0.0
362154.6038362722,4685833.5216966402,-42500.0,4712.0768396481999,3525.8344961088633,-470.51920951050613,11923.2877466017,5250.7262786093715,21692.748456394103,15763.092126739344,-4213.4526340166285,3957.9544396768597,-3957.9544396768597,4213.4526340166285,30817.296281517032,0.0
367154.6038362722,4685833.5216966402,-42500.0,1388.9979954816281,3004.5868821660861,-1279.1386264578948,8549.645334313298,4522.4576474441928,32083.183278701264,19149.556368854675,-9253.9893335114321,12718.110041529362,-12718.110041529362,9253.9893335114321,36590.682497222944,0.0
372154.6038362722,4685833.5216966402,-42500.0,-302.25791920438951,2743.2628943463801,-1695.8903729341785,1548.2068484038373,3286.1677286686345,37174.074382423009,20715.808858263077,-11132.980851987642,19660.026097155453,-19660.026097155453,11132.980851987642,38997.56312158567,0.0
377154.6038362722,4685833.5216966402,-42500.0,855.26529564919235,2750.0554406059196,-1590.9250363782244,-5724.7769419213355,2145.5295373611812,34646.382585977808,19850.896039059171,-8935.4033453526099,21487.282140096944,-21487.282140096944,8935.4033453526099,36949.972640907421,0.0
382154.6038362722,4685833.5216966402,-42500.0,3746.8227517927539,2766.8547085795499,-1091.8086172289475,-9959.0167710800852,1428.2726759355542,26558.18835663913,16991.166862910526,-4415.4548319920959,18180.826613356621,-18180.826613356621,4415.4548319920959,31317.390249742759,0.0
387154.6038362722,4685833.5216966402,-42500.0,6287.2594646872631,2606.2861168638351,-449.70602900254005,-10403.872320522772,1050.2603721930777,17113.557939462771,13230.395635383096,-118.16036843565053,12428.939016183744,-12428.939016183744,118.16036843565053,24164.867934241451,0.0
392154.6038362722,4685833.5216966402,-42500.0,7321.923180658272,2289.1761341714891,132.06696599605039,-8439.3344777685761,795.31249475690799,9359.4381325284994,9586.6270228844478,2591.3445690953695,6948.0050555289463,-6948.0050555289463,-2591.3445690953695,17371.833133019489,0.0
397154.6038362722,4685833.5216966402,-42500.0,6947.3841091341119,1932.1814250669361,559.89953842566763,-5764.9927088480572,542.946972114922,4194.956467586454,6625.3223361349992,3709.9518637370593,2996.8312908314665,-2996.8312908314665,-3709.9518637370593,11940.875185326155,0.0
402154.6038362722,4685833.5216966402,-42500.0,5795.0523605356466,1622.8640290619969,824.31494601175211,-3394.6883037662883,284.23486159468877,1210.3922692873348,4504.057439549335,3809.8244350223986,617.91312301913626,-617.91312301913626,-3809.8244350223986,8102.6757634302658,0.0
407154.6038362722,4685833.5216966402,-42500.0,4429.9078560707776,1388.3055686947041,955.72268311130551,-1652.8895890767462,51.760910194521031,-335.35863477691805,3162.144628819121,3433.1989244410702,-625.33090566804822,625.33090566804822,-3433.1989244410702,5675.2670218957328,0.0
412154.6038362722,4685833.5216966402,-42500.0,3169.3978734332231,1218.1932508265122,993.75683729534148,-501.57324662384406,-128.99807461306506,-1049.2496501736703,2438.5329245613711,2910.3868308384558,-1181.8518364971019,1181.8518364971019,-2910.3868308384558,4313.7885021436623,0.0
417154.6038362722,4685833.5216966402,-42500.0,2132.0744119928327,1091.5698882749148,972.97360778715176,207.25531403753888,-251.49874265648489,-1317.838605940306,2084.3082591379025,2395.7096761944999,-1365.6441759612549,1365.6441759612549,-2395.7096761944999,3624.8877449264764,0.0
422154.6038362722,4685833.5216966402,-42500.0,1329.3077577206393,990.54504207154594,918.84529102821523,616.63026994938025,-322.52431720116175,-1359.694312805422,1887.3356519356894,1944.3421692477687,-1362.1804940001766,1362.1804940001766,-1944.3421692477687,3269.8287516591504,0.0
427154.6038362722,4685833.5216966402,-42500.0,729.92344981640395,903.70820950695577,848.40906126424125,833.25831211073705,-354.18116741480748,-1291.8123790302018,1745.6836820141173,1566.9124537668154,-1271.8395497583583,1271.8395497583583,-1566.9124537668154,3041.4401084977467,0.0
432154.6038362722,4685833.5216966402,-42500.0,292.97034032678374,825.06392505100951,772.30464669743344,929.1184156497128,-358.68875969594131,-1175.641546372844,1621.2807503734662,1257.7084745476291,-1146.5684360579789,1146.5684360579789,-1257.7084745476291,2847.5402933435034,0.0
437154.6038362722,4685833.5216966402,-42500.0,-19.27472658121755,752.01271129162069,696.78157603829675,950.85378854660871,-346.1010716624387,-1043.3045151663894,1502.0966752268641,1006.6867681182024,-1012.6052569409795,1012.6052569409795,-1006.6867681182024,2657.6178452606691,0.0
442154.6038362722,4685833.5216966402,-42500.0,-237.68372107752091,683.71518453409521,625.25227752479952,928.31056306381208,-323.81331833704354,-911.39990510634982,1385.7501372612928,803.8019960374254,-882.86570867008322,882.86570867008322,-803.8019960374254,2466.2060017196422,0.0
447154.6038362722,4685833.5216966402,-42500.0,-386.29653925065372,620.0720126966753,559.37086265226719,880.54302315208668,-296.86964129643019,-788.14261699660153,1273.0296433691394,640.2525183185885,-763.34239538259931,763.34239538259931,-640.2525183185885,2275.8977443974686,0.0
452154.6038362722,4685833.5216966402,-42500.0,-483.42301588179009,561.18711053146535,499.74099371339042,819.69073126535739,-268.50688306946159,-677.13570160666995,1165.3943604263568,508.65822261006957,-656.3849436194638,656.3849436194638,-508.65822261006957,2090.776615947947,0.0
457154.6038362722,4685833.5216966402,-42500.0,-542.86616102637447,507.13038827709175,446.36479556659862,753.42752055126357,-240.67941687487419,-579.43901691755536,1064.083892044727,402.93057759548435,-562.41665597223471,562.41665597223471,-402.93057759548435,1914.2562482396238,0.0
462154.6038362722,4685833.5216966402,-42500.0,-574.9743638315631,457.85974144215419,398.91946495601775,686.51670939445012,-214.4789101582254,-494.74329596337964,969.88046466240996,318.08296188038537,-480.86229456596493,480.86229456596493,-318.08296188038537,1748.5981488523028,0.0
467154.6038362722,4685833.5216966402,-42500.0,-587.47645069500243,413.21861774680696,356.92519319903636,621.8169574214794,-190.44110684530079,-422.05172790063972,883.12503309574458,250.05147524438701,-410.66611474969773,410.66611474969773,-250.05147524438701,1595.0090072007417,0.0
472154.6038362722,4685833.5216966402,-42500.0,-586.12353944422398,372.96126798427036,319.84358264086507,560.94198958768243,-168.75733963542416,-360.07488415972148,803.81183361897354,195.5380625912286,-350.58434157934641,350.58434157934641,-195.5380625912286,1453.8868454990954,0.0
477154.6038362722,4685833.5216966402,-42500.0,-575.17792324135974,336.78446954313574,287.13403485496389,504.69943726659181,-149.41534806148127,-307.45570084496097,731.69372896264201,151.87672412863418,-299.34961898534544,299.34961898534544,-151.87672412863418,1325.068967653096,0.0
267154.6038362722,4690833.5216966402,-42500.0,-518.00420963109173,394.74800660797467,259.66114014209955,-392.69574393289042,172.91102389049757,-207.23083637118319,680.45996778363292,284.36992503504064,-81.338749649203621,81.338749649203621,-284.36992503504064,1216.3339493615022,0.0
272154.6038362722,4690833.5216966402,-42500.0,-538.25960180361756,444.34902326893047,289.49326310118619,-437.30119456614079,199.10592798558199,-239.48057687276653,754.16053139973246,338.79956190467323,-106.78240931155477,106.78240931155477,-338.79956190467323,1346.1401103380147,0.0
277154.6038362722,4690833.5216966402,-42500.0,-554.7428384690229,501.87373161327406,323.63778427827532,-487.37972649396784,230.16336685202353,-277.32216760610743,838.27328527731777,404.5573631645708,-138.700347780936,138.700347780936,-404.5573631645708,1493.9906467473957,0.0
282154.6038362722,4690833.5216966402,-42500.0,-565.20996233590563,568.87402378837101,362.78445945424221,-543.61111530075254,267.18756983303331,-321.9407754422619,934.72322606091097,484.40281124525296,-178.89105799235386,178.89105799235386,-484.40281124525296,1663.1779180273363,0.0
287154.6038362722,4690833.5216966402,-42500.0,-566.36118833986563,647.26017793200458,407.7068186288389,-606.7257637462543,311.60441029218504,-374.94440054654143,1045.9231639910499,581.96206166664683,-229.8214860679719,229.8214860679719,-581.96206166664683,1857.8141716527152,0.0
292154.6038362722,4690833.5216966402,-42500.0,-553.24795478911585,739.38318321950953,459.23753467158537,-677.41683555875386,365.28514585605348,-438.61594754742697,1174.9354394569471,702.09391967666807,-294.99661708976674,294.99661708976674,-702.09391967666807,2083.0859355822927,0.0
297154.6038362722,4690833.5216966402,-42500.0,-518.29655717251296,848.11763200750238,518.20345823900288,-756.08086437768532,430.72631329293489,-516.31714289754825,1325.6904400206583,851.42808629724823,-379.58117211144258,379.58117211144258,-851.42808629724823,2345.5799669999683,0.0
302154.6038362722,4690833.5216966402,-42500.0,-449.71285078259024,976.91576891334398,585.2831502190204,-842.15518629850862,511.30685463226274,-613.08351005792088,1503.2779111699788,1039.1224522757025,-491.431377906889,491.431377906889,-1039.1224522757025,2653.6895267339087,0.0
307154.6038362722,4690833.5216966402,-42500.0,-328.94934800670649,1129.7617201391881,660.71991072201979,-932.56709987430509,611.63847571727138,-736.35637496370612,1714.331431474739,1277.8182852678719,-642.73956765007085,642.73956765007085,-1277.8182852678719,3018.12154042357,0.0
312154.6038362722,4690833.5216966402,-42500.0,-126.91941085320676,1310.873189698855,743.77529613094646,-1018.3492873053924,737.99186661638748,-896.47404248691873,1967.5469203334219,1584.5325047369142,-852.44248996732392,852.44248996732392,-1584.5325047369142,3452.6132284392206,0.0
317154.6038362722,4690833.5216966402,-42500.0,201.00200600321858,1523.8474874179831,831.73695831684074,-1077.7441708778961,898.67314554152449,-1105.6536949535782,2274.4544874638405,1980.5659101355407,-1149.142131205974,1149.142131205974,-1980.5659101355407,3975.3113561094701,0.0
322154.6038362722,4690833.5216966402,-42500.0,719.81318485932411,1769.7049030095552,918.21643588575546,-1063.2831039131036,1103.9392373158234,-1372.0909442611553,2650.8370187230316,2487.9615980774865,-1572.9120059100774,1572.9120059100774,-2487.9615980774865,4612.3521161082263,0.0
327154.6038362722,4690833.5216966402,-42500.0,1514.6134047056112,2042.97605246844,990.46488353820041,-880.38607464691972,1364.3853371339185,-1681.55005604749,3119.9961657076556,3116.9731306759304,-2170.7459838224868,2170.7459838224868,-3116.9731306759304,5407.9628888765046,0.0
332154.6038362722,4690833.5216966402,-42500.0,2672.8850277943825,2324.8693572625621,1025.7507723107865,-359.28896743387406,1685.4374213475721,-1952.1643658689488,3720.8832151999941,3834.330618961606,-2972.7320580608875,2972.7320580608875,-3834.330618961606,6450.6179576081859,0.0
337154.6038362722,4690833.5216966402,-42500.0,4226.5153105098325,2573.5502935851955,988.09031460041888,761.78654392945612,2053.5574075223958,-1943.7424009675569,4525.9977628264442,4499.439048858665,-3924.3536745231881,3924.3536745231881,-4499.439048858665,7927.1239116384077,0.0
342154.6038362722,4690833.5216966402,-42500.0,6030.011705125974,2715.927850725001,829.78110839372948,2786.5111739564218,2408.372801251141,-1121.3154037986785,5668.2399930294769,4770.1895494498813,-4746.5903431669931,4746.5903431669931,-4770.1895494498813,10189.15266973472,0.0
347154.6038362722,4690833.5216966402,-42500.0,7601.8462794258712,2656.4166730623074,507.23210339244281,5841.4471787923285,2600.4181695903303,1438.1613236199714,7347.8067469174175,4045.3394494606509,-4744.986417061762,4744.986417061762,-4045.3394494606509,13726.590395942367,0.0
352154.6038362722,4690833.5216966402,-42500.0,8106.3228165987666,2333.2287101256525,21.092944450000576,9437.2713594813085,2361.7750078680365,6822.9911625084251,9779.040395593358,1637.5842638792892,-2764.065976725873,2764.065976725873,-1637.5842638792892,18891.636645257699,0.0
357154.6038362722,4690833.5216966402,-42500.0,6784.4347256139981,1840.000623061316,-531.84210783796902,12098.070545707376,1376.0747813508603,15420.676709497828,13124.138905648588,-2614.2377250584518,2297.4913001191958,-2297.4913001191958,2614.2377250584518,25420.959945281826,0.0
362154.6038362722,4690833.5216966402,-42500.0,3812.1075181361061,1522.9559581811448,-957.99231088953445,11786.449378560181,-448.47184161782894,25705.786289302756,16787.490305417617,-7573.5001436926796,10267.61445881363,-10267.61445881363,7573.5001436926796,32106.771688647299,0.0
367154.6038362722,4690833.5216966402,-42500.0,744.44985193023683,1815.5096003192796,-1078.7313858421421,7426.9703641548331,-2628.4160354069754,34052.657903304455,19557.082390446547,-10901.21733813697,18749.381107335936,-18749.381107335936,10901.21733813697,37007.853459295497,0.0
372154.6038362722,4690833.5216966402,-42500.0,-396.01808623267607,2770.6786614366251,-871.42866772330922,346.47488431616671,-4195.7043797088645,36671.327188898664,20415.514065086718,-10628.564372875375,24025.880926162081,-24025.880926162081,10628.564372875375,38314.987017292471,0.0
377154.6038362722,4690833.5216966402,-42500.0,1086.7759786259078,3852.0119451660275,-465.74024016584451,-6234.3299407523482,-4454.0527467387719,32490.016928145989,19030.190270684951,-6934.6572211821003,23774.347912243862,-23774.347912243862,6934.6572211821003,35467.707069385877,0.0
382154.6038362722,4690833.5216966402,-42500.0,3915.3933428569653,4411.3402139862601,-12.922492558905333,-9674.537759437555,-3573.2585163300332,23971.7299789434,15962.16286620304,-1993.864411857674,18882.008041895922,-18882.008041895922,1993.864411857674,29562.649892580564,0.0
387154.6038362722,4690833.5216966402,-42500.0,6216.3933193404755,4251.4059526773399,397.38877004836888,-9662.1515700620603,-2280.6265776010368,14862.92932054676,12248.35496194227,1978.6142963178381,12257.973656420578,-12257.973656420578,-1978.6142963178381,22557.399683092808,0.0
392154.6038362722,4690833.5216966402,-42500.0,7051.2371060449696,3618.468957813132,728.14291596354542,-7578.124738314672,-1188.6503298300245,7636.6927570379239,8788.446361957167,4113.1418959182365,6402.493790298312,-6402.493790298312,-4113.1418959182365,16119.203297477894,0.0
397154.6038362722,4690833.5216966402,-42500.0,6575.8960591174373,2858.5591490563106,966.22303315997135,-4953.3883503545521,-515.97658488153979,2910.6458844106874,6064.3947328054546,4698.9416861907866,2328.1648595920574,-2328.1648595920574,-4698.9416861907866,11102.368235902984,0.0
402154.6038362722,4690833.5216966402,-42500.0,5391.2085096229475,2191.4147961665681,1111.5466657152356,-2676.8183655494363,-204.97552365326496,231.90060946188296,4209.7039352384463,4396.5514883694304,-60.478822402457354,60.478822402457354,-4396.5514883694304,7673.5181862340851,0.0
407154.6038362722,4690833.5216966402,-42500.0,4024.2027537560125,1688.7545359048504,1174.8764680182028,-1024.8965986256267,-114.25030252533764,-1101.7526033151332,3143.8594138432873,3741.6762488103955,-1259.6148084457732,1259.6148084457732,-3741.6762488103955,5615.5706230964252,0.0
412154.6038362722,4690833.5216966402,-42500.0,2772.9734628876058,1337.6035214049725,1174.0534217282602,47.928011899472402,-124.94825346948993,-1658.3858949536636,2599.3848125653267,3034.64351081309,-1745.5356217716026,1745.5356217716026,-3034.64351081309,4530.9357523640811,0.0
417154.6038362722,4690833.5216966402,-42500.0,1750.3176102981136,1097.7672418470504,1128.7191467673877,686.55469029661208,-166.06220871167656,-1802.9280005408802,2302.5185012235434,2402.0464576288568,-1848.4207262451473,1848.4207262451473,-2402.0464576288568,3989.4019301361946,0.0
422154.6038362722,4690833.5216966402,-42500.0,966.71186634518449,930.89859945509875,1056.3077099206403,1031.4932586804778,-204.49095251234937,-1744.2597730776433,2104.5267553644489,1878.3492708285244,-1764.3921976966781,1764.3921976966781,-1878.3492708285244,3676.6000218101708,0.0
427154.6038362722,4690833.5216966402,-42500.0,390.53206276645722,809.2221733130624,970.26677654177649,1188.957497792901,-229.14551473011957,-1594.8758237720651,1942.7621773088083,1459.4801752247711,-1600.1987691093457,1600.1987691093457,-1459.4801752247711,3433.9264785222763,0.0
432154.6038362722,4690833.5216966402,-42500.0,-20.227389951833675,715.13732798446699,879.94729782015088,1231.3790947813141,-239.25702619894653,-1413.3244527079958,1794.1846860809089,1129.3932062558974,-1410.7936773771662,1410.7936773771662,-1129.3932062558974,3203.1147342622853,0.0
437154.6038362722,4690833.5216966402,-42500.0,-304.70741442225722,638.31654424701253,791.29620732772901,1205.8629247046517,-237.80651223909541,-1229.1860906039369,1651.8126528124697,870.82347550286079,-1223.1328442645854,1223.1328442645854,-870.82347550286079,2970.4263603445129,0.0
442154.6038362722,4690833.5216966402,-42500.0,-495.15307210542221,572.95952345518162,707.74930346688234,1142.356038587109,-228.44802056397236,-1056.6590196608208,1514.718798766726,668.73692666547117,-1049.5330386261123,1049.5330386261123,-668.73692666547117,2737.5253770608233,0.0
447154.6038362722,4690833.5216966402,-42500.0,-616.69374841838203,515.86005319269736,631.03124800438979,1059.6392713661305,-214.33060457955571,-901.77142945935771,1383.9261683947116,510.94328933228815,-894.77486414281918,894.77486414281918,-510.94328933228815,2509.6691541645937,0.0
452154.6038362722,4690833.5216966402,-42500.0,-688.37935054495119,465.21738414233113,561.77215613883607,969.3237436434398,-197.80509469504483,-766.23597573485551,1260.7379798549064,387.80882860141196,-759.81834033609061,759.81834033609061,-387.80882860141196,2291.658960446694,0.0
457154.6038362722,4690833.5216966402,-42500.0,-724.43717662978997,419.96114611719628,499.94297072913724,878.42952671536329,-180.48098130776523,-649.54686044551795,1146.1241373872567,291.7826962611025,-643.7520600423511,643.7520600423511,-291.7826962611025,2086.8058450994363,0.0
462154.6038362722,4690833.5216966402,-42500.0,-735.39640092493505,379.38981152793326,445.1463298898621,791.04012128246188,-163.38670156834709,-550.13872423716202,1040.578717516086,216.95859455991962,-544.82571104731528,544.82571104731528,-216.95859455991962,1896.9517371212935,0.0
467154.6038362722,4690833.5216966402,-42500.0,-728.996929068692,342.9858263948849,396.80210399961379,709.36840975141183,-147.13267891700113,-466.02809383809301,944.16839608228611,158.71754801007063,-460.99847797806996,460.99847797806996,-158.71754801007063,1722.7880136364229,0.0
472154.6038362722,4690833.5216966402,-42500.0,-710.8937226836631,310.32548564560744,354.26108922798312,634.44775892946984,-132.04465756848262,-395.16143905167365,856.63946444080227,113.44698169231899,-390.22550262307516,390.22550262307516,-113.44698169231899,1564.2003897877339,0.0
477154.6038362722,4690833.5216966402,-42500.0,-685.19217782338137,281.03784877560429,316.87182562240366,566.58244875473224,-118.26297812549574,-335.59522827434608,777.52689715998804,78.32188404160371,-330.60042925442571,330.60042925442571,-78.32188404160371,1420.5576377984685,0.0
267154.6038362722,4695833.5216966402,-42500.0,-387.66921188983838,421.27066854048638,216.76868694229216,-328.42657031284676,186.42817222352764,-183.05728288753448,629.55220541804692,326.92675319413809,-124.50190384971674,124.50190384971674,-326.92675319413809,1115.2584299472212,0.0
272154.6038362722,4695833.5216966402,-42500.0,-387.62738690892331,472.76921856025155,238.75872743319371,-360.17573781665135,214.38223410214738,-209.49577856534776,695.02247902155489,384.9347309364864,-155.82961302694127,155.82961302694127,-384.9347309364864,1228.8622312632301,0.0
277154.6038362722,4695833.5216966402,-42500.0,-380.00800526469015,532.01156816371008,263.34225580773347,-394.28319504747975,247.37932991069181,-239.87560229159567,769.28588578894403,454.19396031320719,-194.46378423424653,194.46378423424653,-454.19396031320719,1357.3719715020231,0.0
282154.6038362722,4695833.5216966402,-42500.0,-361.761106834028,600.33640048860639,290.770192869629,-430.52209407635291,286.50419371546946,-274.81938663718563,853.89062108467738,537.19348297257682,-242.27455723686646,242.27455723686646,-537.19348297257682,1503.3751783548175,0.0
287154.6038362722,4695833.5216966402,-42500.0,-328.61747010652812,679.30952088476931,321.25171473273031,-468.40196304300849,333.13047881468066,-315.13383301717766,950.77141278180193,637.10015856385837,-301.75444477937242,301.75444477937242,-637.10015856385837,1670.1084952231358,0.0
292154.6038362722,4695833.5216966402,-42500.0,-274.49339171575059,770.72262473768501,354.89351757935793,-506.95790946551028,389.01587390401221,-361.9336217042981,1062.3833010750805,757.99472669002159,-376.32364384802725,376.32364384802725,-757.99472669002159,1861.6837864464285,0.0
297154.6038362722,4695833.5216966402,-42500.0,-190.55649692783047,876.53379259229416,391.59353096926611,-544.32386472784242,456.42473892903649,-416.83479848938612,1191.8899969258175,905.1842518809658,-470.8189482975572,470.8189482975572,-905.1842518809658,2083.4104130078435,0.0
302154.6038362722,4695833.5216966402,-42500.0,-63.777017657103571,998.67681919080485,430.85973060755691,-576.85702423400039,538.26713502015343,-482.20166234957952,1343.4342943063357,1085.565318528751,-592.25438313131872,592.25438313131872,-1085.565318528751,2342.2778815469933,0.0
307154.6038362722,4695833.5216966402,-42500.0,125.23661757736029,1138.5964466624714,471.51109561982997,-597.35806072688331,638.20044465512535,-561.30747807560363,1522.5452494771043,1307.898760213023,-750.91981419691069,750.91981419691069,-1307.898760213023,2647.7531028538651,0.0
312154.6038362722,4695833.5216966402,-42500.0,405.21121427600673,1296.2469186486965,511.20553068729572,-591.55640675508505,760.5289609281358,-657.91698950802561,1736.8125250326721,1582.5587037312525,-961.71364590614496,961.71364590614496,-1582.5587037312525,3013.2971958768326,0.0
317154.6038362722,4695833.5216966402,-42500.0,817.57367482933853,1468.1121037463615,545.74654769178892,-531.50936075875643,909.4771594329203,-773.9270639585061,1997.1603615774848,1919.6299596395784,-1245.0177329223029,1245.0177329223029,-1919.6299596395784,3459.6479119645819,0.0
322154.6038362722,4695833.5216966402,-42500.0,1418.2805019928783,1643.617959248151,568.19858498623989,-364.18631659915155,1086.8613658794063,-901.81153114109929,2320.5571815357898,2322.8306480653714,-1624.835898163778,1624.835898163778,-2322.8306480653714,4022.3545241664315,0.0
327154.6038362722,4695833.5216966402,-42500.0,2272.6771782609289,1799.3624204330226,568.10798374094099,5.5702268606019283,1286.1694434326623,-1005.1655312910342,2736.0589941057278,2774.4072082386251,-2118.3426814778563,2118.3426814778563,-2774.4072082386251,4768.4801786760654,0.0
332154.6038362722,4695833.5216966402,-42500.0,3431.5944155837751,1891.656683504297,531.81470457417231,733.07751088791463,1479.6298360421563,-976.23675673615014,3297.5639197215405,3203.7719647502749,-2704.5747563341351,2704.5747563341351,-3203.7719647502749,5828.4796391319669,0.0
337154.6038362722,4695833.5216966402,-42500.0,4870.1781820063316,1851.6675394607259,446.20886660609415,2031.9570426007515,1594.2524430152268,-559.81038579503559,4106.039654995926,3435.2802404178506,-3253.258200713412,3253.258200713412,-3435.2802404178506,7438.5258215799122,0.0
342154.6038362722,4695833.5216966402,-42500.0,6378.7648197293647,1596.1365076575275,310.00614856962994,4099.710287524762,1477.838415828805,741.9132298500158,5334.7377934462693,3132.8604202119291,-3403.4348196466167,3403.4348196466167,-3132.8604202119291,9950.5318158890277,0.0
347154.6038362722,4695833.5216966402,-42500.0,7454.742034168652,1077.5342098632727,155.71773919169678,6894.4164792680322,876.97795342233962,3682.7264076607712,7224.159237827409,1822.501662267769,-2448.1165678629036,2448.1165678629036,-1822.501662267769,13724.477058446389,0.0
352154.6038362722,4695833.5216966402,-42500.0,7376.9874806420339,388.52063754910159,73.78064642511481,9776.1059143041002,-508.74680665213015,8969.0486247890331,9912.5356997675044,-849.1687642807417,558.66737211895429,-558.66737211895429,849.1687642807417,18853.240992434086,0.0
357154.6038362722,4695833.5216966402,-42500.0,5686.074858042406,-136.65438385658757,202.14831485692565,11351.274837416571,-2815.0831752253298,16472.11785914563,13114.098119620536,-4568.5201253943142,6167.6519920472983,-6167.6519920472983,4568.5201253943142,24818.268792933217,0.0
362154.6038362722,4695833.5216966402,-42500.0,2869.0838012788545,5.6853596375737769,633.09863069589994,10096.754575619108,-5693.623671944335,24445.849960818425,16121.504418168841,-7974.8036484350241,13539.530908683457,-13539.530908683457,7974.8036484350241,30362.597124626245,0.0
367154.6038362722,4695833.5216966402,-42500.0,419.51284365355514,1124.4591670997024,1275.7491502160951,5657.4696066207971,-8207.7140433719287,29902.438569159105,18051.323156457431,-9227.5953004724215,20170.75244171383,-20170.75244171383,9227.5953004724215,33862.15469040208,0.0
372154.6038362722,4695833.5216966402,-42500.0,-173.8168882796212,2923.545565253216,1854.7527143849754,-434.32362163717909,-9288.8377448393712,30416.633415649252,18239.112315733953,-7404.9071208820787,23210.152657832146,-23210.152657832146,7404.9071208820787,34101.182879817403,0.0
377154.6038362722,4695833.5216966402,-42500.0,1325.3543851257425,4574.4025364734871,2129.6934445340603,-5618.7343285581337,-8528.2010474965919,25876.322742751119,16610.660979515589,-3365.3682111690869,21487.019889831892,-21487.019889831892,3365.3682111690869,30972.993836642272,0.0
382154.6038362722,4695833.5216966402,-42500.0,3746.678951203759,5351.766431762836,2090.184304878042,-8107.1409642822782,-6483.3049625730837,18470.808267153807,13730.278538652667,937.90440252708504,16274.927378929071,-16274.927378929071,-937.90440252708504,25556.516691201101,0.0
387154.6038362722,4695833.5216966402,-42500.0,5626.0513463548714,5137.3340096691218,1896.2634025554814,-7858.2311157223885,-4147.275145119761,10971.093558683611,10452.162132200745,3948.4325325372929,10053.882943402386,-10053.882943402386,-3948.4325325372929,19453.748552218563,0.0
392154.6038362722,4695833.5216966402,-42500.0,6260.1306479222649,4302.3923519124273,1699.4520732909043,-5998.6611943605012,-2246.6204568174867,5114.5084098769348,7494.5864261766519,5258.518012828009,4765.7296673929914,-4765.7296673929914,-5258.518012828009,13982.592149965147,0.0
397154.6038362722,4695833.5216966402,-42500.0,5787.099277921644,3298.7793626158377,1558.9100788493377,-3728.937534936601,-1011.9680617856683,1303.4479424841006,5269.5553602213458,5284.1492955240192,1143.1979123004007,-1143.1979123004007,-5284.1492955240192,9821.2008631470162,0.0
402154.6038362722,4695833.5216966402,-42500.0,4699.9058268878289,2411.3106802163111,1465.8717280152634,-1760.1865867380127,-346.48266527376774,-831.4452964888842,3899.4379331494333,4639.1016991879969,-948.09283453164926,948.09283453164926,-4639.1016991879969,7089.740645389822,0.0
407154.6038362722,4695833.5216966402,-42500.0,3444.6118229262051,1739.3818558782104,1392.1671463294631,-327.50313549777104,-53.605646826569085,-1848.6865615847512,3161.6138732591985,3781.9749860925917,-1955.8348274309024,1955.8348274309024,-3781.9749860925917,5547.4388843953593,0.0
412154.6038362722,4695833.5216966402,-42500.0,2286.1529129239702,1273.179504269297,1317.0396819003672,597.60036339021849,36.777913414338443,-2210.9182314657642,2753.3524037096213,2956.8620170256172,-2307.8505141339529,2307.8505141339529,-2956.8620170256172,4768.9676831948873,0.0
417154.6038362722,4695833.5216966402,-42500.0,1333.1023465890862,963.85914707953475,1232.3317861997684,1133.7571065717711,35.12878059219647,-2224.7971896846643,2491.4678235086139,2257.2442771354913,-2306.7586328859784,2306.7586328859784,-2257.2442771354913,4353.9939453321786,0.0
422154.6038362722,4695833.5216966402,-42500.0,601.7813730385044,761.13512815786919,1138.5138365154755,1402.555502930413,1.5395152442214926,-2071.1881496050128,2288.5038009746631,1698.7244345095971,-2136.8407365553194,2136.8407365553194,-1698.7244345095971,4062.8795576153716,0.0
427154.6038362722,4695833.5216966402,-42500.0,67.064859685351976,626.27931063077062,1039.7581934852547,1499.6216517975988,-35.915585880439572,-1849.6148064713063,2108.9000878442712,1265.8061719982625,-1900.5293414751932,1900.5293414751932,-1265.8061719982625,3796.2188038754971,0.0
432154.6038362722,4695833.5216966402,-42500.0,-308.65176596404126,533.18386976582042,940.75814286978243,1492.1417669940913,-66.46431596550957,-1612.1394037037064,1940.0786429518057,934.95651215594091,-1651.0186425201009,1651.0186425201009,-934.95651215594091,3526.2252202485611,0.0
437154.6038362722,4695833.5216966402,-42500.0,-562.14165387099479,465.50971756711652,845.29494565456923,1424.669964887476,-87.551234579825589,-1384.4870828510479,1778.5859359311667,683.78239565324338,-1413.9979000860599,1413.9979000860599,-683.78239565324338,3252.1801786620917,0.0
442154.6038362722,4695833.5216966402,-42500.0,-724.5752155203129,413.47158886740431,755.87821579537251,1325.7635408105041,-99.984984614877234,-1178.1377289811505,1624.4376642012292,493.72190919307479,-1200.4460031107383,1200.4460031107383,-493.72190919307479,2980.7303886052332,0.0
447154.6038362722,4695833.5216966402,-42500.0,-820.66015038977719,371.35370763695056,673.87614866503532,1213.2573449115448,-105.61519829277576,-997.01316138736581,1478.7529330383957,350.20846782977156,-1013.7252062927591,1013.7252062927591,-350.20846782977156,2718.7239109309548,0.0
452154.6038362722,4695833.5216966402,-42500.0,-869.28733954859183,335.85267926395903,599.80092697985958,1097.9824838635036,-106.34123446070316,-841.14784538798517,1342.6853830228579,242.06370464246095,-853.41270941263917,853.41270941263917,-242.06370464246095,2471.1709392199514,0.0
457154.6038362722,4695833.5216966402,-42500.0,-884.59285062224444,305.05365539799129,533.59165019967395,986.26005885859627,-103.76068894619164,-708.70223392279263,1216.9922398140088,160.78029470433739,-717.34371318094054,717.34371318094054,-160.78029470433739,2241.0573825311421,0.0
462154.6038362722,4695833.5216966402,-42500.0,-877.00416507297405,277.82586560667846,474.84070435780819,881.54087288547146,-99.097934412778173,-597.06300575691046,1101.9461971717697,99.898703922977148,-602.68999986616177,602.68999986616177,-99.898703922977148,2029.7242059057185,0.0
467154.6038362722,4695833.5216966402,-42500.0,-854.12895956857392,253.47597543901196,422.95581032020704,785.47457700182031,-93.240640448436437,-503.43244997069496,997.40282920653476,54.514215754358929,-506.51644761938303,506.51644761938303,-54.514215754358929,1837.3369247043272,0.0
472154.6038362722,4695833.5216966402,-42500.0,-821.46360138709383,231.5536469283102,377.26799258596691,698.60420140893939,-86.807039672719725,-425.13016215253759,902.91606180368285,20.900144919801335,-426.05446086124783,426.05446086124783,-20.900144919801335,1663.2923271008358,0.0
477154.6038362722,4695833.5216966402,-42500.0,-782.93914931432482,211.74377961614638,337.09872051684681,620.81450531020607,-80.212756183287013,-359.73219971810749,817.84925174722002,-3.7774801994686698,-358.82102983826144,358.82102983826144,3.7774801994686698,1506.5263473008392,0.0
267154.6038362722,4700833.5216966402,-42500.0,-258.79763789784971,429.77351701863574,173.01306960699824,-264.02712533542905,191.73303543270799,-158.41923085317873,576.86955164872461,355.06934083815804,-158.63078865367754,158.63078865367754,-355.06934083815804,1013.2735602548742,0.0
272154.6038362722,4700833.5216966402,-42500.0,-239.58895539658616,479.34837039262317,187.41399203317584,-283.23816160854409,219.38501299169067,-179.05818499631701,633.94916679503581,413.48637663256955,-193.56483006474778,193.56483006474778,-413.48637663256955,1111.0959341354335,0.0
277154.6038362722,4700833.5216966402,-42500.0,-209.50762679574859,535.52918920602781,202.88422243252913,-301.89127926514755,251.64811903382704,-202.0375124024817,698.2234339103868,482.2636025493988,-235.96336106988326,235.96336106988326,-482.2636025493988,1220.9881752229253,0.0
282154.6038362722,4700833.5216966402,-42500.0,-164.92790265824394,599.16784335449972,219.34258408435997,-318.95943648448815,289.37352010905352,-227.45057542158773,770.89145224010122,563.38171608661401,-287.53419814770541,287.53419814770541,-563.38171608661401,1344.9986214880503,0.0
287154.6038362722,4700833.5216966402,-42500.0,-100.95623562158545,671.12917717224138,236.59984817791346,-332.89894642789761,333.58132303340716,-255.35552262707492,853.45680173826986,659.23529469809228,-350.46611987467719,350.46611987467719,-659.23529469809228,1485.7454049685311,0.0
292154.6038362722,4700833.5216966402,-42500.0,-10.898494615651849,752.18549421063892,254.29830183903556,-341.35749291197982,385.48674234704447,-285.78399475674354,947.84663739687221,772.71841589630651,-427.62524705575277,427.62524705575277,-772.71841589630651,1646.6675698656011,0.0
297154.6038362722,4700833.5216966402,-42500.0,114.52748414651089,842.79762790681059,271.82459063927047,-340.65558090503305,446.50670521043537,-318.7496934757213,1056.5927902034373,907.29341418544504,-522.84590355360115,522.84590355360115,-907.29341418544504,1832.4278024859589,0.0
302154.6038362722,4700833.5216966402,-42500.0,288.32854409066488,942.68167673083155,288.1922439391854,-324.83796098722536,518.19812429772617,-354.20159244102689,1183.1201442165675,1066.9623955736656,-641.32945048990587,641.32945048990587,-1066.9623955736656,2049.5976775158692,0.0
307154.6038362722,4700833.5216966402,-42500.0,528.77655171879371,1049.9852058057954,301.90447212426881,-283.92781783730345,602.00606294861188,-391.7375588529444,1332.2412420876012,1255.9313035964376,-790.08854452174478,790.08854452174478,-1255.9313035964376,2307.9133284504101,0.0
312154.6038362722,4700833.5216966402,-42500.0,861.20684314883601,1159.7842995077242,310.84882007760132,-200.77205175275893,698.53705691577295,-429.56901859843981,1511.0811738085554,1477.4680431402569,-978.12825762432271,978.12825762432271,-1477.4680431402569,2622.7269399294219,0.0
317154.6038362722,4700833.5216966402,-42500.0,1319.3195814819705,1261.4974489385515,312.38044837522921,-45.623036706575391,805.73997896602134,-461.50659063857353,1730.9555721439528,1730.8893130417562,-1215.4095564038346,1215.4095564038346,-1730.8893130417562,3019.9515356550532,0.0
322154.6038362722,4700833.5216966402,-42500.0,1943.7633123721066,1334.8283953790076,303.98282497113672,232.27911370004335,914.76389971499054,-469.33017366348707,2011.3535342030232,2004.6508650446096,-1508.1728507037212,1508.1728507037212,-2004.6508650446096,3545.7716901278741,0.0
327154.6038362722,4700833.5216966402,-42500.0,2772.8766505309809,1344.4354221523731,285.33442029332605,715.26260580041537,1001.3537646436597,-405.73294714629805,2388.3147954642573,2262.3831472873117,-1845.4094772224726,1845.4094772224726,-2262.3831472873117,4283.6840918399048,0.0
332154.6038362722,4700833.5216966402,-42500.0,3816.271780312401,1235.6797142219689,263.25393054042024,1523.4570574843169,1009.966087599859,-161.33748461803813,2930.8973044038421,2418.9242470826484,-2167.4429424625141,2167.4429424625141,-2418.9242470826484,5377.3940127410388,0.0
337154.6038362722,4700833.5216966402,-42500.0,5000.337492475619,939.11516231186147,261.32898278309966,2796.9615651295758,829.63925037159288,486.22220240240074,3766.8744791234976,2309.8635241814331,-2306.9497796106029,2306.9497796106029,-2309.8635241814331,7044.3385385414722,0.0
342154.6038362722,4700833.5216966402,-42500.0,6089.5189263265365,399.93470962147467,334.07444246796689,4614.5401060428012,270.96601612974598,1917.8814744449649,5077.4073624229495,1680.5337834825934,-1910.1769516762931,1910.1769516762931,-1680.5337834825934,9544.6385320783065,0.0
347154.6038362722,4700833.5216966402,-42500.0,6642.440324076867,-348.93318467767523,577.06372153024085,6810.8734335230374,-920.17587817223341,4627.2285807313929,6974.3572521874812,262.61036102231924,-408.71307440033206,408.71307440033206,-262.61036102231924,13065.07858257272,0.0
352154.6038362722,4700833.5216966402,-42500.0,6146.9105890054789,-1084.4551707507328,1108.0680380860424,8753.2825822641898,-2946.0703220361356,8934.2688564175132,9380.7105577444763,-1979.7747508216285,2787.3529996212515,-2787.3529996212515,1979.7747508216285,17510.863707439414,0.0
357154.6038362722,4700833.5216966402,-42500.0,4435.8877561225308,-1366.7699605311709,1988.5994611193785,9365.2891311585063,-5710.2110880932678,14438.53999148368,11965.087054673804,-4507.8719244432623,7739.7646623785686,-7739.7646623785686,4507.8719244432623,22295.095411152401,0.0
362154.6038362722,4700833.5216966402,-42500.0,2110.9691816402133,-741.60083782001118,3105.4106968127517,7720.4843818787676,-8600.8466116129148,19665.408983695921,14148.562554678334,-6177.3539471790527,13388.99770313947,-13388.99770313947,6177.3539471790527,26345.429337292702,0.0
367154.6038362722,4700833.5216966402,-42500.0,371.62225795808206,870.95424174334494,4130.0086488570605,3912.205391060309,-10626.017283091249,22597.248386091705,15300.372970979679,-5887.8167346507826,17718.439485347357,-17718.439485347357,5887.8167346507826,28486.837330993811,0.0
372154.6038362722,4700833.5216966402,-42500.0,171.84626291844049,2959.3965280334783,4675.6597650967205,-723.82814057874793,-10972.284833879938,21938.850332033511,15041.512756281943,-3481.8539214704779,18923.818384769285,-18923.818384769285,3481.8539214704779,28019.122822955942,0.0
377154.6038362722,4700833.5216966402,-42500.0,1480.0068345629916,4682.7114114562673,4569.7460004046825,-4411.5052891626474,-9561.4589578234445,17990.806166132494,13446.213726373942,40.446349090103467,16627.842823858933,-16627.842823858933,-40.446349090103467,25091.251598325944,0.0
382154.6038362722,4700833.5216966402,-42500.0,3368.0719996071298,5435.8282069544266,3968.9155287216613,-6060.7643628297337,-7079.4428678260629,12356.183150275803,10999.168122078967,3243.4213436536502,12027.104106279106,-12027.104106279106,-3243.4213436536502,20614.206737288161,0.0
387154.6038362722,4700833.5216966402,-42500.0,4792.1684256563067,5182.5463288356259,3198.3348105862801,-5738.0122854542569,-4460.3732869848518,6841.9928101974092,8344.3115511589076,5187.6764985602831,6932.6317365069981,-6932.6317365069981,-5187.6764985602831,15781.149150250667,0.0
392154.6038362722,4700833.5216966402,-42500.0,5250.9984330697544,4303.7833318851044,2517.2128207986052,-4247.4231140799811,-2349.8799317237822,2558.7031384592401,6050.1284033169477,5759.6415062592814,2690.9368312534434,-2690.9368312534434,-5759.6415062592814,11559.288425370509,0.0
397154.6038362722,4700833.5216966402,-42500.0,4835.1436591610309,3243.585737507296,2025.2166293595819,-2443.5985496492276,-949.38011425794593,-231.14720532074637,4535.5435278325631,5369.2227548210603,-197.8832496588393,197.8832496588393,-5369.2227548210603,8456.1882739605389,0.0
402154.6038362722,4700833.5216966402,-42500.0,3908.1292013325833,2291.9336034524449,1705.6970516997897,-858.8006722078735,-163.73399047883029,-1774.8806084469079,3677.2780249469083,4517.5520846128957,-1844.734585918136,1844.734585918136,-4517.5520846128957,6533.206374409212,0.0
407154.6038362722,4700833.5216966402,-42500.0,2820.7991475824801,1561.2865679397023,1500.6698783662962,309.53018680956745,201.31142381510983,-2464.4971033754264,3181.6544913196826,3565.0111435942631,-2596.0389317732138,2596.0389317732138,-3565.0111435942631,5515.5848638076613,0.0
412154.6038362722,4700833.5216966402,-42500.0,1797.9537953977881,1051.9010357196969,1357.1066730730654,1065.9245399943723,322.1505868006746,-2640.9995118592801,2866.8790404339361,2698.9192650338696,-2793.8409609838259,2793.8409609838259,-2698.9192650338696,4998.1165053539517,0.0
417154.6038362722,4700833.5216966402,-42500.0,942.8176862610585,718.25124877943358,1241.1825554213387,1494.874288206142,320.72480073608023,-2541.595287236134,2629.8964810948319,1985.7440553145702,-2689.9804402151872,2689.9804402151872,-1985.7440553145702,4672.2560889920369,0.0
422154.6038362722,4700833.5216966402,-42500.0,279.76234844668608,508.21199811214825,1136.088048268185,1692.2066962211175,268.82261372305362,-2312.4026919134881,2424.1894709030221,1428.9329536109767,-2443.9606549826181,2443.9606549826181,-1428.9329536109767,4388.0150921696222,0.0
427154.6038362722,4700833.5216966402,-42500.0,-206.52378418114992,378.88621608290765,1035.6169476988105,1738.0327570302179,203.75488580004955,-2036.572117475966,2232.7022635299663,1006.9465845249471,-2147.4287770661035,2147.4287770661035,-1006.9465845249471,4096.663779746902,0.0
432154.6038362722,4700833.5216966402,-42500.0,-546.11963304464871,299.72469667996785,938.77863862510605,1691.2151870331543,142.51675580470607,-1758.3588515212848,2050.2092593834195,692.58914001541871,-1848.9810253652468,1848.9810253652468,-692.58914001541871,3792.8304609350348,0.0
437154.6038362722,4700833.5216966402,-42500.0,-771.00224726643546,250.67186620758324,846.51352493983381,1592.071079961087,91.356095053184305,-1499.4234023249951,1875.6717619572285,460.90857659766255,-1572.049127631894,1572.049127631894,-460.90857659766255,3484.6528223581004,0.0
442154.6038362722,4700833.5216966402,-42500.0,-909.58379771573834,219.22372429206635,760.06918779436955,1466.9801719235145,51.371939082760811,-1268.8144167285702,1709.6892409656216,291.50049163798894,-1326.1308910383182,1326.1308910383182,-291.50049163798894,3181.9435934478197,0.0
447154.6038362722,4700833.5216966402,-42500.0,-985.07638372609574,197.86078737475987,680.36415407923721,1332.5646872346972,21.496335054728387,-1068.799069254474,1553.4477352571203,168.52321479730688,-1113.3657196318918,1113.3657196318918,-168.52321479730688,2892.4307623950208,0.0
452154.6038362722,4700833.5216966402,-42500.0,-1015.5761746560418,182.18750299193508,607.84405820821587,1198.8817141932368,-0.036369021432287707,-898.19109698334785,1408.0513120728451,79.978645912288755,-932.24200666919432,932.24200666919432,-79.978645912288755,2621.1135334798528,0.0
457154.6038362722,4700833.5216966402,-42500.0,-1014.7829675819708,169.69980720838893,542.53908785698422,1071.6833979662774,-15.027232117187523,-754.21664254529992,1274.1732501083457,16.886343610773338,-779.631159727154,779.631159727154,-16.886343610773338,2370.6430672836623,0.0
462154.6038362722,4700833.5216966402,-42500.0,-992.85926506380065,159.0097209213564,484.18031214259679,953.96103782747196,-25.053760964688941,-633.53940934682532,1151.9848781985766,-27.438696260717677,-651.87570543128527,651.87570543128527,27.438696260717677,2141.9354228157649,0.0
467154.6038362722,4700833.5216966402,-42500.0,-957.22485281386503,149.3731286864793,432.31226086472691,846.97623739749429,-31.400670323819988,-532.80177465414715,1041.2322639472145,-57.960674039676519,-545.34644164532835,545.34644164532835,57.960674039676519,1934.7345972301553,0.0
472154.6038362722,4700833.5216966402,-42500.0,-913.2214566901747,140.40868795931596,386.38210386309021,750.93980187758655,-35.071887006184376,-448.89056435257481,941.35943857109532,-78.361877691364214,-456.7063188535987,456.7063188535987,78.361877691364214,1748.0538264294601,0.0
477154.6038362722,4700833.5216966402,-42500.0,-864.64116374732146,131.9336331158772,345.80262733424769,665.45279117933194,-36.831795291084383,-379.04821001042393,851.6256937318858,-91.372174955528493,-383.01439986314494,383.01439986314494,91.372174955528493,1580.4945928989148,0.0
267154.6038362722,4705833.5216966402,-42500.0,-136.62432944272527,421.56587059747227,131.60044783415023,-201.91069061220844,189.33896474843129,-134.17333285186498,523.8086390015153,369.27918661303136,-183.1701523193411,183.1701523193411,-369.27918661303136,913.39913616072704,0.0
272154.6038362722,4705833.5216966402,-42500.0,-100.64977831092298,465.93318203587751,139.4967709534514,-209.6042294741971,214.86192911734008,-149.30974314109014,572.69816344607307,425.27286109326337,-219.41026131211879,219.41026131211879,-425.27286109326337,996.64618350790647,0.0
277154.6038362722,4705833.5216966402,-42500.0,-51.3670548214767,515.04204328210255,147.3792441638335,-214.2597099005994,244.06385087309044,-165.34561685682576,627.31459696143952,490.09796102196913,-262.64011432437394,262.64011432437394,-490.09796102196913,1089.6660498271385,0.0
282154.6038362722,4705833.5216966402,-42500.0,15.093673338906227,569.09324771586751,155.02119311887671,-214.24819183917569,277.40733628055199,-181.92903184269773,688.57440250599461,565.08311309346959,-314.20987473349857,314.20987473349857,-565.08311309346959,1194.2107365111553,0.0
287154.6038362722,4705833.5216966402,-42500.0,103.77830204117365,628.06094269885466,162.10723971794098,-207.27188732792075,315.35150931298142,-198.50097228939606,757.65063992139437,651.68686121574149,-375.74431571475668,375.74431571475668,-651.68686121574149,1312.6358695207157,0.0
292154.6038362722,4705833.5216966402,-42500.0,221.31630918603898,691.49536665623373,168.21519421953786,-190.04939715693942,358.29279676945953,-214.22004603386569,836.09558067219757,751.44769136335799,-449.21127728630722,449.21127728630722,-751.44769136335799,1448.2262289121854,0.0
297154.6038362722,4705833.5216966402,-42500.0,376.47278558982038,758.18087198426917,172.81138184929574,-157.80176738766548,406.43861694588077,-227.84257094210375,926.04190818455277,865.85095692994435,-536.99733769134502,536.99733769134502,-865.85095692994435,1605.7382255634805,0.0
302154.6038362722,4705833.5216966402,-42500.0,580.85534039113782,825.54809990126148,175.29042273133149,-103.39092846288749,459.53809858658775,-237.48798823168278,1030.5488516448524,996.01097464464237,-641.94602842197196,641.94602842197196,-996.01097464464237,1792.3340094475284,0.0
307154.6038362722,4705833.5216966402,-42500.0,849.69677160851904,888.68328776007922,175.13077297606577,-15.868474977802773,516.3098189298529,-240.10901442236491,1154.2342090020127,1141.9540320137153,-767.21228878807415,767.21228878807415,-1141.9540320137153,2019.23918348093,0.0
312154.6038362722,4705833.5216966402,-42500.0,1202.3858916561485,938.71936040133539,172.32172946066871,121.90989064393976,573.23955767801226,-230.23651116150199,1304.5012847539138,1301.0762948848169,-915.53384774863753,915.53384774863753,-1301.0762948848169,2304.7180046030876,0.0
317154.6038362722,4705833.5216966402,-42500.0,1661.8305391377628,960.40356818397333,168.37763459068364,336.94353312942417,622.12280304921285,-197.0767777380421,1494.0656965635155,1465.0084311538269,-1086.9664096196027,1086.9664096196027,-1465.0084311538269,2679.2864125133569,0.0
322154.6038362722,4705833.5216966402,-42500.0,2250.5615119575241,928.90960144689529,168.52314125812597,670.8908413644067,645.271547143921,-118.21457293273993,1746.4484640230808,1613.7131438801409,-1273.0682972475695,1273.0682972475695,-1613.7131438801409,3194.0773365397968,0.0
327154.6038362722,4705833.5216966402,-42500.0,2979.6170683227388,806.96763022069001,185.96611743873146,1184.109006873608,606.87318803805317,52.75045399105597,2108.2577595728553,1705.6405495480114,-1443.9359869354755,1443.9359869354755,-1705.6405495480114,3931.8199350242598,0.0
332154.6038362722,4705833.5216966402,-42500.0,3824.5892187686995,545.93012477126342,249.23672495124015,1952.4531817175807,439.4248913193926,406.94941591664843,2667.4512426786578,1664.6599138314004,-1523.4139979566144,1523.4139979566144,-1664.6599138314004,5015.3526669734028,0.0
337154.6038362722,4705833.5216966402,-42500.0,4685.8197775671442,99.066914374601353,412.23759472059623,3042.0257368163207,27.870056955491588,1105.8570868337522,3530.7098308454106,1371.5020750520459,-1351.4631350596048,1351.4631350596048,-1371.5020750520459,6601.0535145056065,0.0
342154.6038362722,4705833.5216966402,-42500.0,5346.1617591888935,-540.23791843701622,761.57224815471523,4439.8477406160964,-794.72824795551969,2389.3259970769832,4765.9908265494314,682.85824378054008,-650.9399308108857,650.9399308108857,-682.85824378054008,8838.1307049266834,0.0
347154.6038362722,4705833.5216966402,-42500.0,5478.6800694091608,-1270.2939704316464,1405.1482755028794,5934.5288493083317,-2206.5511593441074,4509.9149721929898,6381.8472606989171,-482.6648838564239,941.90748926025492,-941.90748926025492,482.6648838564239,11776.642731499702,0.0
352154.6038362722,4705833.5216966402,-42500.0,4790.5502384093907,-1818.4371028448522,2417.7185510030808,7018.1159391740694,-4271.251249211502,7527.42278527078,8267.9360834197869,-1977.3800768494,3686.9555889262283,-3686.9555889262283,1977.3800768494,15232.455339105905,0.0
357154.6038362722,4705833.5216966402,-42500.0,3311.8708489013111,-1784.0949804835159,3741.0887046225794,6992.7453557160316,-6750.1629935036535,11012.741706264031,10137.426557444089,-3285.6063765673916,7379.4977905031283,-7379.4977905031283,3285.6063765673916,18684.775553837615,0.0
362154.6038362722,4705833.5216966402,-42500.0,1592.6211882946777,-868.0275382724808,5108.2308773947025,5401.0752308152987,-9020.078109811755,13957.295153711353,11563.12885717155,-3658.7968678155994,11098.213131161127,-11098.213131161127,3658.7968678155994,21345.631633930599,0.0
367154.6038362722,4705833.5216966402,-42500.0,471.9056532076516,836.5279566347931,6106.8891832755489,2502.9193490962266,-10295.943305326156,15196.192191630529,12137.836582514557,-2601.2434805112907,13493.965663444695,-13493.965663444695,2601.2434805112907,22461.056070988998,0.0
372154.6038362722,4705833.5216966402,-42500.0,499.50875219187452,2787.1735444012129,6398.530564032636,-726.19907537952054,-10082.59290987669,14130.475029893847,11671.312788039875,-316.12917722102702,13578.434776884074,-13578.434776884074,316.12917722102702,21680.762817801278,0.0
377154.6038362722,4705833.5216966402,-42500.0,1542.1264741244556,4287.8187598247177,5931.7892985073486,-3162.6608101987767,-8487.5195443690936,11110.66728696336,10286.30894458729,2361.63038533504,11349.751186555732,-11349.751186555732,-2361.63038533504,19238.00531524984,0.0
382154.6038362722,4705833.5216966402,-42500.0,2929.1185240349273,4902.0605952491705,4959.8906462394943,-4177.9627701453319,-6127.8541151467207,7170.0560640456852,8354.1905331094822,4500.5587358259399,7721.9027316517258,-7721.9027316517258,-4500.5587358259399,15830.530946135006,0.0
387154.6038362722,4705833.5216966402,-42500.0,3954.6399629836956,4641.5223889638746,3854.068128093169,-3854.1417089007446,-3737.2915000417988,3399.5364064802807,6333.1656909721578,5588.8135535680231,3897.2174238691205,-3897.2174238691205,-5588.8135535680231,12302.799898261455,0.0
392154.6038362722,4705833.5216966402,-42500.0,4270.7206401423027,3830.2255252919222,2894.7501030417698,-2720.2541353986321,-1812.578864549771,473.07458506145474,4860.1777423710373,5652.8374623655764,749.51062565482516,-749.51062565482516,-5652.8374623655764,9335.8190976691203,0.0
397154.6038362722,4705833.5216966402,-42500.0,3923.9122401031568,2843.5599372975598,2193.0692709342393,-1349.348157216142,-515.38208359651503,-1434.725364455486,4023.5601866866373,5033.9139174411766,-1388.3917233925349,1388.3917233925349,-5033.9139174411766,7276.8420976528487,0.0
402154.6038362722,4705833.5216966402,-42500.0,3163.9167942354175,1940.157731168315,1733.0139144755328,-122.39437741796183,225.338137228287,-2468.7197787025038,3503.9499222271843,4112.2370140711473,-2587.1468375342879,2587.1468375342879,-4112.2370140711473,6099.527110016068,0.0
407154.6038362722,4705833.5216966402,-42500.0,2252.8377548534095,1233.0829860752833,1446.5174641316964,799.3533858096082,569.29848765723034,-2882.5643520687158,3170.4817602703361,3159.1192428195041,-3089.5492528266509,3089.5492528266509,-3159.1192428195041,5507.4866366783544,0.0
412154.6038362722,4705833.5216966402,-42500.0,1374.1867323799784,734.64976758693081,1264.9091814156168,1401.6213158863318,671.07125767233117,-2912.0771509710385,2922.6845891513904,2316.1929437228323,-3149.1222092988696,3149.1222092988696,-2316.1929437228323,5174.8792181087365,0.0
417154.6038362722,4705833.5216966402,-42500.0,623.09608512661168,409.8979763528377,1138.8045059940266,1738.0281722504837,644.57586783665158,-2731.3958710512829,2707.0960427660839,1632.0509313390348,-2962.7246920438729,2962.7246920438729,-1632.0509313390348,4905.2237658239737,0.0
422154.6038362722,4705833.5216966402,-42500.0,30.580714608624582,212.15637308291443,1039.0754633985148,1879.2370063693718,561.55688247925218,-2453.5941643363558,2503.7303581268925,1104.8352390565237,-2661.322489692152,2661.322489692152,-1104.8352390565237,4622.6754550836413,0.0
427154.6038362722,4705833.5216966402,-42500.0,-408.73169208515191,99.837224059407816,951.14770114454609,1889.1431747766389,462.16697248200603,-2145.8194768075186,2307.9785931278607,711.87616540810018,-2323.4155558111925,2323.4155558111925,-711.87616540810018,4313.4973013015897,0.0
432154.6038362722,4705833.5216966402,-42500.0,-716.45443804980312,41.497393122499247,869.0031938711935,1817.3968483097854,366.39576484334754,-1844.8349974699076,2119.6481331653526,425.71437952007273,-1991.9649589801656,1991.9649589801656,-425.71437952007273,3986.5543696618488,0.0
437154.6038362722,4705833.5216966402,-42500.0,-918.6586136444165,15.456263610942685,790.91028651343208,1699.4658379238197,282.65108238071667,-1568.7439773260812,1939.1576587712384,221.1154372236673,-1687.9812742618687,1687.9812742618687,-221.1154372236673,3655.3449247418162,0.0
442154.6038362722,4705833.5216966402,-42500.0,-1040.0561490477332,7.6459238635955922,716.91637412178864,1559.2854654999283,213.25007685226979,-1324.7892547201895,1767.3501966450697,77.319197451500941,-1419.7687305043864,1419.7687305043864,-77.319197451500941,3331.5175651326613,0.0
447154.6038362722,4705833.5216966402,-42500.0,-1101.6939663938772,9.3497214868063594,647.57309155889595,1412.2597161600186,157.61093062050691,-1114.214487726086,1605.4929277473534,-21.838323830938634,-1188.7006585467313,1188.7006585467313,21.838323830938634,3023.2783737032833,0.0
452154.6038362722,4705833.5216966402,-42500.0,-1120.4573139188963,15.386574755993994,583.38298806564478,1267.8169611404569,113.97894843600834,-935.17713492214489,1454.7900948559554,-88.571185410969974,-992.64741848442577,992.64741848442577,88.571185410969974,2735.5942802682625,0.0
457154.6038362722,4705833.5216966402,-42500.0,-1109.3877565725174,22.814370545139695,524.61823326385638,1131.3542742438442,80.298007206030945,-784.43979280838403,1315.9969880993258,-131.95196870095259,-827.93471184554687,827.93471184554687,131.95196870095259,2470.909167238492,0.0
462154.6038362722,4705833.5216966402,-42500.0,-1078.2928958065725,30.06220749429205,471.30753484940897,1005.6322871880532,54.612464807390545,-658.31829219519227,1189.3271587214895,-158.65083910185331,-690.41940448442165,690.41940448442165,158.65083910185331,2229.8867683690805,0.0
467154.6038362722,4705833.5216966402,-42500.0,-1034.3962634933828,36.373291901731648,423.28525380742377,891.73966177037471,35.224260811206356,-553.18542286111449,1074.5340453649339,-173.53914574529421,-576.04854428411727,576.04854428411727,173.53914574529421,2012.0231853960765,0.0
472154.6038362722,4705833.5216966402,-42500.0,-982.9229685296973,41.45745611158133,380.25356469201972,789.74419292645734,20.729780805201951,-465.71616679734694,971.04631933856888,-180.15747869285866,-481.12417250893196,481.12417250893196,180.15747869285866,1816.106264997178,0.0
477154.6038362722,4705833.5216966402,-42500.0,-927.58621298560718,45.279621812738036,341.83758572591387,699.12239459946341,10.002416723188169,-392.98533045003961,878.0950106731799,-181.06873590860181,-402.40398628139923,402.40398628139923,181.06873590860181,1640.5386452647356,0.0
267154.6038362722,4710833.5216966402,-42500.0,-25.521205518069468,399.00253053293324,95.166735237377068,-144.14516862396906,180.21778354389676,-111.07376577664884,471.64661961884633,370.89947298383697,-198.23589544645355,198.23589544645355,-370.89947298383697,818.28349456586659,0.0
272154.6038362722,4710833.5216966402,-42500.0,23.888337366171474,435.70699179139547,98.237920700191239,-141.8905619490304,202.16848248545034,-121.23805743271537,512.85340821548994,422.21478368686746,-233.67958231790999,233.67958231790999,-422.21478368686746,888.77243809824404,0.0
277154.6038362722,4710833.5216966402,-42500.0,87.982168534453038,474.88068544161536,100.7908105287154,-134.71508546716944,226.53242087910624,-131.10281327270931,558.53334680970488,480.44251267563516,-275.12832771739113,275.12832771739113,-480.44251267563516,967.41859800362045,0.0
282154.6038362722,4710833.5216966402,-42500.0,170.51333878189268,516.04356083998016,102.66480714099552,-120.63592682365747,253.30919796140896,-139.98786277548811,609.4105997080062,546.22872247718522,-323.45055040516849,323.45055040516849,-546.22872247718522,1055.9384303578429,0.0
287154.6038362722,4710833.5216966402,-42500.0,276.19199464235754,558.285070410603,103.71070842152957,-96.9629613855098,282.31374758381577,-146.89696308884058,666.45776009226358,620.10128900144321,-379.56196530007577,379.56196530007577,-620.10128900144321,1156.7775914287374,0.0
292154.6038362722,4710833.5216966402,-42500.0,410.92778799375134,600.01611732712888,103.84443565267483,-60.018033280390924,313.04129588036778,-150.39765453048278,731.03936513150052,702.32797243198365,-444.37644854603064,444.37644854603064,-702.32797243198365,1273.5233857131432,0.0
297154.6038362722,4710833.5216966402,-42500.0,582.10506062034437,638.58037623159157,103.16104807934495,-4.7110532130711915,344.43413252002154,-148.43999773095754,805.1573351305916,792.66564433001452,-518.69941524026251,518.69941524026251,-792.66564433001452,1411.5662065831139,0.0
302154.6038362722,4710833.5216966402,-42500.0,798.83522915441699,669.65066485550085,102.16800323323135,76.110719680366529,374.46736162260703,-138.05148477499816,891.88852623558853,889.91137403838184,-602.99022790871913,602.99022790871913,-889.91137403838184,1579.1629583267775,0.0
307154.6038362722,4710833.5216966402,-42500.0,1072.0233681788388,686.31655022624648,102.2494442494616,192.6540125145581,399.39821778465063,-114.76761139909205,996.21576427810487,991.09575585302764,-696.82514578850214,696.82514578850214,-991.09575585302764,1789.1366866892974,0.0
312154.6038362722,4710833.5216966402,-42500.0,1413.8503428011791,677.78277298020225,106.56482143733744,359.61853104495123,412.3972557054438,-71.502307331627037,1126.7681350463486,1090.0520917137026,-797.69362040383862,797.69362040383862,-1090.0520917137026,2061.5157848498702,0.0
317154.6038362722,4710833.5216966402,-42500.0,1835.820442474399,627.73157366274472,121.72524887051844,598.03406629998096,401.092746275536,3.7028165314806696,1300.0387661793973,1174.986733997629,-898.39479705751955,898.39479705751955,-1174.986733997629,2427.3554547512563,0.0
322154.6038362722,4710833.5216966402,-42500.0,2343.7973082204521,512.84280758239481,160.74875889421466,936.87562486069669,343.36954532127118,131.94950918677367,1550.5975865947414,1224.7140101006087,-981.74660853581793,981.74660853581793,-1224.7140101006087,2933.4858965057874,0.0
327154.6038362722,4710833.5216966402,-42500.0,2927.6764773125155,303.05219456398112,247.80270104813843,1412.3677049192586,200.85418735244247,350.76377230930893,1934.8111275554495,1203.8562923925465,-1010.8393300612897,1010.8393300612897,-1203.8562923925465,3646.5461024610263,0.0
332154.6038362722,4710833.5216966402,-42500.0,3543.6547741007712,-32.800948178176895,424.57792245225244,2060.0170017125561,-89.293817349953059,724.16093725713461,2499.3654372002288,1059.4997267324175,-913.79044094785013,913.79044094785013,-1059.4997267324175,4652.1098384188608,0.0
337154.6038362722,4710833.5216966402,-42500.0,4091.4670608614038,-509.71058463690497,755.70694146588812,2890.8098132943906,-619.75254321571219,1350.4825899877794,3280.7528259260248,726.72216909836732,-566.77627283116146,566.77627283116146,-726.72216909836732,6041.4454539087274,0.0
342154.6038362722,4710833.5216966402,-42500.0,4401.9432808266147,-1091.8275172237688,1325.2021030508001,3843.7310910569968,-1502.8946980220371,2352.2757256019395,4304.2612143609867,157.07635892595016,207.76577756802232,-207.76577756802232,-157.07635892595016,7876.314004485539,0.0
347154.6038362722,4710833.5216966402,-42500.0,4270.3278691389842,-1646.8570365008638,2209.167344067982,4724.5354730040899,-2823.7527601101751,3820.30278483948,5547.8414708083319,-617.0663298649356,1591.2089338607534,-1591.2089338607534,617.0663298649356,10126.410563535745,0.0
352154.6038362722,4710833.5216966402,-42500.0,3571.9036057862777,-1927.563887007022,3413.2429554303235,5185.5450749846341,-4543.7824697010255,5694.8514333566845,6899.4050431957148,-1400.2665746317668,3630.9149584525403,-3630.9149584525403,1400.2665746317668,12594.559426554448,0.0
357154.6038362722,4710833.5216966402,-42500.0,2427.2872325400649,-1645.8189784376705,4795.4390529902466,4837.4270002831045,-6396.8005730708746,7638.719274551192,8138.8831851768255,-1817.6963992976566,6052.86896580127,-6052.86896580127,1817.6963992976566,14883.25023942153,0.0
362154.6038362722,4710833.5216966402,-42500.0,1260.9449684399733,-656.48125945722063,6046.9705310485433,3508.1490569331313,-7892.305807561007,9052.995284471217,8982.1762463789419,-1469.5801919607325,8200.7955830600658,-8200.7955830600658,1469.5801919607325,16474.490645997794,0.0
367154.6038362722,4710833.5216966402,-42500.0,603.95526582647824,871.12255690795394,6800.0226646991578,1464.4121650352736,-8512.2475324625739,9339.3196688262669,9189.8768685040268,-216.72957056819087,9281.34865210711,-9281.34865210711,216.72957056819087,16930.979963557522,0.0
372154.6038362722,4710833.5216966402,-42500.0,745.37185937919935,2476.6630722293789,6821.404395712013,-653.01542181554635,-8001.6247859464875,8259.1084268779268,8680.976849402603,1646.0577674968235,8813.6398916036123,-8813.6398916036123,-1646.0577674968235,16108.369430933313,0.0
377154.6038362722,4710833.5216966402,-42500.0,1538.6071385146604,3648.6935388456627,6145.7406022613068,-2174.2589702223645,-6521.1650360216163,6087.4557060107782,7574.480204446053,3521.4680690163932,6919.7112552534672,-6919.7112552534672,-3521.4680690163932,14235.815034520167,0.0
382154.6038362722,4710833.5216966402,-42500.0,2525.1448771526307,4095.1982262396759,5041.4940098415409,-2747.2926816222371,-4542.4683542916555,3443.0505717461187,6134.7519105505316,4846.5434075927906,4224.2688824230927,-4224.2688824230927,-4846.5434075927906,11820.391095245937,0.0
387154.6038362722,4710833.5216966402,-42500.0,3240.5276168477708,3844.7012122056312,3847.8738463436243,-2438.8148060774274,-2587.2574796303543,957.80420970772343,4799.4684698813135,5360.7364241721571,1484.2220778158335,-1484.2220778158335,-5360.7364241721571,9446.5040124079696,0.0
392154.6038362722,4710833.5216966402,-42500.0,3446.2513668739361,3145.5017271921984,2816.5078257163032,-1582.6515263932608,-1009.7399460314186,-968.85411650642413,4107.7879442799358,5138.2282875117344,-751.81096680296559,751.81096680296559,-5138.2282875117344,7573.9668853542889,0.0
397154.6038362722,4710833.5216966402,-42500.0,3159.6003719351656,2288.9285390695159,2052.5924547269051,-551.58952929880627,65.721239098434438,-2220.1697273994419,3642.1795253427986,4440.1923722879128,-2264.2532784742089,2264.2532784742089,-4440.1923722879128,6391.8101660590364,0.0
402154.6038362722,4710833.5216966402,-42500.0,2545.084119236642,1488.084809646851,1546.6049931424011,388.70415126224532,683.2025321528846,-2874.1385184961914,3338.05855565417,3544.9266484283112,-3090.9249752547862,3090.9249752547862,-3544.9266484283112,5783.6591300559285,0.0
407154.6038362722,4710833.5216966402,-42500.0,1792.2983621475128,847.65153774530768,1235.6594562517976,1110.6416293628838,960.50067271294961,-3088.0158329667147,3114.3886468390783,2653.7380721686973,-3392.6999502309632,3392.6999502309632,-2653.7380721686973,5480.377656912714,0.0
412154.6038362722,4710833.5216966402,-42500.0,1046.6790473863828,389.4734797687475,1050.2402994060394,1589.6987738600699,1020.4891059227624,-3019.6104680724898,2916.5670495235754,1874.7751416864166,-3349.6302101596966,3349.6302101596966,-1874.7751416864166,5264.0187673376895,0.0
417154.6038362722,4710833.5216966402,-42500.0,392.82603430105468,90.962675789109241,935.85919717953664,1856.3575310171136,960.0081614473612,-2793.3471533617885,2721.7146652471747,1245.9771823689885,-3110.2038648318753,3110.2038648318753,-1245.9771823689885,5030.3719331209677,0.0
422154.6038362722,4710833.5216966402,-42500.0,-134.53705485459727,-85.691428198263083,857.15722135530802,1960.3453477586163,844.17131972625521,-2494.8082034490108,2526.2571684915356,764.79931884274356,-2778.7617832751507,2778.7617832751507,-764.79931884274356,4752.2385442968643,0.0
427154.6038362722,4710833.5216966402,-42500.0,-532.53234423609081,-177.51163142773086,794.2418632628362,1950.9820992860214,711.90695859192806,-2177.3460650521201,2333.7695816632745,410.67148901157918,-2420.9420804550577,2420.9420804550577,-410.67148901157918,4436.4397371025789,0.0
432154.6038362722,4710833.5216966402,-42500.0,-814.80816937938528,-214.40868962374748,737.40149333114448,1869.1046700472912,584.00985782684359,-1871.2994751231963,2147.4254607262528,158.18814964117041,-2074.153037362983,2074.153037362983,-158.18814964117041,4099.6581970845446,0.0
437154.6038362722,4710833.5216966402,-42500.0,-1001.3668213739385,-218.13244058340737,682.74537710797199,1745.3423504898085,470.02810507694636,-1591.9736354447616,1968.1369598666029,-16.542000985153777,-1757.261661522768,1757.261661522768,16.542000985153777,3758.1754550335781,0.0
442154.6038362722,4710833.5216966402,-42500.0,-1112.8307672810292,-203.4296828792362,629.30567821655359,1601.1810205954434,373.11773638487375,-1345.48078854039,1796.5528144837826,-133.54205760615753,-1477.8355140919562,1477.8355140919562,133.54205760615753,3424.5608380628619,0.0
447154.6038362722,4710833.5216966402,-42500.0,-1167.7030493448237,-179.76898072134458,577.35290151613071,1450.8862437352043,293.1135565548305,-1132.6539257513803,1634.0464358574604,-208.59544589093855,-1237.0080286771627,1237.0080286771627,208.59544589093855,3107.2811327876798,0.0
452154.6038362722,4710833.5216966402,-42500.0,-1181.3816855153452,-152.93018917413357,527.52232211529474,1303.4171262817347,228.33082144264714,-951.52904013971613,1482.0995236414014,-253.69910332756342,-1032.5419238838108,1032.5419238838108,253.69910332756342,2811.3422905497391,0.0
457154.6038362722,4710833.5216966402,-42500.0,-1166.0881004496891,-126.24447954824714,480.41722892599444,1164.0187289357903,176.55534936654556,-798.85115892353656,1341.7203045284266,-277.76250850545796,-860.66506228378978,860.66506228378978,277.76250850545796,2539.1597770673084,0.0
462154.6038362722,4710833.5216966402,-42500.0,-1131.205571110791,-101.48152517979912,436.46489922123016,1035.4340284952289,135.54846677492608,-670.94606438029405,1213.3011137691296,-287.29748090319964,-717.11761185336536,717.11761185336536,287.29748090319964,2291.3491270836416,0.0
467154.6038362722,4710833.5216966402,-42500.0,-1083.7570614599247,-79.451774277554279,395.89446001205079,918.78106523726251,103.27787747251601,-564.19719489165834,1096.711760063152,-287.00709032278576,-597.7157213231402,597.7157213231402,287.00709032278576,2067.3548760742678,0.0
472154.6038362722,4710833.5216966402,-42500.0,-1028.886477280668,-60.400030230264854,358.76485697869867,814.16474432663972,78.000685328751516,-475.28311827331663,991.45387835966847,-280.2544293751136,-498.62699366543228,498.62699366543228,280.2544293751136,1865.9137089380924,0.0
267154.6038362722,4715833.5216966402,-42500.0,71.288602549405368,365.15357209111806,65.570137564416498,-92.321985597456475,165.66731948296018,-89.725963399900792,421.47608684277293,361.90653195032951,-204.52902453492149,204.52902453492149,-361.90653195032951,730.03839493061116,0.0
272154.6038362722,4715833.5216966402,-42500.0,130.28889149073115,392.71748323438885,65.796913144580259,-82.040168758109786,183.07247157436674,-95.612303117556124,455.74060715572227,407.00182322688954,-237.44149878697624,237.44149878697624,-407.00182322688954,789.96276644781278,0.0
277154.6038362722,4715833.5216966402,-42500.0,204.25620676233663,420.40861121823593,65.595652676344841,-65.622640326013979,201.47915086703418,-100.28777440006941,493.48956792939418,456.96658736553138,-275.03820372026087,275.03820372026087,-456.96658736553138,857.13259603276219,0.0
282154.6038362722,4715833.5216966402,-42500.0,296.50785684221103,447.16050581003492,65.05355153421948,-40.984151999867827,220.43178228365397,-102.87299101360534,535.35413887183495,511.83768215811585,-317.6661822472737,317.6661822472737,-511.83768215811585,933.43714749435594,0.0
287154.6038362722,4715833.5216966402,-42500.0,411.01593755841333,471.35342010191113,64.419696043150779,-5.3946327559305587,239.13917822778117,-102.1279961340165,582.24535165073269,571.36202791316396,-365.51492191589222,365.51492191589222,-571.36202791316396,1021.6476781880774,0.0
292154.6038362722,4715833.5216966402,-42500.0,552.47909901352693,490.56929010952223,64.236197107685257,44.727156576272861,256.29252691329589,-96.323806313190914,635.53761900635459,634.81918682152104,-418.48299929804153,418.48299929804153,-634.81918682152104,1125.8715498745205,0.0
297154.6038362722,4715833.5216966402,-42500.0,726.33814054457821,501.24219947278658,65.565008537947207,114.09629721677231,269.77839520092266,-83.058878208683808,697.39788068075995,700.74738150493749,-475.95560176623513,475.95560176623513,-700.74738150493749,1252.2152902334076,0.0
302154.6038362722,4715833.5216966402,-42500.0,938.6464107411249,498.17295026677829,70.3796517902978,208.94648210341865,276.21757236856564,-58.978028477424253,771.43817195094255,766.51891946731428,-536.42071849191336,536.42071849191336,-766.51891946731428,1409.727190655314,0.0
307154.6038362722,4715833.5216966402,-42500.0,1195.6109748770975,473.89218200946976,82.236304500252103,337.53108650810418,270.21389736660905,-19.308105235905511,864.26475255045784,827.68587366014083,-596.78495748918692,596.78495748918692,-827.68587366014083,1611.6827082528653,0.0
312154.6038362722,4715833.5216966402,-42500.0,1502.4499608879978,417.92601827858482,107.40121351565878,510.6909310290651,243.13184904797538,42.94869877201743,989.83859063037801,877.00266913166683,-651.13368164244844,651.13368164244844,-877.00266913166683,1877.2242736532746,0.0
317154.6038362722,4715833.5216966402,-42500.0,1860.951091941814,316.21499782561182,156.67390193904467,742.24513770432782,181.16103440847729,138.42039298138982,1175.7081269647904,903.08327296617449,-688.51300838612497,688.51300838612497,-903.08327296617449,2233.2085077210318,0.0
322154.6038362722,4715833.5216966402,-42500.0,2264.8313696813984,151.38292373255487,248.12821387930416,1048.4904539562042,62.461686668904569,283.67115469107841,1447.8369662739844,888.90046219512328,-689.16555260838254,689.16555260838254,-888.90046219512328,2715.718470344812,0.0
327154.6038362722,4715833.5216966402,-42500.0,2692.0272715209217,-94.614128564193123,410.68247962110422,1445.1793694151918,-146.41922010644313,504.44714596231313,1822.444685319062,811.05857932791002,-618.83788879697011,618.83788879697011,-811.05857932791002,3369.8987866599559,0.0
332154.6038362722,4715833.5216966402,-42500.0,3094.2816904689894,-432.79689446220533,687.35799709413993,1939.0583573143706,-493.38461120653977,838.74472662311098,2320.6803092273217,642.30670066040796,-422.08269051613536,422.08269051613536,-642.30670066040796,4245.4551958474003,0.0
337154.6038362722,4715833.5216966402,-42500.0,3388.3981951730311,-851.31827372208863,1134.7063699534187,2510.4857146823992,-1038.559872046827,1335.7054235899036,2962.1826906391443,361.96872658652472,-19.228349925930218,19.228349925930218,-361.96872658652472,5383.6977387700226,0.0
342154.6038362722,4715833.5216966402,-42500.0,3461.1299859797527,-1291.4638450692762,1811.3407423522251,3087.1479463576061,-1838.6471179182479,2041.8646664662792,3748.6115125253132,-20.329213344803122,681.53961776790538,-681.53961776790538,20.329213344803122,6792.0235223184,0.0
347154.6038362722,4715833.5216966402,-42500.0,3206.0691580596558,-1626.3989759340254,2747.0896971760981,3521.4009250872905,-2908.5783418176829,2964.5939675976306,4642.3238360314699,-429.10557614453865,1740.3867851456507,-1740.3867851456507,429.10557614453865,8406.779316969958,0.0
352154.6038362722,4715833.5216966402,-42500.0,2599.91253041763,-1670.7842382210849,3893.4578547943393,3603.473001195011,-4163.6961504177216,4015.024496941403,5547.6098663813827,-697.8180234494846,3105.5016318840653,-3105.5016318840653,697.8180234494846,10059.02578475408,0.0
357154.6038362722,4715833.5216966402,-42500.0,1781.0551750160805,-1252.2386187700945,5082.0247025659291,3145.2390928197697,-5377.8371699388335,4966.82468443986,6311.4130897819578,-599.53379662623934,4535.7401944022058,-4535.7401944022058,599.53379662623934,11474.95919486128,0.0
362154.6038362722,4715833.5216966402,-42500.0,1044.9214594685734,-331.82266422289229,6041.4360920585541,2117.0742840333692,-6218.5154825904001,5495.0923710270617,6759.7151590106059,38.397077224090935,5615.3033775624563,-5615.3033775624563,-38.397077224090935,12341.797655694681,0.0
367154.6038362722,4715833.5216966402,-42500.0,704.46378704233302,912.80842361859868,6499.7650693618516,735.81529076112452,-6383.2656497925464,5319.0329438879162,6763.8982380638399,1191.4785618726701,5917.5203700269894,-5917.5203700269894,-1191.4785618726701,12429.767417480136,0.0
372154.6038362722,4715833.5216966402,-42500.0,896.42237366337156,2134.9028173531065,6321.5003162650037,-600.12129721341262,-5762.7874499268728,4366.1331221146274,6302.0804622264295,2591.9656032631269,5236.7682223772681,-5236.7682223772681,-2591.9656032631269,11705.978665811244,0.0
377154.6038362722,4715833.5216966402,-42500.0,1492.8005496152948,2984.7977744687996,5579.5586882935504,-1504.6822009032126,-4507.546809012093,2828.1068105732666,5478.5982293017805,3843.4512149327729,3712.4567560461492,-3712.4567560461492,-3843.4512149327729,10368.257072038688,0.0
382154.6038362722,4715833.5216966402,-42500.0,2187.9915684135945,3275.5129932632358,4509.510297516249,-1785.0685004068478,-2948.2093168614883,1065.3713213384399,4532.8252994096574,4617.0037664951205,1750.9716641881951,-1750.9716641881951,-4617.0037664951205,8779.4127734491431,0.0
387154.6038362722,4715833.5216966402,-42500.0,2679.5325533634332,3037.0798867377525,3387.0925996647547,-1490.675992174539,-1436.340757457996,-560.89476754253747,3924.5699869859304,4786.7045781615561,-181.43320120854742,181.43320120854742,-4786.7045781615561,7336.275561702595,0.0
392154.6038362722,4715833.5216966402,-42500.0,2804.9628233809808,2449.4569496587892,2417.201977910594,-830.1591032428438,-214.58778422341533,-1815.5569855653712,3562.224625918584,4432.0834221087607,-1744.1916511262264,1744.1916511262264,-4432.0834221087607,6317.6783169702203,0.0
397154.6038362722,4715833.5216966402,-42500.0,2565.9227781434138,1728.3938775722877,1691.1834954803001,-44.162415473568622,624.12096791734632,-2621.5123664609591,3328.9227182608784,3745.3633247447578,-2792.9618412696746,2792.9618412696746,-3745.3633247447578,5768.3157843125791,0.0
402154.6038362722,4715833.5216966402,-42500.0,2068.771461797744,1041.407753764126,1206.9626879851173,684.05300436365303,1103.4136045743612,-3019.2240993866239,3162.6808953497266,2927.7975414772832,-3345.414068138281,3345.414068138281,-2927.7975414772832,5527.7006605748975,0.0
407154.6038362722,4715833.5216966402,-42500.0,1448.3754230233696,479.94090635109433,913.66106309338602,1256.0777407062274,1305.0121254415706,-3105.0785414101292,3012.9380783433107,2128.8674020554095,-3505.720596830613,3505.720596830613,-2128.8674020554095,5396.1522278728062,0.0
412154.6038362722,4715833.5216966402,-42500.0,817.67345656645568,71.183813840141582,749.39517046995047,1644.0746878298069,1321.3889553231165,-2983.6808442971956,2853.774286732807,1432.5885920497831,-3399.4445124448112,3399.4445124448112,-1432.5885920497831,5249.5484516132037,0.0
417154.6038362722,4715833.5216966402,-42500.0,249.57423613403188,-196.6261625719695,661.73191929632628,1863.0533076221379,1230.5641094489506,-2743.1131360472809,2679.7669954606586,870.49630156579019,-3136.7411137098998,3136.7411137098998,-870.49630156579019,5042.9419255124185,0.0
422154.6038362722,4715833.5216966402,-42500.0,-220.37568399227601,-351.93935337647787,613.90566431363072,1946.7724624062625,1088.486164432655,-2447.6014604478933,2496.6497538514641,441.57195728483794,-2799.4934569686179,2799.4934569686179,-441.57195728483794,4776.0289287442174,0.0
427154.6038362722,4715833.5216966402,-42500.0,-583.3291646800111,-425.8593080911578,583.44141475171602,1932.409545303595,930.78972053437008,-2139.3029376743498,2313.5174185435994,128.88034087211213,-2441.9243965152109,2441.9243965152109,-128.88034087211213,4465.8335507196398,0.0
432154.6038362722,4715833.5216966402,-42500.0,-846.1736032820412,-445.39142654006469,558.25037362869102,1852.9200039955369,777.80040360646763,-1843.3016480525716,2136.0641199081033,-89.702537247366081,-2096.4223567637828,2096.4223567637828,89.702537247366081,4132.4375584385189,0.0
437154.6038362722,4715833.5216966402,-42500.0,-1023.2385426174493,-431.32252262583614,532.79957215849072,1734.3613196225201,639.60627842854842,-1572.7849980559295,1964.4758541964882,-235.76340868930811,-1780.0771198499888,1780.0771198499888,235.76340868930811,3793.1259724163742,0.0
442154.6038362722,4715833.5216966402,-42500.0,-1131.0237033726696,-398.43859365736364,505.24358373887338,1595.8303350983365,520.03821421517227,-1333.2605396378331,1798.5439891353412,-327.89140739816935,-1500.1211247687004,1500.1211247687004,327.89140739816935,3460.7494042451317,0.0
447154.6038362722,4715833.5216966402,-42500.0,-1185.2998181125156,-356.63542781508761,475.56768176661302,1450.5024893714672,419.41663737091761,-1125.6131838142578,1639.8500851601307,-381.02681035366186,-1257.887473264547,1257.887473264547,381.02681035366186,3143.8959274494214,0.0
452154.6038362722,4715833.5216966402,-42500.0,-1199.7810571735859,-312.17656991201346,444.50695672459409,1306.9570649301431,336.29321275280176,-948.16672560924553,1490.3659712135118,-406.6695919936833,-1051.4644594153481,1051.4644594153481,406.6695919936833,2847.6865577044964,0.0
457154.6038362722,4715833.5216966402,-42500.0,-1185.7220171572399,-268.7884146136924,412.97705294561752,1170.4137359970384,268.48360104458368,-797.9983631824025,1351.4982201604967,-413.41530339101041,-877.37261112075339,877.37261112075339,413.41530339101041,2574.6673205184675,0.0
462154.6038362722,4715833.5216966402,-42500.0,-1151.9973512316949,-228.50545772043705,381.80948449125827,1043.7447438696147,213.63935607723465,-671.7337806686154,1223.9186091842073,-407.55030538275332,-731.56767934956383,731.56767934956383,407.55030538275332,2325.5889116797493,0.0
467154.6038362722,4715833.5216966402,-42500.0,-1105.3983661070015,-192.27995700153451,351.6544638060725,928.24718911247521,169.53879311507015,-566.00052280074215,1107.6928687409822,-393.59255859109987,-610.00564208400385,610.00564208400385,393.59255859109987,2100.0226935618248,0.0
472154.6038362722,4715833.5216966402,-42500.0,-1050.9950788905635,-160.40091071814359,322.96721422282627,824.20384271857586,134.21436137608512,-477.66470193427102,1002.4632690220765,-374.73861093718585,-508.93387394606896,508.93387394606896,374.73861093718585,1896.8151065763943,0.0
272154.6038362722,4720833.5216966402,-42500.0,216.50801636158457,341.35735240941631,43.180989346329994,-31.24704157603324,159.53351945797095,-72.951215881122351,402.38611300751825,382.71277942423239,-232.3102840668482,232.3102840668482,-382.71277942423239,701.79362187422328,0.0
277154.6038362722,4720833.5216966402,-42500.0,295.4303957057798,357.29474369421706,42.719824879224092,-8.3047783481941373,171.52820995162412,-73.516279375978101,433.38994881194498,423.72512450873717,-264.64157714203168,264.64157714203168,-423.72512450873717,760.39387613874737,0.0
282154.6038362722,4720833.5216966402,-42500.0,391.27780004889269,369.77191112151002,42.874161697247878,23.307644193832395,182.30628608206416,-71.299155737162707,467.82245783097721,467.25132365830819,-300.05273551761064,300.05273551761064,-467.25132365830819,828.08775154541149,0.0
287154.6038362722,4720833.5216966402,-42500.0,507.03296046884094,376.74063844591501,44.41307656149641,66.073569552730021,190.60041554280636,-64.992517978751792,506.69266863480686,512.49667113944315,-338.09914721625734,338.09914721625734,-512.49667113944315,908.0105591421667,0.0
292154.6038362722,4720833.5216966402,-42500.0,645.934089626267,375.38188155052353,48.616207068640776,123.10330378311554,194.51912066588406,-52.82851471951011,551.66789645202709,558.135981030626,-377.8538749694348,377.8538749694348,-558.135981030626,1004.6817590297047,0.0
297154.6038362722,4720833.5216966402,-42500.0,811.29532746674181,361.86170892770554,57.571748641713654,198.26495742350528,191.26465906745804,-32.432583815233656,605.7421590473225,602.09255963301564,-417.64488245963832,417.64488245963832,-602.09255963301564,1124.5192658742139,0.0
302154.6038362722,4720833.5216966402,-42500.0,1006.1302570424064,331.04740522234977,74.64159881789675,296.31774126566938,176.71832562982803,-0.62113329720602373,675.12287671129729,641.24325191800654,-454.65227650303268,454.65227650303268,-641.24325191800654,1276.4481365564691,0.0
307154.6038362722,4720833.5216966402,-42500.0,1232.4261599276731,276.23237275458024,105.17633267432289,423.00490746638422,144.83190285213371,46.892477555379209,773.33030257769906,671.04398092041993,-484.28238353056287,484.28238353056287,-671.04398092041993,1472.5593071828528,0.0
312154.6038362722,4720833.5216966402,-42500.0,1489.829522212417,189.00841129721027,157.57962111120801,584.99155896364061,86.752848286563136,115.93922789431949,916.48441142512479,685.10883941834743,-499.19455271536242,499.19455271536242,-685.10883941834743,1728.7264711148971,0.0
317154.6038362722,4720833.5216966402,-42500.0,1773.4175694265934,59.609414996755774,244.79701762022199,789.37803770637322,-10.360030084522659,214.54345737145255,1111.5048585695395,674.88699788095869,-487.83340467181188,487.83340467181188,-674.88699788095869,2064.9884213361684,0.0
322154.6038362722,4720833.5216966402,-42500.0,2070.2538856975016,-121.62743656940623,386.15107911794246,1042.2353844581737,-164.72472237253186,353.76910129689225,1366.4401720633055,629.83709145970374,-432.39861799704818,432.39861799704818,-629.83709145970374,2505.2607903488365,0.0
327154.6038362722,4720833.5216966402,-42500.0,2354.8324969557743,-360.59733826764545,608.99469602406214,1345.2064552947095,-400.98586136457294,548.46125785521622,1693.3637718881969,538.98729568074543,-306.58470490617685,306.58470490617685,-538.98729568074543,3075.4669588720708,0.0
332154.6038362722,4720833.5216966402,-42500.0,2584.7919467218312,-652.20886600744041,948.67711508317279,1688.9503731043681,-749.44313379783853,816.84510487461023,2103.8057072400265,395.44283915621952,-74.509693681378707,74.509693681378707,-395.44283915621952,3798.5165609649594,0.0
337154.6038362722,4720833.5216966402,-42500.0,2700.8617463370633,-969.0412237141519,1443.7642892011866,2042.9109911628889,-1240.5017338797441,1176.6529260581879,2602.1648927830174,205.71238101664753,305.68211364629531,-305.68211364629531,-205.71238101664753,4684.1797361893987,0.0
342154.6038362722,4720833.5216966402,-42500.0,2638.1252833295384,-1248.7077004457299,2122.1942993460789,2344.0927063091362,-1890.3068153650963,1634.2968437130664,3176.3483852257973,4.0707261698601656,867.76140114979216,-867.76140114979216,-4.0707261698601656,5712.9549535450333,0.0
347154.6038362722,4720833.5216966402,-42500.0,2355.3021895927745,-1389.6302619868338,2975.8927993145489,2494.103212747511,-2675.7141332441283,2165.1086223609536,3787.1464383718157,-133.74543668197816,1608.0926775540602,-1608.0926775540602,133.74543668197816,6817.0775491315226,0.0
352154.6038362722,4720833.5216966402,-42500.0,1877.6695699414599,-1271.2365784269996,3930.3466560030065,2379.7479729647421,-3506.1505660158819,2690.5829898167003,4362.0302568297375,-92.806061367855591,2446.6506625237307,-2446.6506625237307,92.806061367855591,7869.0956679994551,0.0
357154.6038362722,4720833.5216966402,-42500.0,1326.4561357530927,-808.1261550755363,4830.6371183682522,1925.9404470753852,-4214.8317092936704,3071.8361563366602,4802.1976330263878,244.24653885503494,3204.5905508517103,-3204.5905508517103,-244.24653885503494,8694.3010516777686,0.0
362154.6038362722,4720833.5216966402,-42500.0,894.27205953325017,-18.934770959892365,5471.35384715481,1161.321398831567,-4596.0828627603432,3142.7488889814085,5008.5239821375144,927.19258250776488,3636.5552598704844,-3636.5552598704844,-927.19258250776488,9117.7230815631901,0.0
367154.6038362722,4720833.5216966402,-42500.0,755.66639206028481,941.37067467038605,5674.2608327949065,246.1452275843333,-4488.8760509706435,2782.6679386488295,4920.2564021156913,1875.743659421697,3528.374643533919,-3528.374643533919,-1875.743659421697,9034.4690639459404,0.0
372154.6038362722,4720833.5216966402,-42500.0,964.68556898116003,1827.4579542395002,5373.5468068594882,-576.92032310343961,-3861.1971148962357,1987.758592949084,4549.1554067275129,2881.673098295506,2810.0685007178627,-2810.0685007178627,-2881.673098295506,8468.6478973779358,0.0
377154.6038362722,4720833.5216966402,-42500.0,1418.0077777269253,2409.9664286329444,4650.3084735587827,-1088.5687543131421,-2835.2875943182862,887.9306793085558,4005.3117127468295,3690.526924744679,1603.9679316932484,-1603.9679316932484,-3690.526924744679,7585.3441372230836,0.0
382154.6038362722,4720833.5216966402,-42500.0,1912.4412891883176,2572.9480173922548,3692.3838037468286,-1185.7045788294809,-1634.7224273912902,-305.30877973239222,3546.380676575222,4112.298458660629,172.00875602646715,-172.00875602646715,-4112.298458660629,6642.9587645036409,0.0
387154.6038362722,4720833.5216966402,-42500.0,2250.555079989394,2343.2889922649269,2709.9741882555409,-905.38733536536063,-491.0459673072329,-1383.6835620228856,3290.8235780179384,4089.7528216944593,-1198.1046005816554,1198.1046005816554,-4089.7528216944593,5894.4009119868124,0.0
392154.6038362722,4720833.5216966402,-42500.0,2321.8092382643586,1848.5764319220687,1861.1129890706491,-380.00152428599142,432.5266448676345,-2207.9360836407773,3145.7328744129059,3692.6594143130624,-2294.15595117269,2294.15595117269,-3692.6594143130624,5467.1878402567918,0.0
397154.6038362722,4720833.5216966402,-42500.0,2121.0928380424057,1245.2228137161803,1220.9921549545388,233.75761358857793,1068.1132880967868,-2727.9573251042839,3054.8232542054834,3060.5853189928957,-3021.2682642121745,3021.2682642121745,-3060.5853189928957,5310.0942347560003,0.0
402154.6038362722,4720833.5216966402,-42500.0,1716.9840288831638,661.57980729553492,793.05223682632072,809.34897959061129,1426.6819974308019,-2964.8397153961096,2973.4690292114119,2339.1877294066526,-3386.6628369159698,3386.6628369159698,-2339.1877294066526,5275.5950497228705,0.0
407154.6038362722,4720833.5216966402,-42500.0,1204.8612285541815,174.47588236624534,539.15954163209119,1272.021151782737,1563.2905537231989,-2978.2280238486055,2873.5576951569969,1640.2207567286628,-3457.7492542642171,3457.7492542642171,-1640.2207567286628,5237.7262104924384,0.0
412154.6038362722,4720833.5216966402,-42500.0,671.32619852256732,-187.25746128818909,408.05331619392734,1594.7322080904769,1545.6247493519099,-2837.7651643799359,2745.4198433710685,1029.900129242885,-3321.8294232193957,3321.8294232193957,-1029.900129242885,5134.2733001580491,0.0
417154.6038362722,4720833.5216966402,-42500.0,177.6892270978031,-427.26793567291293,352.97007410219936,1782.8644061501054,1434.7196558099563,-2605.8259194486168,2592.1999413708004,535.42519133614428,-3060.1688691764539,3060.1688691764539,-535.42519133614428,4952.3053671933403,0.0
422154.6038362722,4720833.5216966402,-42500.0,-241.84301637689776,-565.65378224427923,338.74135819247329,1858.5356019113015,1277.1524151701446,-2330.5142262319641,2423.8926208416592,157.89284555890231,-2736.571356443601,2736.571356443601,-157.89284555890231,4704.0394063473004,0.0
427154.6038362722,4720833.5216966402,-42500.0,-574.62818820865414,-627.43802697455556,342.27499654115161,1849.1762648073384,1104.4578809193795,-2045.0854472695935,2253.7470400130906,-115.64013571103192,-2395.5249372008111,2395.5249372008111,115.64013571103192,4410.2265911217319,0.0
432154.6038362722,4720833.5216966402,-42500.0,-822.21588752675655,-636.08666203078553,350.14231483969235,1780.9066660312969,935.8055653312955,-1770.3384148464984,2090.8325866086166,-303.58956954003725,-2064.9782770504471,2064.9782770504471,303.58956954003725,4091.5522550394471,0.0
437154.6038362722,4720833.5216966402,-42500.0,-993.94611551926073,-610.77015415828612,355.57490509665422,1675.5470353312528,781.45688662820623,-1517.8076812008442,1932.3590125566393,-424.78558082001223,-1760.5052779021582,1760.5052779021582,424.78558082001223,3765.1187050732201,0.0
442154.6038362722,4720833.5216966402,-42500.0,-1102.3902923147173,-565.83440515053098,355.90806605749111,1549.8522265028485,645.8342959015381,-1292.7015010508389,1776.3167811059932,-495.99365525466419,-1489.2361136128879,1489.2361136128879,495.99365525466419,3443.5911907357663,0.0
447154.6038362722,4720833.5216966402,-42500.0,-1160.5336015216842,-511.32879088768141,350.74772105459169,1415.8840659664393,529.84097209851871,-1096.2181069362832,1624.9523245929636,-531.02806161210628,-1252.9709883075038,1252.9709883075038,531.02806161210628,3135.5474389937613,0.0
452154.6038362722,4720833.5216966402,-42500.0,-1180.2661049553719,-453.89383479821043,340.79480328986182,1281.8344503448386,432.44957034495121,-927.2115471037888,1480.9730454524965,-540.717702639869,-1050.4113011996703,1050.4113011996703,540.717702639869,2846.2513780392942,0.0
457154.6038362722,4720833.5216966402,-42500.0,-1171.7333741380007,-397.65542337632587,327.15658520784422,1152.9265724586012,351.7145190622461,-783.31288617844211,1346.2585447435818,-533.25794256150141,-878.65044494299934,878.65044494299934,533.25794256150141,2578.480148597333,0.0
462154.6038362722,4720833.5216966402,-42500.0,-1143.1928081352919,-344.98006287016671,310.97992117442965,1032.2217287194578,285.37589514747555,-661.6425568671159,1221.7953133178471,-514.68562927826929,-734.11256352908867,734.11256352908867,514.68562927826929,2333.2485413318582,0.0
467154.6038362722,4720833.5216966402,-42500.0,-1101.1363311364378,-297.05706646126197,293.28028078382266,921.27398313123729,231.19443566060301,-559.23738055436718,1107.8786552913762,-489.34811805741356,-613.10953083995514,613.10953083995514,489.34811805741356,2110.3880735532512,0.0
472154.6038362722,4720833.5216966402,-42500.0,-1050.5284889943598,-254.32132391659562,274.88079661398297,820.628642941512,187.11888337046153,-473.28716937405159,1004.3284650615362,-460.31090569278786,-512.1463699525259,512.1463699525259,460.31090569278786,1908.9811041961154,0.0
272154.6038362722,4725833.5216966402,-42500.0,282.10441170204416,285.88619875791346,30.332261247416927,10.024275109301774,133.49450626392178,-53.522758731560522,353.53183247851928,352.45533327245482,-220.20650710615072,220.20650710615072,-352.45533327245482,624.89183274374648,0.0
277154.6038362722,4725833.5216966402,-42500.0,361.5464596130102,290.87098627900082,31.711268292421003,36.90109900592136,139.21030734702109,-51.051030258621864,379.09895719107158,384.67093072006287,-246.5284176848804,246.5284176848804,-384.67093072006287,677.480748351496,0.0
282154.6038362722,4725833.5216966402,-42500.0,455.67919040683336,290.53086538274067,35.037809892486074,72.172736854978268,142.23182240262645,-45.480963994926093,407.87900892648196,417.47557849062883,-274.09796643686064,274.09796643686064,-417.47557849062883,739.48151371223275,0.0
287154.6038362722,4725833.5216966402,-42500.0,566.41426023535996,282.69850794877703,41.600952097693089,117.88551360155884,140.99469823007274,-35.576309701738481,441.32475927376413,449.79828366162656,-301.99929129863881,301.99929129863881,-449.79828366162656,814.2320487077983,0.0
292154.6038362722,4725833.5216966402,-42500.0,695.52421755237367,264.58321138360566,53.35375893472542,176.4596928641964,133.2992447287387,-19.721371768106973,482.38790183497076,480.09444309408548,-328.75207080678319,328.75207080678319,-480.09444309408548,906.30156440146379,0.0
297154.6038362722,4725833.5216966402,-42500.0,844.35455754690736,232.66212352981287,73.224374582357157,250.69086385327574,116.07905041106038,4.1705111568283186,537.69482059733343,506.21915760541685,-352.07132879382891,352.07132879382891,-506.21915760541685,1021.7707522425866,0.0
302154.6038362722,4725833.5216966402,-42500.0,1013.3486592109243,182.61489720443814,105.55793787124337,343.692595130168,85.094383856237002,38.764410562519444,617.51966917837467,525.30117987351321,-368.53738694225751,368.53738694225751,-525.30117987351321,1168.4697162330201,0.0
307154.6038362722,4725833.5216966402,-42500.0,1201.2928555643634,109.38313692598074,156.72383710189703,458.72055338750783,34.538540072377053,87.428725493001238,726.95313018406273,533.65798092367777,-373.14882770398924,373.14882770398924,-533.65798092367777,1356.1180464932993,0.0
312154.6038362722,4725833.5216966402,-42500.0,1404.1707251997539,7.5136467375437146,235.89957251843137,598.7653062079728,-43.433023967568708,154.37277222317672,868.32347614380956,526.84336411236268,-358.73898030889364,358.73898030889364,-526.84336411236268,1596.2887700660112,0.0
317154.6038362722,4725833.5216966402,-42500.0,1613.546100549476,-127.93021010434403,355.96217425871913,765.71494640351796,-159.17405879689554,244.76490932050055,1046.6882661196598,500.01728434250805,-315.28440489350572,315.28440489350572,-500.01728434250805,1902.0483045441556,0.0
322154.6038362722,4725833.5216966402,-42500.0,1814.5552130434451,-299.44739976405941,534.2179761826842,958.77359944645184,-325.78434101443639,364.71712967797248,1268.6670249400031,448.98497663327726,-229.27702730479314,229.27702730479314,-448.98497663327726,2286.9554463808386,0.0
327154.6038362722,4725833.5216966402,-42500.0,1984.0361803897856,-503.62732882768296,792.29991128999723,1171.7498732561173,-558.55840508044355,520.83096973995987,1540.3654385496047,372.44905280766261,-83.6723186279483,83.6723186279483,-372.44905280766261,2762.8476859944735,0.0
332154.6038362722,4725833.5216966402,-42500.0,2090.2073953848603,-725.82364587399672,1153.9261406007515,1389.0156461329534,-872.59594550398538,718.6600627016694,1864.6300813386003,276.08493799386281,140.45359269925595,-140.45359269925595,-276.08493799386281,3335.6311185255395,0.0
337154.6038362722,4725833.5216966402,-42500.0,2096.5040665827883,-933.76121834060302,1638.5795362424535,1580.8044108140052,-1277.0553064489191,959.06721394352587,2237.0387217216812,178.54497209700116,458.63844791071858,-458.63844791071858,-178.54497209700116,3998.4704318349745,0.0
342154.6038362722,4725833.5216966402,-42500.0,1972.7203101305897,-1073.3086233220195,2249.3983391304673,1700.4957348638429,-1764.8391156737268,1231.5594277385644,2640.8505006890346,117.71195943397925,872.13813982476279,-872.13813982476279,-117.71195943397925,4722.9160341498855,0.0
347154.6038362722,4725833.5216966402,-42500.0,1714.2186174007918,-1072.8572220160702,2956.2508911800601,1689.1427892530917,-2298.9335070385951,1505.313186783887,3042.5969583182782,152.20311479084069,1351.6421777232495,-1351.6421777232495,-152.20311479084069,5451.0289568440257,0.0
352154.6038362722,4725833.5216966402,-42500.0,1362.5686565850197,-863.41756261078922,3681.0945517971122,1492.9816933974842,-2801.9320816784198,1722.4705319277466,3391.7783552673272,350.27628335565112,1822.0286186712779,-1822.0286186712779,-350.27628335565112,6094.7988246272225,0.0
357154.6038362722,4725833.5216966402,-42500.0,1011.4032845573519,-414.27479142635292,4299.2866285520522,1093.4500161841065,-3160.6365038281033,1802.4182312002902,3628.7203633757354,761.27744237063348,2162.2522185114358,-2162.2522185114358,-761.27744237063348,6550.248515263941,0.0
362154.6038362722,4725833.5216966402,-42500.0,780.89521225667977,231.71350863234429,4668.8158939973146,535.90530281871349,-3255.2923517934996,1664.2010636599321,3702.0440444481178,1377.8101250746142,2234.2697900326075,-2234.2697900326075,-1377.8101250746142,6728.6978818050693,0.0
367154.6038362722,4725833.5216966402,-42500.0,763.44002953830056,950.57271398242392,4682.7941725344635,-66.239194873512872,-3007.5314508982678,1262.4601521140876,3591.9822404232737,2112.7062647934563,1938.0657383341768,-1938.0657383341768,-2112.7062647934563,6596.5283314061307,0.0
372154.6038362722,4725833.5216966402,-42500.0,971.19921300247404,1573.7969150402744,4318.4999614008029,-565.25184300714523,-2421.7708624078423,617.37181811537016,3335.4739525525497,2814.7358191936714,1264.8297159776007,-1264.8297159776007,-2814.7358191936714,6204.6711666914907,0.0
377154.6038362722,4725833.5216966402,-42500.0,1323.1786304124221,1954.0070479035976,3651.4929403544402,-836.6473260527606,-1592.2609135664313,-182.74454762077431,3058.4448035946166,3322.4213201046623,312.75614990467739,-312.75614990467739,-3322.4213201046623,5688.1777358012605,0.0
382154.6038362722,4725833.5216966402,-42500.0,1682.6077086095133,2021.1990327040496,2824.9962098514652,-826.81763776931598,-669.32649122759801,-1010.4104584390665,2896.9765535076299,3526.1227187838831,-747.21248402687252,747.21248402687252,-3526.1227187838831,5223.4551770703738,0.0
387154.6038362722,4725833.5216966402,-42500.0,1919.0324017155995,1798.6037376505176,1994.2748894270462,-564.50879360738077,194.75934991350979,-1742.6405987082726,2831.8496145338167,3402.7919550463262,-1734.5399980044635,1734.5399980044635,-3402.7919550463262,4946.0847488003601,0.0
392154.6038362722,4725833.5216966402,-42500.0,1956.8320138177398,1376.7296445834174,1277.7619937664451,-136.13581869393857,890.51946225914571,-2295.5916304323378,2813.7487821111845,3009.2391010637753,-2515.07644101303,2515.07644101303,-3009.2391010637753,4876.2051533080303,0.0
397154.6038362722,4725833.5216966402,-42500.0,1788.8078481245602,868.48922427990806,735.27332767622681,354.3673517357546,1369.0472266097142,-2636.9167270070966,2803.6753199595087,2446.7976157150779,-3026.093161896466,3026.093161896466,-2446.7976157150779,4929.1723003832685,0.0
402154.6038362722,4725833.5216966402,-42500.0,1459.4445449906798,371.15688746123948,373.27155436437778,818.83638992567751,1634.3871699530987,-2777.9373288585216,2772.9623513887791,1821.605478795012,-3269.9065562787587,3269.9065562787587,-1821.605478795012,4997.1054459255283,0.0
407154.6038362722,4725833.5216966402,-42500.0,1036.2215868895901,-52.234777582259831,164.37062909307258,1200.8235434598471,1723.2566324258703,-2756.2356535852136,2707.3229721655398,1217.8774743568781,-3290.5716498023512,3290.5716498023512,-1217.8774743568781,5007.9292889455846,0.0
412154.6038362722,4725833.5216966402,-42500.0,585.05061133113713,-373.68380405096775,67.787199802611454,1475.9710089887365,1684.5908681214894,-2618.612706756106,2605.1161921354214,688.27502152483612,-3149.0196085281623,3149.0196085281623,-688.27502152483612,4933.7421364003139,0.0
417154.6038362722,4725833.5216966402,-42500.0,156.53848295712856,-591.33159444714352,43.615444618748505,1643.9755352013576,1565.3765283937614,-2409.380774751935,2472.6172593286533,256.5753752679102,-2905.1441392069009,2905.1441392069009,-256.5753752679102,4776.519519764639,0.0
422154.6038362722,4725833.5216966402,-42500.0,-217.81276010767388,-718.43908063553056,59.830622197308443,1718.6651318315187,1403.6386935967569,-2164.5408777188632,2320.0696780119101,-74.22946934188758,-2608.4455044933979,2608.4455044933979,74.22946934188758,4552.7827513507846,0.0
427154.6038362722,4725833.5216966402,-42500.0,-523.36210675940652,-774.39257350151456,93.983594263884115,1719.7979890072395,1226.6656250595129,-1910.2668121801773,2162.6775432850727,-313.37334745616818,-2295.208658312682,2295.208658312682,313.37334745616818,4283.3529674638739,0.0
432154.6038362722,4725833.5216966402,-42500.0,-757.71419618026948,-778.93536005088015,132.06891435714849,1667.6653892953868,1052.096284367595,-1663.7908516289635,2019.4452182403252,-475.62387214114551,-1989.4246827784364,1989.4246827784364,475.62387214114551,3987.8772305991952,0.0
437154.6038362722,4725833.5216966402,-42500.0,-926.03388457167387,-749.21794419445507,166.40409444025389,1580.2019388455167,890.08914890695553,-1435.2522299972397,1877.8145437867604,-576.93796685476423,-1705.2656063829106,1705.2656063829106,576.93796685476423,3682.5109214727568,0.0
442154.6038362722,4725833.5216966402,-42500.0,-1037.3148081855154,-698.76307886245684,193.53210997464686,1471.8573117811325,745.55884687286266,-1229.6668961005696,1734.0577023755006,-632.07677701439025,-1449.8111245633204,1449.8111245633204,632.07677701439025,3379.3808276972159,0.0
447154.6038362722,4725833.5216966402,-42500.0,-1101.8202133108941,-637.50657473809781,212.55234819104089,1353.5055073940373,620.03716518272495,-1048.6242496597977,1592.2864537534454,-653.56370054258855,-1225.41349916489,1225.41349916489,653.56370054258855,3086.9077340822214,0.0
452154.6038362722,4725833.5216966402,-42500.0,-1129.538840301703,-572.32617115136293,223.94845315319927,1232.8668631062144,513.05187902933244,-891.5933581065068,1456.0138280091433,-651.44318754103836,-1031.5144852406956,1031.5144852406956,651.44318754103836,2810.4644199974819,0.0
457154.6038362722,4725833.5216966402,-42500.0,-1129.3832025634008,-507.70939985162676,228.83765585872538,1115.1121800988078,423.06855693255454,-756.85317343443865,1327.5099151363156,-633.45292504920826,-865.93162566990736,865.93162566990736,633.45292504920826,2553.0878373464616,0.0
462154.6038362722,4725833.5216966402,-42500.0,-1108.8731014964249,-446.38497226363558,228.52819014322552,1003.4707977488354,348.092594778582,-642.11550945663953,1208.0225060148714,-605.36864107196789,-725.71282970206721,725.71282970206721,605.36864107196789,2316.1190768052261,0.0
467154.6038362722,4725833.5216966402,-42500.0,-1074.1053024710659,-389.84779987523819,224.28229286623127,899.76105589278461,286.02962793498205,-544.91826706676898,1098.0581886185862,-571.38713873188442,-607.67105314839489,607.67105314839489,571.38713873188442,2099.7266541766721,0.0
272154.6038362722,4730833.5216966402,-42500.0,327.98500782980159,230.05812146367242,26.337178170777758,41.944053421516891,106.71295695178281,-37.369871350222212,309.74123900408597,319.07561653472055,-203.12858687520816,203.12858687520816,-319.07561653472055,559.00642989978371,0.0
277154.6038362722,4730833.5216966402,-42500.0,404.30592818007898,225.66259092958288,31.07136982430243,70.481245764478942,106.73908674545443,-32.849280327937237,331.41136305737729,343.28583445395054,-223.29446655956767,223.29446655956767,-343.28583445395054,607.53651039485544,0.0
282154.6038362722,4730833.5216966402,-42500.0,492.58327869355008,214.83512342312278,39.19918100462511,106.60671273341522,102.98208181030908,-25.218532310832362,356.9981176531428,366.72247260576904,-243.15683068847972,243.15683068847972,-366.72247260576904,665.79729688758937,0.0
287154.6038362722,4730833.5216966402,-42500.0,593.72354914789605,195.56226939795218,52.429568245313739,151.84025399103436,93.766650029855882,-13.404428707252002,389.73557854729268,388.27613142773686,-261.51836041151449,261.51836041151449,-388.27613142773686,737.05195272190974,0.0
292154.6038362722,4730833.5216966402,-42500.0,708.21883538666157,165.42479706550151,73.197562814134471,207.84149862401861,76.848580757160263,3.9411114618386014,435.73908434606091,406.49675371166705,-276.63061332808371,276.63061332808371,-406.49675371166705,825.49092165912259,0.0
297154.6038362722,4730833.5216966402,-42500.0,835.83312489736045,121.61759808031957,104.93468379649015,276.32199952123761,49.258491117306001,28.478209704156122,499.83132340186575,419.56741757811369,-286.01525696143938,286.01525696143938,-419.56741757811369,936.29765616958298,0.0
302154.6038362722,4730833.5216966402,-42500.0,975.15020591761527,61.065488114822138,152.41285890118596,358.87483985460204,7.1253453780645675,62.202894518135672,582.96318701082532,425.33128388172292,-286.25109702950135,286.25109702950135,-425.33128388172292,1075.6237408215547,0.0
307154.6038362722,4730833.5216966402,-42500.0,1122.9504387615686,-19.282713059714037,222.15095866516282,456.67071011975133,-54.499274003917243,107.44205620571816,686.8356770050741,421.42714181994518,-272.73984759164205,272.73984759164205,-421.42714181994518,1250.4391026582737,0.0
312154.6038362722,4730833.5216966402,-42500.0,1273.4079448645396,-121.85122928610441,322.82873955858253,569.94358942336862,-141.76260311442365,166.79066002845462,814.62533455004041,405.62755918581109,-239.49182966625693,239.49182966625693,-405.62755918581109,1468.2014235097618,0.0
317154.6038362722,4730833.5216966402,-42500.0,1417.1783884350159,-247.34087771731419,465.55901128518855,697.16235583325386,-261.96004535621358,242.93555544833981,970.00175311205032,376.52698953390706,-179.03434102864202,179.03434102864202,-376.52698953390706,1736.2319007177844,0.0
322154.6038362722,4730833.5216966402,-42500.0,1540.6197848622387,-392.93024792329163,663.69754659708201,833.77638639846066,-423.08131321673574,338.25742258486491,1156.1352362053833,334.77772282537933,-82.662694393780185,82.662694393780185,-334.77772282537933,2060.5860059160218,0.0
327154.6038362722,4730833.5216966402,-42500.0,1625.7124043186532,-549.66336397737018,931.61258419534943,970.50081407549703,-632.55632252295754,454.01759964059585,1374.4262778814414,285.06557082872678,58.551649308022178,-58.551649308022178,-285.06557082872678,2444.1271565509778,0.0
332154.6038362722,4730833.5216966402,-42500.0,1651.6813135285993,-699.30361114073855,1281.5629755453624,1091.3820235147391,-894.64116602006743,588.84092069028816,1622.7165968617633,238.81577024289177,251.34920571926145,-251.34920571926145,-238.81577024289177,2883.5411906632194,0.0
337154.6038362722,4730833.5216966402,-42500.0,1599.6269454931974,-811.813388355852,1717.8196912526955,1172.4993998698217,-1205.9291288221348,736.21418343192374,1892.9948523490534,217.01085666989655,495.74678518672414,-495.74678518672414,-217.01085666989655,3365.3651956012304,0.0
342154.6038362722,4730833.5216966402,-42500.0,1460.9673828087609,-845.94049672957135,2227.9620790185222,1183.079065258225,-1549.1286378822219,881.08656240895436,2169.0894491623612,251.34967797889135,778.21083428098473,-778.21083428098473,-251.34967797889135,3861.9400499827025,0.0
347154.6038362722,4730833.5216966402,-42500.0,1248.2883670270915,-756.34074132110106,2773.4819968128404,1091.4273268377071,-1886.9376063491861,996.68014808908299,2425.5765300761536,380.68158611343119,1064.1448600717899,-1064.1448600717899,-380.68158611343119,4329.5113959796117,0.0
352154.6038362722,4730833.5216966402,-42500.0,1003.250600459989,-509.36366805257779,3285.130654871728,877.05470410660621,-2160.2668485852805,1044.1613045290521,2629.78518561074,639.69632260356491,1294.2062113438124,-1294.2062113438124,-639.69632260356491,4711.8557300786133,0.0
357154.6038362722,4730833.5216966402,-42500.0,793.12692137121951,-104.35016434125986,3670.3734378150616,546.38614671461937,-2296.2659571440176,978.63468465195137,2748.625663232061,1040.3336093005355,1390.9873093775118,-1390.9873093775118,-1040.3336093005355,4952.3733152022714,0.0
362154.6038362722,4730833.5216966402,-42500.0,690.39453284186402,410.25885683921695,3836.826266374007,143.8466651540075,-2228.4896395707474,762.89381149499525,2760.5784005841897,1553.3176240942951,1279.9304836838407,-1279.9304836838407,-1553.3176240942951,5014.2482554482931,0.0
367154.6038362722,4730833.5216966402,-42500.0,740.76596889717928,939.61166607221594,3725.4997204024344,-251.8773261464649,-1923.451358227117,384.93588003398031,2672.1737575816906,2102.5894249058401,919.38161839513668,-919.38161839513668,-2102.5894249058401,4902.5749243923256,0.0
372154.6038362722,4730833.5216966402,-42500.0,937.00592863330962,1369.2189217166967,3337.551927350612,-549.98908449537566,-1400.1163328318187,-129.97145365165056,2539.6308436226896,2581.7726783935773,324.90089277779543,-324.90089277779543,-2581.7726783935773,4677.0837809870236,0.0
377154.6038362722,4730833.5216966402,-42500.0,1216.3640975609035,1605.0471588202527,2738.3376337750296,-679.30573514723108,-729.74119146837404,-721.20027950667907,2456.8098168707925,2888.4718228562106,-427.74016426550679,427.74016426550679,-2888.4718228562106,4441.8403255773592,0.0
382154.6038362722,4730833.5216966402,-42500.0,1484.9962316881576,1605.8395665896628,2035.3118502462289,-612.93970330217405,-14.436741826672838,-1309.4068983594323,2449.7091479305068,2959.3497778501142,-1224.7171529534162,1224.7171529534162,-2959.3497778501142,4302.6982765855537,0.0
387154.6038362722,4730833.5216966402,-42500.0,1655.0864829519867,1391.525203503445,1341.9464165338275,-373.57425960509386,644.49898734681301,-1819.7405716012599,2486.8160386412474,2788.0342611927244,-1950.0299253781823,1950.0299253781823,-2788.0342611927244,4307.92402183984,0.0
392154.6038362722,4730833.5216966402,-42500.0,1674.2691916339866,1027.1238444850862,745.96614026607836,-19.383184282455829,1173.0461611888113,-2200.5297821974655,2535.2123067297453,2419.404759507624,-2517.1246957418502,2517.1246957418502,-2419.404759507624,4424.1400429921896,0.0
397154.6038362722,4730833.5216966402,-42500.0,1535.2746095666705,594.62312220074114,294.0461475315247,379.17168856440054,1536.0802036585283,-2430.7563172612618,2567.7186785731915,1927.5090918537958,-2884.0063842682225,2884.0063842682225,-1927.5090918537958,4573.6166866758495,0.0
402154.6038362722,4730833.5216966402,-42500.0,1267.1780565520544,167.63329918755664,-6.2047746214211674,759.87106016703342,1734.1311484121718,-2516.660511720012,2566.7537357661258,1390.3825200036911,-3050.7837426635142,3050.7837426635142,-1390.3825200036911,4686.0228818912628,0.0
407154.6038362722,4730833.5216966402,-42500.0,917.84375716723559,-202.79671101310058,-173.98223623918986,1080.0748290568765,1791.6324882507324,-2482.3210388954935,2525.5566018966674,871.95773820136833,-3046.5695382152271,3046.5695382152271,-871.95773820136833,4721.622780358668,0.0
412154.6038362722,4730833.5216966402,-42500.0,537.19338380325098,-490.83374665356212,-240.99779179809516,1318.7085275540812,1743.7729468577002,-2359.4501888905693,2445.9400252487194,414.32489748723492,-2914.0940870835184,2914.0940870835184,-414.32489748723492,4669.4694708233592,0.0
417154.6038362722,4730833.5216966402,-42500.0,166.39330948118788,-691.17638110073437,-240.39429288212963,1472.3029273529273,1626.3674909003912,-2179.5960524059392,2334.8070721831382,38.273328700470302,-2697.4827460053057,2697.4827460053057,-38.273328700470302,4537.2060342523118,0.0
422154.6038362722,4730833.5216966402,-42500.0,-166.48270317308101,-811.76537427845028,-200.42136629878175,1548.8833992437692,1470.0260077190212,-1969.6426538366891,2201.0934694339485,-251.81133910001836,-2434.9711650763088,2434.9711650763088,251.81133910001836,4341.4604241552961,0.0
427154.6038362722,4730833.5216966402,-42500.0,-446.16621220802244,-867.04893247967527,-142.11893048804183,1562.2617421625903,1297.9496811859431,-1750.09202599231,2054.2736643912408,-462.00721493575611,-2155.9457856477197,2155.9457856477197,462.00721493575611,4101.274107921724,0.0
432154.6038362722,4730833.5216966402,-42500.0,-667.5671002416002,-873.13356971181065,-79.495860632921932,1527.8374029092472,1126.0337123955637,-1535.1409134937553,1934.183990378488,-603.75002185095786,-1880.8269963927394,1880.8269963927394,603.75002185095786,3834.3853689110974,0.0
437154.6038362722,4730833.5216966402,-42500.0,-832.52966875892037,-844.92552804160891,-20.855829686622805,1460.0378805640407,964.08611002702867,-1333.6576771682137,1807.8008310927373,-690.21195098601061,-1622.3984927196941,1622.3984927196941,690.21195098601061,3555.5465910032722,0.0
442154.6038362722,4730833.5216966402,-42500.0,-946.93000198832624,-794.81646424332257,29.607517433622807,1371.0677764394948,817.3612601253642,-1150.4409433264491,1676.3347547180661,-734.10633034587454,-1387.6080645723537,1387.6080645723537,734.10633034587454,3276.0794811546962,0.0
447154.6038362722,4730833.5216966402,-42500.0,-1018.4821278694604,-732.36211299290756,70.390253297092372,1270.5330159780781,687.98268911922708,-987.41929296128205,1545.1550115183675,-746.57828809510215,-1179.3008684637823,1179.3008684637823,746.57828809510215,3004.0922536540265,0.0
452154.6038362722,4730833.5216966402,-42500.0,-1055.2736172183093,-664.49713805695603,101.58798534288103,1165.563597473358,576.08441836029886,-844.64172974980499,1417.9595049098109,-736.807915209057,-997.64972537301514,997.64972537301514,736.807915209057,2744.9821905737417,0.0
457154.6038362722,4730833.5216966402,-42500.0,-1064.9014074023028,-595.97776313672705,124.13794759623899,1061.170866477647,480.64657654111585,-721.0264125941934,1297.1206692867065,-712.0250081645587,-841.23068651039614,841.23068651039614,712.0250081645587,2502.0124696787748,0.0
462154.6038362722,4730833.5216966402,-42500.0,-1054.0384195548568,-529.87082336826393,139.33247685312921,960.67371487866728,400.06540395099125,-614.88883425209463,1184.0154612616068,-677.72613229064052,-707.77644393122603,707.77644393122603,677.72613229064052,2276.8500895882157,0.0
277154.6038362722,4735833.5216966402,-42500.0,426.55944908865416,165.12546178760022,38.653846176079817,93.527060918117655,75.874626299705724,-18.633151588575856,292.03326980168782,302.35973612172774,-197.30025682233781,197.30025682233781,-302.35973612172774,548.89577225809842,0.0
282154.6038362722,4735833.5216966402,-42500.0,506.13441999295077,146.55620476742499,52.334008865428324,128.33184918016727,66.648993071316482,-10.011847586773834,319.29333661190361,318.17671593194791,-210.1490246521619,210.1490246521619,-318.17671593194791,604.3873038773504,0.0
287154.6038362722,4735833.5216966402,-42500.0,594.85051326925566,119.51598304469306,72.708908883753949,170.57955829276329,51.345726041392091,2.3734829734749634,357.59973431788023,331.4446824090366,-220.21208806094984,220.21208806094984,-331.4446824090366,672.5752729455719,0.0
292154.6038362722,4735833.5216966402,-42500.0,692.21538763306876,82.170696669923686,102.44403387004402,221.21377643945647,27.886285498730242,19.555866043543816,408.22861705620875,341.01484739107815,-225.71956474226812,225.71956474226812,-341.01484739107815,756.95533198815974,0.0
297154.6038362722,4735833.5216966402,-42500.0,796.89705603568837,32.63239266215885,145.09623968772496,280.99807017364162,-6.3389873115431374,42.732087087576907,471.50679933574173,345.61542591637823,-224.3273370347774,224.3273370347774,-345.61542591637823,861.5327480228907,0.0
302154.6038362722,4735833.5216966402,-42500.0,906.36946522622338,-30.809516884045166,205.32245268935506,350.3027920695468,-54.527499608962771,73.227267348777119,548.78243528554776,343.98449904859996,-213.02466290964054,213.02466290964054,-343.98449904859996,990.66873820586727,0.0
307154.6038362722,4735833.5216966402,-42500.0,1016.4934159897055,-109.28036618402163,289.06185601646052,428.78154932984353,-120.46460961243909,112.41029731232176,642.06801280853597,335.12837521030434,-188.08590524302525,188.08590524302525,-335.12837521030434,1148.8198202946555,0.0
312154.6038362722,4735833.5216966402,-42500.0,1121.0846164891284,-202.6558274926121,403.60404336845295,514.90238348868161,-208.40328056871394,161.52971835103892,753.48475944621259,318.77131144331076,-145.12837972074385,145.12837972074385,-318.77131144331076,1340.1266007217494,0.0
317154.6038362722,4735833.5216966402,-42500.0,1211.5980837499185,-308.56183970328897,557.37941301425064,605.30734133251792,-322.71596907112905,221.4243252586424,884.72923294454768,296.0725432949597,-79.38395836249947,79.38395836249947,-296.0725432949597,1567.7738772933089,0.0
322154.6038362722,4735833.5216966402,-42500.0,1277.1827654000801,-421.01061337055245,759.19984719426986,694.01356636157129,-467.15411414842083,292.04187235867869,1036.4163246393939,270.66645250060498,13.643331315114722,-13.643331315114722,-270.66645250060498,1833.012800764089,0.0
327154.6038362722,4735833.5216966402,-42500.0,1305.5273247712682,-528.80603349282933,1016.5672304930356,771.57641771057331,-643.50055399113478,371.68254074511464,1207.2165709824685,249.98670359894192,136.8936291692022,-136.8936291692022,-249.98670359894192,2133.7518593177369,0.0
332154.6038362722,4735833.5216966402,-42500.0,1285.0404001558077,-614.19195767785322,1332.6450782242296,824.54686044307755,-849.41773107702249,455.89772552986079,1392.7882974983077,246.59615546784789,289.59003599355708,-289.59003599355708,-246.59615546784789,2462.7371264084213,0.0
337154.6038362722,4735833.5216966402,-42500.0,1208.7889392023203,-652.74687481071749,1701.7492785272161,835.87699503265912,-1075.5042630563482,536.08528051886924,1584.668601149476,278.81383283399578,464.12636705933994,-464.12636705933994,-278.81383283399578,2805.6355950408465,0.0
342154.6038362722,4735833.5216966402,-42500.0,1079.9293308799608,-616.03971199294926,2104.0066101211169,787.21926532388716,-1302.1283001616264,598.11468727334,1769.5679185407575,369.39909317451679,642.48739947970319,-642.48739947970319,-369.39909317451679,3139.8354542186894,0.0
347154.6038362722,4735833.5216966402,-42500.0,916.91481753973017,-478.46816099441429,2501.2230383643032,663.94514018749419,-1497.52880314186,621.8130677043298,1929.8509877420786,540.83613912697433,793.70078582648512,-793.70078582648512,-540.83613912697433,3435.359085901001,0.0
352154.6038362722,4735833.5216966402,-42500.0,755.02980160089544,-228.17849782133413,2837.4180893809648,462.64156673070545,-1619.5391792018984,582.61449934339373,2046.1777074450674,806.61505350156403,874.90067980772051,-874.90067980772051,-806.61505350156403,3659.5263383266215,0.0
357154.6038362722,4735833.5216966402,-42500.0,640.38205931689924,121.20106643909368,3047.4329295953871,198.70799224552496,-1623.0630933646516,456.52282016991194,2103.1052479618211,1160.3645226177921,838.60352384671319,-838.60352384671319,-1160.3645226177921,3786.26224167286,0.0
362154.6038362722,4735833.5216966402,-42500.0,615.29121896380104,524.47023978690561,3073.9626542360843,-90.408933853887916,-1473.0980956940043,228.13711394130678,2098.19308330788,1567.9052420587777,646.47190502679314,-646.47190502679314,-1567.9052420587777,3808.7557927185285,0.0
367154.6038362722,4735833.5216966402,-42500.0,699.83444922608373,910.75970640282003,2887.8085894471074,-350.57430620887686,-1159.1356596357098,-100.90208736051483,2055.266310089602,1968.5358009609454,285.41768317313688,-285.41768317313688,-1968.5358009609454,3750.7791014323871,0.0
372154.6038362722,4735833.5216966402,-42500.0,879.15152031155753,1202.336036001318,2501.844878744937,-525.23251479985458,-703.91570000252159,-507.39362000784854,2029.1537229609178,2288.5086752670823,-221.707921784993,221.707921784993,-2288.5086752670823,3668.3121601565877,0.0
377154.6038362722,4735833.5216966402,-42500.0,1104.8845695410071,1339.1367419616499,1970.5762584050608,-573.22082437072538,-160.91224631361581,-949.37721882852793,2056.8472065687124,2462.6452257645242,-817.6171415267288,817.6171415267288,-2462.6452257645242,3631.9495022368983,0.0
382154.6038362722,4735833.5216966402,-42500.0,1311.3126338555203,1297.4365524234731,1374.504168236336,-481.7699642168094,399.40619797681472,-1375.9949752060115,2126.4271764979458,2454.4149739806417,-1424.9891352260158,1424.9891352260158,-2454.4149739806417,3690.574223317024,0.0
387154.6038362722,4735833.5216966402,-42500.0,1438.0451370971662,1094.1967955695634,796.69563862445978,-268.77215818908087,908.46811781413157,-1740.2898874684342,2212.5245462622579,2265.2696291193715,-1967.4403182410808,1967.4403182410808,-2265.2696291193715,3841.767483619933,0.0
392154.6038362722,4735833.5216966402,-42500.0,1448.1933528482634,776.8915671719634,302.0992143308934,25.566012917904057,1315.5078399968679,-2009.5748452549474,2291.3192151040116,1930.2421314195153,-2387.8545656014348,2387.8545656014348,-1930.2421314195153,4038.6990278699782,0.0
397154.6038362722,4735833.5216966402,-42500.0,1335.1135828297013,405.67459785761423,-73.136563941422068,352.47866183906257,1595.1508726993006,-2169.9535207660474,2344.2899321347741,1503.9179188075796,-2657.6263836471771,2657.6263836471771,-1503.9179188075796,4222.8676030305569,0.0
402154.6038362722,4735833.5216966402,-42500.0,1117.8829842266007,36.447564632643484,-321.33654940607454,667.46964559400533,1746.2273984571543,-2224.8654424280066,2360.6762767783971,1044.2006316807292,-2775.8754874965762,2775.8754874965762,-1044.2006316807292,4350.0383811949241,0.0
407154.6038362722,4735833.5216966402,-42500.0,830.52281518666678,-289.69974066587577,-455.71626678437553,938.22704728982285,1784.9619120937325,-2189.8993521947082,2337.516353649441,599.94479160337823,-2761.9797577578356,2761.9797577578356,-599.94479160337823,4398.0940063123944,0.0
412154.6038362722,4735833.5216966402,-42500.0,510.69182733691321,-549.67779143144469,-500.57387926248839,1146.9410891202808,1736.5650052218632,-2086.6472398773558,2277.8654028567657,204.88205553231683,-2645.9989364453636,2645.9989364453636,-204.88205553231683,4363.7210375248014,0.0
417154.6038362722,4735833.5216966402,-42500.0,191.47035181060829,-736.23953171633377,-482.92788400148163,1288.560412168493,1628.1224357016692,-1937.5655823246045,2188.531279249094,-122.9066713409195,-2460.3965889087076,2460.3965889087076,122.9066713409195,4255.7545347280902,0.0
422154.6038362722,4735833.5216966402,-42500.0,-102.76420722526757,-853.34086544604179,-427.129831380231,1367.1364833546845,1483.9814225623809,-1762.64644278476,2078.5266261102106,-378.16642523259043,-2234.5530076367022,2234.5530076367022,378.16642523259043,4089.0554330441719,0.0
427154.6038362722,4735833.5216966402,-42500.0,-357.09728626891183,-911.27114362430325,-352.36229740320158,1391.9573911367706,1323.5576147954657,-1577.8336947733749,1960.0397718405361,-564.44104259784376,-1992.0689865916686,1992.0689865916686,564.44104259784376,3880.1154208795447,0.0
432154.6038362722,4735833.5216966402,-42500.0,-564.8024848146614,-922.75700782334673,-272.18941904358576,1374.4018931307585,1160.8941521350316,-1394.713004059488,1844.6193363754037,-690.26736996129102,-1750.1367452197883,1750.1367452197883,690.26736996129102,3644.3964401440376,0.0
437154.6038362722,4735833.5216966402,-42500.0,-725.23312841375457,-900.38330404843396,-195.2408209592235,1325.8028425194238,1005.2234151471931,-1220.9466753213771,1727.4373481520818,-766.24278122745545,-1520.1274425895208,1520.1274425895208,766.24278122745545,3395.0110884232158,0.0
442154.6038362722,4735833.5216966402,-42500.0,-841.67498694086203,-855.18644008204205,-126.33042284683582,1256.2339884367966,861.94670059257919,-1061.0326138462033,1607.0975597462477,-803.0844008810916,-1308.7129952764451,1308.7129952764451,803.0844008810916,3142.2939529679693,0.0
447154.6038362722,4735833.5216966402,-42500.0,-919.55883813499543,-796.09638000802715,-67.591175627737968,1173.9866061867979,733.66766495571881,-917.11802935844048,1486.7359278530623,-810.52864941562075,-1119.0859398335424,1119.0859398335424,810.52864941562075,2893.8939314470299,0.0
452154.6038362722,4735833.5216966402,-42500.0,-965.15498813781494,-729.90237935988841,-19.429347964357124,1085.4886778959285,621.09491620014569,-789.72466792403873,1369.3548771999706,-796.83556597984511,-952.04729480678748,952.04729480678748,796.83556597984511,2655.1214616919547,0.0
457154.6038362722,4735833.5216966402,-42500.0,-984.72095646005914,-661.49194469253655,18.757707006427417,995.47000706820882,523.75077164663003,-678.33204948908303,1257.1101219222578,-768.67780412683805,-806.87709564959596,806.87709564959596,768.67780412683805,2429.388782281866,0.0
462154.6038362722,4735833.5216966402,-42500.0,-984.00695595750642,-594.19482190191945,48.084360968192144,907.23286426322545,440.4857529284152,-581.8110510272146,1151.3645106491472,-731.24274736511029,-681.97733066633214,681.97733066633214,731.24274736511029,2218.6417232072777,0.0
277154.6038362722,4740833.5216966402,-42500.0,431.79178719400284,111.57733033443262,52.049853224287311,107.50404083043082,47.872291540652341,-7.967579485177084,264.75209993950125,263.91124926662945,-170.51846496191718,170.51846496191718,-263.91124926662945,499.49203379376723,0.0
282154.6038362722,4740833.5216966402,-42500.0,501.04850906780922,88.037641788869294,71.259888158032169,139.4637944729281,34.611452167672724,0.82052524036324304,296.17384808142577,273.96094398270839,-177.3925914737093,177.3925914737093,-273.96094398270839,552.40400617934131,0.0
287154.6038362722,4740833.5216966402,-42500.0,576.07175822272495,56.723391616714352,98.303318442409918,177.11217363514726,15.164394319676125,12.803215082362534,335.92004327036938,281.3842894677577,-180.72954997829217,180.72954997829217,-281.3842894677577,617.14736724070815,0.0
292154.6038362722,4740833.5216966402,-42500.0,655.71393312039208,16.467673641325874,135.82690382871289,220.79280704599691,-12.243605718101842,28.702519437541387,384.35029294261716,285.43133977110165,-178.91833065162879,178.91833065162879,-285.43133977110165,696.39241546767687,0.0
297154.6038362722,4740833.5216966402,-42500.0,738.02180376180286,-33.684370247979466,187.17940319720478,270.53279443109295,-49.715956154905932,49.285251877361411,442.4736754448295,285.43428927135113,-169.9593832361702,169.9593832361702,-285.43428927135113,792.95839136685868,0.0
302154.6038362722,4740833.5216966402,-42500.0,820.00805013238232,-94.197377360996455,256.48426962509006,325.8371754741658,-99.650333867743797,75.2944158096454,511.59788398880823,280.99197925902001,-151.47056614483904,151.47056614483904,-280.99197925902001,909.62256201262448,0.0
307154.6038362722,4740833.5216966402,-42500.0,897.43845367494941,-164.62726140489406,348.62670328354142,385.41119381396516,-164.62343378550906,107.32963335474163,593.01522335994014,272.26233347015932,-120.76950212586935,120.76950212586935,-272.26233347015932,1048.8468315412822,0.0
312154.6038362722,4740833.5216966402,-42500.0,964.70795603311785,-243.03279681785995,469.06605237926954,446.80788795966896,-247.14057006346633,145.654564249597,687.68981965658918,260.39290926794814,-75.089204770455979,75.089204770455979,-260.39290926794814,1212.391951590794,0.0
317154.6038362722,4740833.5216966402,-42500.0,1014.9325672893527,-325.21779871850094,623.33789602134345,506.02140506611192,-349.17552664021503,189.90497700053123,795.88673557293635,248.10277910463313,-12.006901396922757,12.006901396922757,-248.10277910463313,1400.7797776508896,0.0
322154.6038362722,4740833.5216966402,-42500.0,1040.4491980669707,-403.87929145636963,816.06465553503642,557.09389226899509,-471.41167120562079,238.67116678945655,916.71899340815105,240.37945660731518,69.81490017623824,-69.81490017623824,-240.37945660731518,1612.5734059151962,0.0
327154.6038362722,4740833.5216966402,-42500.0,1033.9641870722237,-467.8825582934802,1049.2857657107488,591.88853319627765,-612.10942685288342,288.94242290690613,1047.6209053137709,245.14941067686189,169.48264605475541,-169.48264605475541,-245.14941067686189,1843.4964911762168,0.0
332154.6038362722,4740833.5216966402,-42500.0,990.55028236100759,-502.10545923531498,1320.0178374918944,600.30105802015362,-765.60736832353803,335.44618407847679,1183.8154812120374,273.60348032628576,282.30420559995594,-282.30420559995594,-273.60348032628576,2085.5271467290486,0.0
337154.6038362722,4740833.5216966402,-42500.0,910.45106273074657,-488.53314153051707,1617.2605806673253,571.29998632500815,-920.66799303374967,370.0145597958313,1317.9536287016501,339.63655270870032,397.98648737744276,-397.98648737744276,-339.63655270870032,2326.2997543096817,0.0
342154.6038362722,4740833.5216966402,-42500.0,802.10854942569915,-409.35417829001739,1919.2405635402852,495.19105310819663,-1059.2331551522143,381.27965926106242,1440.2566864215112,457.7199395628142,499.15952731057752,-499.15952731057752,-457.7199395628142,2549.4081696407461,0.0
347154.6038362722,4740833.5216966402,-42500.0,684.04861952748149,-252.39017300858401,2192.4069418299996,367.20422001969678,-1156.5628133233486,355.18909585665483,1539.6344783501056,638.72528689856597,561.25284455608232,-561.25284455608232,-638.72528689856597,2736.3960337545432,0.0
352154.6038362722,4740833.5216966402,-42500.0,583.68622653363673,-18.02752373659116,2394.1028450135436,191.76510372492595,-1183.9004467140223,276.89382947311873,1606.3214582570224,884.04728905861759,554.99776224915274,-554.99776224915274,-884.04728905861759,2871.1163864373575,0.0
357154.6038362722,4740833.5216966402,-42500.0,531.54373317453508,274.85824845024632,2480.1855014810108,-14.206641286130903,-1114.2778611370786,134.2493032919273,1636.6262867258592,1179.8004921967579,452.34844844211125,-452.34844844211125,-1179.8004921967579,2946.4087016642961,0.0
362154.6038362722,4740833.5216966402,-42500.0,551.38283086573506,587.62191384263417,2416.7304644906408,-221.257269412081,-930.6132388082392,-77.637643926425568,1640.5328361607442,1494.1593805105499,235.08970025191127,-235.08970025191127,-1494.1593805105499,2971.4333722221932,0.0
367154.6038362722,4740833.5216966402,-42500.0,649.69945434041972,867.9645937279754,2192.0597851110088,-392.23431401521805,-633.3966021956569,-352.39834687952936,1648.3768615346412,1780.7693659410197,-96.67511449027927,96.67511449027927,-1780.7693659410197,2975.5463255487707,0.0
372154.6038362722,4740833.5216966402,-42500.0,809.83760167852279,1062.8751903525845,1823.6836306202135,-491.40891972176536,-244.32634216971186,-670.98732267971423,1692.4676808334123,1988.7921865447593,-520.15099335979767,520.15099335979767,-1988.7921865447593,3002.4489954870924,0.0
377154.6038362722,4740833.5216966402,-42500.0,994.62518254316592,1133.7763025662896,1356.1664978294893,-494.68293093601307,196.57783167870582,-1004.1910104770544,1774.6244650550989,2076.518333679895,-992.51168388968279,992.51168388968279,-2076.518333679895,3091.1229646460902,0.0
382154.6038362722,4740833.5216966402,-42500.0,1157.1614186773891,1067.422162561136,850.1189624725597,-396.57009553118348,639.89379752799664,-1318.6173562116169,1877.7711765870142,2023.0361305789977,-1460.3281564191936,1460.3281564191936,-2023.0361305789977,3252.9912962955823,0.0
387154.6038362722,4740833.5216966402,-42500.0,1255.0201513299517,878.0732759999114,366.83224194248635,-211.05887700131919,1038.3288223186678,-1583.999629736099,1982.5837070051218,1833.1370410386955,-1872.1701303149146,1872.1701303149146,-1833.1370410386955,3465.3115080961375,0.0
392154.6038362722,4740833.5216966402,-42500.0,1261.7060740722845,600.91829413040193,-45.313815483165932,33.505848203780218,1356.475667498529,-1779.121716277029,2071.8864815828842,1534.0510877918596,-2189.5163798895305,2189.5163798895305,-1534.0510877918596,3686.0910546749656,0.0
397154.6038362722,4740833.5216966402,-42500.0,1171.3560639766672,280.59022885124506,-358.30331147594904,302.78450031706365,1575.793661095435,-1894.5807607727327,2133.0717589535325,1166.3796295398984,-2392.5022284959573,2392.5022284959573,-1166.3796295398984,3874.3505761951869,0.0
402154.6038362722,4740833.5216966402,-42500.0,996.45393429575574,-40.221055021335751,-564.90323179180245,564.57777585052304,1694.3416244157945,-1932.1898871475178,2159.3690473786901,773.46182722338665,-2479.8154524088663,2479.8154524088663,-773.46182722338665,4001.9507531802851,0.0
407154.6038362722,4740833.5216966402,-42500.0,761.19037290348558,-328.52654229316653,-674.02636128792972,794.31071987148778,1722.8234344197463,-1902.0789998723412,2149.6014081517196,392.84710062102727,-2464.3831709711094,2464.3831709711094,-392.84710062102727,4056.0351871304829,0.0
412154.6038362722,4740833.5216966402,-42500.0,493.85806090451001,-564.11481092778172,-704.07189959680113,977.16463636043864,1679.2206301932438,-1818.9698976145453,2106.9560999294417,51.611778032243365,-2367.3726441637714,2367.3726441637714,-51.611778032243365,4036.3570165389697,0.0
417154.6038362722,4740833.5216966402,-42500.0,220.75538968980061,-738.83691196269695,-676.74347979227753,1107.4947796306774,1583.8634608278612,-1698.8126328785336,2037.5054204341477,-234.62715843011324,-2212.6102756862829,2212.6102756862829,234.62715843011324,3951.0226371965578,0.0
422154.6038362722,4740833.5216966402,-42500.0,-37.398138861798309,-853.77706931447619,-612.6428499612573,1186.7188213254776,1455.901340443781,-1556.3911508090046,1949.0157783411648,-460.1931564833169,-2022.5401804284527,2022.5401804284527,460.1931564833169,3812.4939640498724,0.0
427154.6038362722,4740833.5216966402,-42500.0,-266.69038213600277,-915.84189648534482,-528.86036215579816,1220.7656474131015,1311.3395663608742,-1403.9976863728346,1849.8195789473084,-626.68814115541386,-1815.9462820925271,1815.9462820925271,626.68814115541386,3634.5526520002259,0.0
432154.6038362722,4740833.5216966402,-42500.0,-459.60559115090172,-934.74503275246332,-438.16710317312527,1217.791302945205,1162.3485456915246,-1250.9771806466788,1745.8584113604979,-740.22033451364973,-1607.1276466813649,1607.1276466813649,740.22033451364973,3430.3277741495722,0.0
437154.6038362722,4740833.5216966402,-42500.0,-613.76129098979607,-920.80174374907472,-349.22421679731082,1186.475009824173,1017.4026819029896,-1103.8455877902377,1638.6709896829573,-809.09244212772478,-1406.0351436393937,1406.0351436393937,809.09244212772478,3211.2192388082099,0.0
442154.6038362722,4740833.5216966402,-42500.0,-730.39996003717806,-883.56437463731436,-267.29162542964502,1134.9340498954666,881.84792565126827,-966.71116212943332,1529.274150960317,-842.14542024840716,-1218.9152749395982,1218.9152749395982,842.14542024840716,2986.4696881459718,0.0
447154.6038362722,4740833.5216966402,-42500.0,-813.00081619011905,-831.13936900147962,-195.07787921189708,1070.1536011423166,758.6112309095256,-841.80107027620818,1419.8250756979605,-847.7253851349742,-1049.1309216821646,1049.1309216821646,847.7253851349742,2763.1488721171254,0.0
452154.6038362722,4740833.5216966402,-42500.0,-866.17608162027136,-769.9754596773214,-133.52949453626593,997.78378684737572,648.88267044766008,-729.97360355431647,1312.6180150380355,-833.14189711328686,-897.9605104724485,897.9605104724485,833.14189711328686,2546.366842643451,0.0
457154.6038362722,4740833.5216966402,-42500.0,-894.88409032354809,-704.93310457872678,-82.473039894089922,922.16497507162524,552.69013010869639,-631.15633196230999,1209.4898783396286,-804.4658653651835,-765.27858040777608,765.27858040777608,804.4658653651835,2339.5864184703132,0.0
282154.6038362722,4745833.5216966402,-42500.0,482.04389166478018,40.282868391320378,93.031312063393614,142.22762220640101,7.5974515384869736,8.0362548329749206,278.38328386397228,235.2435633077699,-146.55789315557573,146.55789315557573,-235.2435633077699,507.29328315176457,0.0
287154.6038362722,4745833.5216966402,-42500.0,543.34756165970146,7.6868217377696313,125.60664602874935,174.4362186508003,-14.202016064500162,18.976879911231084,315.70017948572223,238.97376508243431,-144.81956308687566,144.81956308687566,-238.97376508243431,567.87968122098891,0.0
292154.6038362722,4745833.5216966402,-42500.0,606.08718904986802,-32.033307793249179,169.05420895048783,210.55869712608254,-43.30117573034908,32.935927483858784,359.85492582104536,240.06858869277207,-137.90706330542551,137.90706330542551,-240.06858869277207,640.87632124230026,0.0
297154.6038362722,4745833.5216966402,-42500.0,668.08335230361706,-79.012310018246112,226.27437329919385,250.11369622135228,-81.252317773456156,50.322208789300305,411.72211579750751,238.41069550655564,-124.26540707124073,124.26540707124073,-238.41069550655564,728.07748229624349,0.0
302154.6038362722,4745833.5216966402,-42500.0,726.36748342402632,-132.72500373765607,300.6042692821627,292.07856701741957,-129.66502552285462,71.425362922327594,472.13121293047504,234.29838601928139,-102.20057811827037,102.20057811827037,-234.29838601928139,831.0172908777763,0.0
307154.6038362722,4745833.5216966402,-42500.0,777.13652422977748,-191.62514134505184,395.66617079831218,334.68506333054029,-190.0327465752035,96.292719162921429,541.67280846730091,228.71061190625602,-70.033959212640511,70.033959212640511,-228.71061190625602,950.72939580279512,0.0
312154.6038362722,4745833.5216966402,-42500.0,815.83915218537948,-252.70133557551054,515.0317958429473,375.19657526753957,-263.440669843362,124.55145628940294,620.47518749450751,223.64716971064033,-26.379703408846723,26.379703408846723,-223.64716971064033,1087.4344047883255,0.0
317154.6038362722,4745833.5216966402,-42500.0,837.48936820178369,-310.99590253668373,661.61205547666657,409.70680724644819,-350.11485014122019,155.16685110907491,707.94855106347109,222.51776685038703,29.409742553040786,-29.409742553040786,-222.51776685038703,1240.1481276481923,0.0
322154.6038362722,4745833.5216966402,-42500.0,837.32129804220961,-359.20014580979006,836.68038242427724,433.03705900764459,-448.78238550916211,186.13656065597308,802.50711250341931,230.50300135682303,96.592767578898616,-96.592767578898616,-230.50300135682303,1406.2286531039101,0.0
327154.6038362722,4745833.5216966402,-42500.0,811.88189324748259,-387.5394357158865,1038.482744342243,438.85983661374314,-555.85062370179003,214.14304142268207,901.30386769314782,254.73077009589852,172.18210605275974,-172.18210605275974,-254.73077009589852,1580.9338607751752,0.0
332154.6038362722,4745833.5216966402,-42500.0,760.5605902359481,-384.27233431353346,1260.5164745142631,420.22489214204882,-664.49813615482662,234.22705865244311,1000.0583328858469,304.01275211176414,249.96911560552709,-249.96911560552709,-304.01275211176414,1757.1460663374737,0.0
337154.6038362722,4745833.5216966402,-42500.0,687.33599028054107,-337.18635430540172,1489.8066647215444,370.67500689328415,-763.91423387193549,239.60958825625195,1093.1259080822056,387.81134800957562,319.66685179359052,-319.66685179359052,-387.81134800957562,1925.5347535520211,0.0
342154.6038362722,4745833.5216966402,-42500.0,602.1791200512763,-236.36002805689401,1705.8541880168191,286.04893530167084,-839.10902189176352,221.86628360757857,1174.0381739307347,514.15056078507905,366.6105884522467,-366.6105884522467,-514.15056078507905,2075.5385627431851,0.0
347154.6038362722,4745833.5216966402,-42500.0,521.20809590561282,-78.040472640336574,1881.2256355451893,166.80643576716673,-871.84794946636202,171.70403439890367,1236.8148484526628,686.46805725211743,372.61148675463846,-372.61148675463846,-686.46805725211743,2197.5516146560199,0.0
352154.6038362722,4745833.5216966402,-42500.0,464.62846565350753,131.25834614961488,1984.7241864144844,20.281390611542736,-843.18488779439747,80.526472726266945,1278.4525704126863,899.99265178246583,318.49798678472581,-318.49798678472581,-899.99265178246583,2286.4600732929357,0.0
357154.6038362722,4745833.5216966402,-42500.0,452.05502853702097,372.12858015921307,1987.4008006970594,-138.16361282670374,-737.60007398062044,-57.276217565994102,1303.1792641622499,1138.9618972950198,188.40656392974762,-188.40656392974762,-1138.9618972950198,2345.9694655579792,0.0
362154.6038362722,4745833.5216966402,-42500.0,496.07415860634165,613.05385760259367,1870.3231166020996,-286.19286692636098,-547.91601879804716,-241.80537630669122,1327.6706574971181,1376.4059234481806,-25.003703899115521,25.003703899115521,-1376.4059234481806,2391.8437757817478,0.0
367154.6038362722,4745833.5216966402,-42500.0,596.33945186190408,815.66471926749159,1631.5811647382245,-398.28391971808912,-279.32979755328307,-465.80285753545138,1376.0152816379423,1577.7501401203524,-316.1645561122109,316.1645561122109,-1577.7501401203524,2450.5791489940934,0.0
372154.6038362722,4745833.5216966402,-42500.0,737.06268185661224,943.56234232996906,1289.4897262292657,-451.55457308519937,49.316221200559688,-714.44858522774098,1457.130027458328,1707.9843602432145,-665.08630003400663,665.08630003400663,-1707.9843602432145,2550.2637559689333,0.0
377154.6038362722,4745833.5216966402,-42500.0,889.69284105406155,971.77837859954502,880.06825854116789,-431.72799531653993,408.08766251472201,-967.30493216257537,1561.577387002674,1740.2741035179538,-1039.9441890639141,1039.9441890639141,-1740.2741035179538,2706.010715440073,0.0
382154.6038362722,4745833.5216966402,-42500.0,1020.2096659323504,893.22674226530899,449.27978164900065,-336.95774192011919,761.81983260962033,-1202.0241163081057,1674.7700842146246,1662.8481179172331,-1403.2949572814769,1403.2949572814769,-1662.8481179172331,2910.4701012789824,0.0
387154.6038362722,4745833.5216966402,-42500.0,1098.2146698109511,719.73686923023865,42.815988042279805,-178.06674519388352,1077.3179291879446,-1398.6419901792954,1782.277544628575,1481.5836648583618,-1719.8385034158255,1719.8385034158255,-1481.5836648583618,3137.516354087566,0.0
392154.6038362722,4745833.5216966402,-42500.0,1104.3071801037588,477.71069321652641,-302.94926642466908,24.675757415128547,1329.4665004429523,-1543.0593293207621,1871.7778934793268,1217.6247987604033,-1963.0761502199043,1963.0761502199043,-1217.6247987604033,3354.4432146720919,0.0
397154.6038362722,4745833.5216966402,-42500.0,1033.3777422546027,200.60692317773098,-566.18299054675151,246.7535403270428,1504.5337544354265,-1628.7570864273564,1934.5417247926971,901.42410658320387,-2118.9494526953326,2118.9494526953326,-901.42410658320387,3532.9261021422444,0.0
402154.6038362722,4745833.5216966402,-42500.0,893.51023690031786,-78.784717660211456,-740.28765162965817,464.63731553681657,1600.2881338408465,-1656.5811816217633,1966.1000749499376,565.67543110408542,-2185.9914837284832,2185.9914837284832,-565.67543110408542,3654.4464344629287,0.0
407154.6038362722,4745833.5216966402,-42500.0,701.87946733308843,-334.00441057621617,-831.09447600321607,659.57800175005013,1623.7011324018235,-1633.1031469499283,1966.0083245264557,239.38862393098248,-2172.8084483902239,2172.8084483902239,-239.38862393098248,3711.0251651306021,0.0
412154.6038362722,4745833.5216966402,-42500.0,479.65062381647869,-547.62150655735149,-852.37495412575481,819.38785101045858,1587.523228401576,-1568.3507215751765,1937.0129997605086,-55.678210671076499,-2094.2986119288839,2094.2986119288839,55.678210671076499,3703.3982734676706,0.0
417154.6038362722,4745833.5216966402,-42500.0,247.53025667577572,-711.29269446472142,-821.33769426936453,938.4318483498314,1506.8979670301662,-1473.6151516549749,1883.9952070949776,-306.13048963333836,-1967.8986577529192,1967.8986577529192,306.13048963333836,3638.288387415435,0.0
422154.6038362722,4745833.5216966402,-42500.0,22.814305359328436,-824.1295001097991,-755.12907289669977,1016.4655910357699,1396.7264210842184,-1359.762242789976,1812.9097804966757,-506.21635606221753,-1810.654283040848,1810.654283040848,506.21635606221753,3525.7420238719938,0.0
427154.6038362722,4745833.5216966402,-42500.0,-181.96505790630613,-890.38213105497186,-668.66863860187811,1056.9955854280868,1270.016565983052,-1236.183634099408,1729.649232965209,-656.11765375413574,-1637.3835632177609,1637.3835632177609,656.11765375413574,3376.9885223890024,0.0
432154.6038362722,4745833.5216966402,-42500.0,-359.13868244022632,-917.18021627341352,-573.68272092950406,1065.6662857073081,1137.1244927091734,-1110.3245600642836,1638.8097766109097,-759.97552632399379,-1459.835083675018,1459.835083675018,759.97552632399379,3202.9511073318763,0.0
437154.6038362722,4745833.5216966402,-42500.0,-505.23314493468371,-912.7259350770662,-478.59277089754295,1048.9504440215087,1005.6444277384119,-987.63323603677645,1543.3088158359712,-824.11258593574576,-1286.5734416636938,1286.5734416636938,824.11258593574576,3013.3585948466675,0.0
442154.6038362722,4745833.5216966402,-42500.0,-619.97135419032998,-885.05624602177886,-388.89752060170537,1013.2322503342771,880.68681719970027,-871.76448940651153,1445.3025573668658,-855.66275277100385,-1123.3017834814768,1123.3017834814768,855.66275277100385,2816.3270352932973,0.0
447154.6038362722,4745833.5216966402,-42500.0,-705.24372203403402,-841.32375099834996,-307.76482028604181,964.25688353894088,765.33363085112478,-764.90194356301731,1346.8731435196316,-861.6438191690205,-973.38558121195467,973.38558121195467,861.6438191690205,2618.2664377366491,0.0
452154.6038362722,4745833.5216966402,-42500.0,-764.21747121764338,-787.47382925162856,-236.6489248914252,906.86725648263564,661.12928531307602,-668.10517440661977,1249.962305278131,-848.41222875616006,-838.41769421340371,838.41769421340371,848.41222875616006,2423.9855349328745,0.0
287154.6038362722,4750833.5216966402,-42500.0,501.88084230662264,-28.299341648523761,151.79437804705563,165.28221812493018,-36.835340738562394,21.925933659015875,295.13348147453684,204.19758661171275,-113.44532738059539,113.44532738059539,-204.19758661171275,522.79943563504537,0.0
292154.6038362722,4750833.5216966402,-42500.0,549.43725953286366,-64.999020704204639,199.02247806101042,193.96097986717612,-65.826987444935284,33.651760761928692,334.48365245994569,204.26289259829963,-103.37913099943194,103.37913099943194,-204.26289259829963,588.74707389254195,0.0
297154.6038362722,4750833.5216966402,-42500.0,593.99311101605883,-106.35056999004775,259.18842919897139,223.99887927508894,-102.2032712987267,47.701231828444278,379.88604435749204,202.93940794801841,-87.41512303631265,87.41512303631265,-202.93940794801841,665.89959032567594,0.0
302154.6038362722,4750833.5216966402,-42500.0,632.90136084762401,-151.14247229162021,334.74754514874229,254.12075382012424,-146.88360402450627,64.043611244313567,431.73142490228048,201.0140990437074,-64.499684006215489,64.499684006215489,-201.0140990437074,754.90153080830135,0.0
307154.6038362722,4750833.5216966402,-42500.0,663.05559921589679,-197.18372117145694,428.06335862588298,282.4312538649487,-200.48899243879552,82.372451802245649,490.10202259935414,199.94911226700347,-33.800776795355034,33.800776795355034,-199.94911226700347,855.85760753513443,0.0
312154.6038362722,4750833.5216966402,-42500.0,681.09180943603133,-241.01802657223402,541.01754408938598,306.30341390787532,-263.0651295072467,101.96199626351003,554.61787383292267,202.10917009698659,5.0178728659318068,-5.0178728659318068,-202.10917009698659,968.10906193379606,0.0
317154.6038362722,4750833.5216966402,-42500.0,683.78168020017381,-277.68621373055544,674.41246154202872,322.32653122230488,-333.70315365859784,121.49054215489122,624.28091163480224,210.96729775488325,51.410814202047007,-51.410814202047007,-210.96729775488325,1089.9891466997117,0.0
322154.6038362722,4750833.5216966402,-42500.0,668.66599666579248,-300.64710580133635,827.14150543022504,326.37783142754677,-410.06379917235807,138.84354843819071,697.33606218493571,231.20693825003247,103.45558954006253,-103.45558954006253,-231.20693825003247,1218.5978282267417,0.0
327154.6038362722,4750833.5216966402,-42500.0,634.93409096449659,-302.02158494461662,995.16309014684282,313.90497942546926,-487.85026795090988,150.92871034498955,771.18970517517641,268.5916428859033,157.29136905851593,-157.29136905851593,-268.5916428859033,1349.6787349739921,0.0
332154.6038362722,4750833.5216966402,-42500.0,584.45838601147511,-273.35957495624729,1170.4262189837611,280.51328021292301,-560.33914708136535,153.56296339022998,842.45745979440858,329.43483382924876,206.60266494400159,-206.60266494400159,-329.43483382924876,1477.7345416511948,0.0
337154.6038362722,4750833.5216966402,-42500.0,522.73869712486965,-207.10014495273469,1340.059757198233,222.92024108570962,-618.16334039603248,141.52454961527559,907.25466941759191,419.50760606584282,242.3500766308278,-242.3500766308278,-419.50760606584282,1596.571874568328,0.0
342154.6038362722,4750833.5216966402,-42500.0,459.33170804956507,-98.739672673902177,1486.3099760952157,140.24157831629623,-649.6181311493699,108.88847409677706,961.89234981808352,542.32422509404535,253.03511959471314,-253.03511959471314,-542.32422509404535,1700.4867619048589,0.0
347154.6038362722,4750833.5216966402,-42500.0,407.23340509593226,50.595321877741078,1587.7814112330821,35.392471126338741,-641.76950306368576,49.75324970372602,1004.2190740993865,696.98454681119892,225.80153861852705,-225.80153861852705,-696.98454681119892,1786.2110645129139,0.0
352154.6038362722,4750833.5216966402,-42500.0,380.80182210497145,231.89869060919995,1622.3601266361086,-83.835321276215481,-582.50714220700399,-40.611255718167016,1036.009985430313,876.11007155535731,148.53781979583647,-148.53781979583647,-876.11007155535731,1855.4311401088687,0.0
357154.6038362722,4750833.5216966402,-42500.0,392.26968874181824,427.41577229414514,1571.6663158184124,-204.61282261377798,-463.35636704094242,-164.32950425672868,1066.4933829363199,1064.740492003938,12.80227662422692,-12.80227662422692,-1064.740492003938,1917.0236289221359,0.0
362154.6038362722,4750833.5216966402,-42500.0,447.63706482167424,612.13896327271914,1426.0938714369493,-310.33979604315175,-282.41182391683128,-319.54737161244049,1112.3771094593528,1241.1074879858161,-183.08965205610832,183.08965205610832,-1241.1074879858161,1987.1966507205477,0.0
367154.6038362722,4750833.5216966402,-42500.0,543.40214773417631,757.97036214127547,1188.8140211525449,-383.42734205047526,-46.402602521617716,-499.62303823505442,1185.0034551562646,1379.7497444081769,-431.86440459198468,431.86440459198468,-1379.7497444081769,2085.3549478029499,0.0
372154.6038362722,4750833.5216966402,-42500.0,665.68438240123646,839.72041554157022,877.0481298061145,-409.03065549586802,229.0794506674201,-693.34533310994198,1281.0654114149725,1456.5201396713746,-717.01768925680017,717.01768925680017,-1456.5201396713746,2225.6746301417857,0.0
377154.6038362722,4750833.5216966402,-42500.0,792.54118427433821,841.09272888944338,519.71216686418222,-378.60024440444545,521.62345562108158,-886.34806662832614,1390.3144594080568,1454.0727392720369,-1014.9563364743191,1014.9563364743191,-1454.0727392720369,2409.0773221706445,0.0
382154.6038362722,4750833.5216966402,-42500.0,898.94989223804407,758.56209379801794,151.92289478229083,-292.01974012008981,805.89559617399743,-1063.4397973738255,1501.4549615554818,1365.9893213137252,-1299.1271328472139,1299.1271328472139,-1365.9893213137252,2621.7443855671522,0.0
387154.6038362722,4750833.5216966402,-42500.0,962.74705912248021,601.82333004193663,-191.89251848820058,-157.58984737314731,1058.2287473192305,-1211.1922360845456,1603.8192921438329,1198.1370123312036,-1544.900944612863,1544.900944612863,-1198.1370123312036,2840.7235258914488,0.0
392154.6038362722,4750833.5216966402,-42500.0,969.47391439281614,390.87305379536809,-484.10352264652363,10.042834847988429,1260.5261548054034,-1320.037772786656,1688.5132368343634,966.94348951189511,-1733.7291618766317,1733.7291618766317,-966.94348951189511,3041.7420945685199,0.0
397154.6038362722,4750833.5216966402,-42500.0,914.70312927246709,151.01442215728568,-707.5646579495924,193.18297156451524,1402.4806651450426,-1385.3538971651617,1749.3330487565122,695.42179474754539,-1855.4895337154821,1855.4895337154821,-695.42179474754539,3204.9863919341337,0.0
402154.6038362722,4750833.5216966402,-42500.0,803.5678089320304,-92.433190562961158,-856.3589941972341,374.49953285995923,1481.8276352663459,-1407.41571103517,1783.1522709674796,408.41100486568348,-1908.7116778904278,1908.7116778904278,-408.41100486568348,3317.763571692522,0.0
407154.6038362722,4750833.5216966402,-42500.0,648.22390443686413,-318.25446165627778,-934.1222733060024,539.65337742353779,1503.0148513949025,-1390.462528179208,1789.7508833362449,128.42854583882047,-1899.095531925615,1899.095531925615,-128.42854583882047,3374.7370347052552,0.0
412154.6038362722,4750833.5216966402,-42500.0,464.43591201085155,-511.58724646644777,-951.03426342031582,678.71290769415043,1475.0187786196079,-1341.308780911015,1771.2494496734366,-127.02587594260365,-1837.1144757981924,1837.1144757981924,127.02587594260365,3376.7515919254947,0.0
417154.6038362722,4750833.5216966402,-42500.0,268.36898622250061,-664.35519980517881,-920.57490986551295,786.40029463879853,1409.0344415734198,-1267.9187097052084,1731.3505923995283,-346.53873030557179,-1735.4939671484422,1735.4939671484422,346.53873030557179,3329.0721727478826,0.0
422154.6038362722,4750833.5216966402,-42500.0,74.242924711935785,-774.40175255386566,-856.80643743361702,861.49789441286873,1316.5421792179854,-1178.2312832905975,1674.5317549011311,-524.53158098519793,-1607.111892674309,1607.111892674309,524.53158098519793,3239.584736086978,0.0
427154.6038362722,4750833.5216966402,-42500.0,-106.95807236954994,-843.96762858477211,-772.51807855953587,905.82411979269943,1207.9768577205666,-1079.3605635184631,1605.2687956271668,-660.20226472865443,-1463.5638349134738,1463.5638349134738,660.20226472865443,3117.2688153672325,0.0
432154.6038362722,4750833.5216966402,-42500.0,-267.85359444708547,-878.04709504102595,-678.23624804349947,923.12305804478615,1092.0035780694107,-977.16873983361654,1527.4247038769329,-756.15015009004014,-1314.3944724298692,1314.3944724298692,756.15015009004014,2971.0663664766412,0.0
437154.6038362722,4750833.5216966402,-42500.0,-404.39615964173004,-882.95909823572856,-581.91832240557312,918.08831707021523,975.27959360449347,-876.13757464191463,1444.0478201787066,-817.03988957972729,-1166.8612261019605,1166.8612261019605,817.03988957972729,2809.1509683605245,0.0
442154.6038362722,4750833.5216966402,-42500.0,-515.25589096681529,-865.2797919042838,-489.09315262970648,895.62147724738736,862.54196208371877,-779.44015833893582,1357.5800228400894,-848.49861684374264,-1026.05280487867,1026.05280487867,848.49861684374264,2638.5348880172314,0.0
447154.6038362722,4750833.5216966402,-42500.0,-601.09394779495381,-831.14979656399589,-403.23629924220745,860.33916343374074,756.87399519101882,-689.12347441234147,1270.1004534870196,-856.31340264326707,-895.20099785090667,895.20099785090667,856.31340264326707,2464.9278441721171,0.0
292154.6038362722,4755833.5216966402,-42500.0,490.46074965810783,-84.808292617675946,223.79177228846257,173.7889598305361,-80.835192930213836,32.017800068943458,308.71417940919616,176.78971294545056,-75.31229468817665,75.31229468817665,-176.78971294545056,539.27534839396185,0.0
297154.6038362722,4755833.5216966402,-42500.0,520.7181832669628,-119.23420746975719,284.2556314412447,195.44107261472431,-114.26822846260892,42.895773339629564,347.85979356519863,176.97945977391615,-58.80585607060388,58.80585607060388,-176.97945977391615,606.34593992944099,0.0
302154.6038362722,4755833.5216966402,-42500.0,544.50702118804952,-154.36933257031043,357.88162252627393,215.59820919892789,-153.93098958090602,54.955859322882567,391.70990405490289,178.09254183761988,-36.913323308715889,36.913323308715889,-178.09254183761988,682.01787613288707,0.0
307154.6038362722,4755833.5216966402,-42500.0,559.49152247660891,-187.75753936046362,445.91751674959505,232.46012209313815,-199.80362395278513,67.696596277918417,440.03130646058088,181.7899505478602,-9.4476729237107406,9.4476729237107406,-181.7899505478602,765.86059745348223,0.0
312154.6038362722,4755833.5216966402,-42500.0,563.41809194183418,-215.95046849494574,548.88140147122544,243.72477137817916,-251.2464229682507,80.244210361032287,492.19394788975688,190.44683982323937,23.210431572566208,-23.210431572566208,-190.44683982323937,856.81267981647773,0.0
317154.6038362722,4755833.5216966402,-42500.0,554.49837776139429,-234.4520855822737,666.04780605133396,246.62876644762051,-306.71256511121919,91.236130027016571,547.09455773574382,207.21541158254621,59.815071853535997,-59.815071853535997,-207.21541158254621,953.06358834139326,0.0
322154.6038362722,4755833.5216966402,-42500.0,531.93656275666274,-237.84213372842322,794.81426904572993,238.10361484374417,-363.42892992745703,98.709790235021686,603.11744000536044,235.9593766964054,97.917724151945819,-97.917724151945819,-235.9593766964054,1052.0000866995763,0.0
327154.6038362722,4755833.5216966402,-42500.0,496.56147812131098,-220.18733668215987,930.02037303720658,215.0981110482804,-417.09929028358749,100.02691937433839,658.16963384472365,280.97096043087396,133.54532964566232,-133.54532964566232,-280.97096043087396,1150.2921964410484,0.0
332154.6038362722,4755833.5216966402,-42500.0,451.44948457009514,-175.84244370020815,1063.3709422793947,175.10504638378583,-461.72450779909263,91.878896395355511,709.84835321918013,346.37846039124906,160.99260181568692,-160.99260181568692,-346.37846039124906,1244.2200074280306,0.0
337154.6038362722,4755833.5216966402,-42500.0,402.33215620148036,-100.6837094966416,1183.2093644923859,116.89057075956295,-489.67616697451143,70.432266910001474,755.82824079724753,435.1900912418206,172.87243023763264,-172.87243023763264,-435.1900912418206,1330.3570573729198,0.0
342154.6038362722,4755833.5216966402,-42500.0,357.50638364363078,6.3196208822959141,1274.9524632787411,41.347077310329816,-492.17982148740384,31.674647803714041,794.60756602536298,548.02035478462642,160.59052298375886,-160.59052298375886,-548.02035478462642,1406.6905000937656,0.0
347154.6038362722,4755833.5216966402,-42500.0,326.9663604937802,141.49998021495003,1322.4683674485009,-47.718556340240703,-460.32711638710799,-28.00395795463097,826.86579388912151,681.71253637085135,115.37374166677921,-115.37374166677921,-681.71253637085135,1474.1108895055647,0.0
352154.6038362722,4755833.5216966402,-42500.0,320.62958235803217,295.37596108505193,1310.4904473350603,-143.15293947453006,-386.61499670620879,-111.02151364783694,857.71412868531127,828.26657768218911,29.854141681214344,-29.854141681214344,-828.26657768218911,1537.8733245597846,0.0
357154.6038362722,4755833.5216966402,-42500.0,345.8542318610377,452.65305872807352,1227.7909351575197,-234.70496916399853,-266.80036773254272,-217.73016035490588,898.22511067750497,974.60517175360337,-100.00989951080095,100.00989951080095,-974.60517175360337,1608.0971449872934,0.0
362154.6038362722,4755833.5216966402,-42500.0,404.85943002375319,593.80787831866178,1070.3959389551621,-310.16965766961664,-101.62651016821557,-345.6838139451495,959.44582063308826,1103.6376386114662,-273.14131935544918,273.14131935544918,-1103.6376386114662,1697.9961182419099,0.0
367154.6038362722,4755833.5216966402,-42500.0,492.9527659513335,698.2494009267391,843.82132532607477,-357.36832655452838,102.16020120126851,-489.32265211097683,1042.4829647780014,1196.7356346998849,-482.29385714658042,482.29385714658042,-1196.7356346998849,1819.2653638260665,0.0
372154.6038362722,4755833.5216966402,-42500.0,598.40770148067782,748.40118302044255,563.38955832216061,-366.55249963397574,332.00058910729149,-640.29267565724945,1140.7840087920617,1237.1948208301351,-714.26942581718447,714.26942581718447,-1237.1948208301351,1976.435245142248,0.0
377154.6038362722,4755833.5216966402,-42500.0,704.32974716384126,733.53751461055435,252.22768202651224,-332.55512221221369,571.08132108586733,-788.44271963465417,1245.9069114047343,1213.7612671004711,-951.57359222250193,951.57359222250193,-1213.7612671004711,2163.8605800154323,0.0
382154.6038362722,4755833.5216966402,-42500.0,792.0925661820055,652.15085269180463,-62.641960809576986,-256.00831145555441,800.95158011950662,-923.3074396388871,1349.3266546649297,1123.1391652042407,-1175.1787702044471,1175.1787702044471,-1123.1391652042407,2367.28746685228,0.0
387154.6038362722,4755833.5216966402,-42500.0,845.29003019029949,512.11107432914082,-355.01537893716613,-143.23977201786442,1004.5030079782739,-1035.7015721357361,1443.1539346987583,970.69497391199957,-1367.655401053446,1367.655401053446,-970.69497391199957,2568.3658465517469,0.0
392154.6038362722,4755833.5216966402,-42500.0,852.9792990893061,328.6758095083884,-603.6895234847351,-4.9202388611499579,1168.5113557254904,-1119.0125882229179,1520.8823663005205,769.21141776697789,-1515.8202058729412,1515.8202058729412,-769.21141776697789,2749.2743254476118,0.0
397154.6038362722,4755833.5216966402,-42500.0,811.34061393476247,121.12353173661928,-795.08992390568892,146.06275982815723,1285.1458209080588,-1169.8986268888655,1577.978044551201,536.19915894086273,-1612.2742476422727,1612.2742476422727,-536.19915894086273,2895.8625390888465,0.0
402154.6038362722,4755833.5216966402,-42500.0,723.5311422639885,-90.903114605208614,-923.96371290307786,296.85870500577477,1352.2482010993986,-1188.3107193152305,1612.1278814687962,290.65225662840248,-1655.6290365225054,1655.6290365225054,-290.65225662840248,2999.0865215464237,0.0
407154.6038362722,4755833.5216966402,-42500.0,598.11709963931196,-290.39526556328514,-992.39840255530157,436.47921966822861,1372.5689557395681,-1176.9596775605401,1623.1309790484522,50.124716583978397,-1649.6306517404266,1649.6306517404266,-50.124716583978397,3055.1132825355048,0.0
412154.6038362722,4755833.5216966402,-42500.0,446.79138478424807,-464.79500070256444,-1007.8153188252461,556.89159582302705,1352.3754890996413,-1140.4626417950506,1612.5203910207229,-171.29696387332524,-1601.6324471081505,1601.6324471081505,171.29696387332524,3064.5834915639334,0.0
417154.6038362722,4755833.5216966402,-42500.0,282.08069227035901,-606.57392939662338,-980.6532892982425,653.35213273050294,1299.883855324475,-1084.4180983423425,1583.0362724911176,-363.94409808951605,-1520.9012902955867,1520.9012902955867,363.94409808951605,3031.4663992490741,0.0
422154.6038362722,4755833.5216966402,-42500.0,115.52741909182842,-712.84091042468401,-922.29350975658951,724.14236398777246,1223.8597469699955,-1014.5962803503191,1538.0584131251931,-522.57639987820812,-1417.1245648300876,1417.1245648300876,522.57639987820812,2961.8333596573243,0.0
427154.6038362722,4755833.5216966402,-42500.0,-43.449246313713786,-784.3778699983186,-843.5226042622852,769.95051754758128,1132.5769789534618,-936.34497627453584,1481.0875941412232,-645.75664563486612,-1299.3140761756538,1299.3140761756538,645.75664563486612,2862.7621704787821,0.0
432154.6038362722,4755833.5216966402,-42500.0,-188.03501627289759,-824.47647235671718,-753.6016575245153,793.12536778769106,1033.1776352139329,-854.23109643496014,1415.3625340887611,-734.91563727779874,-1175.1477393177165,1175.1477393177165,734.91563727779874,2741.4778037877409,0.0
437154.6038362722,4755833.5216966402,-42500.0,-313.99640796537102,-837.84205176630007,-659.86099091095139,796.96773301381268,931.38447383706477,-771.88744372147858,1343.6812916578535,-793.36906763729553,-1050.6908236108668,1050.6908236108668,793.36906763729553,2604.7571760299029,0.0
442154.6038362722,4755833.5216966402,-42500.0,-419.34073567700437,-829.70904312559617,-567.67514300963546,785.1512305622756,831.47271322151619,-692.01025141467994,1268.4030112463081,-825.45126242473668,-930.39341220116228,930.39341220116228,825.45126242473668,2458.573725147593,0.0
297154.6038362722,4760833.5216966402,-42500.0,451.52531793405029,-121.18418626607377,301.00727587714817,166.7576320895995,-119.2685617712559,37.003314264430756,316.48215330114965,158.44186386114518,-37.409041067489156,37.409041067489156,-158.44186386114518,549.77017579468406,0.0
302154.6038362722,4760833.5216966402,-42500.0,464.01922935159092,-146.90548087995194,370.3242139639836,178.89366625186599,-153.3581465511287,45.416993694515071,353.14994995841499,162.74001811999466,-17.688945082660865,17.688945082660865,-162.74001811999466,613.26527738655966,0.0
307154.6038362722,4760833.5216966402,-42500.0,468.39206171123271,-168.80156365739916,450.71229576742218,186.98589574308272,-191.38242311918506,53.614489739115982,392.74701332426309,170.74097224234623,5.677220014986176,-5.677220014986176,-170.74097224234623,682.11041106311632,0.0
312154.6038362722,4760833.5216966402,-42500.0,463.31930474726221,-183.7166671722436,541.68533496376551,189.14221714819578,-232.30570936443621,60.707347550618586,434.57289347541348,184.60833562600362,31.875402651595422,-31.875402651595422,-184.60833562600362,755.15980275474294,0.0
317154.6038362722,4760833.5216966402,-42500.0,448.09000989841132,-187.8460877822576,641.52440593481163,183.25010019744127,-274.30544316623713,65.431400044207322,477.60184377708521,206.98469095228668,59.328393976769718,-59.328393976769718,-206.98469095228668,830.77945241507268,0.0
322154.6038362722,4760833.5216966402,-42500.0,423.00344926090054,-176.96335195902839,746.8369612479446,167.15842626773579,-314.57994207207645,66.095017377493051,520.5081161059644,240.83623399212019,85.490028344123246,-85.490028344123246,-240.83623399212019,906.91025205297149,0.0
327154.6038362722,4760833.5216966402,-42500.0,389.780797958542,-146.87322014769833,852.15568668706362,138.97690399163912,-349.21212149642457,60.568200785219624,561.76649290216085,289.12181791194337,106.69322208224725,-106.69322208224725,-289.12181791194337,981.27335394854549,0.0
332154.6038362722,4760833.5216966402,-42500.0,351.88822322676214,-94.128156243374008,949.70497897630094,97.499281813371113,-373.15995210725248,46.34327214949468,599.87510013367012,354.24730542865632,118.12653195144057,-118.12653195144057,-354.24730542865632,1051.7823875679503,0.0
337154.6038362722,4760833.5216966402,-42500.0,314.62092513766311,-16.985654032093066,1029.5080242164809,42.722203052907666,-380.460394436608,20.700742942719717,633.78003482314591,437.30953526497291,114.030695925825,-114.030695925825,-437.30953526497291,1117.2125208639809,0.0
342154.6038362722,4760833.5216966402,-42500.0,284.7775359255325,83.517995596661095,1080.0159417267669,-23.621409579051154,-364.72688965460276,-18.993718884480753,663.65587609888098,537.212928523149,88.200205415157512,-88.200205415157512,-537.212928523149,1178.1037550070937,0.0
347154.6038362722,4760833.5216966402,-42500.0,269.79662754648842,202.62706189910875,1089.3784281133107,-97.654678858139604,-319.97659531973869,-74.8591133047982,692.29756564987815,649.84615015525878,34.828554709068555,-34.828554709068555,-649.84615015525878,1237.7047436251446,0.0
352154.6038362722,4760833.5216966402,-42500.0,276.35884590599079,331.40965922989528,1047.3194495469095,-173.25651446178617,-241.73338520406725,-147.97604259357723,726.75979469494189,767.60268064885315,-50.359698395661894,50.359698395661894,-767.60268064885315,1302.4751308249463,0.0
357154.6038362722,4760833.5216966402,-42500.0,308.66914430681413,457.13982176095186,947.3432219384099,-242.43799917524223,-128.2273424790323,-237.86504776843404,776.41953347902268,879.55642086869284,-168.87855091253454,168.87855091253454,-879.55642086869284,1381.3932010447265,0.0
362154.6038362722,4760833.5216966402,-42500.0,366.85646622405091,564.7180584268134,788.75722542907943,-296.27075266672551,18.603722986770951,-342.10603907028349,845.17684276467185,972.50530316261882,-318.46112924185115,318.46112924185115,-972.50530316261882,1483.5183627062581,0.0
367154.6038362722,4760833.5216966402,-42500.0,446.04420832677721,639.01737465358951,577.88038159364373,-326.27302329821532,192.64812605740184,-456.24859355722197,929.56119455762405,1032.8563718101839,-492.60396361178465,492.60396361178465,-1032.8563718101839,1614.372844489219,0.0
372154.6038362722,4760833.5216966402,-42500.0,536.54666964402202,667.67111482889288,327.91698142202927,-325.96849339871676,383.9440746898652,-574.11407722264209,1023.456469415117,1049.0099641215261,-680.9372646724778,680.9372646724778,-1049.0099641215261,1773.0585219793654,0.0
377154.6038362722,4760833.5216966402,-42500.0,625.31912003381785,643.56397928909416,57.335378579153982,-292.21102445072609,579.83844349458525,-688.4875718707807,1120.3579586439914,1013.6476004538273,-870.46123503355045,870.46123503355045,-1013.6476004538273,1951.8699265687594,0.0
382154.6038362722,4760833.5216966402,-42500.0,698.34969049277254,566.29944801746444,-212.93055434278466,-225.89095904145398,766.76162376361219,-792.07299220158632,1213.856030593081,925.27620591594575,-1047.4101641689338,1047.4101641689338,-925.27620591594575,2138.3484852001338,0.0
387154.6038362722,4760833.5216966402,-42500.0,743.33307617841035,442.22255326934248,-462.74878177294516,-131.81533135323718,932.19461650380777,-878.49374220440291,1298.0731482350377,788.58391368389994,-1199.2935714820665,1199.2935714820665,-788.58391368389994,2318.3331055372814,0.0
392154.6038362722,4760833.5216966402,-42500.0,751.87798361375792,283.04671676020837,-675.69308123697829,-17.813104931479188,1066.3521058874189,-943.10552584119239,1368.1733590770118,613.53978609896262,-1316.6143585199072,1316.6143585199072,-613.53978609896262,2478.6765666270267,0.0
397154.6038362722,4760833.5216966402,-42500.0,720.70296677080887,103.55518389720632,-840.93290408903681,106.65653847915057,1163.2220372394297,-983.45315643167078,1420.7575899814392,413.55295466500991,-1393.8934935995298,1393.8934935995298,-413.55295466500991,2609.049205661252,0.0
402154.6038362722,4760833.5216966402,-42500.0,651.65171631546252,-80.948950134445838,-953.83830566686561,232.00945616069293,1220.8247744467878,-999.31754662280105,1454.0366481790668,203.2362157677187,-1429.8695012942196,1429.8695012942196,-203.2362157677187,2702.7885211650455,0.0
407154.6038362722,4760833.5216966402,-42500.0,550.72778464169937,-256.8272287368809,-1015.4233358632997,349.80931557176132,1240.7809746886219,-992.41118477569148,1467.7696001035811,-3.6691192179373502,-1426.9793476422333,1426.9793476422333,3.6691192179373502,2756.9749753375972,0.0
412154.6038362722,4760833.5216966402,-42500.0,426.57043525391703,-413.54538802212465,-1031.0144875810756,453.59757720884681,1227.4257182103977,-965.8524307322856,1463.0168412765568,-195.81369004706573,-1390.3806023514221,1390.3806023514221,195.81369004706573,2771.976551219399,0.0
417154.6038362722,4760833.5216966402,-42500.0,288.826595741804,-544.27333199317832,-1008.6081327320295,539.23069185572251,1186.7477000847571,-923.56528445802837,1441.7828825778608,-365.0479967855847,-1326.8121720173583,1326.8121720173583,365.0479967855847,2750.7001879116815,0.0
422154.6038362722,4760833.5216966402,-42500.0,146.76693416806611,-645.77333744301018,-957.3074380887266,604.79986312976416,1125.3872456386084,-869.72566089131533,1406.6255606055763,-506.56690983513727,-1243.5384395341532,1243.5384395341532,506.56690983513727,2697.7512084718414,0.0
427154.6038362722,4760833.5216966402,-42500.0,8.3279065778394763,-717.81747733267116,-886.08106394269544,650.27297923852643,1049.8385598127138,-808.32778574465601,1360.2979387874254,-618.56594109131368,-1147.524798333513,1147.524798333513,618.56594109131368,2618.6453347475876,0.0
432154.6038362722,4760833.5216966402,-42500.0,-120.38980484930266,-762.38649537119079,-802.93439721379241,677.00542380019829,965.9119780125244,-742.8970620084167,1305.4748468834857,-701.62129143592051,-1044.8967649607155,1044.8967649607155,701.62129143592051,2519.1585555582101,0.0
437154.6038362722,4760833.5216966402,-42500.0,-235.23784864038481,-782.85139910124258,-714.4720481781161,687.23773581438172,878.44403196508017,-676.34068336760288,1244.5907241633713,-757.98109906579941,-940.66382357117902,940.66382357117902,757.98109906579941,2404.8478896986371,0.0
302154.6038362722,4765833.5216966402,-42500.0,392.74285914320785,-132.53793172998084,373.2281999271957,145.40522510725725,-147.4219186549453,36.232794469815211,316.85546363702633,152.61412321502871,-5.0684897355363745,5.0684897355363745,-152.61412321502871,549.40849149384235,0.0
307154.6038362722,4765833.5216966402,-42500.0,390.1129509600953,-144.59409181323335,444.63519054775475,147.0601636702327,-178.03692097112184,40.887452456986672,349.09948680627201,164.10513593830399,13.964760257477238,-13.964760257477238,-164.10513593830399,605.52914445017882,0.0
312154.6038362722,4765833.5216966402,-42500.0,379.82149229265974,-148.82809419571859,522.87556710072693,142.96214444521331,-209.56446862938219,43.930374728565198,382.51211203825721,181.73410116503848,34.041205306361093,-34.041205306361093,-181.73410116503848,663.96809627547975,0.0
317154.6038362722,4765833.5216966402,-42500.0,361.90115668887648,-142.19044950968137,605.67314137697906,131.57653431177482,-240.14671346850815,44.261117949462147,416.23791668239727,207.58044283139276,53.503104682248804,-53.503104682248804,-207.58044283139276,723.43249463791176,0.0
322154.6038362722,4765833.5216966402,-42500.0,337.29993284411449,-121.55981946771954,689.35525170041592,111.48658997584593,-267.18469881754629,40.490099411337447,449.28719431913123,243.77519865360009,69.956968735602203,-69.956968735602203,-243.77519865360009,782.50472427541081,0.0
327154.6038362722,4765833.5216966402,-42500.0,308.12140299350347,-84.16734809715183,768.65632244743051,81.643718744067968,-287.30363782805932,30.961377820272816,480.66740444700201,292.18315076724161,80.230404684692559,-80.230404684692559,-292.18315076724161,839.89976799340582,0.0
332154.6038362722,4765833.5216966402,-42500.0,277.7495416095739,-28.183489182960788,836.6992823701197,41.684886733998447,-296.43136463713279,13.831597138794734,509.62888104091087,353.94928197478953,80.445103371906555,-80.445103371906555,-353.94928197478953,894.8769966366981,0.0
337154.6038362722,4765833.5216966402,-42500.0,250.75814523390773,46.581442299924333,885.26645506108889,-7.7175059345715367,-290.04028213249728,-12.777773965863902,536.11712075518312,428.9399542094626,66.258710976462027,-66.258710976462027,-428.9399542094626,947.8005984333862,0.0
342154.6038362722,4765833.5216966402,-42500.0,232.5112216216406,137.9798720212863,905.45500515046751,-64.540434519514264,-263.58807586627574,-50.546998986742778,561.6160198294491,515.16360976875535,33.31230651889453,-33.31230651889453,-515.16360976875535,1000.7523777182904,0.0
347154.6038362722,4765833.5216966402,-42500.0,228.40996594560849,241.01853094942754,888.74781359294082,-125.22651766096295,-213.15397150120688,-100.65390909124848,590.447344901723,608.31542399810314,-22.12052413066391,22.12052413066391,-608.31542399810314,1057.9419282407982,0.0
352154.6038362722,4765833.5216966402,-42500.0,242.84088867377474,347.76249331209527,828.4175039751475,-184.73947204737871,-136.20716174830827,-163.43581029265584,629.81617203220924,701.63144276411856,-102.35109318631157,102.35109318631157,-701.63144276411856,1125.4893639493032,0.0
357154.6038362722,4765833.5216966402,-42500.0,278.00926763999638,447.84376227392085,721.03319564870253,-236.94224192402964,-32.371494967371802,-238.08319836754097,684.97836120842976,786.22546798228245,-207.50258490960726,207.50258490960726,-786.22546798228245,1210.175058026965,0.0
362154.6038362722,4765833.5216966402,-42500.0,332.95792689000973,529.64177156637584,567.71728988817244,-275.31178937319658,96.003036468368848,-322.44961339369053,755.02717923814896,851.99479411852121,-334.94470460173324,334.94470460173324,-851.99479411852121,1317.2451445111458,0.0
367154.6038362722,4765833.5216966402,-42500.0,403.10695491124875,582.00281116235396,374.76368403855724,-293.90185643051876,243.65725160654091,-413.05856900890689,835.69761435957969,889.02225522438027,-479.13706049309587,479.13706049309587,-889.02225522438027,1448.1781630525049,0.0
372154.6038362722,4765833.5216966402,-42500.0,480.5591936474969,596.15384038489879,153.33299963257954,-288.36199218684987,402.7565167026188,-505.35273838627984,922.11227426791663,889.21880378658216,-632.00886651620681,632.00886651620681,-889.21880378658216,1599.6179749218038,0.0
377154.6038362722,4765833.5216966402,-42500.0,555.20538857276301,567.34054177477401,-81.82607054311913,-256.76610962799782,563.7408898851063,-594.17089505518879,1009.324579162101,847.82231853173857,-783.86605053373887,783.86605053373887,-847.82231853173857,1763.9472268769084,0.0
382154.6038362722,4765833.5216966402,-42500.0,616.40461276567896,495.75052103307434,-314.392654693358,-200.02915633689668,716.54047849696428,-674.36996450444042,1092.4919967419294,764.36069471874282,-924.65946331943667,924.65946331943667,-764.36069471874282,1930.9750419023198,0.0
387154.6038362722,4765833.5216966402,-42500.0,654.82014939573071,386.47724256565544,-528.76680192565618,-121.79868941362157,851.89342523105267,-741.46384359718536,1167.1894945814968,642.82234370962067,-1045.3355382440391,1045.3355382440391,-642.82234370962067,2089.8874393442647,0.0
392154.6038362722,4765833.5216966402,-42500.0,663.94536831820665,248.56233565568701,-712.1115585391276,-27.85602290221221,962.47794108276264,-792.14376753502847,1229.765985263919,491.00454113249504,-1138.9696593349304,1138.9696593349304,-491.00454113249504,2230.8822549291299,0.0
397154.6038362722,4765833.5216966402,-42500.0,640.97326989430564,93.408078666855744,-855.72499697257729,74.806792295665034,1043.6367930184344,-824.58215150979618,1277.6185570760238,319.23842418948004,-1201.4589262095983,1201.4589262095983,-319.23842418948004,2346.2652832242156,0.0
402154.6038362722,4765833.5216966402,-42500.0,586.88519393216905,-67.016198075546797,-955.54981199936879,179.00297213303992,1093.6002950876716,-838.48378947933088,1309.3196223070743,138.8311980156958,-1231.6877617895457,1231.6877617895457,-138.8311980156958,2430.9932107618124,0.0
407154.6038362722,4765833.5216966402,-42500.0,505.86064446722764,-221.76963407815583,-1011.8737266969158,278.24266288388486,1113.2482139807582,-834.91291510138274,1324.5873494360033,-39.416796168502856,-1231.2205909716217,1231.2205909716217,39.416796168502856,2482.7444999603945,0.0
412154.6038362722,4765833.5216966402,-42500.0,404.26031992555016,-362.06574086478861,-1028.450756467764,367.3559905023788,1105.5468789089598,-815.96837055597166,1324.1276445165308,-206.35131339872783,-1203.6725697468814,1203.6725697468814,206.35131339872783,2501.6418014380947,0.0
417154.6038362722,4765833.5216966402,-42500.0,289.47552443254239,-481.83147950856579,-1011.3430617600767,442.7972067622282,1074.8336287498116,-784.39408287352308,1309.3946921909821,-355.13185419981187,-1153.9418086186654,1153.9418086186654,355.13185419981187,2489.7610718116607,0.0
422154.6038362722,4765833.5216966402,-42500.0,168.88859609729192,-577.7516567851211,-967.75594434345635,502.66015253721901,1026.1045406211695,-743.20206170416338,1282.3216409527784,-481.4337843176238,-1087.4648245230567,1087.4648245230567,481.4337843176238,2450.5533079767188,0.0
427154.6038362722,4765833.5216966402,-42500.0,49.093097497085168,-648.93979547838069,-905.0546804998886,546.48343417668059,964.41340348666074,-695.36016419023906,1245.066774270198,-583.28223346111474,-1009.6034593661833,1009.6034593661833,583.28223346111474,2388.2778021120689,0.0
432154.6038362722,4765833.5216966402,-42500.0,-64.576418440650144,-696.40218763192718,-830.05438358040954,574.93789759611548,894.43476027714655,-643.56918213711913,1199.808349001577,-660.65315047981096,-925.21259538944912,925.21259538944912,660.65315047981096,2307.512152343038,0.0
307154.6038362722,4770833.5216966402,-42500.0,324.02778708051648,-118.28256303131953,430.0885927399234,112.94954511881782,-161.94906473032739,29.86411442359309,309.55955534579755,159.92963238718312,17.416173544661305,-17.416173544661305,-159.92963238718312,536.57058156998914,0.0
312154.6038362722,4770833.5216966402,-42500.0,311.18397968910745,-114.33304300589178,495.76621831765544,104.81681743455802,-185.42221876911273,30.023700880598021,336.28400314927239,179.94675404325329,32.053786459003788,-32.053786459003788,-179.94675404325329,583.38574402600739,0.0
317154.6038362722,4770833.5216966402,-42500.0,292.9039731011091,-100.07511702581301,562.69206228998235,90.352171486371788,-206.66007308720384,27.430155513522358,362.87729092618929,207.4741679221699,44.871986118600447,-44.871986118600447,-207.4741679221699,630.51124027622654,0.0
322154.6038362722,4770833.5216966402,-42500.0,270.46232486542328,-73.328345962731518,627.2500985850254,68.692787389379319,-223.37716147683079,20.979866117488452,388.66954837662013,243.93547041243539,53.754710610336815,-53.754710610336815,-243.93547041243539,677.14888217338807,0.0
327154.6038362722,4770833.5216966402,-42500.0,246.0238358790526,-32.425758511849125,684.6571091950442,39.368188439979157,-232.77473739286455,9.4202288190067058,413.11979196163941,290.35797701856688,56.073520065963393,-56.073520065963393,-290.35797701856688,722.85456165824894,0.0
332154.6038362722,4770833.5216966402,-42500.0,222.64858357659048,23.332965066337167,729.06482586139111,2.5267788544851961,-231.65553715085738,-8.5724590577138269,436.07959799594613,347.02002310355954,48.801255396479036,-48.801255396479036,-347.02002310355954,767.89320340998358,0.0
337154.6038362722,4770833.5216966402,-42500.0,204.12182584279458,93.192018598030074,753.88961552189312,-40.838781687053284,-216.65651122965846,-34.266613546500317,458.29606677393929,413.05864253277196,28.747089093061732,-28.747089093061732,-413.05864253277196,813.63982378322919,0.0
342154.6038362722,4770833.5216966402,-42500.0,194.5635519521488,174.50946732670769,752.41158643752476,-88.717705949556631,-184.61013435009971,-68.701076139836644,482.31293190258901,486.10992795090209,-7.0767395529220494,7.0767395529220494,-486.10992795090209,862.890613597889,0.0
347154.6038362722,4770833.5216966402,-42500.0,197.81553469166806,262.51676687290643,718.63152277031134,-138.02191305709508,-133.01616675884,-112.47604260042382,513.21874618268612,562.0854289800111,-60.97661818563688,60.97661818563688,-562.0854289800111,919.84247389120299,0.0
352154.6038362722,4770833.5216966402,-42500.0,216.67215351835156,350.40508768617178,648.29611879721983,-184.70316430948205,-60.566903966241995,-165.53833755036814,556.43371234226584,635.2007250751567,-134.04883370922383,134.04883370922383,-635.2007250751567,989.47325245675279,0.0
357154.6038362722,4770833.5216966402,-42500.0,252.09859767841428,429.83618902025506,539.91408747085097,-224.08411331392278,32.370766048084185,-227.00442195910597,613.10399868696163,698.34765151726413,-225.7018358787933,225.7018358787933,-698.34765151726413,1076.2587268056454,0.0
362154.6038362722,4770833.5216966402,-42500.0,302.63686410802006,491.88417477403664,395.52563868915405,-251.3931687366298,143.43668324344344,-295.07156433733826,680.52593884658552,743.83420625966608,-333.35397710700101,333.35397710700101,-743.83420625966608,1182.6123793087424,0.0
367154.6038362722,4770833.5216966402,-42500.0,364.20246437428568,528.28788921326429,220.98823268454788,-262.43159806107974,268.23443946817264,-367.06037051330816,755.03412410700889,764.41408411965165,-452.420045669969,452.420045669969,-764.41408411965165,1307.7663633026903,0.0
372154.6038362722,4770833.5216966402,-42500.0,430.40212851836344,532.77314331733749,25.62367292532446,-254.24569460845504,400.62776843707377,-439.6081697852303,832.88595272274983,754.42158606586474,-576.64658980512161,576.64658980512161,-754.42158606586474,1447.6098249526183,0.0
377154.6038362722,4770833.5216966402,-42500.0,493.36776554707984,502.14307974132117,-178.77499448181715,-225.65257654142175,533.36034234627766,-508.99704861259261,910.30766666959266,710.76323530759782,-698.77174777725031,698.77174777725031,-710.76323530759782,1595.4306301554889,0.0
382154.6038362722,4770833.5216966402,-42500.0,544.9477704405549,436.86731259237649,-379.40544559894857,-177.49020990390429,658.8957832085481,-571.56356282660533,983.61011791161968,633.52559657409222,-811.39558313643454,811.39558313643454,-633.52559657409222,1743.121915795565,0.0
387154.6038362722,4770833.5216966402,-42500.0,577.98481944236437,341.02537458249975,-564.08382900864683,-112.52805449741307,770.31294892367475,-624.11284127006115,1049.4238449955019,526.04837412503116,-907.88640402175588,907.88640402175588,-526.04837412503116,1882.4213817054429,0.0
392154.6038362722,4770833.5216966402,-42500.0,587.38548921512006,221.63236917761958,-722.69811630251661,-35.062183013845818,862.07819653939418,-664.25742494412611,1104.9529280443014,394.4512116168836,-983.13980100051947,983.13980100051947,-394.4512116168836,2005.9310602036101,0.0
397154.6038362722,4770833.5216966402,-42500.0,570.75801693123822,87.530783487334133,-848.21302474773483,49.704382616378034,930.55590809631553,-690.62209203068926,1148.1700865354355,246.74114195587134,-1034.0532949160263,1034.0532949160263,-246.74114195587134,2107.8178608807484,0.0
402154.6038362722,4770833.5216966402,-42500.0,528.52776950474981,-51.881585888295504,-937.09039757233927,136.35435094632908,974.19274828124856,-702.89099913250129,1177.9132018130208,91.716702272249051,-1059.6594960272198,1059.6594960272198,-91.716702272249051,2184.1809066934434,0.0
407154.6038362722,4770833.5216966402,-42500.0,463.5805063430978,-187.82065822935598,-989.14300902194577,219.88396052482798,993.39232977565018,-701.71044693800616,1193.8757863986332,-62.098955299638931,-1060.9449144024095,1060.9449144024095,62.098955299638931,2233.1199425137024,0.0
412154.6038362722,4770833.5216966402,-42500.0,380.58432252225396,-312.98936516126196,-1006.9584275930597,296.1676048801292,990.15836306006736,-688.48768152590424,1196.5074463106671,-207.31198203528339,-1040.4428834375854,1040.4428834375854,207.31198203528339,2254.5687514768015,0.0
417154.6038362722,4770833.5216966402,-42500.0,285.17917041229759,-422.06936637626649,-995.08631820884489,362.216177665901,967.6130436557969,-665.13793664740967,1186.8540919923844,-338.19940065622814,-1001.7147523582228,1001.7147523582228,338.19940065622814,2249.972992028308,0.0
422154.6038362722,4770833.5216966402,-42500.0,183.20355443166352,-511.84403673394041,-959.17723335751214,416.23723142082173,929.49353734266049,-633.82842934779103,1166.3713753137322,-450.92513246462806,-948.8255142988063,948.8255142988063,450.92513246462806,2221.8914117745935,0.0
427154.6038362722,4770833.5216966402,-42500.0,80.074130898307331,-581.03271957442189,-905.21563559199137,457.53951138330325,879.70460279910446,-596.75567905823357,1136.7420996314768,-543.4821067452898,-885.89138460082029,885.89138460082029,543.4821067452898,2173.5882479961833,0.0
312154.6038362722,4775833.5216966402,-42500.0,255.37153009530405,-82.126520161085509,463.26189777737915,73.924224087932004,-161.5086550230981,18.824304418301097,295.80099767195532,178.11313392186113,27.641866837970525,-27.641866837970525,-178.11313392186113,513.06207253612956,0.0
317154.6038362722,4775833.5216966402,-42500.0,238.12921948576246,-62.83820067976032,515.9732172692253,58.075319038625999,-175.31745945881508,14.410650365061571,317.01892213362152,205.93466120503356,35.146550745124927,-35.146550745124927,-205.93466120503356,550.97997069603764,0.0
322154.6038362722,4775833.5216966402,-42500.0,218.63518169827549,-32.75135209849838,564.15322966478197,36.421345792036668,-184.21147027375363,6.5275884616198017,337.54943448216869,241.21211337184025,38.336746711874653,-38.336746711874653,-241.21211337184025,588.77707833715635,0.0
327154.6038362722,4775833.5216966402,-42500.0,198.93104274561458,8.990463528340392,603.62515285638142,8.8684333744983608,-185.93199685261087,-5.7528137575911966,357.21653072666277,284.36708760364462,35.101040666876671,-35.101040666876671,-284.36708760364462,626.6559742224515,0.0
332154.6038362722,4775833.5216966402,-42500.0,181.65525248242344,62.340371150288689,629.55367887728664,-24.151136730672288,-178.02096747188401,-23.363118145831873,376.36117469571252,335.11941294972803,23.133635882838888,-23.133635882838888,-335.11941294972803,665.54949528114651,0.0
337154.6038362722,4775833.5216966402,-42500.0,169.84951485597108,126.01999974592022,636.77416420341331,-61.540265946833124,-158.0238834063596,-47.14145910923898,396.41942000835832,392.22388276273227,0.13961253234722903,-0.13961253234722903,-392.22388276273227,707.34823288650045,0.0
342154.6038362722,4775833.5216966402,-42500.0,166.61436520378987,197.27076844774919,620.30319359868247,-101.45061424824901,-123.77277171441439,-77.705536995471121,420.72766230653684,453.26098672737044,-35.87917448816026,35.87917448816026,-453.26098672737044,754.95299489628337,0.0
347154.6038362722,4775833.5216966402,-42500.0,174.63030439702374,271.77184474094571,576.00198762406319,-141.28814135191766,-73.727635194398019,-115.31170441009409,454.02875192603273,514.55216804707698,-86.281209695471148,86.281209695471148,-514.55216804707698,811.9816652465488,0.0
352154.6038362722,4775833.5216966402,-42500.0,195.60598334304319,343.80616399936571,501.31245429725033,-177.84440252439455,-7.3308507954038795,-159.72029426586553,498.89924377623311,571.26956823368823,-151.43403620871749,151.43403620871749,-571.26956823368823,882.03962845645424,0.0
357154.6038362722,4775833.5216966402,-42500.0,229.75937723738249,406.71972862966282,395.93533156110925,-207.56778911571536,74.692081690052888,-210.0952424744429,554.0794527067485,617.78504113097199,-230.42395446630817,230.42395446630817,-617.78504113097199,967.69442019578059,0.0
362154.6038362722,4775833.5216966402,-42500.0,275.46411424538599,453.65550212272535,262.29287869397365,-226.95756002014167,170.16092435750022,-264.96783044039319,616.81507233231366,648.25468668249664,-320.90379235464115,320.90379235464115,-648.25468668249664,1069.5444723544649,0.0
367154.6038362722,4775833.5216966402,-42500.0,329.18321834687839,478.46367929623483,105.63158008421576,-233.02650436655503,275.46254280814651,-322.28744821657074,684.24870728765836,657.36992147204933,-419.14199644771651,419.14199644771651,-657.36992147204933,1185.7813455575044,0.0
372154.6038362722,4775833.5216966402,-42500.0,385.75839987366572,476.62165575829596,-66.317641250129412,-223.74848765727964,385.79681445241573,-379.56678912887281,753.51411145405564,641.14516640890304,-520.29923554547202,520.29923554547202,-641.14516640890304,1312.372859285173,0.0
377154.6038362722,4775833.5216966402,-42500.0,439.03671285698266,445.96849101553568,-244.10462200389566,-198.39692738653858,495.62764602474351,-434.1079805423708,821.70876720158947,597.58050138983936,-618.90694645875419,618.90694645875419,-597.58050138983936,1443.7002824231879,0.0
382154.6038362722,4775833.5216966402,-42500.0,482.72256369859326,387.08600776968262,-417.62740425355128,-157.69709753505822,599.26894520088695,-483.27535458821302,885.9956010770145,527.04950374197563,-709.46999252492094,709.46999252492094,-527.04950374197563,1573.3809170532145,0.0
387154.6038362722,4775833.5216966402,-42500.0,511.27839815855276,303.23970327139062,-577.30012522667766,-103.75603815859823,691.50050629962413,-524.76774396891426,943.78050872080655,432.32238372643371,-787.08273291901298,787.08273291901298,-432.32238372643371,1695.0678395150064,0.0
392154.6038362722,4775833.5216966402,-42500.0,520.68404583432812,199.89967614066393,-715.09898416990984,-39.786043013827211,768.10191665093134,-556.84251950376768,992.8956193199374,318.22084947624131,-847.94462467022254,847.94462467022254,-318.22084947624131,1803.1096041949925,0.0
397154.6038362722,4775833.5216966402,-42500.0,508.90825642172365,83.959215823066756,-825.30460190733197,30.316058602322489,826.21584017121813,-578.45546024923465,1031.7406556583508,190.98691408286135,-889.68937197927585,889.68937197927585,-190.98691408286135,1893.0165437317537,0.0
402154.6038362722,4775833.5216966402,-42500.0,476.02715321747678,-37.174542388929396,-904.8441912535435,102.44561335210642,864.49688520525183,-589.30091899346962,1059.3576136307097,57.504777162454616,-911.49007096039009,911.49007096039009,-57.504777162454616,1961.719732409485,0.0
407154.6038362722,4775833.5216966402,-42500.0,424.01239464172261,-156.44038635915135,-953.23498818336554,172.73460265603762,883.05085139644416,-589.75813463211034,1075.4326481916091,-75.471969194831786,-913.95323094789273,913.95323094789273,75.471969194831786,2007.6347182861441,0.0
412154.6038362722,4775833.5216966402,-42500.0,356.27957892622351,-267.79700393192206,-972.20967235843398,237.89689686823925,883.20950390666974,-580.7664719043081,1080.2344973646289,-201.96134736500369,-898.85422340492812,898.85422340492812,201.96134736500369,2030.564201301062,0.0
417154.6038362722,4775833.5216966402,-42500.0,277.11850379517182,-366.6403320122713,-965.14832248326297,295.44000895058116,867.20673689626312,-563.66078538211502,1074.5078353963579,-317.18680073932398,-868.78531086591727,868.78531086591727,317.18680073932398,2031.486360035334,0.0
422154.6038362722,4775833.5216966402,-42500.0,191.12199272760117,-449.95870508986997,-936.44587114985859,343.74137602865784,837.8240700527133,-539.99785953645812,1059.3434703063067,-417.78390819363688,-826.78627022631656,826.78627022631656,417.78390819363688,2012.2794792691629,0.0
317154.6038362722,4780833.5216966402,-42500.0,194.88908523163292,-30.969138978403628,468.10088687354215,33.23546998914955,-146.90426574324761,4.5973893035610169,277.93585624825903,202.73792085146221,25.417875906441765,-25.417875906441765,-202.73792085146221,483.50718418828171,0.0
322154.6038362722,4780833.5216966402,-42500.0,178.5737291892772,0.42505927339181521,502.60457787188523,12.547886618597436,-150.0278077026112,-3.866581589411993,294.68524495887254,235.897904742213,24.479303673321198,-24.479303673321198,-235.897904742213,515.16469821274188,0.0
327154.6038362722,4780833.5216966402,-42500.0,163.2234917074172,41.217668590427792,527.71225672555454,-12.597687243540518,-146.4378258606753,-16.03735495071076,311.09696368833852,275.11393849341584,17.550284337854578,-17.550284337854578,-275.11393849341584,547.9324592463164,0.0
332154.6038362722,4780833.5216966402,-42500.0,151.04107730953953,90.89761537254951,539.50965998913034,-41.633896389012008,-134.27524817434445,-32.560963076190902,327.94445697753622,319.77388551136949,2.9087699721337685,-2.9087699721337685,-319.77388551136949,583.11060152625055,0.0
337154.6038362722,4780833.5216966402,-42500.0,144.41857226511496,147.94546955547702,534.01274178131678,-73.482122392393677,-111.77555875990492,-53.978556990600339,347.27829694012587,368.47830414329286,-21.063787993664789,21.063787993664789,-368.47830414329286,622.72239565701955,0.0
342154.6038362722,4780833.5216966402,-42500.0,145.65059461179771,209.70281456344048,507.58450906139427,-106.51780766955862,-77.483918703510014,-80.637259434545101,372.74695384095469,418.92972962671394,-55.666721482370292,55.666721482370292,-418.92972962671394,669.38689444724594,0.0
347154.6038362722,4780833.5216966402,-42500.0,156.56998602638078,272.37857168697758,457.4372801877434,-138.60605196332347,-30.498329713041258,-112.59642250757474,407.60946919170385,467.92647777637814,-101.63901621547944,101.63901621547944,-467.92647777637814,725.91367903142589,0.0
352154.6038362722,4780833.5216966402,-42500.0,178.15701053879133,331.23858921292918,382.1547758956965,-167.22508255661953,29.293523299095529,-149.54411736928594,451.97983288903953,511.50147254019078,-158.92912704870261,158.92912704870261,-511.50147254019078,794.65554832415637,0.0
357154.6038362722,4780833.5216966402,-42500.0,210.19793909739607,380.99570345575171,282.14047703229897,-189.68058017184146,101.02872672497767,-190.74159775245553,503.88385779338222,545.22529080581546,-226.52205180001161,226.52205180001161,-545.22529080581546,876.81389434847017,0.0
362154.6038362722,4780833.5216966402,-42500.0,251.07942333552228,416.3738080615974,159.88880034165979,-203.39350650693345,182.78188555893882,-235.01326662728533,561.07449810727701,564.65890255669535,-302.37089468866895,302.37089468866895,-564.65890255669535,971.96223711570462,0.0
367154.6038362722,4780833.5216966402,-42500.0,297.79202948336336,432.7698672305371,19.991087069690813,-206.22207630940068,271.6130973343453,-280.79429709127959,621.36720654052351,565.90029539363718,-383.46795004390327,383.46795004390327,-565.90029539363718,1077.9501872841454,0.0
372154.6038362722,4780833.5216966402,-42500.0,346.17774431138088,426.89887536565499,-131.16605616351129,-196.76260645354387,363.76466356852956,-326.23776943904932,682.54764703576757,546.13433386824408,-466.06484792525197,466.06484792525197,-546.13433386824408,1191.1654212560475,0.0
377154.6038362722,4780833.5216966402,-42500.0,391.40039215768962,397.29425022909919,-285.98827361849811,-174.57039380390037,454.98971226390887,-369.3712146725627,742.36261560246066,504.07988074005488,-546.01979792062502,546.01979792062502,-504.07988074005488,1307.0158087574202,0.0
382154.6038362722,4780833.5216966402,-42500.0,428.56045096084767,344.55753237924881,-436.45825125220836,-140.25388409021474,540.96464512618354,-408.28010108644952,798.60965203500291,440.23984414132406,-619.2186264164252,619.2186264164252,-440.23984414132406,1420.4851683958098,0.0
387154.6038362722,4780833.5216966402,-42500.0,453.33727790533544,271.30444720896713,-574.98210090979717,-95.421040951697762,617.71792824347631,-441.28936868135139,849.27103142217061,356.89978513497493,-681.99879574752322,681.99879574752322,-356.89978513497493,1526.6616570659776,0.0
392154.6038362722,4780833.5216966402,-42500.0,462.53457086092305,181.82164122547988,-695.15003616573279,-42.488785010331782,682.00359294543171,-467.11360844685862,892.64745933587733,257.87489331988871,-731.50409746360833,731.50409746360833,-257.87489331988871,1621.1785589755186,0.0
397154.6038362722,4780833.5216966402,-42500.0,454.43166376390298,81.51054500968273,-792.28913458811382,15.60575127191815,731.56245619659262,-484.9537929553054,927.46212068049579,148.05943440325058,-765.91576218423643,765.91576218423643,-148.05943440325058,1700.5351528235417,0.0
402154.6038362722,4780833.5216966402,-42500.0,428.89360247086358,-23.767863915373621,-863.73972872640672,75.736317514521332,765.24048286515574,-494.53002805906647,952.91884964408268,32.869070343678061,-784.53434804138465,784.53434804138465,-32.869070343678061,1762.2842165750155,0.0
407154.6038362722,4780833.5216966402,-42500.0,387.24889392771416,-128.32799287971093,-908.84932862776577,134.90401100544636,782.96448544127907,-496.0528502684835,968.71003325113588,-82.322584158989002,-787.71877035685804,787.71877035685804,82.322584158989002,1805.0895843119067,0.0
412154.6038362722,4780833.5216966402,-42500.0,331.98918054887264,-227.17832590425667,-928.73179098377489,190.49348347571814,785.60071237000477,-490.14580409090473,974.9792445862023,-192.66626581725524,-776.71347682448391,776.71347682448391,192.66626581725524,1828.6714301141503,0.0
327154.6038362722,4785833.5216966402,-42500.0,136.08883483315128,65.575031731361847,458.0925999763279,-27.243498741215237,-113.61719800321548,-22.655901716858214,273.07880412873135,263.49649131538717,3.2912364783169608,-3.2912364783169608,-263.49649131538717,483.58680822731225,0.0
332154.6038362722,4785833.5216966402,-42500.0,128.02761178672208,110.96264922701883,459.31954960172681,-52.444762229007964,-99.025564713926613,-37.74315791067756,288.71244637681542,302.26829300588338,-12.605472810289427,12.605472810289427,-302.26829300588338,516.48861642863778,0.0
337154.6038362722,4785833.5216966402,-42500.0,125.30105143977575,161.43754585120044,444.91083680773141,-79.352594282436328,-75.69966175380921,-56.690738010417547,308.25884687096658,343.36763954954915,-36.293883563861073,36.293883563861073,-343.36763954954915,554.71239913445072,0.0
342154.6038362722,4785833.5216966402,-42500.0,129.58219554441237,214.55431141024329,412.25387441515659,-106.57835558522626,-42.685753672493533,-79.675731380559625,334.92905053680357,384.70754064947209,-68.588769971620223,68.588769971620223,-384.70754064947209,600.40583234103053,0.0
347154.6038362722,4785833.5216966402,-42500.0,142.0946802178623,267.05517227325919,359.52801373103256,-132.38762187897638,0.50172903512393185,-106.65080315142968,370.01496281706824,423.56065599571696,-109.83342007654963,109.83342007654963,-423.56065599571696,655.5705356822325,0.0
352154.6038362722,4785833.5216966402,-42500.0,163.33854616024857,315.05442537373631,286.07153081128558,-154.80728521851429,53.723082451266187,-137.29293236628646,412.35063984559667,456.69982060034999,-159.75065682294817,159.75065682294817,-456.69982060034999,721.57628724835422,0.0
357154.6038362722,4785833.5216966402,-42500.0,192.86741109535402,354.35895569632595,192.6753079536997,-171.79132402337387,116.10037115122468,-170.97377508885032,460.12114336370792,480.65019775152905,-217.34252825096112,217.34252825096112,-480.65019775152905,798.74653342137026,0.0
362154.6038362722,4785833.5216966402,-42500.0,229.17321557135904,380.89846785191509,81.735500317095699,-181.43030714470032,185.97780142849217,-206.76198480553887,511.6071260883225,492.03591989170553,-280.86741784416193,280.86741784416193,-492.03591989170553,886.15411426272863,0.0
367154.6038362722,4785833.5216966402,-42500.0,269.72251049009174,391.20812295292421,-42.787995937672243,-182.17653588224411,260.97646098353795,-243.46370365384814,565.12734504880291,487.97806844392181,-347.91354828394134,347.91354828394134,-487.97806844392181,981.66655233584686,0.0
372154.6038362722,4785833.5216966402,-42500.0,311.16107055825199,382.88418790278598,-175.62821294229914,-173.04824845331424,338.14857716141194,-279.70093593771173,618.95242523599916,466.48086672071389,-415.57076474754518,415.57076474754518,-466.48086672071389,1082.1865819195041,0.0
377154.6038362722,4785833.5216966402,-42500.0,349.66761960738023,354.92875569023676,-310.66170716858369,-153.77567698564954,414.21758110494176,-314.02051121182609,671.31721341523621,426.73636906567907,-480.68312718822682,480.68312718822682,-426.73636906567907,1184.0003264406546,0.0
382154.6038362722,4785833.5216966402,-42500.0,381.40129173965482,307.91540295383385,-441.48952266056551,-124.86005037548102,485.87111975917293,-345.01884068152174,720.49650828630047,369.28726305268219,-540.14582844375445,540.14582844375445,-369.28726305268219,1283.1559003341513,0.0
387154.6038362722,4785833.5216966402,-42500.0,402.96459848790448,243.94293132956977,-562.05658682272406,-87.53320641976417,550.06284440490754,-371.46442888739756,764.9060760099369,296.01435187159063,-591.20030692530406,591.20030692530406,-296.01435187159063,1375.8211493151764,0.0
392154.6038362722,4785833.5216966402,-42500.0,411.79948547621569,166.38742731416465,-667.21023962495838,-43.624974936389883,604.2767818229795,-392.39992311326728,803.20117100756511,209.95006972941178,-631.68136644321999,631.68136644321999,-209.95006972941178,1458.5865497872289,0.0
397154.6038362722,4785833.5216966402,-42500.0,406.45096918283451,79.502838154008842,-753.11508845210346,4.6369246911160582,646.71679287323593,-407.20972281798237,834.35399931794905,114.953861387475,-660.18111045569026,660.18111045569026,-114.953861387475,1528.6916891376457,0.0
402154.6038362722,4785833.5216966402,-42500.0,386.66425387623957,-12.054689091021659,-817.47503026990171,54.858971440930844,676.39998814701039,-415.64609155661373,857.69930804850912,15.309079538387778,-676.11244825738584,676.11244825738584,-15.309079538387778,1584.1638803248056,0.0
342154.6038362722,4790833.5216966402,-42500.0,116.96417676495122,213.97030789801624,332.17287897896819,-103.48056875126977,-16.856775299703489,-76.334981888484364,304.44976911791707,351.63447522446006,-76.378229057137702,76.378229057137702,-351.63447522446006,543.69663071544164,0.0
347154.6038362722,4790833.5216966402,-42500.0,130.16585008576556,257.8202224841537,279.09844317668296,-124.23467721656165,22.277935144187634,-99.010365301973621,338.52560661657662,382.20655494541256,-112.96982168727649,112.96982168727649,-382.20655494541256,596.69083169946714,0.0
352154.6038362722,4790833.5216966402,-42500.0,150.48976335322408,296.91326590602927,208.94865797825614,-141.82041402652371,69.286400348771693,-124.38997505691364,377.96144869694967,407.11693438832299,-156.20485225060358,156.20485225060358,-407.11693438832299,658.98319124866066,0.0
357154.6038362722,4790833.5216966402,-42500.0,177.38021630719012,327.92472146545362,122.70209995420906,-154.68043434774583,123.33926139640101,-151.95142321971454,421.33228148996238,423.64302785017543,-205.16082855523752,205.16082855523752,-423.64302785017543,730.38448152781564,0.0
362154.6038362722,4790833.5216966402,-42500.0,209.47515430255635,347.70406974582949,22.570936604109122,-161.39329193471787,183.03563664805097,-180.9609812209379,467.33096688749163,429.21207997839122,-258.37804129937706,258.37804129937706,-429.21207997839122,809.77977209377764,0.0
367154.6038362722,4790833.5216966402,-42500.0,244.65512320833108,353.62811044650573,-88.060840426637768,-160.83179699810935,246.45556492847032,-210.50635828543361,514.64603834399054,421.69147450388448,-313.92687290937795,313.92687290937795,-421.69147450388448,895.21648470740445,0.0
372154.6038362722,4790833.5216966402,-42500.0,280.20922807594815,343.92550005265088,-204.85036712437139,-152.30300861791974,311.27963384204088,-239.55386036162213,561.91282814003944,399.66194084087959,-369.54043451471654,369.54043451471654,-399.66194084087959,984.09771116316335,0.0
377154.6038362722,4790833.5216966402,-42500.0,313.10183943827479,317.91668466674287,-322.84186716794164,-135.64598015705261,374.96508302436962,-267.02468755828829,607.73665680340207,362.6270422369314,-422.799027966126,422.799027966126,-362.6270422369314,1073.4301853625886,0.0
382154.6038362722,4790833.5216966402,-42500.0,340.30103087276672,276.12512041310407,-436.89975197171805,-111.26926152398535,434.95574697222497,-291.8806185322249,650.75472620079177,311.12014419708834,-471.34137380777048,471.34137380777048,-311.12014419708834,1160.0861689561041,0.0
387154.6038362722,4790833.5216966402,-42500.0,359.11577912146242,220.23896065630356,-542.16601964913741,-80.120691172755173,488.89682658897829,-313.20775150752053,689.7124453756785,246.68787697752268,-513.07239476225413,513.07239476225413,-246.68787697752268,1241.0514677372275,0.0
392154.6038362722,4790833.5216966402,-42500.0,367.48646477864173,152.93055309041381,-634.47414857424587,-43.594274966687742,534.82394053987275,-330.28665084375984,723.53662907711373,171.75186413380899,-546.33730045973061,546.33730045973061,-171.75186413380899,1313.638382297326,0.0
352154.6038362722,4580833.5216966402,-47500.0,349.12360836693028,144.30150072483437,-614.62982521944639,70.183777787499181,-401.03335476118258,-190.62822369089506,623.83631830867762,97.492658308372029,24.816997651237386,-24.816997651237386,-97.492658308372029,1122.361061223153,0.0
357154.6038362722,4580833.5216966402,-47500.0,341.03708051778,207.25900278440284,-537.08668851516006,100.26008796381959,-355.29887203835887,-169.62120111632822,593.94327065913001,155.99422089545766,-16.301171821845386,16.301171821845386,-155.99422089545766,1058.8621549672901,0.0
362154.6038362722,4580833.5216966402,-47500.0,323.19315778371839,260.56918045371617,-446.58886005640977,124.96545921903369,-302.94489237903855,-145.97242303413759,559.69335813909674,207.49812349919873,-54.375220058564622,54.375220058564622,-207.49812349919873,988.6305096279134,0.0
367154.6038362722,4580833.5216966402,-47500.0,297.32546833949789,301.6198764326121,-346.47894075158996,143.10873302094839,-245.77973033370418,-120.46524986201145,522.01945756549867,250.06462692073958,-87.93595642224173,87.93595642224173,-250.06462692073958,914.13604044035776,0.0
372154.6038362722,4580833.5216966402,-47500.0,265.7874673862425,328.5943290158051,-240.83915618540416,153.90171109037018,-185.95789095547767,-94.008268292821995,482.01499134322546,282.3398028935639,-115.79180074675678,115.79180074675678,-282.3398028935639,838.18991238345586,0.0
377154.6038362722,4580833.5216966402,-47500.0,231.31625633991121,340.66879195825305,-134.16468621860002,157.04453905112567,-125.8176995557197,-67.569602567215256,440.86580798205432,303.6827616059407,-137.13531794903685,137.13531794903685,-303.6827616059407,763.75186437875914,0.0
382154.6038362722,4580833.5216966402,-47500.0,196.74039660423315,338.09418049796983,-30.975189631581539,152.75690235221552,-67.69142520549336,-42.101954104837382,399.76844894233352,314.20848186447091,-151.60688760516183,151.60688760516183,-314.20848186447091,693.67525272627847,0.0
387154.6038362722,4580833.5216966402,-47500.0,164.67884354754079,322.14760655017812,64.578252049502666,141.74951899211391,-13.71482013403252,-18.468796718149065,359.84701266606606,314.73993759302022,-159.30617520091488,159.30617520091488,-314.73993759302022,630.40487619189707,0.0
392154.6038362722,4580833.5216966402,-47500.0,137.27891656568283,294.96211930664526,149.05458319107566,125.14006061831543,34.338024203961176,2.6187286586036276,322.08171331510619,306.67902672158152,-160.75100357032986,160.75100357032986,-306.67902672158152,575.65884473628489,0.0
397154.6038362722,4580833.5216966402,-47500.0,116.03248220245283,259.2649533304924,219.96551125841148,104.32741719573805,75.172832571339342,20.646285003300395,287.28144686238915,291.81984099805794,-156.79234073448112,156.79234073448112,-291.81984099805794,530.1648987182034,0.0
402154.6038362722,4580833.5216966402,-47500.0,101.69279355516639,218.06988951641301,275.89321604646489,80.844895963017976,108.0337009868302,35.317585536968124,256.38545572509759,272.13735832805412,-148.50150449103901,148.50150449103901,-272.13735832805412,493.5575023368346,0.0
342154.6038362722,4585833.5216966402,-47500.0,368.16145450244215,-14.691531306380261,-788.91001410837112,-11.661913731551182,-535.10113651109918,-262.37119271530304,745.32118509588167,-36.984103948427268,129.31495633035502,-129.31495633035502,36.984103948427268,1366.3343915073415,0.0
347154.6038362722,4585833.5216966402,-47500.0,386.54623185869065,69.116244528571571,-741.54908355438317,31.77393777448366,-503.23696895799793,-245.88559721479206,724.68967011457744,37.497757369602908,80.637280238271074,-80.637280238271074,-37.497757369602908,1317.6600211369494,0.0
352154.6038362722,4585833.5216966402,-47500.0,391.87811066116961,149.99345915146316,-674.27420851560453,72.824995330349921,-460.41762437513057,-224.68233411767775,697.31367072220678,109.8880216270601,31.364193198011279,-31.364193198011279,-109.8880216270601,1256.5181739008988,0.0
357154.6038362722,4585833.5216966402,-47500.0,384.14255664404328,223.76385210922862,-588.42206952339734,109.40650197175846,-407.54873374822392,-199.24254840082727,663.73016687530958,177.05760029603147,-16.481785421060337,16.481785421060337,-177.05760029603147,1184.5878861247586,0.0
362154.6038362722,4585833.5216966402,-47500.0,364.38610780761309,286.44387158490878,-486.71514516107146,139.57864325815967,-346.24135736958749,-170.33179465417689,624.79550301717018,236.06465106041426,-60.855709811440789,60.855709811440789,-236.06465106041426,1104.2842032621895,0.0
367154.6038362722,4585833.5216966402,-47500.0,334.68018543868976,334.66504830861885,-373.15472669670584,161.74681585508642,-278.74475165260111,-138.96529371074533,581.65286865103621,284.45228005102729,-99.877868661418731,99.877868661418731,-284.45228005102729,1018.6714815665413,0.0
372154.6038362722,4585833.5216966402,-47500.0,297.93724215499873,366.05912008114979,-252.73902942723586,174.84000897503196,-207.79501043149546,-106.34090831392635,535.66689219923558,320.50910717368856,-132.0172752526488,132.0172752526488,-320.50910717368856,931.28943832059929,0.0
377154.6038362722,4585833.5216966402,-47500.0,257.59718893983245,379.53798864494109,-131.03292078757204,178.4367672810213,-136.39383233833507,-73.746593851062869,488.3309970589894,343.44681916712329,-156.24173942563431,156.24173942563431,-343.44681916712329,845.88889379412876,0.0
382154.6038362722,4585833.5216966402,-47500.0,217.23154778160779,375.4145759826788,-13.647677630118215,172.81465128760863,-67.545619806413754,-42.453199759319496,441.15744855918416,353.46109329365316,-172.10869329654184,172.10869329654184,-353.46109329365316,766.0782116817179,0.0
387154.6038362722,4585833.5216966402,-47500.0,180.1313352648946,355.33861818838704,94.289818396434228,158.91211382210466,-3.990885905295412,-13.607669466926028,395.56343188523215,351.66329442095378,-179.78117618118824,179.78117618118824,-351.66329442095378,694.8929989050414,0.0
392154.6038362722,4585833.5216966402,-47500.0,148.9511772770669,322.06053308560195,188.5941288284526,138.20925920262758,52.02352706558257,11.857936703716355,352.77954044718922,339.89825696327011,-179.96846718557924,179.96846718557924,-339.89825696327011,634.3458062601768,0.0
397154.6038362722,4585833.5216966402,-47500.0,125.46711744630311,279.06909923203557,266.33683145709097,112.54891805405101,98.904848146706726,33.289090111556142,313.86409396534128,320.48424115461842,-173.80499074004334,173.80499074004334,-320.48424115461842,585.07531793970918,0.0
402154.6038362722,4585833.5216966402,-47500.0,110.478939377175,230.17017933696343,325.98451840281189,83.929298487307278,135.78737302121627,50.336349655004433,280.98688610729084,295.92370036794966,-162.69167930845742,162.69167930845742,-295.92370036794966,546.26257159867248,0.0
407154.6038362722,4585833.5216966402,-47500.0,103.85623172369057,179.0785133761654,367.35829399135332,54.302156782170634,162.51672835909707,62.947317242778567,269.2179164433586,268.63357170782808,-148.12834688797108,148.12834688797108,-268.63357170782808,515.92153955465153,0.0
412154.6038362722,4585833.5216966402,-47500.0,104.69962376723895,129.08208742404841,391.44671601452973,25.404862555507023,179.55983765489441,71.328780576794955,265.64246683007661,240.73282242982549,-131.56289107398811,131.56289107398811,-240.73282242982549,491.4819256491694,0.0
417154.6038362722,4585833.5216966402,-47500.0,111.57198042316996,82.815103559056624,400.12344257285622,-1.3557167253745552,187.86488748516217,75.888607651981019,260.62880006358722,213.9073343035067,-114.27542124077681,114.27542124077681,-213.9073343035067,470.41675637040885,0.0
332154.6038362722,4590833.5216966402,-47500.0,317.1002042553547,-218.95398727933028,-888.79478932660879,-129.5145977500128,-642.63506070308131,-330.59578079521441,852.72457930574433,-205.45036840688252,252.8120254384344,-252.8120254384344,205.45036840688252,1589.2525228305296,0.0
337154.6038362722,4590833.5216966402,-47500.0,367.8620541470205,-131.23417991772033,-885.56782254725033,-80.111074879350838,-634.82170181551601,-323.85441332487005,847.4610071443185,-127.1642966225043,205.49140505594767,-205.49140505594767,127.1642966225043,1569.2215913661671,0.0
342154.6038362722,4590833.5216966402,-47500.0,406.88389296046228,-36.946215018923418,-860.66071630404622,-28.201497328834858,-613.98632089643206,-311.00938936435801,834.01157084772001,-43.868971481038912,152.94554482983875,-152.94554482983875,43.868971481038912,1532.8068990436589,0.0
347154.6038362722,4590833.5216966402,-47500.0,431.73764353371064,59.816372751563847,-812.29643078870799,23.953389561352378,-579.39779773288979,-291.87607852774056,812.16911849387805,41.228585104491415,96.966928235943087,-96.966928235943087,-41.228585104491415,1480.0669525241794,0.0
352154.6038362722,4590833.5216966402,-47500.0,440.90934880882526,154.19592020263923,-740.07844430168689,73.764341218648454,-531.10089587572702,-266.61804921590522,782.10013726027125,124.42113401497943,39.7910723816303,-39.7910723816303,-124.42113401497943,1411.950116116328,0.0
357154.6038362722,4590833.5216966402,-47500.0,434.10052022930614,240.95936885329692,-645.28750701853312,118.518526970544,-470.05150906806449,-235.79210511584037,744.38965642744324,201.80207994033026,-16.054524162052687,16.054524162052687,-201.80207994033026,1330.3871628478892,0.0
362154.6038362722,4590833.5216966402,-47500.0,412.40107272631337,315.01499101740154,-531.00864111629562,155.64052508166296,-398.16230551416521,-200.35519352761702,700.0498836852471,269.64616680452161,-67.966566094279855,67.966566094279855,-269.64616680452161,1238.2999772435589,0.0
367154.6038362722,4590833.5216966402,-47500.0,378.27656742927365,371.98942161057721,-402.03012920132772,182.97589092004702,-318.23239111450386,-161.62409682483528,650.48445358665128,324.81719429212632,-113.52223298355102,113.52223298355102,-324.81719429212632,1139.503246087361,0.0
372154.6038362722,4590833.5216966402,-47500.0,335.3436548717026,408.76894162764239,-264.49348306850004,199.05168177891289,-233.75268598167199,-121.18605843499446,597.40553811093525,365.13303883619898,-150.73690825465502,150.73690825465502,-365.13303883619898,1038.4807692758525,0.0
377154.6038362722,4590833.5216966402,-47500.0,287.95305620778424,423.90154900813576,-125.32514143108179,203.26547777107177,-148.60357720708674,-80.767961579361526,542.70925824188248,389.61742086057575,-178.27849541211197,178.27849541211197,-389.61742086057575,940.0249478233028,0.0
382154.6038362722,4590833.5216966402,-47500.0,240.64702766213907,417.77615223331736,8.4676792148098112,195.96412289188666,-66.686385229697763,-42.081142155159938,488.32429830554827,398.58652544058077,-195.59839684477831,195.59839684477831,-398.58652544058077,848.73823999498074,0.0
387154.6038362722,4590833.5216966402,-47500.0,197.58977103695722,392.5374651135254,130.51981773736463,178.39323662387221,8.4538092613101643,-6.6648141392182501,436.05564154470505,393.55057620181765,-202.95422077288131,202.95422077288131,-393.55057620181765,768.41576933185445,0.0
392154.6038362722,4590833.5216966402,-47500.0,162.07948224238038,351.75547638178131,235.7247973853969,152.52667681393146,73.951438854728366,24.246901257629624,387.47303687713196,376.95387688129961,-201.32325003453346,201.32325003453346,-376.95387688129961,701.40397028139876,0.0
397154.6038362722,4590833.5216966402,-47500.0,136.22714103727043,299.9182421141702,320.64672121028093,120.80879724251224,127.84042738573206,49.814783787854005,344.06841103006792,351.80829838327321,-192.22757192219279,192.22757192219279,-351.80829838327321,648.13616211171006,0.0
402154.6038362722,4590833.5216966402,-47500.0,120.84556212103553,241.8507259717608,383.67690384809868,85.858812561308696,169.1439974679148,69.630223366073011,311.74651074883639,321.29462232201325,-177.50883278614509,177.50883278614509,-321.29462232201325,607.11113068416205,0.0
407154.6038362722,4590833.5216966402,-47500.0,115.54192869605562,182.16567954409948,424.94127389449892,50.188950396800529,197.83533554977885,83.697203373961514,304.57446263059813,288.40302263294245,-159.09578213140071,159.09578213140071,-288.40302263294245,575.43117322240596,0.0
412154.6038362722,4590833.5216966402,-47500.0,118.96581440994271,124.83068557941267,446.01149266525374,15.978452770332369,214.69383031566574,92.37042234852548,300.31944263730298,255.66476090351284,-138.80245458029481,138.80245458029481,-255.66476090351284,549.68941589945553,0.0
417154.6038362722,4590833.5216966402,-47500.0,129.14222488775889,72.897193716687354,449.49980390066827,-15.072458664456041,221.09625615933615,96.265663894978275,293.97658739398736,224.99887764003029,-118.18155488608119,118.18155488608119,-224.99887764003029,526.79816365335478,0.0
422154.6038362722,4590833.5216966402,-47500.0,143.81779891935093,28.39807068876911,438.62089548133605,-41.803506665134222,218.78523534172817,96.160009982769282,285.29420595685889,197.67092168368214,-98.442222160824485,98.442222160824485,-197.67092168368214,504.47267787096825,0.0
427154.6038362722,4590833.5216966402,-47500.0,160.76328844417688,-7.6119708791893732,416.7895209014095,-63.581222832053449,209.65122687294186,92.897228268446042,274.44651141199216,174.34090760126571,-80.427550941739113,80.427550941739113,-174.34090760126571,481.34517584470797,0.0
322154.6038362722,4595833.5216966402,-47500.0,185.99705245271932,-426.51806354684527,-886.19824757616755,-266.08663110484139,-700.19494291459705,-383.27654896281831,931.11365678666539,-377.56150069685941,373.6391474614843,-373.6391474614843,377.56150069685941,1758.4882286803472,0.0
327154.6038362722,4595833.5216966402,-47500.0,263.60588929273649,-356.13581606306633,-928.20175722977274,-222.07548583608579,-721.17179059617615,-390.0597456829201,945.17887315406108,-311.19168821079285,338.12986666345608,-338.12986666345608,311.19168821079285,1776.8954679317731,0.0
332154.6038362722,4595833.5216966402,-47500.0,336.0026985552397,-270.99054251269945,-953.47784466859775,-170.59993333764197,-730.72350978667237,-390.83794779658308,951.30581040214224,-233.31993550686562,293.6742914194059,-293.6742914194059,233.31993550686562,1778.5673173850714,0.0
337154.6038362722,4595833.5216966402,-47500.0,399.15458178724043,-173.10294230046688,-957.68235498551712,-113.04451778491487,-726.51109369462972,-384.65468310524187,948.46882117179098,-145.77472086196025,240.96116170425483,-240.96116170425483,145.77472086196025,1761.6890353914227,0.0
342154.6038362722,4595833.5216966402,-47500.0,449.12610446389533,-65.893631504939378,-937.02389811306307,-51.506214850565399,-706.59787498696153,-370.78093089723768,935.89301742802149,-51.403710910506533,181.36680321223318,-181.36680321223318,51.403710910506533,1725.1004290857327,0.0
347154.6038362722,4595833.5216966402,-47500.0,482.55058210470173,45.846819777312014,-888.81628868098608,11.249243025260563,-669.74204804597423,-348.83544409940981,913.17038602047239,45.98964417652023,116.97428515661782,-116.97428515661782,-45.98964417652023,1668.5512361042333,0.0
352154.6038362722,4595833.5216966402,-47500.0,497.13646063170944,156.20168278048422,-812.0326889306782,71.937578247346551,-615.67923150920444,-318.89496355474841,880.36361372067699,141.865129671376,50.498695556325288,-50.498695556325288,-141.865129671376,1592.9258214823599,0.0
357154.6038362722,4595833.5216966402,-47500.0,492.12032458248814,258.60438078266219,-707.76132374919098,127.017818790409,-545.3450549215172,-281.57466155469172,838.0826409669753,231.32463235006338,-14.894486478913407,14.894486478913407,-231.32463235006338,1500.4034221627044,0.0
362154.6038362722,4595833.5216966402,-47500.0,468.55945472615582,346.51752990929185,-579.44475197328461,173.04817614056773,-460.97867153145944,-238.05603064207418,787.51235017121508,309.61938110467423,-75.872481307138131,75.872481307138131,-309.61938110467423,1394.5058180078702,0.0
367154.6038362722,4595833.5216966402,-47500.0,429.36968770483361,414.22503197219356,-432.80654704298877,207.09017349924545,-366.0609298648576,-190.04524110240118,730.37749800633787,372.71302188955212,-129.28738889859443,129.28738889859443,-372.71302188955212,1279.9944714978658,0.0
372154.6038362722,4595833.5216966402,-47500.0,379.05693060026567,457.59889128694778,-275.42026586106482,227.09293585885248,-265.06651225449514,-139.65522915376081,668.83818463195291,417.79833920747518,-172.5417859662154,172.5417859662154,-417.79833920747518,1162.5842049102296,0.0
377154.6038362722,4595833.5216966402,-47500.0,323.16009211907459,474.68250392285,-115.95481828459762,232.18075767519667,-163.04861620270975,-89.220356042364884,605.32137955186818,443.65862381062016,-203.89883952551565,203.89883952551565,-443.65862381062016,1048.4492548760568,0.0
382154.6038362722,4595833.5216966402,-47500.0,267.50022779372154,465.95899330000799,36.78723006068951,222.78028721999405,-65.116779083863292,-41.069185806059231,542.31055293498059,450.79217257206039,-222.67392750221063,222.67392750221063,-450.79217257206039,943.51454684051089,0.0
387154.6038362722,4595833.5216966402,-47500.0,217.38472604223466,434.23788182418537,174.86319575239634,200.55446954305819,24.10324989844516,2.7084329562638865,482.13051983997229,441.26839129731707,-229.2673925819704,229.2673925819704,-441.26839129731707,852.56227139952443,0.0
392154.6038362722,4595833.5216966402,-47500.0,176.9309513698914,384.18603820165117,292.02951141791186,168.15560708327152,100.93036250953541,40.45922570239324,426.82238227125049,418.35119133365197,-225.03623721771555,225.03623721771555,-418.35119133365197,778.30995381029391,0.0
397154.6038362722,4595833.5216966402,-47500.0,148.63849204010404,321.61038523570465,384.27915351533272,128.84975445263802,162.93206275065393,71.09721625924638,378.73001657406735,385.97659676530202,-212.03816785448922,212.03816785448922,-385.97659676530202,720.80379914736864,0.0
402154.6038362722,4595833.5216966402,-47500.0,133.27047105549258,252.64985359729809,450.00989163868604,86.090668975501401,209.03258475550339,94.150244299629662,350.65358699265306,348.19923483003686,-192.70816768651605,192.70816768651605,-348.19923483003686,677.5394383645862,0.0
407154.6038362722,4595833.5216966402,-47500.0,130.02474922168497,183.03431396619015,489.84204224071163,43.123417532417903,239.43096165839071,109.72390284400883,345.52727991041695,308.71260650738827,-169.53388680859504,169.53388680859504,-308.71260650738827,644.39919940750485,0.0
412154.6038362722,4595833.5216966402,-47500.0,136.91416044418685,117.5291933407272,506.17558395393132,2.6800719681002563,255.37244960664944,118.4006800329804,340.21546844269449,270.51471246358534,-144.7855804167574,144.7855804167574,-270.51471246358534,616.95964880506722,0.0
417154.6038362722,4595833.5216966402,-47500.0,151.24557918431873,59.621919951051773,502.61011740918167,-33.200531614044628,258.83662966860516,121.10110526048747,332.09125136930749,235.74438089007489,-120.33329070949273,120.33329070949273,-235.74438089007489,591.53848199361994,0.0
422154.6038362722,4595833.5216966402,-47500.0,170.09236931342045,11.445558206626512,483.34935304537743,-63.227730095935115,252.20738028275912,118.93526223589446,321.05987550000759,205.67321923057369,-97.559299772615077,97.559299772615077,-205.67321923057369,565.67149167644754,0.0
427154.6038362722,4595833.5216966402,-47500.0,190.68348378334395,-26.109364430095113,452.68235978647783,-86.811166931267962,237.97630316875779,113.06772868230586,307.42290702893729,180.81173902844364,-77.353506253789874,77.353506253789874,-180.81173902844364,538.10282708582565,0.0
432154.6038362722,4595833.5216966402,-47500.0,210.67025866462106,-53.163785703988076,414.59392583393412,-103.94445977438951,218.51137766557449,104.61073299122779,291.66355347193979,161.07961215506259,-60.168298458738946,60.168298458738946,-161.07961215506259,508.52307265632686,0.0
317154.6038362722,4600833.5216966402,-47500.0,80.06794428023619,-553.13356826692791,-857.65378204766921,-368.25348761377757,-743.30213552146517,-432.16267100041023,1003.7893477741113,-476.44695585717824,452.07458267742999,-452.07458267742999,476.44695585717824,1908.8134489472145,0.0
322154.6038362722,4600833.5216966402,-47500.0,172.09338713366938,-498.44177995629605,-924.6479108352255,-330.31465415167702,-783.31125018649527,-448.90005466353728,1031.5366289575454,-420.17727461098696,425.97189951843939,-425.97189951843939,420.17727461098696,1954.6842855829721,0.0
327154.6038362722,4600833.5216966402,-47500.0,264.30881921055914,-424.99327639390327,-979.48708665057677,-281.93673819080703,-813.70497877690946,-459.94473882573413,1051.8144699259676,-349.0407044795005,389.05618642606566,-389.05618642606566,349.0407044795005,1984.2928379899813,0.0
332154.6038362722,4600833.5216966402,-47500.0,352.19776444323929,-333.07396636934754,-1016.7324882397332,-223.66354119096772,-831.24684898637634,-463.82790549986674,1063.0855679983461,-263.68298167699442,341.1343441238202,-341.1343441238202,263.68298167699442,1994.6404729194617,0.0
337154.6038362722,4600833.5216966402,-47500.0,430.69515738236345,-224.52811214208973,-1030.8107726370524,-156.90663096780139,-832.74616572754542,-459.17319126432898,1063.933576549887,-165.94469717230993,282.74842081572467,-282.74842081572467,165.94469717230993,1983.1322735698793,0.0
342154.6038362722,4600833.5216966402,-47500.0,494.64092201549749,-103.0142772652416,-1016.6005101148606,-84.047343926331266,-815.39869782456935,-444.85077933476191,1053.2092201674129,-58.999248842237179,215.32601189859514,-215.32601189859514,58.999248842237179,1947.908966080533,0.0
347154.6038362722,4600833.5216966402,-47500.0,539.39646478787768,25.93702471067412,-970.16356753550133,-8.430322628826854,-777.19446623235717,-420.15264296439614,1030.1942549509538,52.667441828212347,141.25029379837218,-141.25029379837218,-52.667441828212347,1888.2092344493908,0.0
352154.6038362722,4600833.5216966402,-47500.0,561.55254479892506,155.15396649873844,-889.52670914502426,65.792824451344316,-717.33932468223759,-384.96588387584961,994.75943212204493,163.49199328188433,63.804478122563225,-63.804478122563225,-163.49199328188433,1804.7122621452261,0.0
357154.6038362722,4600833.5216966402,-47500.0,559.60604463352672,276.39301608104523,-775.37205389177234,133.99041780947962,-636.6156516058013,-339.91318244900151,947.49158958758699,267.30567907089272,-13.039068778501814,13.039068778501814,-267.30567907089272,1699.8061518578043,0.0
362154.6038362722,4600833.5216966402,-47500.0,534.44421509583412,381.22697344963609,-631.45824656409127,191.53384156278761,-537.58865772401293,-286.42302615402008,889.75629179962766,358.01180542896748,-84.987683918539631,84.987683918539631,-358.01180542896748,1577.7080809139718,0.0
367154.6038362722,4600833.5216966402,-47500.0,489.48087312387298,462.13653844579312,-464.61347825214142,234.37645720440813,-424.57711074653594,-226.69761120564988,823.67116981971503,430.37004614566899,-147.91527193448272,147.91527193448272,-430.37004614566899,1444.3720042817899,0.0
372154.6038362722,4600833.5216966402,-47500.0,430.34662223811802,513.60496696500172,-284.21168826137045,259.62631841013194,-303.34307821489557,-163.56110358542057,751.97545840217799,480.73599613152328,-198.38671244468006,198.38671244468006,-480.73599613152328,1307.1254706222098,0.0
377154.6038362722,4600833.5216966402,-47500.0,364.14209079619394,532.97348540985195,-101.16477741768884,265.99026049211153,-180.51868234795319,-100.19671527327776,677.80167054831054,507.58700990779846,-234.11325521531731,234.11325521531731,-507.58700990779846,1173.9917466900522,0.0
382154.6038362722,4600833.5216966402,-47500.0,298.38775237937642,520.84625491445126,73.403204532204029,253.98169587243271,-62.857391794810546,-39.809497392299171,604.37973440953715,511.70208004684923,-254.23655875514498,254.23655875514498,-511.70208004684923,1052.6737365393719,0.0
387154.6038362722,4600833.5216966402,-47500.0,239.89849866408829,480.9371433422441,229.53596519155252,225.83555839548868,43.549968595272901,14.725500549077029,534.73801451895974,495.94701183955078,-259.37639125872408,259.37639125872408,-495.94701183955078,949.24886283310559,0.0
392154.6038362722,4600833.5216966402,-47500.0,193.8360808999083,419.39416650834477,359.59439091692815,185.14557135850572,133.94043112998565,61.163460859971742,471.58772868623225,464.71906836070616,-251.43595122378971,251.43595122378971,-464.71906836070616,866.83366137331086,0.0
397154.6038362722,4600833.5216966402,-47500.0,163.13867931995119,343.77488883991703,458.95680986722567,136.31026303709393,205.30211781141128,98.083624965890962,419.10581043660625,423.19465215981467,-233.22200690115284,233.22200690115284,-423.19465215981467,804.80858331104548,0.0
402154.6038362722,4600833.5216966402,-47500.0,148.4086189754218,261.91324592758997,526.17876581519999,83.911507302634064,256.49872197510462,124.94975318741425,397.58495364735819,376.55414961421127,-207.97431778860323,207.97431778860323,-376.55414961421127,759.22099080294288,0.0
407154.6038362722,4600833.5216966402,-47500.0,148.21590943232039,180.91842039165775,562.65936244488432,32.153497519009051,288.11180115655975,142.0418597953097,392.89393187627002,329.34344685047103,-178.90958884882639,178.90958884882639,-329.34344685047103,724.34900821407541,0.0
412154.6038362722,4600833.5216966402,-47500.0,159.67997235692499,106.47029421883877,571.96538360644308,-15.545935334029652,302.07737673741053,150.29134288393405,386.0498999403876,285.06676759680937,-148.8612249578494,148.8612249578494,-285.06676759680937,694.56693358879477,0.0
417154.6038362722,4600833.5216966402,-47500.0,179.1569067631952,42.475049593250986,559.00442618793534,-56.770926233128435,301.21989996720362,151.06493433146198,375.52328660568895,246.03180147669036,-120.05706564699005,120.05706564699005,-246.03180147669036,665.60157082963747,0.0
422154.6038362722,4600833.5216966402,-47500.0,202.87896968288203,-8.9479542957252907,529.22266112594241,-90.139012231779049,288.78301492671824,145.94316710343386,361.40387720569339,213.40825588570164,-94.037544250180758,94.037544250180758,-213.40825588570164,634.92105171918263,0.0
427154.6038362722,4600833.5216966402,-47500.0,227.44574027885298,-47.237065929811365,487.94770234901239,-115.19175527194008,268.02988962157627,136.52809174269186,344.18560263608668,187.42724521494594,-71.687331050662721,71.687331050662721,-187.42724521494594,601.52558110254108,0.0
432154.6038362722,4600833.5216966402,-47500.0,250.1272347296499,-73.025127298237436,439.93283512541404,-132.20144027533374,241.95162547521196,124.29991071685389,324.56818160824071,167.64460572469321,-53.340429304099494,53.340429304099494,-167.64460572469321,565.50229838961741,0.0
437154.6038362722,4600833.5216966402,-47500.0,268.98870124282234,-87.739767452652146,389.10447101706222,-141.94796611897621,213.09119218081975,110.52779825689944,303.34428743919023,153.20531478450374,-38.918599915829006,38.918599915829006,-153.20531478450374,527.57686971080841,0.0
312154.6038362722,4605833.5216966402,-47500.0,-57.682982059183999,-663.71972162933753,-785.42339134131998,-474.85958185175036,-762.24622116225316,-474.69594331439328,1063.8979848441584,-563.38864469606392,522.03780221619559,-522.03780221619559,563.38864469606392,2034.9774222713102,0.0
317154.6038362722,4605833.5216966402,-47500.0,41.936056493126998,-631.75421227147558,-872.32082554465717,-448.44171943508258,-821.21244938540235,-502.8746857078591,1106.5367755797115,-522.35856660337708,508.94368039052887,-508.94368039052887,522.35856660337708,2111.4916914684586,0.0
322154.6038362722,4605833.5216966402,-47500.0,148.32802677902498,-579.17043538705298,-953.49575327734033,-409.45461486951876,-873.94100490579422,-526.52117056960617,1143.0192694937271,-464.43609353531656,484.23852713880615,-484.23852713880615,464.43609353531656,2174.0435259280089,0.0
327154.6038362722,4605833.5216966402,-47500.0,257.37220412718574,-504.17007400208172,-1023.2789125581074,-357.2638039021931,-916.68776458642526,-543.76075604797143,1171.4167054086897,-388.7627546502888,446.69290254834459,-446.69290254834459,388.7627546502888,2218.6332556341413,0.0
332154.6038362722,4605833.5216966402,-47500.0,363.73432222822902,-406.29166760573798,-1075.0891817002503,-292.06659309942432,-945.2813656499244,-552.59948767506819,1189.7236050916767,-295.59531574301832,395.68099796376248,-395.68099796376248,295.59531574301832,2241.257710782575,0.0
337154.6038362722,4605833.5216966402,-47500.0,461.12890001256187,-286.94638197329994,-1101.8723949103519,-215.15848691404341,-955.41445606048558,-551.07327550633772,1196.0007992154372,-186.66084758701066,331.45592658917843,-331.45592658917843,186.66084758701066,2238.257699953303,0.0
342154.6038362722,4605833.5216966402,-47500.0,542.84436354219497,-149.86365549037004,-1096.8081913984695,-129.13806951697353,-943.07823717853523,-537.45334135364681,1188.5677571985516,-65.416933574007388,255.39840836244952,-255.39840836244952,65.416933574007388,2206.7595458553046,0.0
347154.6038362722,4605833.5216966402,-47500.0,602.53343130215171,-1.3060048599960905,-1054.2634442136134,-37.979308625312143,-905.12391404328071,-510.49846504019956,1166.2339745906063,62.883507919440575,170.17507710851717,-170.17507710851717,-62.883507919440575,2145.1872693778969,0.0
352154.6038362722,4605833.5216966402,-47500.0,635.19233887623022,150.09715757422157,-970.88257146616843,53.102922125108122,-839.88577605980402,-469.72471941199603,1128.5374554042198,191.42083406993521,79.732173359368403,-79.732173359368403,-191.42083406993521,2053.7795255661199,0.0
357154.6038362722,4605833.5216966402,-47500.0,638.16573814603919,294.00486313612805,-846.62130177734127,138.04522993384145,-747.75879531344162,-415.64729361569579,1075.9526079690329,312.38797731266658,-10.935282546430528,10.935282546430528,-312.38797731266658,1935.0302868028893,0.0
362154.6038362722,4605833.5216966402,-47500.0,611.93532137158218,419.51679268784005,-685.45667207391477,210.58606735646475,-631.58338747944424,-349.93256493172839,1010.0142904359141,417.8968488091034,-96.260248247657984,96.260248247657984,-417.8968488091034,1793.9373847130535,0.0
367154.6038362722,4605833.5216966402,-47500.0,560.43750339265966,516.68180376361636,-495.51341990095847,265.0983759670861,-496.69572917170319,-275.40084311426358,933.3148864419552,501.08090552515966,-170.78111940287837,170.78111940287837,-501.08090552515966,1637.9516073903219,0.0
372154.6038362722,4605833.5216966402,-47500.0,490.72800930406021,578.0730897489583,-288.43963851488218,297.45245451619451,-350.55079642722217,-195.83993428928636,849.34507688942199,557.16683712978397,-229.90345809178149,229.90345809178149,-557.16683712978397,1476.5240251673222,0.0
377154.6038362722,4605833.5216966402,-47500.0,411.97700792719627,600.05445299953237,-78.052202852026738,305.71119757828973,-201.92639362122728,-115.63153505298018,762.18188705170917,584.24877242032119,-270.57855082971707,270.57855082971707,-584.24877242032119,1320.1714502731097,0.0
382154.6038362722,4605833.5216966402,-47500.0,333.98363162393429,583.39607739998155,121.50999960995809,290.47423308150348,-59.836212789410226,-39.244599482863961,676.06768474591149,583.5494882229782,-291.7309045900339,291.7309045900339,-583.5494882229782,1179.0093747192025,0.0
387154.6038362722,4605833.5216966402,-47500.0,265.56354179649827,533.06090126683841,297.72135262500615,254.76941199535705,67.624867182526813,29.306753799467934,594.98722899321183,559.0893492317648,-294.325851065807,294.325851065807,-559.0893492317648,1060.8262803095049,0.0
392154.6038362722,4605833.5216966402,-47500.0,213.20910589660232,457.21814702842335,441.25327978186033,203.51281426942123,174.25290972081567,86.927849674315823,522.61910344937598,516.85452806599721,-281.0680967350022,281.0680967350022,-516.85452806599721,969.14329897022958,0.0
397154.6038362722,4605833.5216966402,-47500.0,180.32786321498946,365.75935531435022,546.87851474118656,142.67794006041018,256.3274161082673,131.73661991470058,467.18988641820346,463.69648373552872,-255.82609399888696,255.82609399888696,-463.69648373552872,902.24917591301323,0.0
402154.6038362722,4605833.5216966402,-47500.0,167.17052709318597,268.70046039829379,613.57755304670388,78.379722608892877,312.74075498816194,163.14099442743867,452.80199291441272,406.24167187652279,-222.93944727609085,222.93944727609085,-406.24167187652279,854.13381629734772,0.0
407154.6038362722,4605833.5216966402,-47500.0,171.35590162416574,174.83127365306885,643.95189540683396,16.075977867090561,344.70656522192422,181.71301689604741,447.63920130109796,350.04749401582831,-186.5749424874522,186.5749424874522,-350.04749401582831,817.007095591861,0.0
412154.6038362722,4605833.5216966402,-47500.0,188.7588077693689,90.838639674131258,643.19685810969725,-39.977505203525851,355.18125957943693,188.91762762636614,438.59782663222836,299.12586506894149,-150.24986102772635,150.24986102772635,-299.12586506894149,783.8702396726361,0.0
417154.6038362722,4605833.5216966402,-47500.0,214.49149502979563,20.964442655880823,617.93120941458346,-86.970522114269642,348.16793130874368,186.77478874934391,424.81314973527924,255.83797550070284,-116.57380733969644,116.57380733969644,-255.83797550070284,749.92446480223543,0.0
422154.6038362722,4605833.5216966402,-47500.0,243.75806772711874,-32.88082756872469,575.13123917391783,-123.51302889822749,328.05302390578083,177.5284522577908,406.63296123950511,221.074641469803,-87.195762187912194,87.195762187912194,-221.074641469803,712.74642707665248,0.0
427154.6038362722,4605833.5216966402,-47500.0,272.45704924294176,-70.703454101045679,521.31970462347613,-149.42090467961361,299.07554044218267,163.37419562001762,384.83559100234964,194.60022629101965,-62.902923507941722,62.902923507941722,-194.60022629101965,671.78391690355841,0.0
432154.6038362722,4605833.5216966402,-47500.0,297.50214343011709,-93.87653710724247,462.05921387376782,-165.40560542410822,264.97075257400741,146.27018798763714,360.41813332889819,175.4450675609894,-43.804669619077586,43.804669619077586,-175.4450675609894,627.67856109543004,0.0
437154.6038362722,4605833.5216966402,-47500.0,316.89978069980219,-104.58867556802471,401.72452124858108,-172.74743011185276,228.78403248503008,127.83288205970096,334.44384967357223,162.26361111673145,-29.54238707643384,29.54238707643384,-162.26361111673145,581.67592090129176,0.0
442154.6038362722,4605833.5216966402,-47500.0,329.65495999919403,-105.37578440100725,343.48737894447919,-173.00629186148558,192.82195964084903,109.30342010501012,307.92084692007819,153.61369925835675,-19.483544299284901,19.483544299284901,-153.61369925835675,535.20160220915818,0.0
447154.6038362722,4605833.5216966402,-47500.0,335.58144950844508,-98.773186689209538,289.43792679748202,-167.79733639006318,158.69808630318067,91.564567579694113,281.71911719291143,148.14492534856129,-12.877766056115902,12.877766056115902,-148.14492534856129,489.59695478543267,0.0
307154.6038362722,4610833.5216966402,-47500.0,-219.44426990074965,-745.30192876874719,-673.21972091625491,-577.89294502855432,-753.36122908565062,-507.31912609791641,1107.5345810431816,-628.97262903297496,576.54043569350142,-576.54043569350142,628.97262903297496,2128.1726051607916,0.0
312154.6038362722,4610833.5216966402,-47500.0,-121.46971460483363,-740.46686362977596,-771.62573091201943,-567.97163051997006,-828.81778600472603,-547.46233871485902,1165.150605312276,-606.62417459744188,578.76227286727521,-578.76227286727521,606.62417459744188,2236.219244325112,0.0
317154.6038362722,4610833.5216966402,-47500.0,-10.137842404815505,-715.93870560610321,-871.48134042122979,-544.81640086392531,-902.63329851947844,-585.10382451069745,1218.7157930975106,-567.20525851412128,569.95832862570671,-569.95832862570671,567.20525851412128,2334.4539681006481,0.0
322154.6038362722,4610833.5216966402,-47500.0,111.78874602479557,-667.98987102511228,-967.91710126001578,-506.51092061910958,-971.15939457798697,-618.20595550831729,1266.147922349237,-508.35395879566124,547.94335840240808,-547.94335840240808,508.35395879566124,2418.3094267942906,0.0
327154.6038362722,4610833.5216966402,-47500.0,239.89046217797221,-593.62419855437099,-1054.5312242150665,-451.69776585233922,-1029.8595829331421,-644.3694117112932,1305.0708569495025,-428.460868360105,510.82399432412058,-510.82399432412058,428.460868360105,2482.7266933030387,0.0
332154.6038362722,4610833.5216966402,-47500.0,368.01914257290053,-491.25978279212399,-1123.512896765938,-379.95871741321861,-1073.4369732468078,-660.92226553971921,1332.8990413426018,-327.16909641350878,457.33388922048073,-457.33388922048073,327.16909641350878,2522.4203414344433,0.0
337154.6038362722,4610833.5216966402,-47500.0,488.49702926911681,-361.49891959557868,-1166.0752653809211,-292.22641688768078,-1096.1467023751752,-665.08973096114096,1347.0006599153355,-205.90204607867582,387.22706146921365,-387.22706146921365,205.90204607867582,2532.2964322569378,0.0
342154.6038362722,4610833.5216966402,-47500.0,592.68486470904929,-207.85301269525911,-1173.2751317510929,-191.15459254448675,-1092.3310859732774,-654.25771031697468,1344.9471629629265,-68.311473642523353,301.67314760279811,-301.67314760279811,68.311473642523353,2508.0311506625649,0.0
347154.6038362722,4610833.5216966402,-47500.0,671.96532581535678,-37.22033438509964,-1137.2292264541688,-81.339245909770469,-1057.1775193215344,-626.32786937568255,1324.8371411434014,79.505331312412267,203.56226668716354,-203.56226668716354,-79.505331312412267,2446.7861315162154,0.0
352154.6038362722,4610833.5216966402,-47500.0,719.07939815991574,140.12456730984456,-1052.6154754259881,30.736306628336582,-987.62948848922588,-580.13279179325923,1285.6550869312441,229.18387219230937,97.600901156728867,-97.600901156728867,-229.18387219230937,2347.9826079637764,0.0
357154.6038362722,4610833.5216966402,-47500.0,729.60652560050562,311.23762577950168,-918.20096997897758,137.14090266426814,-883.30069813443617,-515.84671173266986,1227.606013123223,370.78706519291472,-9.9139151986697698,9.9139151986697698,-370.78706519291472,2214.0112826333821,0.0
362154.6038362722,4610833.5216966402,-47500.0,703.23441026861235,461.9822239698388,-738.0045197981168,229.35836009732731,-747.16548539552014,-435.29270590405872,1152.3465497205787,494.02095326829414,-111.70363116728794,111.70363116728794,-494.02095326829414,2050.7050813236456,0.0
367154.6038362722,4610833.5216966402,-47500.0,644.39956205952512,579.11771980585161,-521.66707335089757,299.48837338188673,-585.77654120305135,-342.03436584161113,1063.0330705360402,589.80030712365715,-200.45794549617409,200.45794549617409,-589.80030712365715,1867.3858538591007,0.0
372154.6038362722,4610833.5216966402,-47500.0,561.96816591784727,652.58325255759848,-283.72810921591378,341.56076483956849,-408.82891509868409,-241.16618270797539,964.13401718486296,651.82206621968589,-269.95703874085768,269.95703874085768,-651.82206621968589,1676.3139511751801,0.0
377154.6038362722,4610833.5216966402,-47500.0,467.87817960406676,677.38885669448757,-41.790335609578783,352.63906641607389,-228.04735593695199,-138.78310617542365,860.99923537044265,677.71839369929671,-316.09870874227153,316.09870874227153,-677.71839369929671,1491.3921238099563,0.0
382154.6038362722,4610833.5216966402,-47500.0,375.01189327612906,654.55610459426964,186.08111707585473,333.39659408987961,-55.585965559447978,-41.207595578771986,759.25167201276963,669.43447796456121,-337.55035869939417,337.55035869939417,-669.43447796456121,1326.0306096534246,0.0
387154.6038362722,4610833.5216966402,-47500.0,294.85488363597108,590.80724048351044,384.09867662483356,287.97927847917254,97.698447393185816,45.863430100018043,664.17379140374487,632.70054397950537,-335.83998225757648,335.83998225757648,-632.70054397950537,1190.2826894686978,0.0
392154.6038362722,4610833.5216966402,-47500.0,235.58316076713689,497.09722320418848,540.94193390712701,223.18572204225148,223.68385704546529,118.09281960270381,580.83491988490346,575.75954064635687,-314.8747221822149,314.8747221822149,-575.75954064635687,1088.0168281166339,0.0
397154.6038362722,4610833.5216966402,-47500.0,201.054096585906,386.43903083878411,650.90182950787482,147.20097102681513,317.81189923985102,172.95491484687585,525.78784190474767,507.73625436108819,-280.05053167926087,280.05053167926087,-507.73625436108819,1015.783373169494,0.0
402154.6038362722,4610833.5216966402,-47500.0,190.84559470615895,271.63978188221705,713.84233676731185,68.231302729088185,379.19010698671758,209.8306860359439,517.38415451719459,437.09969396525139,-237.22043755404013,237.22043755404013,-437.09969396525139,964.69857572992498,0.0
407154.6038362722,4610833.5216966402,-47500.0,201.14961527381189,163.48933675709139,734.19114943452644,-6.6362743466952407,410.06203060397985,229.77624773135008,510.90366014637743,370.5623977155534,-191.78239209877984,191.78239209877984,-370.5623977155534,924.37254074526641,0.0
412154.6038362722,4610833.5216966402,-47500.0,226.12424110024364,69.707302607616796,719.38982103697299,-72.148546484837141,414.88593894120135,235.07355807919046,498.69389073125257,312.56611408665782,-148.06051159857788,148.06051159857788,-312.56611408665782,886.3189166313274,0.0
417154.6038362722,4610833.5216966402,-47500.0,259.28281312881728,-5.3246225452084124,678.25510121094351,-125.13132277646983,399.2977137484076,228.69911740651574,480.46680124224605,265.30394552693247,-109.03015375504873,109.03015375504873,-265.30394552693247,845.37651543487812,0.0
422154.6038362722,4610833.5216966402,-47500.0,294.61297412937182,-60.21805691619992,619.59289557674902,-164.34626467289559,369.18304844379765,213.82965276780138,456.95092480304089,229.11114394811383,-76.339014848877099,76.339014848877099,-229.11114394811383,799.49168152729794,0.0
427154.6038362722,4610833.5216966402,-47500.0,327.28356245540988,-95.880849436218483,551.23655788781252,-190.10362006103344,329.98866855954708,193.46004912596248,429.33202457275945,203.02492285675612,-50.523298633411954,50.523298633411954,-203.02492285675612,748.80504046932651,0.0
432154.6038362722,4610833.5216966402,-47500.0,353.94167261072477,-114.71293826594679,479.52955175170001,-203.77831359839419,286.30798526124607,170.16083723257725,399.00006982263682,185.34823385121595,-31.311572204407213,31.311572204407213,-185.34823385121595,694.69354491762408,0.0
437154.6038362722,4610833.5216966402,-47500.0,372.69059218525916,-119.87032845152139,409.17585985875928,-207.3430083829688,241.71021369191055,145.96592574569718,367.34701913048934,174.11589893826005,-17.93195487885275,17.93195487885275,-174.11589893826005,639.02965329213339,0.0
442154.6038362722,4610833.5216966402,-47500.0,382.86925049576365,-114.68995542321851,343.34227096869728,-202.98488419452664,198.74886005630387,122.36072238315099,335.61837647183393,167.42254127722731,-9.371561088856609,9.371561088856609,-167.42254127722731,583.69789742038324,0.0
447154.6038362722,4610833.5216966402,-47500.0,384.74380156790232,-102.30054336361384,283.89983664107223,-192.83149004697603,159.08037943318109,100.33526173029954,304.8253992241265,163.61560926988147,-4.567348387124369,4.567348387124369,-163.61560926988147,530.32508286799361,0.0
452154.6038362722,4610833.5216966402,-47500.0,379.19195760620744,-85.401600933837543,231.71572638047709,-178.78178982898137,123.6340185049803,80.470275955803984,275.710379661101,161.3797844349929,-2.5286156302101119,2.5286156302101119,-161.3797844349929,480.16115119196712,0.0
302154.6038362722,4615833.5216966402,-47500.0,-392.67108942142346,-787.66121978952253,-530.49915920801106,-668.72091318315393,-716.06459558003564,-527.16235307098668,1131.8993028935774,-665.6650126326532,609.78264042712783,-609.78264042712783,665.6650126326532,2181.6477468517373,0.0
307154.6038362722,4615833.5216966402,-47500.0,-306.43912192382794,-810.50380919398219,-630.0993634884577,-678.7807918183089,-803.29619935066637,-578.58563204014297,1203.3496622645521,-662.86843112981842,627.70779144720541,-627.70779144720541,662.86843112981842,2319.3900891365734,0.0
312154.6038362722,4615833.5216966402,-47500.0,-201.64725876828967,-817.33896880157567,-737.62388830767861,-676.77015675187317,-893.9925739486996,-630.23258131846137,1273.4077736606346,-644.74741824385387,636.57326396205667,-636.57326396205667,644.74741824385387,2452.9768203691488,0.0
317154.6038362722,4615833.5216966402,-47500.0,-78.982759997297507,-803.19451312720469,-849.86770916110004,-659.71234899926185,-985.26371343947187,-680.24274628761668,1340.135864685589,-607.8027407486004,633.56870297511023,-633.56870297511023,607.8027407486004,2577.8933424555016,0.0
322154.6038362722,4615833.5216966402,-47500.0,59.185955833803767,-763.00198879242612,-961.84844799855432,-624.72483263670881,-1073.0362009498588,-726.19443420055802,1401.1471678467387,-548.72473226015427,615.75740625245066,-615.75740625245066,548.72473226015427,2688.6823413019001,0.0
327154.6038362722,4615833.5216966402,-47500.0,208.38402054178113,-692.20814823151034,-1066.5589881016017,-569.39861827997265,-1151.9483990040208,-765.0889062788342,1453.5828789808525,-464.89470412460184,580.36698088257992,-580.36698088257992,464.89470412460184,2779.0399016968577,0.0
332154.6038362722,4615833.5216966402,-47500.0,361.75851717257774,-587.63843809741172,-1154.9461530444967,-492.30897159448284,-1215.3979363286094,-793.40758833961615,1494.1603175014804,-355.04606758873945,525.21487964959817,-525.21487964959817,355.04606758873945,2842.0755732557773,0.0
337154.6038362722,4615833.5216966402,-47500.0,510.12495610699148,-448.56428518780416,-1216.2732450527324,-393.62647201297386,-1255.8340385485044,-807.28048862380365,1519.3424741821218,-220.02675178856401,449.25631877892403,-449.25631877892403,220.02675178856401,2870.7932726286681,0.0
342154.6038362722,4615833.5216966402,-47500.0,642.51063674126124,-277.8227283595831,-1239.0177005643461,-275.74182212842396,-1265.381086339758,-802.80266724384319,1525.6547080443811,-63.527293455417237,353.19219455991112,-353.19219455991112,63.527293455417237,2858.8295571121985,0.0
347154.6038362722,4615833.5216966402,-47500.0,747.32603567132446,-82.712384133942464,-1212.3796162393494,-143.75005046445381,-1236.8342663826027,-776.51725526607368,1510.1359433102157,107.44480155625692,240.01002251064116,-240.01002251064116,-107.44480155625692,2801.4377668577467,0.0
352154.6038362722,4615833.5216966402,-47500.0,814.15366049025749,124.70824396148964,-1128.3149120153678,-5.5852943651850708,-1164.9730988695151,-726.04496367447291,1470.8757777035057,282.61367641023276,115.27259700407549,-115.27259700407549,-282.61367641023276,2696.6359640001128,0.0
357154.6038362722,4615833.5216966402,-47500.0,835.90913658949023,328.29695455857865,-983.76549563171886,128.40783893344076,-1047.993735225655,-650.77436185383669,1407.5484470143315,449.24137066949822,-13.049550506487861,13.049550506487861,-449.24137066949822,2546.3382220487765,0.0
362154.6038362722,4615833.5216966402,-47500.0,810.86412406868055,509.68717861679835,-782.51593778046765,246.59176699254456,-888.71284598872364,-552.45657550716953,1321.8228640717932,593.76308517980954,-135.34389163970698,135.34389163970698,-593.76308517980954,2357.204373286434,0.0
367154.6038362722,4615833.5216966402,-47500.0,743.8497836994211,651.18206265188473,-535.98749301170881,337.77059728246121,-695.11316181780046,-435.49763716365271,1217.5115337441612,704.03648588308431,-241.70016798679026,241.70016798679026,-704.03648588308431,2140.8874540861357,0.0
372154.6038362722,4615833.5216966402,-47500.0,646.04305254765995,739.08932977224197,-262.43021914483433,393.21333507500083,-479.88105163929555,-306.76659009468676,1100.359266147796,771.68357841034447,-323.59026148832561,323.59026148832561,-771.68357841034447,1913.3830173542674,0.0
377154.6038362722,4615833.5216966402,-47500.0,533.12332492043004,766.56847710261081,15.588560370359664,408.43035396153385,-258.83766791207546,-174.84435935520594,977.44181148079508,793.8265479251645,-375.4495610235108,375.4495610235108,-793.8265479251645,1693.2162156883628,0.0
382154.6038362722,4615833.5216966402,-47500.0,422.18171143274805,735.06731598633849,274.89100706321403,384.14429987763538,-48.544583935012632,-48.822160729901164,856.26800044975744,773.62336243813854,-395.68082496925615,395.68082496925615,-773.62336243813854,1498.3013193153286,0.0
387154.6038362722,4615833.5216966402,-47500.0,328.27588723943688,653.84203122350107,495.60019217889908,326.11523062003221,136.31797937475963,63.071397541642611,743.8559717786037,719.39300468333977,-386.76236370692504,386.76236370692504,-719.39300468333977,1341.6539837446144,0.0
392154.6038362722,4615833.5216966402,-47500.0,261.6779579090167,537.72579016575958,664.16352632963208,243.86434919284525,285.09745117726771,154.65632579488229,647.21032097701709,642.6242190286498,-354.45005648826901,354.45005648826901,-642.6242190286498,1227.2820106296856,0.0
397154.6038362722,4615833.5216966402,-47500.0,226.56273747923976,403.90629656823825,774.74579671297317,148.710643983301,392.31727916310905,222.50675871628764,597.80996550152133,555.53139442159795,-306.37096586764642,306.37096586764642,-555.53139442159795,1149.0206851728433,0.0
402154.6038362722,4615833.5216966402,-47500.0,221.30081978947109,268.71031654066826,828.85916539934715,51.7143371951151,457.66926139859675,266.05332815007642,593.06587677874313,468.88645693929618,-250.46732626384517,250.46732626384517,-468.88645693929618,1094.057790764032,0.0
407154.6038362722,4615833.5216966402,-47500.0,239.96683177763214,145.21267886016147,833.66203653062053,-37.94770860901798,485.06164394633993,287.15621572889927,584.08799329132592,390.62999959641041,-193.7110040869872,193.7110040869872,-390.62999959641041,1048.8657542756907,0.0
412154.6038362722,4615833.5216966402,-47500.0,274.38522749276939,42.047746777761446,799.64107207310542,-113.89044638199798,481.15144855769671,289.35283153883057,567.25299914268385,325.40386656916905,-141.32770253367065,141.32770253367065,-325.40386656916905,1003.4905079960477,0.0
417154.6038362722,4615833.5216966402,-47500.0,316.06852403264185,-36.641876098259374,738.35878394454153,-172.70109984057314,453.81054040227485,277.01954400513449,542.93246252346319,274.84342681608564,-96.559313416722858,96.559313416722858,-274.84342681608564,952.72283536913562,0.0
422154.6038362722,4615833.5216966402,-47500.0,357.6372817386453,-90.46616779776231,660.71145189800586,-213.57147179105286,410.85182659894713,254.63737225404543,512.41446224047741,238.31460741188451,-60.841877282409001,60.841877282409001,-238.31460741188451,895.24740690004592,0.0
427154.6038362722,4615833.5216966402,-47500.0,393.58969681338573,-121.67862457499227,575.85963617126333,-237.63422865273816,359.16799230319771,226.26513008563879,477.44525949417249,213.78177952324182,-34.21704095941557,34.21704095941557,-213.78177952324182,832.19598836906391,0.0
432154.6038362722,4615833.5216966402,-47500.0,420.49744687289581,-134.04378556707476,490.78057264223366,-247.23017210565686,304.2889307920716,195.24214331795028,439.90907182307757,198.58451589247827,-15.811059580480531,15.811059580480531,-198.58451589247827,765.87078540108962,0.0
437154.6038362722,4615833.5216966402,-47500.0,436.80552489977941,-131.89392552820121,410.27920666923825,-245.26025620769559,250.2745649853085,164.08670280273753,401.57253043541454,190.01315096164066,-4.2679591561721395,4.2679591561721395,-190.01315096164066,698.85824847183915,0.0
442154.6038362722,4615833.5216966402,-47500.0,442.4253832604366,-119.4591614985131,337.27266055701449,-234.69645771826484,199.82915410693039,134.53208462079812,363.9180367432499,185.6637072455697,1.9185699781642853,-1.9185699781642853,-185.6637072455697,633.50879068297559,0.0
447154.6038362722,4615833.5216966402,-47500.0,438.27243511801123,-100.4661020260972,273.19276663131757,-218.26463057390129,154.53145660142823,107.64115702455776,328.0651564507001,183.60602373295049,4.1858191300917156,-4.1858191300917156,-183.60602373295049,571.68733614459643,0.0
452154.6038362722,4615833.5216966402,-47500.0,425.84347298070736,-77.953403000560556,218.39943871000315,-198.27589010767105,115.10091282584253,83.951835084118215,294.76083875803482,182.41900970387815,3.7805959756757233,-3.7805959756757233,-182.41900970387815,514.69834280044859,0.0
297154.6038362722,4620833.5216966402,-47500.0,-561.95404916949599,-785.57705458934981,-371.0077142049405,-739.54353754373494,-653.18055252861825,-532.55697351429387,1135.6543492068615,-669.40483181411082,618.31871690599291,-618.31871690599291,669.40483181411082,2191.7604311382097,0.0
302154.6038362722,4620833.5216966402,-47500.0,-496.42553490185759,-832.46315186660388,-461.56115392231817,-770.78414049323567,-745.91771696962417,-593.35775859435512,1218.7192682905734,-684.17042405943232,650.20116610848925,-650.20116610848925,684.17042405943232,2354.6719210644455,0.0
307154.6038362722,4620833.5216966402,-47500.0,-409.65075738723021,-869.00998834017832,-564.51878096514247,-792.88732077135296,-846.83914059155154,-657.44692593581181,1303.2543192510527,-686.85686186159478,676.00918038445639,-676.00918038445639,686.85686186159478,2519.9140705467348,0.0
312154.6038362722,4620833.5216966402,-47500.0,-300.04833974277346,-890.01462548343648,-678.73537140995347,-802.3355262192473,-954.32669207790514,-723.4909579921964,1387.6998797328927,-673.45456305505888,692.79963346997363,-692.79963346997363,673.45456305505888,2683.6874980104258,0.0
317154.6038362722,4620833.5216966402,-47500.0,-167.28167481288972,-889.40179324319377,-801.49550783039263,-795.18486993624822,-1065.5593750907626,-789.51259285705817,1470.0299781346491,-639.55122259468044,697.10630049436122,-697.10630049436122,639.55122259468044,2840.9655001313727,0.0
322154.6038362722,4620833.5216966402,-47500.0,-12.903349345216927,-860.56090873652988,-927.99005914124393,-767.3100894747937,-1176.1925078611007,-852.76067771246744,1547.6398658487471,-580.68048825121662,685.08673496141262,-685.08673496141262,580.68048825121662,2985.3773193610477,0.0
327154.6038362722,4620833.5216966402,-47500.0,158.95905265191536,-797.00109408909759,-1050.8453527962372,-714.83491156832736,-1280.0892520322359,-909.60983058951047,1617.2155466753748,-492.90801060738715,652.83268107314268,-652.83268107314268,492.90801060738715,3109.2107324909634,0.0
332154.6038362722,4620833.5216966402,-47500.0,341.02135295402257,-693.39274776160073,-1159.8684935194869,-634.78424228718325,-1369.2096763219247,-955.53547671165745,1674.6766915744665,-373.68179686135778,596.88965501754069,-596.88965501754069,373.68179686135778,3203.6198255556387,0.0
337154.6038362722,4620833.5216966402,-47500.0,522.5975734909772,-546.99025746748009,-1242.239589937647,-525.95354742639245,-1433.8041156409131,-985.22962038716287,1715.3168333824478,-222.90495301080594,514.99971874402559,-514.99971874402559,222.90495301080594,3259.1383440663385,0.0
342154.6038362722,4620833.5216966402,-47500.0,689.98815159664298,-359.28640309878176,-1283.4111454577308,-389.90919533295965,-1463.076082734791,-992.9361889617827,1734.2018811110347,-44.071392977850252,407.01096168707215,-407.01096168707215,44.071392977850252,3266.585370503476,0.0
347154.6038362722,4620833.5216966402,-47500.0,827.7833585735126,-137.54538045339334,-1268.9136199178779,-231.91557509046436,-1446.4448435206702,-973.0771023071577,1726.8060031236164,154.84297191614303,275.7902955006449,-275.7902955006449,-154.84297191614303,3218.3997087323678,0.0
352154.6038362722,4620833.5216966402,-47500.0,921.19525620585125,104.34707614535928,-1187.0526066924074,-61.456615060631833,-1375.4042585440411,-921.18498731862167,1689.8095985391931,361.16465290048279,127.85469218373473,-127.85469218373473,-361.16465290048279,3110.3192937149679,0.0
357154.6038362722,4620833.5216966402,-47500.0,959.17776495948192,346.36570329147804,-1032.1170865277581,108.0456197821498,-1245.7424701150442,-835.05137723864652,1621.9408143832966,558.4144714269986,-26.63582794115689,26.63582794115689,-558.4144714269986,2943.1660200678857,0.0
362154.6038362722,4620833.5216966402,-47500.0,937.61828951576229,564.62697999538068,-807.28028018425903,260.62357389843362,-1059.5960132098189,-715.84617993799066,1524.6761347219347,728.51799733552582,-174.82124026849658,174.82124026849658,-728.51799733552582,2724.317150690943,0.0
367154.6038362722,4620833.5216966402,-47500.0,861.50526971581098,735.40012228715773,-526.09674804460485,380.26964951756599,-826.60776297944824,-568.83455239344448,1402.5754326391348,855.08251615996119,-303.06868223556631,303.06868223556631,-855.08251615996119,2468.3324661051315,0.0
372154.6038362722,4620833.5216966402,-47500.0,744.99334299078691,840.00919289924479,-211.6426254143162,454.08551477321134,-563.5156492563907,-403.30754801381926,1263.059260441788,926.93260472523298,-399.53469382425692,399.53469382425692,-926.93260472523298,2196.2054400621414,0.0
377154.6038362722,4620833.5216966402,-47500.0,608.8834397034168,869.14740154789001,106.96786061114932,475.17865952661828,-291.91373567797933,-231.52077714810829,1115.5563184181369,940.74503913094873,-456.64022909044616,456.64022909044616,-940.74503913094873,1932.7864099682724,0.0
382154.6038362722,4620833.5216966402,-47500.0,476.05901727354973,825.05937464342628,399.93146772689823,444.30577566523408,-34.60272487214467,-66.78350719050826,970.14706622054928,901.77471568550652,-472.62541185887778,472.62541185887778,-901.77471568550652,1702.0963446951275,0.0
387154.6038362722,4620833.5216966402,-47500.0,366.34645082446895,720.74120710685941,642.37465489926296,369.63259600126185,188.45063784731147,78.805609030177578,836.10036532962226,822.34349833295346,-451.63224535474529,451.63224535474529,-822.34349833295346,1520.878051312395,0.0
392154.6038362722,4620833.5216966402,-47500.0,292.53958852620991,576.47147193221349,818.49336415235712,264.68789014592659,363.33579571810554,196.3121772274001,722.84587946640602,718.65293253491666,-402.32942541384898,402.32942541384898,-718.65293253491666,1392.7218214155762,0.0
397154.6038362722,4620833.5216966402,-47500.0,258.76296428916487,414.98781033986262,923.11574293820536,145.26251806240651,483.74454519535448,281.07223628353017,686.40272187042399,607.08744460393598,-335.64147059931577,335.64147059931577,-607.08744460393598,1307.2932692968407,0.0
402154.6038362722,4620833.5216966402,-47500.0,261.30472519792198,256.93851659853709,960.6474079291429,26.28967940523993,550.66312739103194,332.75751316274062,682.43514859038908,501.19092121118967,-262.38543071578317,262.38543071578317,-501.19092121118967,1246.6077930300219,0.0
407154.6038362722,4620833.5216966402,-47500.0,291.13936324846702,117.81543185095568,942.24894072878215,-80.444865881912449,570.67075135543143,354.57550927968083,669.01598103264735,410.01646451821989,-191.48493992579677,191.48493992579677,-410.01646451821989,1193.6141842803311,0.0
412154.6038362722,4620833.5216966402,-47500.0,336.99128739368251,6.7766772416992103,882.42639509243895,-167.38722224656149,553.61212862752041,351.9998733839152,645.32119384677935,337.90537248634814,-129.06600034485461,129.06600034485461,-337.90537248634814,1137.1855117419709,0.0
417154.6038362722,4620833.5216966402,-47500.0,387.97432290286747,-72.932463448620112,796.02623099422419,-231.18694383721854,510.36284028528752,331.44911473396252,612.58432478508462,285.29396525859249,-78.379242810202342,78.379242810202342,-285.29396525859249,1072.6029115253923,0.0
422154.6038362722,4620833.5216966402,-47500.0,435.30253432018691,-122.60535294359039,696.1598980271101,-271.92563670773546,451.13338421236807,299.2085795540242,572.88859214663069,249.99035205996881,-40.278034079676345,40.278034079676345,-249.99035205996881,999.78002752679151,0.0
427154.6038362722,4620833.5216966402,-47500.0,473.01768476735822,-146.39561117009518,593.14322768782631,-292.02789126300274,384.45775944582147,260.72632968247058,528.71132804848367,228.45587774064956,-13.940049107684942,13.940049107684942,-228.45587774064956,921.1723937043804,0.0
432154.6038362722,4620833.5216966402,-47500.0,497.95442539695699,-149.79279769188997,494.2570260993499,-295.18849516145713,316.79506181917145,220.27710779123663,482.51758690455631,216.81941950618244,2.4112525286519002,-2.4112525286519002,-216.81941950618244,840.17343619182691,0.0
437154.6038362722,4620833.5216966402,-47500.0,509.2540005575479,-138.47757495355282,404.03363090424182,-285.5069521993081,252.56814521608965,180.91064235664555,436.46013643678435,211.53559373342318,10.923330946139274,-10.923330946139274,-211.53559373342318,760.11516037549791,0.0
442154.6038362722,4620833.5216966402,-47500.0,507.70309262967288,-117.59955600467761,324.79873063547427,-266.89467122934298,194.45297601513107,144.57913796760414,392.21571846589643,209.71888682704559,13.714984868778515,-13.714984868778515,-209.71888682704559,683.75375668907418,0.0
447154.6038362722,4620833.5216966402,-47500.0,495.08707707406478,-91.41610574394457,257.27178823647273,-242.73720553301501,143.76766942999379,112.35018319892758,350.93887085953014,209.2389433208748,12.647484066565596,-12.647484066565596,-209.2389433208748,613.07842150125316,0.0
452154.6038362722,4620833.5216966402,-47500.0,473.6577315783515,-63.190901163246409,201.10995901724488,-215.7545568427517,100.86168294730207,84.637885894598995,313.29863479872176,208.66907808050195,9.2265717173226705,-9.2265717173226705,-208.66907808050195,549.30941177650618,0.0
457154.6038362722,4620833.5216966402,-47500.0,445.7484116789347,-35.252611834390713,155.3448310997739,-187.99433359607835,65.45199429781897,61.41267032874741,279.56566859854667,207.16326223754987,4.5907945811378141,-4.5907945811378141,-207.16326223754987,492.99235820505288,0.0
292154.6038362722,4625833.5216966402,-47500.0,-711.77985643062334,-739.9690831306591,-210.22498375848747,-784.7686422366836,-570.50693121143411,-523.32870902098887,1118.9834754693434,-640.45857340958969,601.75020613693073,-601.75020613693073,640.45857340958969,2158.5261655073314,0.0
297154.6038362722,4625833.5216966402,-47500.0,-672.95437599191848,-803.83699350933512,-283.55486036849982,-835.80133275654441,-662.00633584751392,-590.63487343807481,1210.6813563803053,-668.37272641866628,644.01476299415765,-644.01476299415765,668.37272641866628,2339.928164467794,0.0
302154.6038362722,4625833.5216966402,-47500.0,-613.1968284084121,-863.72088448926138,-371.0491127127782,-881.90134954091036,-765.20656427831329,-664.18202544679127,1306.6145630323874,-688.15545230330417,683.58610794573929,-683.58610794573929,688.15545230330417,2530.1176817392552,0.0
307154.6038362722,4625833.5216966402,-47500.0,-529.06492481797113,-915.18228589499563,-473.43262600760301,-919.67677102018467,-879.96043613036102,-743.42061535102266,1405.6919416490425,-695.96135134883787,717.8824577720444,-717.8824577720444,695.96135134883787,2726.5457012008396,0.0
312154.6038362722,4625833.5216966402,-47500.0,-417.61809339379164,-952.43708445490779,-590.40524209398041,-944.90281261243092,-1005.1781062577413,-827.22881972722837,1506.4166101837725,-687.09842048711744,743.54464949015642,-743.54464949015642,687.09842048711744,2925.3962343050916,0.0
317154.6038362722,4625833.5216966402,-47500.0,-277.05109784079849,-968.33605731909165,-720.04036179808588,-952.54827938175822,-1138.3940330255637,-913.70629903635609,1606.8239914569469,-656.1338056714136,756.39595057974782,-756.39595057974782,656.1338056714136,3121.2865409756109,0.0
322154.6038362722,4625833.5216966402,-47500.0,-107.54305754035654,-954.59632929856321,-858.06104409762088,-936.96125198559628,-1275.26247008163,-999.9361813366711,1704.3143072304108,-597.22265919449342,751.52739327320819,-751.52739327320819,597.22265919449342,3306.9956708090781,0.0
327154.6038362722,4625833.5216966402,-47500.0,87.726474396477457,-902.43326060127663,-997.08503280828097,-892.30371976169567,-1409.0466744314324,-1081.7406950546601,1795.3030079311679,-504.76245792242173,723.59486556358831,-723.59486556358831,504.76245792242173,3473.3025739874734,0.0
332154.6038362722,4625833.5216966402,-47500.0,301.54833503134188,-803.74324677324739,-1126.0316338621653,-813.32930799435439,-1530.2352136290635,-1153.4877946954723,1874.8678004129529,-374.45597917811313,667.42324215949304,-667.42324215949304,374.45597917811313,3609.0604055074673,0.0
337154.6038362722,4625833.5216966402,-47500.0,521.94498542512724,-652.91890925394625,-1230.0059610807305,-696.56165608150002,-1626.503363922676,-1208.0520678326764,1936.7805979654909,-204.78483646302092,578.98506826755681,-578.98506826755681,204.78483646302092,3701.6746555099276,0.0
342154.6038362722,4625833.5216966402,-47500.0,732.18040534447266,-449.1950141449604,-1291.0724753089241,-541.82486897154092,-1683.3082434063078,-1237.0799656069598,1974.0589212330399,1.2729308784552416,456.7305662750332,-456.7305662750332,-1.2729308784552416,3738.1623673207437,0.0
347154.6038362722,4625833.5216966402,-47500.0,912.04617298785979,-199.10888729994002,-1290.3140966619469,-353.88244308280156,-1685.4069936959868,-1231.7339585585823,1979.8912843117739,234.69812965820364,303.07327658641822,-303.07327658641822,-234.69812965820364,3706.916430395077,0.0
352154.6038362722,4625833.5216966402,-47500.0,1040.7935943574373,81.729276274167901,-1211.3270471856204,-143.68420969120692,-1619.4314705773459,-1184.0355980197455,1948.8073602592804,479.73209642972159,125.60749195868271,-125.60749195868271,-479.73209642972159,3600.1358189784141,0.0
357154.6038362722,4625833.5216966402,-47500.0,1101.5736067909208,368.63347950439083,-1044.7564061948683,71.488019980556089,-1477.2826758975432,-1088.7503348153853,1877.9680044209281,714.79302243158406,-62.555110741224553,62.555110741224553,-714.79302243158406,3416.6049421822536,0.0
362154.6038362722,4625833.5216966402,-47500.0,1086.4275834976377,630.54272809289046,-792.73547644193809,269.64802666274204,-1259.575501619838,-945.45597496932874,1768.3260232143866,915.49310585967658,-243.91918669484164,243.91918669484164,-915.49310585967658,3164.180459358246,0.0
367154.6038362722,4625833.5216966402,-47500.0,1000.0770923483663,835.57913624577611,-471.49711048877077,427.72007221563473,-977.89373145806553,-760.11825611254358,1625.2826728372363,1059.4914825190567,-399.42030157898461,399.42030157898461,-1059.4914825190567,2861.0836306968167,0.0
372154.6038362722,4625833.5216966402,-47500.0,860.58680084846503,958.29957780912446,-110.51020103593511,526.49716060576429,-654.58699544973103,-545.38051587696179,1458.4828419131882,1131.9102895431129,-512.41581085369535,512.41581085369535,-1131.9102895431129,2535.0556726530485,0.0
377154.6038362722,4625833.5216966402,-47500.0,695.87434128817449,986.26040229514217,252.44393369302989,555.42032139282924,-319.50963945135686,-319.05840705451044,1280.5808331865426,1129.3502974463065,-572.6211320877137,572.6211320877137,-1129.3502974463065,2219.5788205244367,0.0
382154.6038362722,4625833.5216966402,-47500.0,536.84504742239142,923.28804778173935,579.08809415045607,515.35704038471386,-4.3424467873959198,-101.01423665915172,1105.1516242616146,1060.780343202752,-578.51112328226634,578.51112328226634,-1060.780343202752,1946.7438778929541,0.0
387154.6038362722,4625833.5216966402,-47500.0,409.62469066078086,788.03431988979969,838.73976888748234,418.20646932519111,263.71909321220738,90.672671072405663,944.27435763648452,944.81815594843135,-537.23008908419104,537.23008908419104,-944.81815594843135,1737.545614739397,0.0
392154.6038362722,4625833.5216966402,-47500.0,329.83033734317706,608.45854854463118,1013.8631672539325,283.50339415584131,466.79176424895155,242.97146560563382,809.30288800783421,804.52353605771862,-462.12866174330054,462.12866174330054,-804.52353605771862,1593.8416761803651,0.0
397154.6038362722,4625833.5216966402,-47500.0,300.70576659521464,414.56084838899477,1101.5107232104253,133.43359256488426,598.25280125474887,349.61128649724367,796.68612265347201,661.79117743133804,-369.0271544430417,369.0271544430417,-661.79117743133804,1499.0768660164745,0.0
402154.6038362722,4625833.5216966402,-47500.0,315.04947120612275,232.03328276871093,1110.9345780938231,-11.903077380217413,661.71107448152111,410.96366839387696,789.43163828741888,533.24840039094477,-272.63094561690377,272.63094561690377,-533.24840039094477,1428.9240625281989,0.0
407154.6038362722,4625833.5216966402,-47500.0,359.38934451262514,78.537663945185244,1058.9968773065279,-137.63518465499638,667.98594762313382,432.52157057627079,768.2023335124685,428.53748768322941,-184.13439739561227,184.13439739561227,-428.53748768322941,1362.932746320138,0.0
412154.6038362722,4625833.5216966402,-47500.0,418.48295335754813,-37.109041174551663,965.28883410791479,-235.24752020201882,631.46067749335191,422.74737525668371,734.16672267961201,350.74664725534899,-110.32874118564698,110.32874118564698,-350.74664725534899,1289.5992545361673,0.0
417154.6038362722,4625833.5216966402,-47500.0,478.76877016756828,-113.6130152202262,848.30947420291011,-302.05702134090569,566.9150947740327,391.00898797174682,689.71747694250462,298.12192737192754,-53.93325965050704,53.93325965050704,-298.12192737192754,1205.5331522454667,0.0
422154.6038362722,4625833.5216966402,-47500.0,530.25132738498962,-154.87053701495765,723.21126770348974,-339.75379003157809,487.38492323033825,346.03798456742277,638.00718243462165,266.13253963305078,-14.606283205432533,14.606283205432533,-266.13253963305078,1112.474109038402,0.0
427154.6038362722,4625833.5216966402,-47500.0,566.97776813933274,-167.56332757440018,600.98113581286839,-352.69109405811224,403.1022022987483,295.03882870583641,582.39687630015726,249.25464188897712,9.8698229150989363,-9.8698229150989363,-249.25464188897712,1014.5114300771132,0.0
432154.6038362722,4625833.5216966402,-47500.0,586.57806714508399,-159.22447961264382,488.6180464745625,-346.38010861730976,321.28216833528751,243.36713413307615,525.96283064008253,242.19908810277656,22.557489656926251,-22.557489656926251,-242.19908810277656,916.2043979528687,0.0
437154.6038362722,4625833.5216966402,-47500.0,589.36193802912146,-136.95362135119925,389.83585845035236,-326.39351723263309,246.4340131933622,194.60100354704667,471.18350364109301,240.57544721860009,26.625818788962789,-26.625818788962789,-240.57544721860009,821.54609502512017,0.0
442154.6038362722,4625833.5216966402,-47500.0,577.34120888639961,-106.72975308814752,305.93266387065876,-297.69981464946267,180.91374042106378,150.82695200233167,419.81688729646856,241.12098794290324,24.91187184543702,-24.91187184543702,-241.12098794290324,733.52300555110082,0.0
447154.6038362722,4625833.5216966402,-47500.0,553.3879144690452,-73.17001599525058,236.60705479896322,-264.35150393088639,125.52214843922005,113.00083648790589,372.92224512575655,241.65509372310527,19.721046705437701,-19.721046705437701,-241.65509372310527,654.03274399361237,0.0
452154.6038362722,4625833.5216966402,-47500.0,520.61070726006653,-39.569731772250059,180.62035792371711,-229.41905899358079,80.037586827086571,81.295916457002619,330.97290295870346,240.89636633968536,12.788144383741525,-12.788144383741525,-240.89636633968536,583.98868541079435,0.0
457154.6038362722,4625833.5216966402,-47500.0,481.95130673557719,-8.0885121280937486,136.28093174512034,-195.07030430630928,43.638024383532809,55.394151771278544,294.0157753036051,238.23742072683029,5.3295614253741235,-5.3295614253741235,-238.23742072683029,523.5047443471824,0.0
462154.6038362722,4625833.5216966402,-47500.0,439.96294340529278,20.011176749037563,101.7679547192899,-162.71858461522498,15.206980403292244,34.707184873886078,261.84632136390138,233.53224880676603,-1.8642315541770529,1.8642315541770529,-233.53224880676603,472.10139292833406,0.0
287154.6038362722,4630833.5216966402,-47500.0,-829.38085086879391,-657.55138048853314,-62.46502690955225,-801.91015008657848,-475.73266466686027,-500.78445516143148,1083.4511940281832,-583.25244716805332,562.72416724231812,-562.72416724231812,583.25244716805332,2085.5204438755468,0.0
292154.6038362722,4630833.5216966402,-47500.0,-819.23403416416886,-729.5063153946212,-113.82396381014668,-869.04961307325448,-559.92993291572702,-571.20058905447274,1180.351183379202,-618.50092248588032,610.70272342992746,-610.70272342992746,618.50092248588032,2277.4993609571293,0.0
297154.6038362722,4630833.5216966402,-47500.0,-791.15402252208219,-803.15211011924839,-178.43736248883602,-935.94381964261038,-657.64627536910848,-650.27412430744346,1283.9579826958879,-649.37740481536878,659.08398034125082,-659.08398034125082,649.37740481536878,2483.8634619424138,0.0
302154.6038362722,4630833.5216966402,-47500.0,-740.67610306048459,-875.46418780820443,-258.25332516594693,-999.92797636241323,-770.04465952888449,-738.3301472315668,1393.6951347791887,-672.70363956534834,705.98578750452634,-705.98578750452634,672.70363956534834,2703.588788399602,0.0
307154.6038362722,4630833.5216966402,-47500.0,-663.05836728838312,-942.00749912429592,-354.83985508902782,-1057.334302769124,-897.78132319096505,-835.32732375688624,1508.5851763705273,-684.25962853520468,748.69380876873151,-748.69380876873151,684.25962853520468,2934.5881325244923,0.0
312154.6038362722,4630833.5216966402,-47500.0,-553.69891222516355,-996.6296300576945,-468.8996327052979,-1103.3070029252121,-1040.5988449908671,-940.64590586747488,1627.2356901681881,-678.65511587041772,783.46374530921537,-783.46374530921537,678.65511587041772,3173.3169515817981,0.0
317154.6038362722,4630833.5216966402,-47500.0,-408.83454889379937,-1031.2521376455304,-599.56742592252294,-1131.6836034777455,-1196.7597711916449,-1052.7946416391412,1747.9092976640127,-649.33362643070825,805.36525150058458,-805.36525150058458,649.33362643070825,3414.3092082311214,0.0
322154.6038362722,4630833.5216966402,-47500.0,-226.58734152607042,-1035.9099298325382,-743.48229007594034,-1135.0374612370622,-1362.3163355804027,-1169.0242227892218,1868.4900037791874,-588.83670364872569,808.25310875857372,-808.25310875857372,588.83670364872569,3649.6852546114728,0.0
327154.6038362722,4630833.5216966402,-47500.0,-8.3672288155854702,-999.25778172239757,-893.70257295695706,-1105.0256708324027,-1530.2663733203024,-1284.8569578009949,1985.736655015507,-489.49587485303425,784.99772955410128,-784.99772955410128,489.49587485303425,3868.7287690953008,0.0
332154.6038362722,4630833.5216966402,-47500.0,239.49580635051205,-909.80972457714324,-1038.6680850590678,-1033.2266105294298,-1689.7450257553871,-1393.5899229026065,2093.9525830200473,-344.72495008321113,728.1453959095536,-728.1453959095536,344.72495008321113,4057.7048153857713,0.0
337154.6038362722,4630833.5216966402,-47500.0,504.2471789373555,-758.14195348270994,-1161.6099234389137,-912.64675872050759,-1825.5524343880547,-1485.9169373997181,2184.7685588739714,-151.00318169979033,631.17318814282635,-631.17318814282635,151.00318169979033,4200.1832249319805,0.0
342154.6038362722,4630833.5216966402,-47500.0,765.98836191320527,-540.08402577576715,-1241.0133797042108,-739.95884504215985,-1918.4840484153058,-1549.9318429369002,2248.2654960491423,89.589776866892862,490.39650542002607,-490.39650542002607,-89.589776866892862,4278.1911101938849,0.0
347154.6038362722,4630833.5216966402,-47500.0,998.64640644042083,-260.4705993647616,-1252.8255843240386,-518.23893276858541,-1947.0224723595954,-1571.8794598254688,2274.3862161888092,366.83014154378486,307.32510002841434,-307.32510002841434,-366.83014154378486,4274.4825958514766,0.0
352154.6038362722,4630833.5216966402,-47500.0,1173.4762701676402,63.641682123369712,-1174.8588997674915,-259.49350204839277,-1890.808401377788,-1538.0105045111602,2254.5294540115515,660.82973456010711,90.852776801492496,-90.852776801492496,-660.82973456010711,4176.0016163681121,0.0
357154.6038362722,4630833.5216966402,-47500.0,1265.2713076741998,402.00973339484881,-993.08187371680083,14.237362868427796,-1735.7598119612799,-1437.6337815328084,2183.4386751918041,942.8675548495105,-141.74992409345401,141.74992409345401,-942.8675548495105,3978.1617193306656,0.0
362154.6038362722,4630833.5216966402,-47500.0,1260.0941593026021,714.24983592327624,-708.26160701398805,272.571691432742,-1479.7530129007284,-1266.8810843700257,2061.0704489840682,1179.5815754651551,-366.17132998354441,366.17132998354441,-1179.5815754651551,3688.9555995607971,0.0
367154.6038362722,4630833.5216966402,-47500.0,1161.7590835451595,957.5469412233814,-340.26617841197566,481.99738417045444,-1136.781492488645,-1031.968398970251,1893.7960937787229,1340.2963265462217,-555.27720973279031,555.27720973279031,-1340.2963265462217,3331.3593940743476,0.0
372154.6038362722,4630833.5216966402,-47500.0,993.63807578344131,1097.4460658425653,72.779472065373483,613.77538533782354,-737.22390108044272,-750.32980850027116,1694.2639943861659,1405.4350190872451,-685.47514559958881,685.47514559958881,-1405.4350190872451,2942.3253105012882,0.0
377154.6038362722,4630833.5216966402,-47500.0,793.71627595209225,1117.8542402937428,481.6230884460532,651.90661273892579,-322.94565143664721,-448.44095954687822,1479.583968973019,1372.6230651124351,-743.05931241229518,743.05931241229518,-1372.6230651124351,2566.9652565921892,0.0
382154.6038362722,4630833.5216966402,-47500.0,604.03856211780123,1025.8109044186592,837.44055050631425,597.78787460072363,61.741127619999986,-156.52467808411814,1268.1094450151681,1257.5088127940801,-727.85629174547421,727.85629174547421,-1257.5088127940801,2247.3986890490728,0.0
387154.6038362722,4630833.5216966402,-47500.0,458.84271842971208,848.69692636521586,1103.4389693784576,469.38409288019079,380.03484995592743,98.084678135105591,1075.7524874807775,1088.6984004095609,-652.53527979747139,652.53527979747139,-1088.6984004095609,2008.3070309599441,0.0
392154.6038362722,4630833.5216966402,-47500.0,376.41349681446826,625.27191843184414,1261.9917262197498,295.37276937268672,609.76512308678446,296.42882308456365,937.49737217089807,899.12209267311755,-538.04862268230772,538.04862268230772,-899.12209267311755,1847.038084276465,0.0
397154.6038362722,4630833.5216966402,-47500.0,357.41410539470041,394.72843858385363,1315.2133948451865,107.01827059613301,745.48276972561905,430.4536740152937,937.31461006760048,717.60751834125949,-407.41555530848956,407.41555530848956,-717.60751834125949,1738.3270813651861,0.0
402154.6038362722,4630833.5216966402,-47500.0,388.95921008166232,188.0862329562174,1280.102199832306,-68.947763952288497,795.81960966764166,502.29384738956441,920.09021349288184,563.63387317669424,-280.37424742023552,280.37424742023552,-563.63387317669424,1651.1694127503322,0.0
407154.6038362722,4630833.5216966402,-47500.0,451.40690711417176,24.152878655346655,1181.2927512610102,-214.39717521289279,778.19569721897608,521.35088019010072,885.22014670870351,446.12056579577325,-170.40604447489554,170.40604447489554,-446.12056579577325,1563.0062537924441,0.0
412154.6038362722,4630833.5216966402,-47500.0,524.75083659642121,-90.211337782553159,1044.3729024600809,-320.5783773546554,713.24673477038914,500.6657045618677,835.39972823184758,365.2593376950033,-84.244832713308142,84.244832713308142,-365.2593376950033,1463.5541703125939,0.0
417154.6038362722,4630833.5216966402,-47500.0,592.82897414190199,-157.2163239238316,891.3999892106898,-386.57051354960078,620.54828221199284,453.77164320249801,774.54831702978447,315.69241802747632,-23.075822912710919,23.075822912710919,-315.69241802747632,1351.9252182756534,0.0
422154.6038362722,4630833.5216966402,-47500.0,645.05954410243521,-184.47965136504553,738.85699017196737,-416.72647997085556,516.15971922647043,392.59532322024069,707.14335648352915,289.62070278160161,15.579359803064818,-15.579359803064818,-289.62070278160161,1232.2987919913562,0.0
427154.6038362722,4630833.5216966402,-47500.0,676.31157034432977,-181.80716874978333,597.46260711573063,-418.12456462073283,411.76445476619813,326.43974075078421,637.48749596162986,279.09519783203115,36.043124779337575,-36.043124779337575,-279.09519783203115,1110.5567604539619,0.0
432154.6038362722,4630833.5216966402,-47500.0,685.76560659132906,-158.93640560944746,473.03790521023831,-398.57701975634103,314.88065622385574,261.79926295355392,569.1692414376505,277.33529056098052,43.105858670199893,-43.105858670199893,-277.33529056098052,992.2872053176178,0.0
437154.6038362722,4630833.5216966402,-47500.0,675.46710776145369,-124.26247137929575,367.7632863017995,-365.34502037304708,229.61453790237022,202.67633840980315,504.80289485384185,279.24714169711206,41.174328164943972,-41.174328164943972,-279.24714169711206,881.84815700154513,0.0
442154.6038362722,4630833.5216966402,-47500.0,649.0039035068429,-84.328233705575144,281.41079119589409,-324.47854559551689,157.57197157839806,151.11922829029174,446.00792877008456,281.42163592864108,33.86189166922307,-33.86189166922307,-281.42163592864108,782.09614500745727,0.0
447154.6038362722,4630833.5216966402,-47500.0,610.49793217676915,-43.806892519158552,212.35432383615816,-280.60887132627624,98.703550976371517,107.79077190924812,393.54893324907675,281.86542733926865,23.883226072204479,-23.883226072204479,-281.86542733926865,694.47210134227487,0.0
452154.6038362722,4630833.5216966402,-47500.0,563.94073136680367,-5.7452357328615182,158.30456642849398,-237.01736833214878,51.983482983096138,72.464608729251395,347.56239824835114,279.64330350385171,13.123976422902842,-13.123976422902842,-279.64330350385171,619.24676605258696,0.0
457154.6038362722,4630833.5216966402,-47500.0,512.82231433747711,28.094288381717408,116.79325410383271,-195.84191018698925,15.902773758102699,44.40988493167503,307.81826694865083,274.53551333919438,2.7890004524771257,-2.7890004524771257,-274.53551333919438,555.81742458090207,0.0
462154.6038362722,4630833.5216966402,-47500.0,459.97471756079671,56.889300914943604,85.46059653941569,-158.3270343570471,-11.202548454993986,22.663251146964026,274.00122426612171,266.75674287345169,-6.4316888078651289,6.4316888078651289,-266.75674287345169,503.00183341734652,0.0
467154.6038362722,4630833.5216966402,-47500.0,407.55425313335445,80.45896392771381,62.203159785052144,-125.06392307662051,-30.951991334686831,6.2055481282241063,246.06236244439913,256.7484273362964,-14.211690705960265,14.211690705960265,-256.7484273362964,459.30372641245958,0.0
282154.6038362722,4635833.5216966402,-47500.0,-906.82787033872887,-549.15841991088701,61.499467583683163,-791.77483487124596,-377.03485556377785,-467.40799720739705,1031.7881521760526,-505.26858061456119,506.25980952208113,-506.25980952208113,505.26858061456119,1979.1812213904068,0.0
287154.6038362722,4635833.5216966402,-47500.0,-923.30000534714156,-620.36101786814231,33.047905142903716,-869.81609034085932,-449.4416764844446,-537.53364236548362,1130.3050330111307,-541.8948443440936,555.11831152718628,-555.11831152718628,541.8948443440936,2173.652936817221,0.0
292154.6038362722,4635833.5216966402,-47500.0,-926.57570425656706,-697.25053251935913,-5.7886514972634053,-951.95149481630381,-535.42585656581309,-617.91007971456224,1237.5123036906261,-577.02720385987664,606.66410943387905,-606.66410943387905,577.02720385987664,2386.6420674192454,0.0
297154.6038362722,4635833.5216966402,-47500.0,-912.11308996821333,-778.36893359395594,-57.367914866026744,-1036.6057952457006,-637.03056387720915,-709.64820355517168,1353.4203389881266,-608.36476455271577,659.8161813889451,-659.8161813889451,608.36476455271577,2618.6215061184739,0.0
302154.6038362722,4635833.5216966402,-47500.0,-874.52532111146331,-861.11830550916227,-124.18120385499107,-1121.2873545390464,-756.24754392883733,-813.76642618435221,1477.6706960472889,-632.60671101503738,712.77878753107518,-712.77878753107518,632.60671101503738,2869.3691125273908,0.0
307154.6038362722,4635833.5216966402,-47500.0,-807.69471067341362,-941.32828452380613,-208.58307447233452,-1202.2783901514993,-894.74162370133695,-931.04153117446356,1609.4145584821135,-645.17419942377865,762.76442267599123,-762.76442267599123,645.17419942377865,3137.5870068844924,0.0
312154.6038362722,4635833.5216966402,-47500.0,-705.11237388442191,-1012.7711084365257,-312.31201005705333,-1274.2833054660814,-1053.3978649370722,-1061.7657542337943,1747.2694655797932,-639.95065383682459,805.67161437293566,-805.67161437293566,639.95065383682459,3420.385695309948,0.0
317154.6038362722,4635833.5216966402,-47500.0,-560.57349622582603,-1066.7085090938051,-435.72611290211557,-1330.0863240084664,-1231.6278348905682,-1205.3643595548965,1889.6211897765672,-609.13878722566255,835.76537046675548,-835.76537046675548,609.13878722566255,3712.6209027757254,0.0
322154.6038362722,4635833.5216966402,-47500.0,-369.37503351662696,-1091.6427362772224,-576.69685774101015,-1360.3323482989549,-1426.3846630550186,-1359.8225493348898,2035.6089860058853,-543.40518672135704,845.46656362437648,-845.46656362437648,543.40518672135704,4006.1091772559312,0.0
327154.6038362722,4635833.5216966402,-47500.0,-130.12717646253824,-1073.5638776578203,-729.18069706683912,-1353.637262563487,-1630.8931867663982,-1520.8859866747312,2184.4495253895607,-432.56707659794824,825.43998919759497,-825.43998919759497,432.56707659794824,4288.8219479387972,0.0
332154.6038362722,4635833.5216966402,-47500.0,152.85786348763838,-997.10708657776797,-881.65386306570906,-1297.3431337405507,-1833.2349895089565,-1681.0633172569408,2329.7435367128855,-267.1271118198905,765.26150919371537,-765.26150919371537,267.1271118198905,4544.2805007049192,0.0
337154.6038362722,4635833.5216966402,-47500.0,466.95693073011216,-848.07628780782159,-1015.8794640204945,-1179.304879820729,-2015.1659116659057,-1828.606218516896,2459.2271875205834,-40.902143896853204,654.98953073503037,-654.98953073503037,40.902143896853204,4751.539801451685,0.0
342154.6038362722,4635833.5216966402,-47500.0,789.27834392188345,-617.60389401739326,-1106.834205651905,-991.01271134857643,-2151.867831727031,-1946.8859802578659,2558.8492626894417,245.30458376593805,487.86263101708204,-487.86263101708204,-245.30458376593805,4886.3064050810835,0.0
347154.6038362722,4635833.5216966402,-47500.0,1086.7938331749831,-307.61845072543156,-1124.8939472822358,-731.95389496019448,-2213.6202761161962,-2014.8693896990046,2614.3336297528417,579.66344428371576,263.96558802110576,-263.96558802110576,-579.66344428371576,4923.7656285052262,0.0
352154.6038362722,4635833.5216966402,-47500.0,1320.2192063918872,63.780617339572061,-1041.22342331708,-414.29514130284952,-2170.3432940214279,-2009.5389372168597,2612.8447652226523,936.46810922331247,-6.0034667782016982,6.0034667782016982,-936.46810922331247,4843.4453746145127,0.0
357154.6038362722,4635833.5216966402,-47500.0,1452.533880792595,459.68101021411451,-836.31653205945815,-65.883347663942942,-1999.2039274903505,-1910.7653374326303,2545.6584408459139,1276.7306763316474,-298.58222600988398,298.58222600988398,-1276.7306763316474,4635.7221455323206,0.0
362154.6038362722,4635833.5216966402,-47500.0,1460.8442727296974,827.57598908573641,-509.69278219179796,271.09526975731541,-1693.8317422200064,-1708.0728400783748,2411.1489128611447,1554.1746073055715,-579.12017867450641,579.12017867450641,-1554.1746073055715,4308.4690157581072,0.0
367154.6038362722,4635833.5216966402,-47500.0,1347.2681038481171,1110.1043957055447,-86.624588206628957,547.6515105841994,-1271.6683061287299,-1407.1283039259506,2216.9027811618676,1726.5502672463601,-808.33212184010904,808.33212184010904,-1726.5502672463601,3891.1979678531316,0.0
372154.6038362722,4635833.5216966402,-47500.0,1142.7679844222296,1261.2034937413132,382.78585683192961,720.76812707793454,-775.07981536137697,-1032.6439469813356,1979.7310945077884,1768.8526278842585,-952.69859440545292,952.69859440545292,-1768.8526278842585,3433.5673453404584,0.0
377154.6038362722,4635833.5216966402,-47500.0,899.86174920434235,1261.2973447273682,834.24145353431061,766.78370876081021,-263.6539187049072,-625.04940732347586,1722.9710811151413,1682.457202408056,-994.77673635060569,994.77673635060569,-1682.457202408056,2995.7669882022165,0.0
382154.6038362722,4635833.5216966402,-47500.0,676.00482802160604,1123.9193327926571,1206.4713736692463,689.03736120077701,200.53090764440617,-231.1482724594739,1471.837172628607,1495.0690578975359,-938.49528449510501,938.49528449510501,-1495.0690578975359,2630.603593356182,0.0
387154.6038362722,4635833.5216966402,-47500.0,515.33380185988403,890.07626108227964,1457.6277501614447,515.79518011146581,568.66624315593992,107.61441237614075,1251.4957536545237,1251.0551749251499,-806.73615066632658,806.73615066632658,-1251.0551749251499,2362.9070320905644,0.0
392154.6038362722,4635833.5216966402,-47500.0,437.46680155728109,613.46560767549693,1573.705318590127,289.77295178183323,815.31988751950121,364.28252621343324,1143.3106827261247,997.065720148693,-632.71004008130183,632.71004008130183,-997.065720148693,2180.5305550124563,0.0
397154.6038362722,4635833.5216966402,-47500.0,437.24080257688564,344.17556524454164,1566.6205189040909,54.806614174641922,939.68188571665962,529.70093291008322,1121.6049592570157,769.75170795942518,-449.65133255702176,449.65133255702176,-769.75170795942518,2047.684721001596,0.0
402154.6038362722,4635833.5216966402,-47500.0,492.83732979169599,117.6815532099529,1465.0548376062782,-154.52778885082964,959.53476230986939,610.1224285486129,1083.3476783598978,589.88888361648958,-283.19498064905076,283.19498064905076,-589.88888361648958,1928.7924427466664,0.0
407154.6038362722,4635833.5216966402,-47500.0,576.51796856685473,-48.477272141441915,1303.5127565529158,-317.55758544604942,902.21558948363372,621.60580425598232,1025.0543287518979,463.00077533714125,-148.2952128132022,148.2952128132022,-463.00077533714125,1802.5906969764833,0.0
412154.6038362722,4635833.5216966402,-47500.0,663.18735815033972,-152.06624636412377,1113.8182580212842,-426.99102318041491,796.48372978149428,584.03933254871322,951.05269522775302,383.82248073293783,-50.00855883778442,50.00855883778442,-383.82248073293783,1662.6769351785456,0.0
417154.6038362722,4635833.5216966402,-47500.0,734.90046759971688,-200.85415018514425,920.57829208087537,-485.47688331816596,667.23473292063841,516.57979935825688,867.1937277270423,341.60837552156102,13.690138167323568,-13.690138167323568,-341.60837552156102,1512.0762624615129,0.0
422154.6038362722,4635833.5216966402,-47500.0,781.78488508581961,-207.33013821026591,740.07994916037615,-501.44375361195614,533.17873189215493,435.04784262928871,779.39140374279975,324.39620741355373,48.731849731150334,-48.731849731150334,-324.39620741355373,1357.8066082178298,0.0
427154.6038362722,4635833.5216966402,-47500.0,800.78996824372871,-184.77974374709316,581.27309952472217,-485.56205186757245,406.65663183578317,351.00286959402899,692.71644132389872,321.60878951535472,62.382620530501271,-62.382620530501271,-321.60878951535472,1207.3157261733406,0.0
432154.6038362722,4635833.5216966402,-47500.0,793.60038282142511,-144.97602722762636,447.6040462852514,-448.32848987825531,294.61830923067055,271.926129661277,610.92703757189508,325.17974709648337,61.582086138118541,-61.582086138118541,-325.17974709648337,1066.6814919044389,0.0
437154.6038362722,4635833.5216966402,-47500.0,764.58181872963519,-97.182712786271281,338.90075978626948,-398.7370789774854,200.00789712714769,201.96198772441747,536.37710841625142,329.68713973680724,52.102667812876916,-52.102667812876916,-329.68713973680724,939.98166095212014,0.0
442154.6038362722,4635833.5216966402,-47500.0,719.16265009215556,-48.013684319303152,252.92616514200017,-343.76899463476695,123.10453197523553,142.81973133756401,470.18765291037977,331.96507172785289,38.290734619998034,-38.290734619998034,-331.96507172785289,829.3051352620738,0.0
447154.6038362722,4635833.5216966402,-47500.0,662.75078197792584,-1.7497024259986618,186.49719978906268,-288.40037831131792,62.615065179085121,94.607767532389644,412.57192048252466,330.53291698004091,23.148143694645569,-23.148143694645569,-330.53291698004091,735.06412764733284,0.0
452154.6038362722,4635833.5216966402,-47500.0,600.11861291991659,39.167733237788063,136.20587950681474,-235.87707305507962,16.467484720918101,56.498789992992762,363.22768889436668,325.03730750193671,8.5693607972934842,-8.5693607972934842,-325.03730750193671,656.41086754371679,0.0
457154.6038362722,4635833.5216966402,-47500.0,535.13550985207939,73.630097336574352,98.833814681042227,-188.08630504626882,-17.66481934041246,27.207829264111485,321.77508528637242,315.7959720332525,-4.3826214662627763,4.3826214662627763,-315.7959720332525,591.66686194007275,0.0
462154.6038362722,4635833.5216966402,-47500.0,470.72471635911472,101.42354524423463,71.55434336499421,-145.92462534353723,-42.049072384326742,5.3057048902258117,288.30381890574887,303.4651230340836,-15.223644502581465,15.223644502581465,-303.4651230340836,538.71785881496635,0.0
467154.6038362722,4635833.5216966402,-47500.0,408.94634024429172,122.8858962628134,52.000721897239863,-109.61370224543214,-58.727811692055809,-10.59436628658222,263.57689855415327,288.81883051734491,-23.844159485761679,23.844159485761679,-288.81883051734491,495.34488110645765,0.0
282154.6038362722,4640833.5216966402,-47500.0,-979.75810604524486,-490.60845053984548,147.83304218713656,-841.17129308951041,-339.89928179534263,-493.25250398580249,1064.3186737088229,-448.40772974043495,484.22339467172759,-484.22339467172759,448.40772974043495,2037.3909888461462,0.0
287154.6038362722,4640833.5216966402,-47500.0,-1009.7600485009972,-561.47769272820801,133.39070280653669,-931.8377130325282,-410.23478008223776,-571.06124722131597,1171.0562211478518,-481.58893773289157,533.71440659920654,-533.71440659920654,481.58893773289157,2247.9691517298993,0.0
292154.6038362722,4640833.5216966402,-47500.0,-1027.9687360993778,-639.79266711688399,110.2789491501202,-1029.5262362325063,-495.16166815202308,-661.47104464659265,1288.3792515538946,-513.45988734252035,586.73037838427251,-586.73037838427251,513.45988734252035,2481.1479638777582,0.0
297154.6038362722,4640833.5216966402,-47500.0,-1029.4211124768108,-724.66892454872732,76.019848573261243,-1133.1602386799832,-597.36536492754601,-766.32631948946801,1416.6494126923435,-541.7155435945549,642.3688255992613,-642.3688255992613,541.7155435945549,2738.3408289506042,0.0
302154.6038362722,4640833.5216966402,-47500.0,-1007.9232993029013,-814.1061954128171,27.808909072505973,-1240.6931705596935,-719.71169438547827,-887.59176323398913,1555.843901814246,-562.91401125788843,698.94538358719956,-698.94538358719956,562.91401125788843,3020.3989356049779,0.0
307154.6038362722,4640833.5216966402,-47500.0,-956.00916605059035,-904.45128601987994,-37.27895925787471,-1348.6729189802932,-865.0010796579071,-1027.2353259530755,1705.3358753534817,-572.0841120316145,753.61921607327895,-753.61921607327895,572.0841120316145,3327.1773172305766,0.0
312154.6038362722,4640833.5216966402,-47500.0,-865.12165681006525,-989.72925791804846,-121.8578889184479,-1451.6826494311954,-1035.5033451068959,-1186.9868788750864,1863.6359858462538,-562.30567541537675,801.91705681956887,-801.91705681956887,562.30567541537675,3656.8989727143407,0.0
317154.6038362722,4640833.5216966402,-47500.0,-726.20370498056332,-1060.9074162139398,-227.45970248179941,-1541.687423504346,-1232.1619733455739,-1367.8850761984772,2028.3511074383298,-524.3727484908992,837.19639760504731,-837.19639760504731,524.3727484908992,4005.2688618856673,0.0
322154.6038362722,4640833.5216966402,-47500.0,-530.95158579609358,-1105.2692246623892,-353.30663449588405,-1607.401947032628,-1453.3480610704871,-1569.4923688816525,2198.885043261902,-446.75960879392585,850.17253586287586,-850.17253586287586,446.75960879392585,4364.3282654345794,0.0
327154.6038362722,4640833.5216966402,-47500.0,-274.00238904269889,-1106.2548686867849,-494.57343144728151,-1633.9449997540678,-1693.087744216745,-1788.6502883118226,2386.0804026534856,-316.25498721310595,828.76843635964224,-828.76843635964224,316.25498721310595,4721.1321731640337,0.0
332154.6038362722,4640833.5216966402,-47500.0,43.796223253862713,-1044.3532433282155,-640.26836517952211,-1603.2657216385485,-1938.8462462325608,-2017.7134794181159,2579.876076653105,-119.7621589359162,758.72228451694673,-758.72228451694673,119.7621589359162,5056.5145250195619,0.0
337154.6038362722,4640833.5216966402,-47500.0,411.28655487287136,-899.81065290832476,-771.23294923973162,-1496.0511611564566,-2169.2956653193737,-2242.4229588591352,2759.0133157747387,152.24179681102544,625.52925855232968,-625.52925855232968,-152.24179681102544,5344.4811925027989,0.0
342154.6038362722,4640833.5216966402,-47500.0,803.1197203648303,-657.82855920477425,-859.31653008435399,-1295.8712609170468,-2353.0522704320174,-2440.0297238152316,2905.6643004470238,500.45180728297936,418.23352815785159,-418.23352815785159,-500.45180728297936,5553.0901828754977,0.0
347154.6038362722,4640833.5216966402,-47500.0,1178.2379104648667,-316.2077652003581,-869.33991231292873,-995.85183640275466,-2450.0009336382527,-2578.924209091379,3000.9136193826844,910.49089160231051,135.06176609312701,-135.06176609312701,-910.49089160231051,5647.8667404056041,0.0
352154.6038362722,4640833.5216966402,-47500.0,1483.6888573130479,106.22263978823284,-765.51880668709475,-606.83580465359864,-2417.0710258859294,-2621.5531125190173,3026.5532664680145,1348.0058537173736,-210.3026458275948,210.3026458275948,-1348.0058537173736,5598.5445347087834,0.0
357154.6038362722,4640833.5216966402,-47500.0,1666.0849859143477,564.29742466673235,-522.80239281232741,-163.86031463613824,-2219.3882351638749,-2532.1059854595264,2969.1846746720366,1758.8787006052728,-584.64644059711895,584.64644059711895,-1758.8787006052728,5388.8371595266672,0.0
362154.6038362722,4640833.5216966402,-47500.0,1689.6535578233215,989.65817012555817,-140.6286956065529,274.02516610031688,-1844.9694485730431,-2288.5434111098953,2825.0135995768846,2078.1671134687381,-937.22371539701544,937.22371539701544,-2078.1671134687381,5026.9311704582014,0.0
367154.6038362722,4640833.5216966402,-47500.0,1554.2129968379777,1305.8737564487215,347.1167740860314,634.7906336762743,-1317.2166924173266,-1895.1197825004556,2603.4121061364094,2248.0013945082842,-1210.3994130716983,1210.3994130716983,-2248.0013945082842,4552.0629431225034,0.0
372154.6038362722,4640833.5216966402,-47500.0,1302.3456745942219,1452.7457572356841,873.56738098102915,854.41747104762726,-697.22895939380487,-1388.6679207469845,2327.1402036177205,2238.4858637395532,-1357.0409304617215,1357.0409304617215,-2238.4858637395532,4031.3074545772315,0.0
377154.6038362722,4640833.5216966402,-47500.0,1007.9915277116095,1409.1530698320128,1355.2131405821146,899.48115974726193,-70.975848013928527,-832.92104679575243,2028.3821513966943,2060.8699400086216,-1357.2448824511368,1357.2448824511368,-2060.8699400086216,3542.3403978970518,0.0
382154.6038362722,4640833.5216966402,-47500.0,749.60436708472446,1201.4204063050545,1717.5833065633335,779.21418937538829,475.21211521327518,-301.27117151534139,1743.3586903259827,1764.3718589936591,-1225.2666733333351,1225.2666733333351,-1764.3718589936591,3144.4848408677494,0.0
387154.6038362722,4640833.5216966402,-47500.0,582.07267734319248,891.73669128625977,1917.6709497234594,539.96680590351548,879.38808980070144,144.22843940048358,1521.4556990019057,1417.5447817213187,-1002.5853119435608,1002.5853119435608,-1417.5447817213187,2853.1666620255692,0.0
392154.6038362722,4640833.5216966402,-47500.0,522.41477361847728,553.65996813938682,1952.1512609088545,245.8947860448398,1117.1785249414688,467.50996852452903,1426.4130315165248,1084.6492254824711,-741.5225903968792,741.5225903968792,-1084.6492254824711,2640.2527818422677,0.0
397154.6038362722,4640833.5216966402,-47500.0,553.85092459166754,248.56323336913314,1849.8390411676062,-42.733740761736215,1199.4975279841694,661.49960284040662,1368.3263155027234,808.98201245067116,-488.6359192822149,488.6359192822149,-808.98201245067116,2461.4781226179748,0.0
402154.6038362722,4640833.5216966402,-47500.0,641.23070888456778,13.124208367371175,1655.6436403209912,-283.66837821759339,1159.8451520427791,741.4638754997477,1291.4323230462903,608.37767408467187,-274.92986088525788,274.92986088525788,-608.37767408467187,2283.6472525044028,0.0
407154.6038362722,4640833.5216966402,-47500.0,747.18979698032797,-140.95502346735014,1415.170710930493,-456.38280695477664,1039.5647292509793,734.50684189448691,1194.1257269676203,480.27289477291521,-114.22089404567663,114.22089404567663,-480.27289477291521,2093.1738019006038,0.0
412154.6038362722,4640833.5216966402,-47500.0,842.46546703688296,-219.94551220517278,1165.1929183675495,-558.35282092042155,876.91383862045245,670.22726678819913,1083.4535099352847,410.48350879207271,-6.8455347285757568,6.8455347285757568,-410.48350879207271,1891.2272060369867,0.0
417154.6038362722,4640833.5216966402,-47500.0,909.45266024243074,-239.48517301919003,930.40904787938587,-598.47841532208622,701.56614383864644,574.73681847685577,967.56202226664084,381.09206651540637,54.898660991313136,-54.898660991313136,-381.09206651540637,1686.0196165789955,0.0
422154.6038362722,4640833.5216966402,-47500.0,941.19792620612679,-217.73863824800327,724.37891386445915,-590.89867575258882,533.42143969018377,467.99914090541193,853.55341352738924,375.54009902057021,81.967735944871748,-81.967735944871748,-375.54009902057021,1487.1645695728932,0.0
427154.6038362722,4640833.5216966402,-47500.0,938.42381977819116,-171.26169822703724,552.26404566717201,-550.57061644548037,383.84416767947056,363.49242454533629,746.65315469505833,380.97870765647804,85.347214901702245,-85.347214901702245,-380.97870765647804,1302.7029042557444,0.0
432154.6038362722,4640833.5216966402,-47500.0,906.34070731734892,-113.16103848873601,413.78638062390354,-490.72942464083548,257.80905813632467,269.12725666984227,650.05241991444666,388.72372497386448,74.352228449396478,-74.352228449396478,-388.72372497386448,1138.0014948051637,0.0
437154.6038362722,4640833.5216966402,-47500.0,852.07904980699334,-52.747564408365633,305.66057937315009,-421.80935267462434,156.05465113757546,188.62639210001953,565.16489234628727,393.70546906515506,56.037797630468248,-56.037797630468248,-393.70546906515506,995.68833301872473,0.0
442154.6038362722,4640833.5216966402,-47500.0,782.95408623542767,4.0292895333255379,223.30532074713051,-351.29788153193147,76.842686744558193,122.89003961332303,492.11865362160654,393.55328166402273,35.266771921379217,-35.266771921379217,-393.55328166402273,876.05990849240334,0.0
447154.6038362722,4640833.5216966402,-47500.0,705.47742697346439,53.850337301135561,161.91059315329707,-284.08674881375066,17.226573489824219,71.123383773853391,430.36068238693292,387.68467125434972,15.084890838769638,-15.084890838769638,-387.68467125434972,777.66433614354628,0.0
452154.6038362722,4640833.5216966402,-47500.0,624.91915596939577,95.274697951004129,117.02203712010208,-223.01576581906843,-26.122888113038886,31.662680018616289,379.3393966563379,376.56209168920964,-2.820710072215121,2.820710072215121,-376.56209168920964,697.91589048360697,0.0
457154.6038362722,4640833.5216966402,-47500.0,545.22546949511047,128.09568926577086,84.803871591267679,-169.43112837661974,-56.433068282051046,2.524057936784017,339.30991175517784,361.158306387523,-17.697895369545051,17.697895369545051,-361.158306387523,633.6732052334977,0.0
462154.6038362722,4640833.5216966402,-47500.0,469.13377312630723,152.84497491751631,62.107663487787264,-123.66957531732548,-76.582674312451843,-18.26642744370443,311.00552669240381,342.60906884384946,-29.388817262184205,29.388817262184205,-342.60906884384946,581.72723043773942,0.0
467154.6038362722,4640833.5216966402,-47500.0,398.37604793186381,170.43960456335293,46.436192199000793,-85.438185033541487,-89.006458271393129,-32.497967468823475,291.8355547282203,322.01042847170402,-38.079804984736569,38.079804984736569,-322.01042847170402,539.15379625881144,0.0
472154.6038362722,4640833.5216966402,-47500.0,333.90267816402041,181.94742941221094,35.859399248869082,-54.091149859337399,-95.68836149134691,-41.701095745625523,277.07233822322701,300.31655087314783,-44.130515530488992,44.130515530488992,-300.31655087314783,503.51043385005789,0.0
277154.6038362722,4645833.5216966402,-47500.0,-989.7926199935124,-354.73884553007258,227.24306844540061,-788.92705203360572,-238.86313898513143,-442.42330988176957,986.91899616901344,-348.31911840104431,405.61826105417185,-405.61826105417185,348.31911840104431,1878.9689903765927,0.0
282154.6038362722,4645833.5216966402,-47500.0,-1039.1694402203384,-413.06049976626588,232.74576952490978,-881.50774387327078,-292.13105969334373,-514.61780334745015,1089.5712077232554,-375.00659840938408,449.08473821383768,-449.08473821383768,375.00659840938408,2079.6114589825916,0.0
287154.6038362722,4645833.5216966402,-47500.0,-1082.5702009739191,-479.66779375459987,233.99261407122648,-984.12336217069867,-357.59755371311149,-599.54170163664367,1203.8112141375952,-401.48415410595942,496.75354988124218,-496.75354988124218,401.48415410595942,2304.3621244432493,0.0
292154.6038362722,4645833.5216966402,-47500.0,-1116.1249790213633,-554.8617834737347,229.14612957570063,-1096.9782563590736,-438.0062548505544,-699.51731786478194,1330.6261924890032,-426.24322933572682,548.37761130897604,-548.37761130897604,426.24322933572682,2555.7999076030096,0.0
297154.6038362722,4645833.5216966402,-47500.0,-1134.6431560577232,-638.3452007513406,215.89817150111398,-1219.7092596328641,-536.58399513142263,-817.2735580674364,1470.8511633996111,-446.89134836569372,603.19027894408566,-603.19027894408566,446.89134836569372,2836.4339499694229,0.0
302154.6038362722,4645833.5216966402,-47500.0,-1131.3154647397484,-728.79613264820716,191.47687341301267,-1351.0083020362088,-656.99358292240322,-955.97244433682727,1624.9969442439087,-459.75038778794561,659.57138187915461,-659.57138187915461,459.75038778794561,3148.4290924438801,0.0
307154.6038362722,4645833.5216966402,-47500.0,-1097.4651923268921,-823.25131557409975,152.77386112355211,-1488.0611088423266,-803.14770705917533,-1119.1711923224168,1792.9806237896657,-459.33670415430544,714.56136704744381,-714.56136704744381,459.33670415430544,3493.1434303347637,0.0
312154.6038362722,4645833.5216966402,-47500.0,-1022.4833346148135,-916.26998925330395,96.694447025734746,-1625.750406779139,-978.77078189830536,-1310.6369284494615,1973.7248176761641,-437.75505082026609,763.19977993825967,-763.19977993825967,437.75505082026609,3870.3886711824071,0.0
317154.6038362722,4645833.5216966402,-47500.0,-894.18942584922866,-998.90607758354611,20.87776117232983,-1755.6060557161559,-1186.5421886923223,-1533.8683794852495,2164.6457748663092,-384.12515706813895,797.71320254588284,-797.71320254588284,384.12515706813895,4277.3159062583973,0.0
322154.6038362722,4645833.5216966402,-47500.0,-699.99700169636969,-1057.6465572423056,-75.035531337790601,-1864.5859760331323,-1426.6080180047354,-1791.0979991698789,2362.5290253103917,-284.31562358977715,806.68997672427179,-806.68997672427179,284.31562358977715,4706.8563741753578,0.0
327154.6038362722,4645833.5216966402,-47500.0,-429.37839234875764,-1073.7166042166978,-187.4435006375783,-1933.9926062462678,-1694.2590049146838,-2081.4833324254842,2595.835307124843,-121.4919698420984,774.58531454061176,-774.58531454061176,121.4919698420984,5145.7565064222836,0.0
332154.6038362722,4645833.5216966402,-47500.0,-78.084658795832709,-1023.5136047112255,-306.16704755120503,-1939.2072729976946,-1976.7355615426613,-2398.2314918093371,2844.2102003968175,121.7590279680125,682.20294831066622,-682.20294831066622,-121.7590279680125,5572.4934770438758,0.0
337154.6038362722,4645833.5216966402,-47500.0,345.85796656989476,-881.32125547912551,-411.66234181192806,-1851.4158741969813,-2249.5818001231523,-2724.7002605022653,3080.3606492208914,458.86117221026154,509.11024249086324,-509.11024249086324,-458.86117221026154,5955.7882046354671,0.0
342154.6038362722,4645833.5216966402,-47500.0,815.48452574336397,-625.56302067182912,-473.32348864871722,-1642.8439812096447,-2473.8492409812579,-3030.2846004378384,3283.4712731585059,891.77829831796953,238.99230222742102,-238.99230222742102,-891.77829831796953,6255.0055729889564,0.0
347154.6038362722,4645833.5216966402,-47500.0,1280.5697085522891,-249.09545511909397,-451.08148508633286,-1296.6132948967231,-2596.644259029878,-3268.1972246860773,3428.9279955106585,1401.5731096139609,-131.75116533049754,131.75116533049754,-1401.5731096139609,6424.2094261066086,0.0
352154.6038362722,4645833.5216966402,-47500.0,1670.6101468141844,228.25704718087709,-302.93149588321245,-820.32336710210473,-2558.3404032422577,-3378.6248811369142,3491.7286240824901,1940.4836451043839,-583.82304520495563,583.82304520495563,-1940.4836451043839,6421.4622452141566,0.0
357154.6038362722,4645833.5216966402,-47500.0,1909.997604153057,750.50691397961953,0.35224475514852882,-258.51600435451297,-2308.7663448320995,-3300.7945674849207,3452.6284671687595,2431.7765769490829,-1067.9705410902729,1067.9705410902729,-2431.7765769490829,6223.3282837820943,0.0
362154.6038362722,4645833.5216966402,-47500.0,1945.3215648919618,1228.3823188879132,456.36049037660422,305.00568480610281,-1830.2243352260409,-2994.1953036866134,3305.4969293273925,2783.8308455204433,-1508.050327001637,1508.050327001637,-2783.8308455204433,5840.8990533385368,0.0
367154.6038362722,4645833.5216966402,-47500.0,1774.5911837843034,1561.0102533543918,1017.2419810108084,763.80290748285279,-1157.8775816007499,-2462.0926651257673,3062.8615324541688,2919.0740142451441,-1819.1710010059369,1819.1710010059369,-2919.0740142451441,5328.8745410989868,0.0
372154.6038362722,4645833.5216966402,-47500.0,1459.4652554681436,1672.6182479282859,1592.9889562043866,1023.9611656686003,-383.14825763045724,-1763.6793465903779,2756.1548643058472,2806.9319386480884,-1937.2855023036391,1937.2855023036391,-2806.9319386480884,4776.5791606533858,0.0
377154.6038362722,4645833.5216966402,-47500.0,1106.0125904318361,1546.2306671202664,2077.0377766751603,1042.1591210220327,368.91209655989149,-1002.812845464523,2430.0034103153057,2481.2826153056321,-1845.7932002440155,1845.7932002440155,-2481.2826153056321,4275.1398078227476,0.0
382154.6038362722,4645833.5216966402,-47500.0,820.3054274486957,1232.2677964339287,2384.0555345664984,843.3244858771194,980.92241650696474,-294.86481649258263,2137.5394504631258,2028.5307189033138,-1582.3350552878783,1582.3350552878783,-2028.5307189033138,3874.0719343273004,0.0
387154.6038362722,4645833.5216966402,-47500.0,665.77337015854903,824.94771657312958,2478.7088085140326,505.95692497296483,1380.9723086889228,270.79746286319312,1939.1998332902099,1552.0128225875351,-1220.9018544348728,1220.9018544348728,-1552.0128225875351,3562.2540164536476,0.0
392154.6038362722,4645833.5216966402,-47500.0,647.81356677337976,422.20478662840236,2379.8054336662408,126.00426687204089,1556.7993345107768,652.3494489050812,1820.4594595453968,1134.799689589131,-841.35180807080451,841.35180807080451,-1134.799689589131,3293.2103888779593,0.0
397154.6038362722,4645833.5216966402,-47500.0,728.52803365274087,93.664934447113097,2141.9803611263646,-217.33869401336895,1543.8389494693288,853.92484100419472,1701.4060360221144,820.46763324856477,-504.49097375079157,504.49097375079157,-820.46763324856477,3025.6690535157359,0.0
402154.6038362722,4645833.5216966402,-47500.0,854.41767860329946,-130.0931696720103,1829.9485453946361,-478.11958153549824,1400.5009808651225,909.10503881147076,1558.9375852040953,615.12680000427747,-242.42683525240332,242.42683525240332,-615.12680000427747,2742.6408195139697,0.0
407154.6038362722,4645833.5216966402,-47500.0,978.73871418271824,-250.484921203711,1499.1497011582735,-642.37221178471975,1185.9134643740015,862.24415838924574,1399.3980219867792,501.16657584187777,-62.034761598293869,62.034761598293869,-501.16657584187777,2447.5191768959958,0.0
412154.6038362722,4645833.5216966402,-47500.0,1071.4578472515177,-287.03223933243891,1187.470382898362,-717.91323405371304,947.32863156023416,755.32989146573595,1234.6011619494207,451.85987129529224,45.87959593036399,-45.87959593036399,-451.85987129529224,2153.073607950827,0.0
417154.6038362722,4645833.5216966402,-47500.0,1119.3601577483535,-265.11104987260222,915.48286310774995,-723.3089562535456,716.52301728262842,621.64367243556683,1075.0550656862117,441.29967885723016,97.662595672916211,-97.662595672916211,-441.29967885723016,1873.0748538884748,0.0
422154.6038362722,4645833.5216966402,-47500.0,1121.6113463566774,-208.40035986592642,690.65121588771842,-679.7996348262011,511.44708191981471,484.29601959580299,928.1206002822255,449.10667139884725,110.6331021176149,-110.6331021176149,-449.10667139884725,1618.2240502249806,0.0
427154.6038362722,4645833.5216966402,-47500.0,1084.621669950028,-135.57535068230976,512.17148423919377,-606.68157194815194,339.80111804088733,357.34927603713942,797.87435462660153,461.49595712482352,99.772063835803522,-99.772063835803522,-461.49595712482352,1394.9986196904301,0.0
432154.6038362722,4645833.5216966402,-47500.0,1017.9316195411596,-59.690139534211298,374.89741919896733,-519.31145097351657,202.64027719363099,247.9182426953536,685.66701334617494,470.45644233357234,76.502067291196312,-76.502067291196312,-470.45644233357234,1205.9020610029665,0.0
437154.6038362722,4645833.5216966402,-47500.0,931.50117456584053,11.118927122753309,272.00136863367266,-428.73365303665094,97.254086309520346,158.35185121249339,591.00108951194829,472.26599080850906,48.697189714978322,-48.697189714978322,-472.26599080850906,1050.2340885676026,0.0
442154.6038362722,4645833.5216966402,-47500.0,834.20057407314664,72.482809663854397,196.54560680946133,-342.14747808880963,19.180134873513506,88.07621103657597,512.53933974680388,466.00859623366955,21.268754510614855,-21.268754510614855,-466.00859623366955,924.98384429418741,0.0
447154.6038362722,4645833.5216966402,-47500.0,733.15690746199607,122.65388675888828,142.28130701571661,-263.70572802218788,-36.526203402260627,34.968275503059516,449.19778623766365,452.37583581289209,-3.0825026163435609,3.0825026163435609,-452.37583581289209,825.72105777751165,0.0
452154.6038362722,4645833.5216966402,-47500.0,633.63794654612809,161.55401455638494,103.96268507248104,-195.35153576862837,-74.574418662911768,-3.7190378350575912,401.24185481590519,432.81813108340452,-23.164478472187426,23.164478472187426,-432.81813108340452,747.43386262502725,0.0
457154.6038362722,4645833.5216966402,-47500.0,539.22551107595928,190.06275023580591,77.386529831933586,-137.54740044791257,-99.093357618630904,-30.794043583316316,368.7616527678332,409.00450841694658,-38.730361820859457,38.730361820859457,-409.00450841694658,685.23585475469486,0.0
462154.6038362722,4645833.5216966402,-47500.0,452.11503288464331,209.52558545086995,59.295851616525596,-89.846175058729955,-113.51497862887906,-48.824150896254075,346.72872154749308,382.51706121228267,-50.068881892277318,50.068881892277318,-382.51706121228267,634.85850745995424,0.0
467154.6038362722,4645833.5216966402,-47500.0,373.44031694481072,221.43787306994867,47.230330813815605,-51.304021597601952,-120.58654928427558,-60.004602947589973,329.20815768972579,354.70479156285313,-57.728689403246506,57.728689403246506,-354.70479156285313,592.88889576025974,0.0
472154.6038362722,4645833.5216966402,-47500.0,303.57043695962648,227.25741105913869,39.368926662598255,-20.759487192450361,-122.4455268632603,-66.129507400635248,313.42816213953301,326.63621027543985,-62.346138321521778,62.346138321521778,-326.63621027543985,556.78953470979889,0.0
272154.6038362722,4650833.5216966402,-47500.0,-959.75358613477033,-225.0554382123392,273.08697262367491,-720.24982156783039,-151.35682653517716,-388.92496469878461,902.78876429336015,-250.58637269841194,326.2359404182518,-326.2359404182518,250.58637269841194,1708.4953660436447,0.0
277154.6038362722,4650833.5216966402,-47500.0,-1020.2841360046709,-267.54367413197372,292.61706520973866,-809.18899479995775,-188.25511495369071,-453.50342819591708,998.55495686309087,-268.30670156505857,361.32438116427477,-361.32438116427477,268.30670156505857,1893.7376186594722,0.0
282154.6038362722,4650833.5216966402,-47500.0,-1079.5183606466426,-317.33509741854789,311.66965887709534,-909.56164050982613,-234.3232789345287,-530.04899700787678,1106.0394769144818,-285.80290358317905,400.28368535193897,-400.28368535193897,285.80290358317905,2102.7694867550199,0.0
287154.6038362722,4650833.5216966402,-47500.0,-1134.8724059031101,-375.28040529568062,329.27297117443209,-1022.4800876994949,-291.90542510885075,-621.01080204340201,1226.6296107933379,-302.05427880075416,443.21054837712046,-443.21054837712046,302.05427880075416,2338.789518113264,0.0
292154.6038362722,4650833.5216966402,-47500.0,-1182.6395098236542,-442.02792172968924,344.07084846886471,-1148.8806074620948,-363.91153619460744,-729.40339889100494,1361.7698707067086,-315.40167083908989,489.90198472955456,-489.90198472955456,315.40167083908989,2605.2923146852281,0.0
297154.6038362722,4650833.5216966402,-47500.0,-1217.6021044397339,-517.76238807504387,354.24503048308696,-1289.2802089652725,-453.89561968973294,-858.94281604054095,1512.8836128054772,-323.20794049103233,539.60462286163693,-539.60462286163693,323.20794049103233,2905.9611266775537,0.0
302154.6038362722,4650833.5216966402,-47500.0,-1232.5655429183023,-601.77803280029582,357.47298118722892,-1443.3632663631579,-566.07961219658114,-1014.1873771224717,1681.2375861802693,-321.37093941762515,590.6123061989681,-590.6123061989681,321.37093941762515,3244.4295608586744,0.0
307154.6038362722,4650833.5216966402,-47500.0,-1217.8618462265588,-691.81612187409928,350.98132226077814,-1609.3067943459321,-705.24488113531413,-1200.6347142548166,1867.7397226115102,-303.66356732458985,639.65069273669098,-639.65069273669098,303.66356732458985,3623.8217029291391,0.0
312154.6038362722,4650833.5216966402,-47500.0,-1160.9577103173735,-783.09920374081435,331.80082686503044,-1782.7321990693008,-876.35244512357849,-1424.6635327507502,2072.7420250127452,-260.91939659629554,680.99504233770347,-680.99504233770347,260.91939659629554,4045.940449706899,0.0
317154.6038362722,4650833.5216966402,-47500.0,-1046.4530953178453,-867.03883904926352,297.39083599517289,-1955.1857047975877,-1083.6663316185263,-1693.1001950291245,2296.3813082598986,-180.18988914212713,705.32113710002591,-705.32113710002591,180.18988914212713,4509.9426143560722,0.0
322154.6038362722,4650833.5216966402,-47500.0,-856.98494872829065,-929.73225580008489,246.85997088678306,-2112.1539855650626,-1329.0577196428831,-2012.0317303746963,2541.8237210895263,-44.213734143966235,698.4363917437305,-698.4363917437305,44.213734143966235,5010.3464991213268,0.0
327154.6038362722,4650833.5216966402,-47500.0,-575.81507461632282,-950.66292234578293,183.01765140726877,-2230.9163831908281,-1609.1194098650028,-2384.3139614959041,2817.4769849683839,168.11377924618853,640.3408847787108,-640.3408847787108,-168.11377924618853,5534.3367261145422,0.0
332154.6038362722,4650833.5216966402,-47500.0,-192.011864228668,-902.53514548500686,115.33044696132559,-2279.1243896377127,-1910.8599938642685,-2805.1683697414192,3114.9417475147102,479.14816204229652,505.55629287951302,-505.55629287951302,-479.14816204229652,6058.6525353201168,0.0
337154.6038362722,4650833.5216966402,-47500.0,291.24699880020603,-753.837900959119,63.358336291704994,-2215.906473447722,-2206.3205076615432,-3255.6127358696535,3410.638289232149,906.37575099326614,266.24049560379564,-266.24049560379564,-906.37575099326614,6546.9800585030516,0.0
342154.6038362722,4650833.5216966402,-47500.0,846.2098688458392,-476.16991418026765,59.242583378764792,-1998.2036185321067,-2447.7460246672968,-3694.6869994721719,3677.0938122107896,1451.810640246797,-100.13783365973416,100.13783365973416,-1451.810640246797,6949.7174664679023,0.0
347154.6038362722,4650833.5216966402,-47500.0,1411.9205418356808,-57.668419937321325,146.42420882682649,-1594.9500052577812,-2566.9637321829737,-4053.846043804414,3882.4184413281091,2088.0026858420033,-597.72029386790439,597.72029386790439,-2088.0026858420033,7208.9291625848728,0.0
352154.6038362722,4650833.5216966402,-47500.0,1895.2891662910279,479.21449929127766,370.83636847840933,-1008.873014562213,-2484.4584885467498,-4239.9517567098883,3993.873761868289,2745.957275756632,-1196.1345700386273,1196.1345700386273,-2745.957275756632,7271.3319383153703,0.0
357154.6038362722,4650833.5216966402,-47500.0,2191.1031776622081,1063.347178008511,762.27806254948439,-298.73109908203236,-2132.767431123134,-4154.3876879308318,3986.2591828733771,3315.2782166128568,-1819.2097568219301,1819.2097568219301,-3315.2782166128568,7109.5802995545928,0.0
362154.6038362722,4650833.5216966402,-47500.0,2223.2449572358387,1577.7449163435849,1309.6952837908996,413.9930951442941,-1491.8104956925006,-3730.3198496578734,3852.4855504686307,3667.6417895229956,-2351.0247831629508,2351.0247831629508,-3667.6417895229956,6745.304537777678,0.0
367154.6038362722,4650833.5216966402,-47500.0,1991.4539849543482,1891.4217380141845,1943.6567160032168,971.45854668573486,-620.59818556811911,-2975.6681579413057,3611.1762438789947,3704.3057193747668,-2668.2140907793114,2668.2140907793114,-3704.3057193747668,6257.4932767891833,0.0
372154.6038362722,4650833.5216966402,-47500.0,1590.3311448146087,1914.6872360418029,2544.1736029374874,1239.5323698694292,340.01675900949505,-1994.1007275097286,3305.7369699651272,3406.9960835174006,-2690.5926099800072,2690.5926099800072,-3406.9960835174006,5755.9697621680416,0.0
377154.6038362722,4650833.5216966402,-47500.0,1174.4374613167568,1647.122177363919,2980.685688344654,1171.3693628786432,1208.8975675158295,-959.58853672735745,2995.218875054502,2856.7302572679214,-2421.3038743667707,2421.3038743667707,-2856.7302572679214,5320.7925381440718,0.0
382154.6038362722,4650833.5216966402,-47500.0,883.60419902212016,1181.5824262837175,3165.5240841949922,829.52941371675979,1833.9250113141018,-50.85370294117206,2740.2705661437417,2200.3734556384006,-1946.4233232984059,1946.4233232984059,-2200.3734556384006,4955.3344062310898,0.0
387154.6038362722,4650833.5216966402,-47500.0,780.29801901052792,657.75791701387197,3086.5587266908115,348.75566000963966,2146.3847973683282,614.05268835998652,2552.1093778829372,1584.9350018154164,-1392.4901051573911,1392.4901051573911,-1584.9350018154164,4605.8237150523819,0.0
392154.6038362722,4650833.5216966402,-47500.0,840.52939632882726,199.02318539270192,2799.67268596342,-131.05778112445566,2168.4924093820805,1003.4604608124831,2366.6256324079936,1104.2763004044396,-872.82027433214716,872.82027433214716,-1104.2763004044396,4221.7319620071021,0.0
397154.6038362722,4650833.5216966402,-47500.0,991.45490343560232,-126.31631736075477,2393.0508662187663,-515.0230767249393,1979.9493460648134,1153.6826474940219,2146.5076066412016,785.72587169827023,-455.65686830959737,455.65686830959737,-785.72587169827023,3790.464788970939,0.0
402154.6038362722,4650833.5216966402,-47500.0,1157.5291046375744,-306.47162529361964,1950.5494122163991,-765.45278122668344,1674.2226077343194,1132.1007020183815,1899.3092277671192,608.95142511743438,-162.36449688347358,162.36449688347358,-608.95142511743438,3331.4089398478136,0.0
407154.6038362722,4650833.5216966402,-47500.0,1287.074482954368,-365.44960090015394,1531.6486417406013,-887.16367006181974,1329.0398617976402,1007.1046513599782,1645.8597497706432,533.39631842435836,17.297379462893673,-17.297379462893673,-533.39631842435836,2875.3351525282924,0.0
412154.6038362722,4650833.5216966402,-47500.0,1356.6275975200456,-340.28722107236769,1168.4878649141301,-906.26749870694891,996.15673005204928,833.3203107428518,1404.7415161339361,518.17648246547515,108.00228291388174,-108.00228291388174,-518.17648246547515,2449.3112074563392,0.0
417154.6038362722,4650833.5216966402,-47500.0,1363.6704186595621,-266.3098554586266,872.07576029140444,-854.31110323670532,703.55322801095042,648.35718641911183,1187.9965314255537,531.28836358327612,136.96725087774939,-136.96725087774939,-531.28836358327612,2070.9806370274291,0.0
422154.6038362722,4650833.5216966402,-47500.0,1317.3395061230074,-170.88530808002005,640.46531793068925,-759.83550431078379,462.12311511185032,474.99500280453708,1001.2571652370207,551.4828248223796,127.8703541445073,-127.8703541445073,-551.4828248223796,1748.6767408524713,0.0
427154.6038362722,4650833.5216966402,-47500.0,1231.3465543098221,-72.488128423913693,465.36134010674363,-645.19422068575614,272.28660621370778,324.91475980222731,845.26221876904401,566.70579136673507,98.725843512796132,-98.725843512796132,-566.70579136673507,1483.5932446165473,0.0
432154.6038362722,4650833.5216966402,-47500.0,1119.7133504972237,17.89583221097654,336.38439121490063,-526.1870292335858,128.95507259498868,202.28885210551954,717.71259786491839,571.54455183147593,61.899331047455178,-61.899331047455178,-571.54455183147593,1272.0433070579097,0.0
437154.6038362722,4650833.5216966402,-47500.0,994.63780317084195,94.761126551081759,243.40610542323523,-412.9308888443735,24.768666246732298,106.6904623648429,615.19650771754937,564.81390939989092,25.061463093723034,-25.061463093723034,-564.81390939989092,1107.2762013540535,0.0
442154.6038362722,4650833.5216966402,-47500.0,865.69711788847292,156.23941453811062,177.61090984616308,-311.13026186891574,-48.002709055566449,35.230876808531775,535.09763668096343,547.67860332182909,-7.6019061058749458,7.6019061058749458,-547.67860332182909,980.94628002106174,0.0
447154.6038362722,4650833.5216966402,-47500.0,739.79578033163318,202.66241271383777,131.8205837640333,-223.33729957101571,-96.466856127536332,-16.000080906589332,477.01169232298872,522.35708841251039,-34.266147224946053,34.266147224946053,-522.35708841251039,884.3802677119985,0.0
452154.6038362722,4650833.5216966402,-47500.0,621.48765907958375,235.54332975098956,100.4430687473335,-150.02545536265893,-126.68453355311412,-51.05048332145185,439.25011603769968,491.3200826114097,-54.569369691239359,54.569369691239359,-491.3200826114097,809.61994952826979,0.0
457154.6038362722,4650833.5216966402,-47500.0,513.43801155137066,256.90594483230154,79.258199816479902,-90.417728565566875,-143.57318443865685,-73.628046938549701,413.53738795067761,456.85151177885621,-68.962914371775241,68.962914371775241,-456.85151177885621,750.08953029282452,0.0
462154.6038362722,4650833.5216966402,-47500.0,416.89803094965475,268.87397407201178,65.15771568927839,-43.079084162853661,-150.98191228214787,-86.890616188444341,392.57930321881287,420.85154523305431,-78.279085889030739,78.279085889030739,-420.85154523305431,700.82462184317933,0.0
467154.6038362722,4650833.5216966402,-47500.0,332.12543176257304,273.44171764165549,55.896957796746712,-6.3111359604461885,-151.84101497351134,-93.398623099048251,373.32803091633946,384.7852582534407,-83.465577410762847,83.465577410762847,-384.7852582534407,658.35303783117604,0.0
472154.6038362722,4650833.5216966402,-47500.0,258.72574294170357,272.36358988553002,49.88203088942123,21.603941798335665,-148.33095712440939,-95.154416969531866,354.75897347942487,349.70951875898379,-85.436831159224454,85.436831159224454,-349.70951875898379,620.39777734858774,0.0
477154.6038362722,4650833.5216966402,-47500.0,195.91195831925921,267.11662512268413,45.998351171613365,42.266345794040085,-142.04190688336396,-93.679982824605275,336.58346571707079,316.33455032354357,-85.001550956687282,85.001550956687282,-316.33455032354357,585.54651875837601,0.0
272154.6038362722,4655833.5216966402,-47500.0,-963.167570170712,-136.54700836585047,318.21206938394386,-723.67074966505186,-102.4631086718008,-391.99341507260112,903.26685217339764,-169.99177805350732,277.39886923971045,-277.39886923971045,169.99177805350732,1701.4147487588386,0.0
277154.6038362722,4655833.5216966402,-47500.0,-1029.1109049608842,-168.11469559239967,347.98758205151569,-816.43382412462961,-131.26116954297316,-458.60779413671412,1001.4583463434892,-177.27792822105181,306.22257757813969,-306.22257757813969,177.27792822105181,1890.0803622269898,0.0
282154.6038362722,4655833.5216966402,-47500.0,-1095.3871406808803,-205.86486646182883,379.73168552057604,-922.21816812629766,-167.91851524065055,-538.14719643585738,1112.3453260601323,-182.85096454525717,338.13168807564557,-338.13168807564557,182.85096454525717,2104.206913848413,0.0
287154.6038362722,4655833.5216966402,-47500.0,-1159.7183200992988,-250.69425279462638,413.04188815924715,-1042.7070327468307,-214.64907374812881,-633.51158018435842,1237.6648217225438,-185.4426496239453,373.13545948431522,-373.13545948431522,185.4426496239453,2347.6265785069736,0.0
292154.6038362722,4655833.5216966402,-47500.0,-1218.6613326931233,-303.38496418470766,447.23466605870294,-1179.5818349028516,-274.27771056596941,-748.38778801541696,1379.3368221267517,-183.06643353269101,410.91127684631806,-410.91127684631806,183.06643353269101,2624.6889114335013,0.0
297154.6038362722,4655833.5216966402,-47500.0,-1267.1227046219019,-364.37132931412543,481.26352738703719,-1334.3000738887538,-350.36100351206289,-887.49252860234799,1539.4334544593401,-172.62314967833257,450.51216280908761,-450.51216280908761,172.62314967833257,2940.2144939745981,0.0
302154.6038362722,4655833.5216966402,-47500.0,-1297.7232558109176,-433.33173565067227,513.6546375974998,-1507.6683539967969,-447.27030241712822,-1056.8605506642134,1720.1149622443863,-149.32016696131262,489.8808399815743,-489.8808399815743,149.32016696131262,3299.3157294474322,0.0
307154.6038362722,4655833.5216966402,-47500.0,-1300.0328257723311,-508.51469725403541,542.51073248511591,-1699.0735353952032,-570.15474943794777,-1264.1279603318717,1923.5470829728433,-105.86065908782575,525.08065128851899,-525.08065128851899,105.86065908782575,3706.9722399610705,0.0
312154.6038362722,4655833.5216966402,-47500.0,-1259.7919182333203,-585.69338602136611,565.6821956341729,-1905.1820675843385,-724.62404158342247,-1518.6705378209003,2151.910106611936,-31.407305432749695,549.15315101546094,-549.15315101546094,31.407305432749695,4167.1880762589972,0.0
317154.6038362722,4655833.5216966402,-47500.0,-1158.4337790281145,-656.67116094695155,581.27486080504661,-2117.8934413956313,-915.86966685429559,-1831.2872579137354,2407.8386708470825,89.540069058532538,550.57150869043676,-550.57150869043676,-89.540069058532538,4681.4963029235942,0.0
322154.6038362722,4655833.5216966402,-47500.0,-973.55849040564306,-707.39472795761083,588.74786379176567,-2321.424611285684,-1146.7874988211729,-2212.8475268041607,2695.3270570714431,277.92741609439935,511.45149080933419,-511.45149080933419,-277.92741609439935,5246.561815111746,0.0
327154.6038362722,4655833.5216966402,-47500.0,-681.47601374189583,-716.07912140837561,590.89880454207196,-2488.7617446131258,-1414.5367791028962,-2670.9716788382202,3017.3420805635037,559.66241310761097,406.11310803733318,-406.11310803733318,-559.66241310761097,5850.7495888987205,0.0
332154.6038362722,4655833.5216966402,-47500.0,-263.34059572134754,-652.42396863853696,596.90914394713843,-2578.5754161343202,-1705.0592703908414,-3203.5754603319633,3366.9981232193127,962.25492199741848,201.34222826726659,-201.34222826726659,-962.25492199741848,6469.9422664961412,0.0
337154.6038362722,4655833.5216966402,-47500.0,283.80286032086599,-479.99534682324042,626.09775124805788,-2535.208618559383,-1985.7609292571369,-3788.4650042860144,3724.2123225493815,1506.4399407650717,-139.31810023556966,139.31810023556966,-1506.4399407650717,7063.7965755157747,0.0
342154.6038362722,4655833.5216966402,-47500.0,931.57321119678807,-164.73238551571382,710.83364697498052,-2296.18993860193,-2198.350264687469,-4370.0003661941219,4058.635725093106,2191.1460995119114,-644.32569603136528,644.32569603136528,-2191.1460995119114,7575.1071245373705,0.0
347154.6038362722,4655833.5216966402,-47500.0,1605.501332562352,307.96537250370449,895.22330532456681,-1812.3704455775803,-2256.9751761206621,-4848.0677741595509,4332.5489024354165,2973.2413405865891,-1314.3103039087227,1314.3103039087227,-2973.2413405865891,7936.599996365886,0.0
352154.6038362722,4655833.5216966402,-47500.0,2182.9642507982098,909.15237894662971,1224.7172424713519,-1081.9563594235935,-2060.1576050520262,-5080.7191815605784,4507.15460201511,3750.3187909230214,-2097.2832559170424,2097.2832559170424,-3750.3187909230214,8089.6997672648668,0.0
357154.6038362722,4655833.5216966402,-47500.0,2519.9952303101295,1545.8572245660264,1723.3583989647343,-187.91821662496264,-1524.5423655884417,-4915.2697058693766,4554.3837417020168,4363.4029703076721,-2872.2877983638587,2872.2877983638587,-4363.4029703076721,8015.1257464455593,0.0
362154.6038362722,4655833.5216966402,-47500.0,2513.6434643824546,2065.1059959892032,2363.4623337026001,688.98158904966442,-637.65785743567869,-4253.4969988338653,4470.9285827718977,4637.8751496330224,-3463.4295276929424,3463.4295276929424,-4637.8751496330224,7761.3365767942905,0.0
367154.6038362722,4655833.5216966402,-47500.0,2175.470324154358,2301.614601740825,3046.2313132956265,1314.8065086178808,495.8388156216775,-3127.7141619588851,4285.9573448584715,4461.5501109329653,-3699.0169351530999,3699.0169351530999,-4461.5501109329653,7437.4594281966974,0.0
372154.6038362722,4655833.5216966402,-47500.0,1657.7728555522206,2159.7797807216275,3618.6715235379656,1506.557628880128,1657.6387925558922,-1731.9470892250122,4054.6866010178792,3859.3765285691406,-3496.8859376636728,3496.8859376636728,-3859.3765285691406,7143.4316043130393,0.0
377154.6038362722,4655833.5216966402,-47500.0,1187.161965702074,1677.830141544868,3933.4196828503332,1235.8844405078203,2592.4195606429998,-360.9263683878998,3837.0995581145153,3001.727091099157,-2918.2007747292741,2918.2007747292741,-3001.727091099157,6883.2731321061483,0.0
382154.6038362722,4655833.5216966402,-47500.0,938.77234099275529,1016.2138365595597,3918.369667349868,646.86945774977221,3120.3731558989662,719.94934619751132,3646.8012030711093,2123.5859083059713,-2139.7449759803876,2139.7449759803876,-2123.5859083059713,6568.2163490281991,0.0
387154.6038362722,4655833.5216966402,-47500.0,950.43650615649892,371.85992516114965,3605.1957722357697,-32.390874527861151,3206.7163872975225,1381.94690506451,3417.7512265436239,1411.4079850847615,-1361.6107879850492,1361.6107879850492,-1411.4079850847615,6111.9120280855523,0.0
392154.6038362722,4655833.5216966402,-47500.0,1138.5441902898169,-114.18423649969303,3099.2470876966536,-609.44418560260067,2944.411476262389,1646.5504789547667,3103.1620080709754,940.98484588326596,-722.42719610242011,722.42719610242011,-940.98484588326596,5501.6756019837176,0.0
397154.6038362722,4655833.5216966402,-47500.0,1378.7604154077958,-393.68924193934231,2521.8835241126562,-990.86011658906943,2481.0642522542526,1622.1506066372472,2721.5176736742524,691.73870283400993,-273.37353837343585,273.37353837343585,-691.73870283400993,4792.1987350123736,0.0
402154.6038362722,4655833.5216966402,-47500.0,1575.2103571547736,-490.69117685256629,1966.8762381122569,-1172.4780750472275,1950.9922621583576,1430.8195631468604,2317.6891581238096,598.09340594176558,-1.6753616052512825,1.6753616052512825,-598.09340594176558,4061.5716458983316,0.0
407154.6038362722,4655833.5216966402,-47500.0,1682.9891237188044,-460.59191816931315,1486.5928524125404,-1196.9911452066794,1444.2318547894135,1167.939773451134,1932.0773755300734,592.34160568033622,133.58259116462074,-133.58259116462074,-592.34160568033622,3375.6345563740351,0.0
412154.6038362722,4655833.5216966402,-47500.0,1697.3703748484631,-359.17446577792674,1098.9721632750866,-1117.7456987194712,1006.7406861938668,894.2935474301463,1590.131301034558,623.7959308689409,176.73146546705902,-176.73146546705902,-623.7959308689409,2774.5483835031337,0.0
417154.6038362722,4655833.5216966402,-47500.0,1634.5289294276236,-228.91816206792427,800.89511320835481,-980.62938838653895,653.50108271684508,643.15223995646784,1302.8643876829542,661.11137918851409,164.66364989670456,-164.66364989670456,-661.11137918851409,2274.7816399005055,0.0
422154.6038362722,4655833.5216966402,-47500.0,1517.0966546057625,-97.089214752023878,579.50929051367768,-819.14694126163988,381.9698373097724,429.65580432363254,1070.8781555428213,687.99612769290127,124.32641850546338,-124.32641850546338,-687.99612769290127,1876.4364680391254,0.0
427154.6038362722,4655833.5216966402,-47500.0,1366.6046870461771,21.263930460462245,419.30784283097478,-655.39016876210587,181.55147311279248,258.02539322080708,888.59060887609974,698.07088082398241,73.66541833013639,-73.66541833013639,-698.07088082398241,1570.0362389032825,0.0
432154.6038362722,4655833.5216966402,-47500.0,1200.5885490705127,119.43768704598125,305.70739896734159,-502.60735560752011,39.14757618988623,126.34723558284871,748.16655706236202,690.77658383040216,23.558613950853044,-23.558613950853044,-690.77658383040216,1341.1653564975343,0.0
437154.6038362722,4655833.5216966402,-47500.0,1032.0433733942871,195.85380552554307,226.45398499046857,-367.72506045510301,-57.989179986396564,29.638497310481497,643.20181625641737,668.54297532979842,-20.205028233455664,20.205028233455664,-668.54297532979842,1173.4958891752417,0.0
442154.6038362722,4655833.5216966402,-47500.0,869.85921571150175,251.77969239643807,171.89259423950858,-253.40861272459472,-120.99526514051325,-38.222529612008216,570.80402802865922,634.9831717159293,-55.22768125635281,55.22768125635281,-634.9831717159293,1051.0497091731652,0.0
447154.6038362722,4655833.5216966402,-47500.0,719.57542208258269,289.84667498823069,134.7266925437043,-159.63276324073414,-159.00479811644249,-83.343950882158651,525.61712055677503,593.83191631855038,-81.182804505427669,81.182804505427669,-593.83191631855038,959.9322374531024,0.0
452154.6038362722,4655833.5216966402,-47500.0,584.17940995831327,313.14875111513851,109.6038835674465,-84.8264481558558,-179.19640938112602,-111.20594767126974,494.97783041092424,548.3979264705597,-98.869863738010338,98.869863738010338,-548.3979264705597,889.31260702501129,0.0
457154.6038362722,4655833.5216966402,-47500.0,464.82452535239548,324.73266939468243,92.686150484551021,-26.663880909728032,-187.03508520013369,-126.40443361110425,469.67778007934237,501.34278089476555,-109.58917980286077,109.58917980286077,-501.34278089476555,831.53643614842076,0.0
462154.6038362722,4655833.5216966402,-47500.0,361.42498806189008,327.33981946002149,81.271988458139774,17.421201771831605,-186.57637793334104,-132.61289597612259,446.10960248687672,454.65224967290612,-114.76234822321373,114.76234822321373,-454.65224967290612,781.63274007340203,0.0
467154.6038362722,4655833.5216966402,-47500.0,273.11812715095101,323.3021360996625,73.490206971409904,49.92709139810345,-180.76472654635597,-132.66143639585306,423.12895667697808,409.70585418164063,-115.7251482687945,115.7251482687945,-409.70585418164063,736.60168779443347,0.0
472154.6038362722,4655833.5216966402,-47500.0,198.60505758966104,314.52671353364599,68.063911745195568,73.119302495438063,-171.69526723741384,-128.66595302054873,400.48039932859797,367.38581286188935,-113.63216179141668,113.63216179141668,-367.38581286188935,694.7540748809962,0.0
477154.6038362722,4655833.5216966402,-47500.0,136.38891588429721,302.52681516812652,64.134464353402834,88.959844734929348,-160.82917709803922,-122.16763320860738,378.22147122808292,328.1912354067959,-109.42807998051194,109.42807998051194,-328.1912354067959,655.2078978703081,0.0
272154.6038362722,4660833.5216966402,-47500.0,-944.93356846018548,-41.73452023957109,351.58701969609518,-714.77129740212592,-50.485167604190096,-389.62759614302269,895.6925565400403,-83.103330844773282,220.93491013327582,-220.93491013327582,83.103330844773282,1677.7754087843764,0.0
277154.6038362722,4660833.5216966402,-47500.0,-1012.794321815938,-60.117861311356613,389.80767390520424,-808.76405800614179,-69.864563187311717,-456.90885892631388,994.83749045809702,-78.21546019725757,241.58218908966813,-241.58218908966813,78.21546019725757,1866.6543586034572,0.0
282154.6038362722,4660833.5216966402,-47500.0,-1082.1061514745672,-82.830173178087151,432.25340908330026,-916.80639239512982,-95.267355084185382,-537.71003085629309,1107.3760301489842,-69.622984299424331,263.99875617107887,-263.99875617107887,69.622984299424331,2081.9828404236205,0.0
287154.6038362722,4660833.5216966402,-47500.0,-1150.8714663926219,-110.59354808063055,479.13406504328196,-1041.048876736794,-128.5683660509149,-635.29035297397422,1235.3525021604241,-55.663750353869972,287.94888229901994,-287.94888229901994,55.663750353869972,2328.0834208404981,0.0
292154.6038362722,4660833.5216966402,-47500.0,-1215.9120975691769,-144.04992365260014,530.52898499057164,-1183.8100632656274,-172.21706645218558,-753.90284861925511,1381.1233726490127,-33.83814093886437,312.78446064060063,-312.78446064060063,33.83814093886437,2609.9967741725413,0.0
297154.6038362722,4660833.5216966402,-47500.0,-1272.299352872695,-183.55404613980346,586.3251434424493,-1347.3850939819044,-229.37251412545496,-899.15000589834756,1547.3814202370668,-0.35241263518611277,337.09543297200656,-337.09543297200656,0.35241263518611277,2933.5017002049003,0.0
302154.6038362722,4660833.5216966402,-47500.0,-1312.5597330425996,-228.79237138693051,646.1608574556642,-1533.6186113253516,-304.01149572803814,-1078.4333461937329,1737.1690084376414,50.562220742736201,358.11991159616554,-358.11991159616554,-50.562220742736201,3305.0080625000592,0.0
307154.6038362722,4660833.5216966402,-47500.0,-1325.6394580058918,-278.12315144103746,709.41339165302986,-1743.0548889112531,-400.92526224072913,-1301.4483946142918,1953.8934645305942,127.61389391313543,370.79365975382456,-370.79365975382456,-127.61389391313543,3731.1924250894253,0.0
312154.6038362722,4660833.5216966402,-47500.0,-1295.7127193572753,-327.50425108676052,775.31155808559197,-1973.3823717795985,-525.42890385897931,-1580.55459956554,2201.3914485621553,243.70003531864273,366.31087480446587,-366.31087480446587,-243.70003531864273,4218.1641222034723,0.0
317154.6038362722,4660833.5216966402,-47500.0,-1201.157901103513,-368.88444786821998,843.32447871828015,-2216.8138488278983,-682.45575363967259,-1930.6044291196331,2484.0534766432456,417.27570466831997,330.13824065496038,-330.13824065496038,-417.27570466831997,4769.8633846178436,0.0
322154.6038362722,4660833.5216966402,-47500.0,-1014.4862653661648,-388.05793343121007,914.06971590907131,-2456.0931521325092,-874.49366216329736,-2367.387180602223,2806.4394542187292,673.29152859143665,239.67901980962762,-239.67901980962762,-673.29152859143665,5385.3485775718309,0.0
327154.6038362722,4660833.5216966402,-47500.0,-704.72787522059298,-362.36630407342142,991.05135814826929,-2659.2407463951713,-1097.6084364821061,-2903.2397240748019,3170.520943321801,1042.4516180103128,62.395093973991891,-62.395093973991891,-1042.4516180103128,6054.763182143327,0.0
332154.6038362722,4660833.5216966402,-47500.0,-244.57495540678087,-259.45995013327763,1083.4502607564336,-2774.3414018829967,-1334.8223406985928,-3537.8385290511155,3570.1639135306818,1556.5434897199511,-243.67838525924856,243.67838525924856,-1556.5434897199511,6754.3241033422064,0.0
337154.6038362722,4660833.5216966402,-47500.0,375.28382913909144,-39.68171546893609,1209.6633756171643,-2728.0311644395733,-1546.9066724315062,-4242.4805828480439,3987.0785408974934,2236.7383475871911,-723.54197497309292,723.54197497309292,-2236.7383475871911,7441.9656237945592,0.0
342154.6038362722,4660833.5216966402,-47500.0,1124.3680781188198,333.96394166062123,1399.9741677936227,-2434.6164534275781,-1663.0387539480555,-4938.8639303911059,4390.6366559221678,3072.4329106213786,-1408.4432458450997,1408.4432458450997,-3072.4329106213786,8057.5161204077176,0.0
347154.6038362722,4660833.5216966402,-47500.0,1909.5281870368558,874.56337499201516,1694.5844293350353,-1824.7071962702498,-1578.3412279579261,-5480.4461469774169,4741.4995330924557,3992.9180407981107,-2286.1257688875035,2286.1257688875035,-3992.9180407981107,8533.8284530625842,0.0
352154.6038362722,4660833.5216966402,-47500.0,2568.7877223376568,1540.2823392899338,2131.4432284007539,-897.18220497711036,-1170.62946180637,-5655.7658678960379,5001.080362016819,4845.1307740869797,-3264.3221295345547,3264.3221295345547,-4845.1307740869797,8825.017027107684,0.0
357154.6038362722,4660833.5216966402,-47500.0,2908.6412136403173,2207.9746818606254,2720.2699452417319,221.14623512381462,-348.57471028321078,-5240.8561435076354,5147.2348726177734,5404.7595506501257,-4150.5626689924629,4150.5626689924629,-5404.7595506501257,8947.1417950108862,0.0
362154.6038362722,4660833.5216966402,-47500.0,2798.5497630795867,2681.5525312789077,3409.3934969807133,1255.525957132551,873.0437659451818,-4112.2990558156853,5189.1119802880867,5448.9265814288801,-4685.7519792758476,4685.7519792758476,-5448.9265814288801,8996.7902406761514,0.0
367154.6038362722,4660833.5216966402,-47500.0,2283.5678498618313,2763.1281617773111,4069.3713366199513,1862.9655005883101,2312.1665495306811,-2376.1903552591498,5167.4731645113816,4881.610604535671,-4652.5527030045478,4652.5527030045478,-4881.610604535671,9087.2849969800009,0.0
372154.6038362722,4660833.5216966402,-47500.0,1614.0031914476979,2369.4050426136191,4524.3521240868258,1812.4194728081288,3641.6406371599933,-402.94696629979603,5132.8219382327852,3832.2081227230847,-4012.6086014745688,4012.6086014745688,-3832.2081227230847,9213.5617967273665,0.0
377154.6038362722,4660833.5216966402,-47500.0,1118.0501094355004,1608.2856928517592,4632.6898717479262,1146.0555980933188,4524.2926927993967,1316.653300343143,5088.8256259593527,2621.3926427691408,-2959.8829798384536,2959.8829798384536,-2621.3926427691408,9208.7930390574165,0.0
382154.6038362722,4660833.5216966402,-47500.0,994.89549190286323,732.29131090400938,4364.1419366735699,165.42220963284464,4782.0531842201253,2421.0449082960572,4933.1905626716834,1588.8087176203924,-1819.4004206699503,1819.4004206699503,-1588.8087176203924,8881.194632317749,0.0
387154.6038362722,4660833.5216966402,-47500.0,1212.0912798443069,-4.5902635936092526,3809.5483455349581,-761.11142835642829,4465.5400953463231,2833.7328921343415,4575.9140525162175,920.83081930729384,-867.78478126989978,867.78478126989978,-920.83081930729384,8168.5641530857265,0.0
392154.6038362722,4660833.5216966402,-47500.0,1583.6187528007747,-465.84634368629531,3119.9514779880246,-1395.9179173925593,3780.9373766676567,2716.7402003556958,4041.7797389695684,612.51997333438408,-225.0456930914149,225.0456930914149,-612.51997333438408,7161.4727660459575,0.0
397154.6038362722,4660833.5216966402,-47500.0,1920.4444843270342,-649.12227346626241,2432.2815938433218,-1688.5070208689269,2959.1119225219359,2311.1059417771476,3420.1368627743045,550.19335949661354,127.9989425721306,-127.9989425721306,-550.19335949661354,6025.0241274346536,0.0
402154.6038362722,4660833.5216966402,-47500.0,2119.1411668159958,-629.2374426129179,1830.6514097485017,-1709.5623883436303,2167.7341631034224,1812.1953416469964,2800.888267163903,609.38882086921183,272.47441712742204,-272.47441712742204,-609.38882086921183,4913.4240113304295,0.0
407154.6038362722,4660833.5216966402,-47500.0,2162.3085461782416,-495.38642410257745,1346.9642451184197,-1563.015365151098,1492.705294061815,1333.0274089940872,2244.8286688764965,703.2027159085219,290.7603120018116,-290.7603120018116,-703.2027159085219,3927.6106466898991,0.0
412154.6038362722,4660833.5216966402,-47500.0,2079.762833624598,-317.46032225614931,979.33930246429395,-1335.6847009046198,959.14948635848009,922.03819354540178,1780.7269127282411,785.85778786643436,243.3192491514526,-243.3192491514526,-785.85778786643436,3113.1460123946495,0.0
417154.6038362722,4660833.5216966402,-47500.0,1914.0768195234298,-138.90708500307932,710.33308113862893,-1084.6905288046744,559.07960454160252,591.47282232498901,1413.769172102177,839.36537090953709,168.39680690281682,-168.39680690281682,-839.36537090953709,2476.1785513945892,0.0
422154.6038362722,4660833.5216966402,-47500.0,1703.0779776728889,18.061029138164969,518.56459750087765,-842.52850411908844,271.21395410888198,337.23565591975245,1135.1513300201739,860.60898731641714,88.3037248646595,-88.3037248646595,-860.60898731641714,2000.4877305714444,0.0
427154.6038362722,4660833.5216966402,-47500.0,1474.7841809577108,144.91209747372824,384.32467520643326,-625.46741115685177,71.725226708756594,149.11126675543889,929.98936264966471,853.25266884133953,15.100063990823344,-15.100063990823344,-853.25266884133953,1659.2102030796871,0.0
432154.6038362722,4660833.5216966402,-47500.0,1247.9459052499878,240.78608916237985,291.52210674221101,-440.07522463455359,-61.03344815163446,15.307847076822338,784.32911223720237,823.46484675613829,-45.577667842285962,45.577667842285962,-823.46484675613829,1421.733578635379,0.0
437154.6038362722,4660833.5216966402,-47500.0,1034.1303862034104,308.60126509464783,227.85614796975003,-287.37204776467479,-144.96920828045526,-75.582401477672946,689.122146275521,777.79456590413156,-92.041478809067485,92.041478809067485,-777.79456590413156,1258.295793463642,0.0
442154.6038362722,4660833.5216966402,-47500.0,839.76470608894192,352.7814449167393,184.29989143822394,-165.3429819189451,-194.13046331939015,-133.71436654005032,632.23145447695356,722.15835408662292,-124.89513667512659,124.89513667512659,-722.15835408662292,1143.5267409171347,0.0
447154.6038362722,4660833.5216966402,-47500.0,667.74752682015912,378.02300219673782,154.41237934344153,-70.469988116313985,-219.15644332541879,-167.6400674098407,594.50807371806252,661.41612109149992,-145.91248421721451,145.91248421721451,-661.41612109149992,1058.4150700656342,0.0
452154.6038362722,4660833.5216966402,-47500.0,518.64627826286369,388.67971108455691,133.69381442290677,1.3234714012452311,-227.89262482620694,-184.25318573132392,563.52155128390098,599.27701864300184,-157.30567884691283,157.30567884691283,-599.27701864300184,990.30264510902498,0.0
457154.6038362722,4660833.5216966402,-47500.0,391.56703395916605,388.50183135205765,119.05419260213593,54.10426028924806,-225.99761417395732,-188.91000616995231,534.51179915022453,538.38602326967361,-161.2859336767809,161.2859336767809,-538.38602326967361,931.57768969981737,0.0
462154.6038362722,4660833.5216966402,-47500.0,284.77364658192789,380.56886547174423,108.4029601655354,91.612922070712202,-217.47162254806565,-185.64109400588416,506.01812407072896,480.49299059852103,-159.83196494438786,159.83196494438786,-480.49299059852103,878.05908850307219,0.0
467154.6038362722,4660833.5216966402,-47500.0,196.1172026523509,367.32282806766784,100.34515974764189,117.11429508532756,-205.08777072823662,-177.3936327193783,477.77787439766155,426.64545872841336,-154.5953941006571,154.5953941006571,-426.64545872841336,827.65884765243345,0.0
472154.6038362722,4660833.5216966402,-47500.0,123.32176700773464,350.64672942924142,93.962474265634555,133.35447470608014,-190.72899950928439,-166.26510186375836,449.93869577051981,377.36998508834205,-146.88760402496092,146.88760402496092,-377.36998508834205,779.46311339777822,0.0
477154.6038362722,4660833.5216966402,-47500.0,64.16423145800654,331.95742018926882,88.658818222494361,142.58004307784469,-175.64340775691326,-153.70808062063682,422.75548115930792,332.82623191252401,-137.70927536176589,137.70927536176589,-332.82623191252401,733.16521601670047,0.0
267154.6038362722,4665833.5216966402,-47500.0,-840.78586431382848,57.553563109296235,332.34658465331347,-612.76908412068781,8.8770705307774573,-326.0943569587223,793.13706031265178,-6.7758840864703984,148.04413749664585,-148.04413749664585,6.7758840864703984,1474.4413445311081,0.0
272154.6038362722,4665833.5216966402,-47500.0,-903.51099293112452,55.337379880455551,371.1483491754143,-692.74754625664946,2.5092060912487835,-381.47519224722708,879.77836321795303,6.8082067312335823,158.63031131908949,-158.63031131908949,-6.8082067312335823,1637.3035940456816,0.0
277154.6038362722,4665833.5216966402,-47500.0,-969.08959300849153,51.580615145900545,415.24784409163294,-784.95201794278535,-6.6413826347062281,-447.8586080090771,978.23831541777247,24.916864589548055,169.52741815216598,-169.52741815216598,-24.916864589548055,1822.9304233713597,0.0
282154.6038362722,4665833.5216966402,-47500.0,-1036.4519674669937,45.931228042196096,465.35402125344388,-891.47249450688537,-19.573707546472356,-527.88692154739169,1090.430322875498,49.070109111893203,180.40069175064599,-180.40069175064599,-49.070109111893203,2035.176073628166,0.0
287154.6038362722,4665833.5216966402,-47500.0,-1103.7584727113808,38.051969432864489,522.22621992435711,-1014.7284890691515,-37.632810453769373,-625.02656080916347,1218.6238555415473,81.435545209948913,190.6128859483085,-190.6128859483085,-81.435545209948913,2278.6430096697545,0.0
292154.6038362722,4665833.5216966402,-47500.0,-1167.9733755120064,27.716085998093689,586.65416864215342,-1157.4301568774231,-62.614158826734716,-743.89428865375271,1365.5120731959723,125.16708928444589,198.98147232261036,-198.98147232261036,-125.16708928444589,2558.800478932958,0.0
297154.6038362722,4665833.5216966402,-47500.0,-1224.2218002320649,14.998327996446791,659.4299018390268,-1322.410253934597,-96.874759491991668,-890.71024486415502,1534.2859237594939,184.92559112457153,203.35594738352327,-203.35594738352327,-184.92559112457153,2882.0634498727036,0.0
302154.6038362722,4665833.5216966402,-47500.0,-1264.8521588683718,0.63115052868954491,741.31883335761518,-1512.1899891485011,-143.41602223398615,-1073.8900749033432,1728.7120484362451,267.65474938853163,199.90537910098877,-199.90537910098877,-267.65474938853163,3255.756029755863,0.0
307154.6038362722,4665833.5216966402,-47500.0,-1278.147086068675,-13.365951313191305,833.05310302959106,-1728.0383123205283,-205.85120467216518,-1304.7267114563242,1953.2104327638608,383.67838550986232,181.96724520953305,-181.96724520953305,-383.67838550986232,3687.817369797488,0.0
312154.6038362722,4665833.5216966402,-47500.0,-1246.7293421118393,-22.639523371278013,935.40181647006796,-1968.1417980405984,-288.071939499596,-1597.954222402027,2212.9079129597135,548.11217399496888,138.29939905919105,-138.29939905919105,-548.11217399496888,4186.0141480123257,0.0
317154.6038362722,4665833.5216966402,-47500.0,-1145.9890706780031,-18.888904661326904,1049.4287188087199,-2224.3584844587544,-393.25433204060931,-1971.6456101153071,2513.5136392227637,782.36295717309486,50.669373542860512,-50.669373542860512,-782.36295717309486,4756.3177279815973,0.0
322154.6038362722,4665833.5216966402,-47500.0,-943.45306445252038,12.345861033136892,1177.1272266535018,-2477.025679208004,-521.58709444125191,-2445.2713039585838,2860.4496525970535,1114.9836524390134,-108.93538054649599,108.93538054649599,-1114.9836524390134,5400.0583472352464,0.0
327154.6038362722,4665833.5216966402,-47500.0,-601.03982410541971,94.117194187870822,1322.690448739093,-2687.7734041458143,-665.82588813489508,-3033.8038358296271,3256.2570923520243,1580.2055363514125,-380.33578187798685,380.33578187798685,-1580.2055363514125,6109.6632288692799,0.0
332154.6038362722,4665833.5216966402,-47500.0,-83.442038645867342,259.3871854403958,1494.6050373855803,-2791.8979806017337,-803.75716696729432,-3734.8001414720961,3696.2947558582327,2211.0890964727514,-813.6594305384067,813.6594305384067,-2211.0890964727514,6863.5754847954322,0.0
337154.6038362722,4665833.5216966402,-47500.0,623.50422042238472,548.21852038721954,1708.271701496727,-2695.3369560971528,-887.59343408505231,-4505.5979637097143,4164.9766654518608,3023.064330239501,-1459.2558228936723,1459.2558228936723,-3023.064330239501,7622.8547035482379,0.0
342154.6038362722,4665833.5216966402,-47500.0,1483.129807379639,995.9571375396672,1987.5614050281929,-2286.5878541187326,-833.39983787553081,-5231.7582199129274,4635.3570299958328,3984.7723176437962,-2342.4819503323065,2342.4819503323065,-3984.7723176437962,8335.24348318591,0.0
347154.6038362722,4665833.5216966402,-47500.0,2375.0432291945526,1607.7040477947469,2361.5738685168944,-1477.7798848268003,-519.79363673493231,-5699.3399617701771,5074.5519904450766,4980.57101002942,-3420.2087262904861,3420.2087262904861,-4980.57101002942,8955.6285046341345,0.0
352154.6038362722,4665833.5216966402,-47500.0,3085.0149227625325,2321.1461971943286,2851.311952135065,-282.13570870545931,187.59563807793276,-5603.0184364473216,5456.8629266708276,5786.3171763756309,-4530.6516372306978,4530.6516372306978,-5786.3171763756309,9487.5528233139339,0.0
357154.6038362722,4665833.5216966402,-47500.0,3359.3579395489642,2977.0751267780283,3443.9123377310802,1096.3625542745149,1370.0943144597884,-4636.2821432414694,5780.6523533366162,6101.0912696215937,-5376.1271814343954,5376.1271814343954,-6101.0912696215937,10021.971517086367,0.0
362154.6038362722,4665833.5216966402,-47500.0,3046.8411156952648,3337.8448320958905,4063.8562550829447,2239.8220932783861,2957.3846225423872,-2682.131291669416,6073.7141043623842,5673.8201581584626,-5599.364760518517,5599.364760518517,-5673.8201581584626,10695.527155055332,0.0
367154.6038362722,4665833.5216966402,-47500.0,2263.9935571903143,3188.6192818706804,4567.9485332360837,2660.9868373634572,4659.3609482415204,-17.346178513749035,6373.5151335243554,4493.1294756378866,-4975.1670461886551,4975.1670461886551,-4493.1294756378866,11517.039051574244,0.0
372154.6038362722,4665833.5216966402,-47500.0,1414.8836407628664,2488.053820739111,4792.6392881012316,2105.5017625177034,6027.3641922453335,2676.2973876957003,6675.6919933662493,2890.4894495393246,-3610.7970414599686,3610.7970414599686,-2890.4894495393246,12231.012068721351,0.0
377154.6038362722,4665833.5216966402,-47500.0,956.02985501222224,1441.8568014761606,4642.3202470571769,781.61831128605263,6668.2268503199384,4626.7183835500537,6822.9420619357625,1398.7977735471554,-1949.9819629165008,1949.9819629165008,-1398.7977735471554,12449.773086950976,0.0
382154.6038362722,4665833.5216966402,-47500.0,1075.3667990245631,398.04440371563754,4150.6581974854998,-745.66639355485643,6464.406986483632,5414.3308388329706,6604.98353792332,433.12531241713879,-514.55338712716093,514.55338712716093,-433.12531241713879,11935.220716369624,0.0
387154.6038362722,4665833.5216966402,-47500.0,1600.9780247719,-358.7952138249313,3456.783873611339,-1929.1307438102326,5607.5463169065933,5149.7995243693495,5997.7992147002242,79.882345308797397,394.82267742357556,-394.82267742357556,-79.882345308797397,10739.496779385992,0.0
392154.6038362722,4665833.5216966402,-47500.0,2198.9387255958413,-731.79451020807778,2722.1273750705791,-2526.8030307118856,4437.5705355370865,4269.355186505165,5135.9094367034713,158.22328165346943,779.33811874352455,-779.33811874352455,-158.22328165346943,9127.6502644255179,0.0
397154.6038362722,4665833.5216966402,-47500.0,2616.2710903696579,-784.70859584726611,2061.7953556677467,-2600.7867096641849,3254.488243637054,3211.8948233421388,4193.9643681928774,420.983076139226,810.07814547389819,-810.07814547389819,-420.983076139226,7409.934435013698,0.0
402154.6038362722,4665833.5216966402,-47500.0,2769.0874318835045,-643.59054363156906,1526.8422150389524,-2347.1207242548385,2231.9497983040364,2245.7612100962633,3308.6941597144614,693.61174590673807,668.88435345117148,-668.88435345117148,-693.61174590673807,5820.7643114974717,0.0
407154.6038362722,4665833.5216966402,-47500.0,2694.2776020920273,-421.22394871732757,1121.4487764311689,-1950.1933820009467,1428.8338279062959,1471.3307378136149,2555.6535908022802,898.10608090777771,475.66336677075594,-475.66336677075594,-898.10608090777771,4484.7132926328159,0.0
412154.6038362722,4665833.5216966402,-47500.0,2471.1963867188074,-190.44960479597162,826.92628319691471,-1528.8523944433894,836.5274693728627,892.47439931166798,1959.4487704554417,1019.2858207708589,289.17249539504041,-289.17249539504041,-1019.2858207708589,3438.0893865816224,0.0
417154.6038362722,4665833.5216966402,-47500.0,2173.1732912179928,12.01139729850231,618.40298025702532,-1142.3900252217261,419.16616820347076,477.09527421172697,1513.0996976150957,1068.8396638655868,131.28729227284646,-131.28729227284646,-1068.8396638655868,2664.5221285580074,0.0
422154.6038362722,4665833.5216966402,-47500.0,1851.8400357380804,172.91023030982251,472.90852228190579,-813.0648073125451,136.23321163418598,187.90017043075241,1194.256937503746,1064.9597947577122,6.8241845352617929,-6.8241845352617929,-1064.9597947577122,2122.3299289124793,0.0
427154.6038362722,4665833.5216966402,-47500.0,1538.394175714842,291.5383512781039,372.02218699700427,-544.45070051341895,-48.032200851338835,-7.1513602552164413,977.61910679798484,1024.4309942744894,-86.035100082121744,86.035100082121744,-1024.4309942744894,1760.0109099098217,0.0
432154.6038362722,4665833.5216966402,-47500.0,1249.5311465385096,372.79438391893348,301.99027333201343,-332.0358882044489,-162.11413511143513,-133.23665954662169,842.64316858361406,960.68360154168408,-151.39825097393827,151.39825097393827,-960.68360154168408,1525.1770150192767,0.0
437154.6038362722,4665833.5216966402,-47500.0,992.83680068345541,423.42548370086337,252.96031045837285,-168.38772695427082,-227.53038145240987,-209.62607510835286,765.51225014777867,883.86827808393366,-194.01300145227003,194.01300145227003,-883.86827808393366,1371.8240048339057,0.0
442154.6038362722,4665833.5216966402,-47500.0,770.50625544829188,450.20088764634619,218.06255087631132,-45.467534318728369,-260.02266287473725,-250.92527155598765,716.63997734976465,801.38277069946321,-218.57940091879811,218.57940091879811,-801.38277069946321,1265.4298707173798,0.0
447154.6038362722,4665833.5216966402,-47500.0,581.6687456294959,459.12832229848345,192.6002305176755,44.36063218317355,-270.84548616646464,-268.08881082695655,677.74100681862501,718.4108752148943,-229.39817593666208,229.39817593666208,-718.4108752148943,1183.7314652039013,0.0
452154.6038362722,4665833.5216966402,-47500.0,423.80435788288747,455.19767038066101,173.41185177012551,107.90186490244831,-267.89211880157018,-269.20742164291119,641.69237606795718,638.39835300600521,-230.18301286079708,230.18301286079708,-638.39835300600521,1114.126803417824,0.0
457154.6038362722,4665833.5216966402,-47500.0,293.61133626361004,442.37908813889237,158.39763077917129,150.97838508225414,-256.59956931423739,-260.14094548258117,606.26437579420849,563.46683940988328,-223.98933661781479,223.98933661781479,-563.46683940988328,1050.2669402705515,0.0
462154.6038362722,4665833.5216966402,-47500.0,187.5359873426813,423.73089797271507,146.17886541084698,178.4216744839197,-240.64321466098184,-245.03816817907526,571.04726741808099,494.76338560848887,-213.22691449546235,213.22691449546235,-494.76338560848887,989.35067757580998,0.0
467154.6038362722,4665833.5216966402,-47500.0,102.09155635525924,401.5467799752933,135.85967764303987,194.14349630097294,-222.45566070999277,-226.76283808136617,536.25734528430758,432.74840226766304,-199.72586805889347,199.72586805889347,-432.74840226766304,930.40012777953609,0.0
472154.6038362722,4665833.5216966402,-47500.0,34.038165133774953,377.50486735481741,126.86317772434865,201.24631978803981,-203.60565264583047,-207.23479202046801,502.27037420916838,377.42165558800116,-184.82759473628843,184.82759473628843,-377.42165558800116,873.28179403010006,0.0
477154.6038362722,4665833.5216966402,-47500.0,-19.52781185312616,352.80228538782541,118.82060977080596,202.14751624438483,-185.07001060260851,-187.69578637509298,469.44256118805811,328.49260262113756,-169.48070988043133,169.48070988043133,-328.49260262113756,818.19219406735363,0.0
267154.6038362722,4670833.5216966402,-47500.0,-782.23139213770094,139.56200202420803,334.97207940796062,-581.93786875221588,52.094340602844461,-314.25909852543839,771.18923967361047,71.023850532487685,91.300597221950071,-91.300597221950071,-71.023850532487685,1423.6750194025171,0.0
272154.6038362722,4670833.5216966402,-47500.0,-838.72024409940457,150.01898869696143,375.75929436727245,-657.49555296768347,54.168540797153653,-367.46457246584504,855.56916628478052,95.954176701795163,92.844748164766187,-92.844748164766187,-95.954176701795163,1580.4850763856632,0.0
277154.6038362722,4670833.5216966402,-47500.0,-897.4486555154042,161.23050257934509,422.62668168137242,-744.67594135465038,55.399199973880343,-431.28374148076045,951.63098070655337,127.42294066211376,92.968796900136354,-92.968796900136354,-127.42294066211376,1759.3622789877656,0.0
282154.6038362722,4670833.5216966402,-47500.0,-957.31198506075361,173.2938585672986,476.56643090702551,-845.53447981199679,55.298115558885172,-508.32744760028049,1061.3499075027357,167.37846100766888,90.938760090599644,-90.938760090599644,-167.37846100766888,1964.1427616001761,0.0
287154.6038362722,4670833.5216966402,-47500.0,-1016.4216536993472,186.40126324046486,538.71867024560163,-962.48065455824758,53.181101405937461,-602.06512069158339,1187.1068736672644,218.52894115780379,85.598144387430793,-85.598144387430793,-218.52894115780379,2199.4540739204358,0.0
292154.6038362722,4670833.5216966402,-47500.0,-1071.6480500769408,200.93910097090378,610.37951837108221,-1098.2472491250328,48.110148785410985,-717.18667503028882,1331.7827202372846,284.71867650338027,75.07338200206847,-75.07338200206847,-284.71867650338027,2470.86223602576,0.0
297154.6038362722,4670833.5216966402,-47500.0,-1117.9120742685996,217.67303507181222,693.00237407265445,-1255.7184728830496,38.842046131898726,-860.11302843142778,1498.8691318828778,371.49939128230324,56.270380315024198,-56.270380315024198,-371.49939128230324,2784.991361570987,0.0
302154.6038362722,4670833.5216966402,-47500.0,-1147.121804699879,238.08202190284285,788.19185921283656,-1437.454971441309,23.820903731999095,-1039.6709091514376,1692.5914218712633,486.97114436229629,24.036528619482823,-24.036528619482823,-486.97114436229629,3149.5420817818472,0.0
307154.6038362722,4670833.5216966402,-47500.0,-1146.6621772771921,264.93883026935316,897.69547883009636,-1644.6217886854745,1.3032442127365813,-1267.8714502477114,1918.0239402065476,642.94947859195611,-30.178818307932033,30.178818307932033,-642.94947859195611,3573.067358625352,0.0
312154.6038362722,4670833.5216966402,-47500.0,-1097.4516431418915,303.2702404998825,1023.4127517475554,-1874.8347258978015,-30.19695847264898,-1560.528566354978,2181.1341615974306,856.41450680918456,-120.33211325931853,120.33211325931853,-856.41450680918456,4064.2710552297431,0.0
317154.6038362722,4670833.5216966402,-47500.0,-971.9024346577562,361.83441397738824,1167.4708454659035,-2118.2275328305491,-70.778630721635594,-1937.0013385914876,2488.5588065269785,1150.906640718666,-268.48982959740607,268.48982959740607,-1150.906640718666,4630.4973436417567,0.0
322154.6038362722,4670833.5216966402,-47500.0,-732.86255670169078,455.13486285391838,1332.4617875959782,-2350.9877551254631,-116.70897293159791,-2417.4873400114993,2846.6668439479004,1556.8739052683281,-507.76612906508387,507.76612906508387,-1556.8739052683281,5275.0884676145624,0.0
327154.6038362722,4670833.5216966402,-47500.0,-335.97923526721104,605.56408972776399,1521.9753861202146,-2526.1743868712706,-155.74160773270231,-3014.9504046769366,3259.3690026078239,2108.7484592177975,-883.8448042132004,883.8448042132004,-2108.7484592177975,5993.6507915064685,0.0
332154.6038362722,4670833.5216966402,-47500.0,260.19216522928997,844.23101889579425,1741.5028210423227,-2563.7626843853868,-159.28272330334917,-3717.3360479796233,3724.8995833177141,2834.7618004678611,-1451.1804473245315,1451.1804473245315,-2834.7618004678611,6770.5166106500801,0.0
337154.6038362722,4670833.5216966402,-47500.0,1070.8265507198223,1207.1641812869648,1999.4012945527572,-2346.8040530747312,-71.636629143709499,-4455.9345342747247,4233.4549566617925,3734.1750651885072,-2256.8639437195275,2256.8639437195275,-3734.1750651885072,7579.5085062591625,0.0
342154.6038362722,4670833.5216966402,-47500.0,2045.7806631394828,1721.4981880060025,2306.5851197102738,-1738.5110151027623,199.67764490674872,-5061.7644600613303,4768.9422286228009,4738.8678639739901,-3303.4906628669314,3303.4906628669314,-4738.8678639739901,8397.406698187413,0.0
347154.6038362722,4670833.5216966402,-47500.0,3025.72745390921,2376.7833019363475,2672.0321969756592,-641.21082186507385,781.10172335954178,-5229.7648304855802,5318.0445670459903,5668.0791990595544,-4488.7692757701579,4488.7692757701579,-5668.0791990595544,9239.5581594502692,0.0
352154.6038362722,4670833.5216966402,-47500.0,3730.7439060784864,3085.4212648129528,3090.7402088727172,892.50097205957854,1798.1985049753994,-4541.3489618880276,5885.3731282903354,6211.0173379166426,-5544.1200498581729,5544.1200498581729,-6211.0173379166426,10207.480385429137,0.0
357154.6038362722,4670833.5216966402,-47500.0,3842.2470320633956,3657.3670347783468,3525.1905376925151,2535.5843553610703,3293.1651958927014,-2616.9423294119747,6500.6436547045196,5999.7904914528644,-6037.8825516267407,6037.8825516267407,-5999.7904914528644,11477.155573817709,0.0
362154.6038362722,4670833.5216966402,-47500.0,3209.2862216615913,3836.2512701236642,3892.5419722791635,3674.1593741404145,5114.518390758878,581.66591812330967,7198.0953284546931,4815.9322961527569,-5532.0707463066856,5532.0707463066856,-4815.9322961527569,13125.938877417915,0.0
367154.6038362722,4670833.5216966402,-47500.0,2073.3561985208444,3428.5135015476003,4079.3070926163323,3659.9792776079385,6865.1028224120464,4462.1684006059841,7982.6316927717389,2846.7830237599214,-3894.4394804326444,3894.4394804326444,-2846.7830237599214,14892.205762380043,0.0
372154.6038362722,4670833.5216966402,-47500.0,1048.9777480374407,2467.202794898812,3994.0366024989826,2281.4007165895264,8022.0280084311999,7877.8237424353383,8699.1858849903419,735.78911446472739,-1543.2934889125645,1543.2934889125645,-735.78911446472739,16190.416690020356,0.0
377154.6038362722,4670833.5216966402,-47500.0,724.53324129510167,1252.4509028480361,3629.1253830037867,44.513690757069526,8218.4955239106966,9733.7030527998941,8948.2790945370234,-760.4405399608238,701.55710011871338,-701.55710011871338,760.4405399608238,16455.293452021408,0.0
382154.6038362722,4670833.5216966402,-47500.0,1211.658874597322,181.22725750767734,3074.3507358564348,-2121.4853642241824,7466.4210666384824,9676.2070504486401,8524.806566301464,-1267.0938874851886,2138.4628917094842,-2138.4628917094842,1267.0938874851886,15498.203535777542,0.0
387154.6038362722,4670833.5216966402,-47500.0,2123.5800185557828,-489.46195811665348,2463.4974530066011,-3495.3921870839995,6108.9530853547967,8200.2111204368157,7539.1808497037682,-953.36179797223713,2585.7371015463732,-2585.7371015463732,953.36179797223713,13575.911704318334,0.0
392154.6038362722,4670833.5216966402,-47500.0,2953.1672299672623,-732.49869063265112,1904.9072866801482,-3911.9701746894971,4575.5475346976136,6151.7673382051717,6258.2089465965546,-264.94376681729295,2319.2129948084057,-2319.2129948084057,264.94376681729295,11180.785151067346,0.0
397154.6038362722,4670833.5216966402,-47500.0,3407.0143846401256,-670.69092388326351,1450.7104097850749,-3625.7388625475719,3176.9930436400691,4197.5140447829517,4944.6985292247437,417.81340973061901,1741.6202771921251,-1741.6202771921251,-417.81340973061901,8778.7102027742167,0.0
402154.6038362722,4670833.5216966402,-47500.0,3456.36571004281,-455.92906030165909,1106.953721727901,-2996.5207068237837,2052.9446838590966,2643.6345945667358,3773.4173432926291,915.35750490803048,1141.490882563653,-1141.490882563653,-915.35750490803048,6669.0026929994956,0.0
407154.6038362722,4670833.5216966402,-47500.0,3215.3847029026902,-200.94909140560083,856.86625759398009,-2292.5361565103967,1219.8636654296579,1529.110861393204,2823.0894538323414,1203.9756486144006,647.55148438617687,-647.55148438617687,-1203.9756486144006,4978.1051165898343,0.0
412154.6038362722,4670833.5216966402,-47500.0,2820.4965938525984,32.360761264489881,678.09080349084013,-1653.1133993895833,635.86098069133925,775.94391444395433,2104.9852730822863,1327.7014167893512,284.45334632480478,-284.45334632480478,-1327.7014167893512,3715.4121818471476,0.0
417154.6038362722,4670833.5216966402,-47500.0,2374.3475729002357,219.24349805748764,550.65173533724976,-1126.7014866321192,243.85290207181126,285.47163054138866,1594.6056855198747,1341.106722654227,33.731761554222885,-33.731761554222885,-1341.106722654227,2830.3284998476606,0.0
422154.6038362722,4670833.5216966402,-47500.0,1937.9639051295521,355.65026361373015,459.10779723716013,-715.68683992058595,-8.6034365719392625,-24.133644373696526,1254.7130863416596,1287.7525453931444,-131.94790046164428,131.94790046164428,-1287.7525453931444,2247.5516862017525,0.0
427154.6038362722,4670833.5216966402,-47500.0,1541.4198264217323,446.87421525615548,392.28425959868025,-405.03043373484513,-163.30058241728565,-211.80304098988108,1048.7622847834045,1197.4413427685165,-236.26517508924206,236.26517508924206,-1197.4413427685165,1884.370481203938,0.0
432154.6038362722,4670833.5216966402,-47500.0,1196.14077700437,501.31166452024843,342.36028617392253,-175.9253761859145,-251.36644033969975,-317.97690054499947,935.12983606238834,1089.352062698661,-297.03635395867576,297.03635395867576,-1089.352062698661,1662.863182879104,0.0
437154.6038362722,4670833.5216966402,-47500.0,903.63096356374808,527.51920081768162,303.9706043117659,-10.937690928533398,-295.1399471150786,-370.18993518102548,867.36953099568723,975.53855940553262,-327.20859076653136,327.20859076653136,-975.53855940553262,1521.4675536681621,0.0
442154.6038362722,4670833.5216966402,-47500.0,660.6088216234109,533.02603505058255,273.48742553601619,104.60760644014675,-310.27154946220054,-387.29091131271377,816.64212007744686,863.43510602873266,-336.21443714264507,336.21443714264507,-863.43510602873266,1419.9564209299117,0.0
447154.6038362722,4670833.5216966402,-47500.0,461.76631351712041,523.98797670529063,248.4863875887001,182.59105580681677,-307.52115088657229,-382.23147629120297,771.14044210501788,757.45335790869899,-330.97906848892353,330.97906848892353,-757.45335790869899,1336.1247190349259,0.0
452154.6038362722,4670833.5216966402,-47500.0,301.18928928227558,505.21271552036745,227.36228840540213,232.44456690904934,-294.15740190975953,-363.8777402309446,726.9002760490248,659.9965636355173,-316.58451294423185,316.58451294423185,-659.9965636355173,1259.3893364463813,0.0
457154.6038362722,4670833.5216966402,-47500.0,173.07292045011252,480.33115343513856,209.05873455378665,261.55425808587131,-275.00030203352952,-338.2251497006506,683.00549259128832,572.13287631332184,-296.71961067554298,296.71961067554298,-572.13287631332184,1185.4879213495815,0.0
462154.6038362722,4670833.5216966402,-47500.0,72.067179804380956,452.00855421536625,192.88137059295545,275.63273935176579,-253.17749355970275,-309.24533247632564,639.63132634694693,494.06010971869313,-274.009050230323,274.009050230323,-494.06010971869313,1113.2004371725993,0.0
467154.6038362722,4670833.5216966402,-47500.0,-6.5747719171153136,422.14932515904582,178.37163184193091,279.04401380571414,-230.66350615337132,-279.49256009346317,597.26001206460501,425.43376098961801,-250.26979754091121,250.26979754091121,-425.43376098961801,1042.5968814185023,0.0
472154.6038362722,4670833.5216966402,-47500.0,-66.956948265630174,392.07506543119473,165.22236812763401,275.07984536703486,-208.65789118281694,-250.54086524417232,556.37442407549543,365.59602553649813,-226.71489856810069,226.71489856810069,-365.59602553649813,974.17881280469601,0.0
477154.6038362722,4670833.5216966402,-47500.0,-112.56081229360707,362.67163430347335,153.22285053367909,266.19152714952963,-187.84748052262998,-223.29855649028161,517.35357418831381,313.73294744128458,-204.11541103812868,204.11541103812868,-313.73294744128458,908.49438350560683,0.0
267154.6038362722,4675833.5216966402,-47500.0,-705.35063149325549,215.16173689377032,325.31336683735645,-541.04897571545393,92.057874216720919,-298.05189692287865,742.70130511748744,144.78524429701451,34.070771328016683,-34.070771328016683,-144.78524429701451,1360.4712611458328,0.0
272154.6038362722,4675833.5216966402,-47500.0,-751.95159659992407,237.44487331830075,365.43179280637679,-609.71397759956892,102.04387794646297,-347.84550954956933,823.47624922605928,180.33123694213822,26.361160769031088,-26.361160769031088,-180.33123694213822,1508.6213591884384,0.0
277154.6038362722,4675833.5216966402,-47500.0,-799.34177096723363,262.70177622394289,411.74573160167023,-688.68534479771563,113.06394728069441,-407.45354851819798,915.4655695288775,224.27096045262292,15.413937692208606,-15.413937692208606,-224.27096045262292,1677.4826198193662,0.0
282154.6038362722,4675833.5216966402,-47500.0,-846.17684223136814,291.49550347313425,465.3430178627471,-779.74794037250547,125.15557678077501,-479.29475192106509,1020.6101405708047,278.93304771700264,0.063402748690492672,-0.063402748690492672,-278.93304771700264,1870.6776462650066,0.0
287154.6038362722,4675833.5216966402,-47500.0,-890.2694357906222,324.57788886312136,527.50042341854942,-884.97871808963271,138.33034587520339,-566.6068363601546,1141.2735641287286,347.49348993084675,-21.407038359492987,21.407038359492987,-347.49348993084675,2092.5988721987228,0.0
292154.6038362722,4675833.5216966402,-47500.0,-928.09898935060642,362.99554419350642,599.7023382102193,-1006.691883371459,152.57597621932064,-673.80522682602532,1280.350819128761,434.37016975540399,-51.608193375455073,51.608193375455073,-434.37016975540399,2348.5640487729561,0.0
297154.6038362722,4675833.5216966402,-47500.0,-954.04382672958138,408.26845211857614,683.64906809606168,-1147.2205074622877,167.88435024041414,-806.98975674858389,1441.3996332599581,545.80951040250886,-94.618061193384023,94.618061193384023,-545.80951040250886,2644.9542608665679,0.0
302154.6038362722,4675833.5216966402,-47500.0,-959.21453749930743,462.68997768955182,781.24425028266376,-1308.3471061613509,184.34527205409438,-974.60632619581531,1628.7888540019105,690.727016330369,-156.91559260708544,156.91559260708544,-690.727016330369,2989.2698954719363,0.0
307154.6038362722,4675833.5216966402,-47500.0,-929.77537057575023,529.82100333202823,894.54559339430114,-1490.0388392815469,202.39153397974923,-1188.172669452144,1847.8394369113964,881.825640045912,-248.83920427744494,248.83920427744494,-881.825640045912,3389.9824286445,0.0
312154.6038362722,4675833.5216966402,-47500.0,-844.75585982646965,615.27335376700478,1025.6571832934098,-1687.910122328926,223.36753828754271,-1462.7202386196736,2104.888496801254,1136.8717757453655,-386.70594781675089,386.70594781675089,-1136.8717757453655,3855.9899343539355,0.0
317154.6038362722,4675833.5216966402,-47500.0,-673.73078608976346,727.86518914704902,1176.5381356284297,-1888.5711823063493,250.74452912542989,-1816.02963181531,2407.1124650563106,1479.62608501606,-595.50590486120541,595.50590486120541,-1479.62608501606,4395.4506911660237,0.0
322154.6038362722,4675833.5216966402,-47500.0,-375.64486269405108,881.10123489421539,1348.7020857138098,-2061.940903318356,292.52645256924524,-2264.6350007646215,2761.8312774459268,1939.0949851988396,-911.40163685606353,911.40163685606353,-1939.0949851988396,5013.9270758012053,0.0
327154.6038362722,4675833.5216966402,-47500.0,98.22550273964832,1094.5038818263301,1542.7815063815608,-2150.3219493269048,365.60120590177019,-2812.8290382607356,3175.1178649522299,2544.2699926962355,-1381.6667419182536,1381.6667419182536,-2544.2699926962355,5712.4972058643853,0.0
332154.6038362722,4675833.5216966402,-47500.0,791.70935799711128,1393.3130278546696,1757.894071118543,-2056.8365278800784,502.65143314118205,-3429.0609740482278,3650.3129644700557,3309.4897826248794,-2056.7644089531,2056.7644089531,-3309.4897826248794,6488.4610922708735,0.0
337154.6038362722,4675833.5216966402,-47500.0,1714.450384581286,1803.3073083711408,1990.5805509932441,-1642.5051393032402,760.84705271087319,-4004.6654924786694,4188.5940691779715,4204.4928276044502,-2965.4817694043759,2965.4817694043759,-4204.4928276044502,7345.0419031444062,0.0
342154.6038362722,4675833.5216966402,-47500.0,2792.8557892802683,2335.750993283802,2232.6741978052801,-752.11351173671153,1227.3888147204664,-4298.9647685084801,4794.9541231975545,5107.72799471907,-4063.1349097732295,4063.1349097732295,-5107.72799471907,8319.7768679080382,0.0
347154.6038362722,4675833.5216966402,-47500.0,3816.7421556301792,2959.0773062243106,2467.0937795159516,703.13167120808043,2009.3573968825494,-3901.3733383965496,5490.5262469816771,5759.6996760886914,-5154.8647816924977,5154.8647816924977,-5759.6996760886914,9530.9110201559761,0.0
352154.6038362722,4675833.5216966402,-47500.0,4433.6923591771774,3565.0374554876767,2661.7654097362411,2596.0022425353495,3189.1962378754074,-2284.9480088809987,6320.5251672189243,5768.8388954325219,-5834.6687346967392,5834.6687346967392,-5768.8388954325219,11190.799373394373,0.0
357154.6038362722,4675833.5216966402,-47500.0,4272.2710265226196,3959.1915172269128,2766.9947735556425,4431.3038539000127,4738.3301406850123,951.96176014158982,7332.5295087168315,4750.765155561664,-5540.2377019598543,5540.2377019598543,-4750.765155561664,13475.25877467132,0.0
362154.6038362722,4675833.5216966402,-47500.0,3222.7499225994711,3919.3186450211765,2727.7636168625741,5374.1738545915059,6426.4034975716795,5655.1871133875275,8542.1105846601731,2627.3454086788279,-3832.8679276052799,3832.8679276052799,-2627.3454086788279,16247.774639979545,0.0
367154.6038362722,4675833.5216966402,-47500.0,1706.2081215564549,3330.2686955089371,2515.9384577806591,4653.554934715854,7821.6004052506432,10774.794260487095,9919.2847890685225,-89.746099154324213,-839.52341550613778,839.52341550613778,89.746099154324213,18902.986444358936,0.0
372154.6038362722,4675833.5216966402,-47500.0,569.69204215593822,2310.3234833815154,2161.9681936087345,2210.2358613088741,8463.8641984484639,14627.330282492998,10964.400960664898,-2400.0068969207077,2537.3204331314373,-2537.3204331314373,2400.0068969207077,20575.424591332387,0.0
377154.6038362722,4675833.5216966402,-47500.0,488.52110727561535,1187.0820010289217,1750.7538888637596,-1039.4237424391772,8137.2436473464904,15880.343793212342,11142.754641888216,-3429.8613765922319,5059.8393285763204,-5059.8393285763204,3429.8613765922319,20620.045410644288,0.0
382154.6038362722,4675833.5216966402,-47500.0,1419.5834933759986,300.34237202282463,1375.7202591019145,-3781.157458912297,7004.051735461393,14445.076113173136,10377.476558794328,-3040.2172484335683,5985.2763833863555,-5985.2763833863555,3040.2172484335683,18988.654932713092,0.0
387154.6038362722,4675833.5216966402,-47500.0,2721.3636544547962,-188.59388353804354,1090.7737970498731,-5197.0172382387045,5468.5158212314891,11364.896372810483,8935.1806423746275,-1792.7163162542317,5457.4080644105561,-5457.4080644105561,1792.7163162542317,16196.024242467882,0.0
392154.6038362722,4675833.5216966402,-47500.0,3733.6239751644694,-318.55221586862217,899.41335315324773,-5291.6107701245028,3924.7246029911371,7937.8083013776131,7211.0830263788994,-407.86751866669738,4158.5094520324674,-4158.5094520324674,407.86751866669738,12966.946802201082,0.0
397154.6038362722,4675833.5216966402,-47500.0,4164.2378569708862,-224.09306102880268,776.58615255209952,-4557.390692685045,2608.6451092067587,5012.2997302564991,5539.106413432195,667.84266899370209,2745.3651210139997,-2745.3651210139997,-667.84266899370209,9896.6409481473256,0.0
402154.6038362722,4675833.5216966402,-47500.0,4066.5260700094468,-34.89147134512973,693.91316125936964,-3517.2887223127932,1597.1781074993837,2868.9854604100592,4113.3962467405227,1320.4052160430281,1575.4041270624004,-1575.4041270624004,-1320.4052160430281,7317.1255462162235,0.0
407154.6038362722,4675833.5216966402,-47500.0,3638.1476543799054,164.89467059443854,631.63892981977813,-2504.6672451295181,872.09156541988932,1440.9915654278964,3002.8394409383518,1622.4550457102371,739.28028402837958,-739.28028402837958,-1622.4550457102371,5333.3007151758648,0.0
412154.6038362722,4675833.5216966402,-47500.0,3067.7661820988642,334.34756971076359,579.30243636172747,-1661.7987211616487,378.46300919515545,545.85608204706443,2199.2230359383411,1693.3624256475186,193.22289469126633,-193.22289469126633,-1693.3624256475186,3914.9192995091576,0.0
417154.6038362722,4675833.5216966402,-47500.0,2480.2447595678609,460.21883961063924,532.38864992307231,-1015.3167488180613,57.375596336037368,9.4042138404585014,1660.0121712825242,1632.663462504715,-141.61601104665863,141.61601104665863,-1632.663462504715,2970.5620499817369,0.0
422154.6038362722,4675833.5216966402,-47500.0,1940.4132124512978,543.31879959735647,489.25028823176751,-542.2523364576042,-141.22682100599513,-297.19752285337006,1333.1633934453248,1506.1621722688319,-334.96343328115051,334.96343328115051,-1506.1621722688319,2386.036815632493,0.0
427154.6038362722,4675833.5216966402,-47500.0,1473.7440998298118,590.16749713717684,449.34082923790089,-206.72684115341229,-255.80812114165502,-459.68778433671639,1155.0645093866358,1352.6397802153119,-437.05615274016378,437.05615274016378,-1352.6397802153119,2043.6147716782673,0.0
432154.6038362722,4675833.5216966402,-47500.0,1084.5296602813294,608.7229930656697,412.44130463036117,24.957634459027869,-314.40558269162995,-532.87049763347704,1054.5486695604043,1193.5885813840673,-481.27756101549051,481.27756101549051,-1193.5885813840673,1841.3860336058622,0.0
437154.6038362722,4675833.5216966402,-47500.0,767.33890114507255,606.47648306712017,378.39599004185351,180.10930485875863,-336.80077425842666,-551.51248814897065,985.15252755314259,1040.4341632444462,-489.27866298581,489.27866298581,-1040.4341632444462,1708.4353132997041,0.0
442154.6038362722,4675833.5216966402,-47500.0,513.12823961096888,589.74838850775984,347.04830581063885,279.63954592186633,-336.61888154472484,-537.7817373548603,926.42676788167955,898.90953812385578,-475.13365051776418,475.13365051776418,-898.90953812385578,1604.8054059925071,0.0
447154.6038362722,4675833.5216966402,-47500.0,312.16226039619329,563.54702718973806,318.23644489150405,339.21016531994792,-323.04956101452677,-505.8777041439929,870.84584659719087,771.51301240162059,-448.07903146329807,448.07903146329807,-771.51301240162059,1511.6959436072837,0.0
452154.6038362722,4675833.5216966402,-47500.0,155.28203247188625,531.67065544431739,291.79889771535244,370.44405803740608,-302.16197142398875,-464.86662174283373,816.21766686092224,658.88312852395643,-414.20495236353099,414.20495236353099,-658.88312852395643,1421.7928776690737,0.0
457154.6038362722,4675833.5216966402,-47500.0,34.381749282241763,496.89739915939157,267.57785741163832,381.91752760633653,-277.87102099858475,-420.4529727895935,762.38437435077913,560.59443234198761,-377.50159285590536,377.50159285590536,-560.59443234198761,1333.1397971568585,0.0
462154.6038362722,4675833.5216966402,-47500.0,-57.475559528477106,461.19158870669014,245.42049523022823,379.92045660701615,-252.63003758834353,-376.12338185080881,709.84518048531208,475.64067335768743,-340.53123170935157,340.53123170935157,-475.64067335768743,1245.9442744764137,0.0
467154.6038362722,4675833.5216966402,-47500.0,-126.10266119475361,425.89132780145184,225.1785669815504,369.02932664781099,-227.91615513119484,-333.90374967572086,659.19830336025962,402.73450345368877,-304.87746491573222,304.87746491573222,-402.73450345368877,1161.0822268892568,0.0
472154.6038362722,4675833.5216966402,-47500.0,-176.2981021002131,391.86770980349462,206.70853370637957,352.54088505497009,-204.56599083145221,-294.86937297716662,610.93794835952963,340.49583954255451,-271.45639071785473,271.45639071785473,-340.49583954255451,1079.4649969274815,0.0
477154.6038362722,4675833.5216966402,-47500.0,-211.97853925819979,359.65211344879566,189.8719066855067,332.8007642759157,-183.00388093426514,-259.48914534040108,565.40088175257529,287.56599304900948,-240.73503276393686,240.73503276393686,-287.56599304900948,1001.8095789021523,0.0
482154.6038362722,4675833.5216966402,-47500.0,-236.31203308375643,329.5346055534265,174.53583784211878,311.45248991347592,-163.39503045405337,-227.85684253057212,522.77321871278002,242.67274076935325,-212.88522410146879,212.88522410146879,-242.67274076935325,928.58742365890282,0.0
267154.6038362722,4680833.5216966402,-47500.0,-612.6581809374195,280.71155778657629,304.44594502674573,-491.3406078944995,126.99280613705673,-277.93138280169131,708.32027806035796,211.44294079142188,-21.289745578125832,21.289745578125832,-211.44294079142188,1286.5332925986183,0.0
272154.6038362722,4680833.5216966402,-47500.0,-646.20506486744466,313.00684844761798,341.41653085330222,-550.92538863584502,143.81329674740013,-323.19937229123582,784.27924764638146,256.09176706747434,-37.838788822546334,37.838788822546334,-256.09176706747434,1423.8134366066708,0.0
277154.6038362722,4680833.5216966402,-47500.0,-678.3506029946941,350.12277572567785,384.04642919323805,-618.85268041745201,163.28863069449369,-377.10386814680379,870.68292042575922,310.59513842488059,-59.333604617082372,59.333604617082372,-310.59513842488059,1579.8976983864939,0.0
282154.6038362722,4680833.5216966402,-47500.0,-707.32382561272163,393.00276078304245,433.32233706691261,-696.41271587087704,185.91736252498617,-441.71583293893633,969.3472462060206,377.53114026502874,-87.332179824394927,87.332179824394927,-377.53114026502874,1758.0323819775197,0.0
287154.6038362722,4680833.5216966402,-47500.0,-730.41013972772782,442.84902643557609,490.39511876095946,-785.03928644848349,212.32576145962588,-519.80869311219021,1082.4963089722596,460.35432023187411,-124.04872551111234,124.04872551111234,-460.35432023187411,1962.158914660658,0.0
292154.6038362722,4680833.5216966402,-47500.0,-743.42865922750821,501.2243456797421,556.58632307713231,-886.19677181280258,243.32490842370422,-615.16998250781319,1212.8737477487634,563.77414063594381,-172.7263937072328,172.7263937072328,-563.77414063594381,2197.0625306128672,0.0
297154.6038362722,4680833.5216966402,-47500.0,-739.9176863219534,570.20476789633221,633.37318498195202,-1001.0712527466385,280.00965073834828,-733.03402011153776,1363.880618120535,694.29895511083328,-238.24224456282678,238.24224456282678,-694.29895511083328,2468.5156533515055,0.0
302154.6038362722,4680833.5216966402,-47500.0,-709.90302767260005,652.60924211981444,722.33079462615854,-1129.8544288631649,323.93635405286045,-880.6184876198206,1539.7366101532273,860.97776318532419,-328.06408012936373,328.06408012936373,-860.97776318532419,2783.3712993641548,0.0
307154.6038362722,4680833.5216966402,-47500.0,-638.13754249609337,752.33953014606618,824.99395596000295,-1270.2359084734039,377.44878781066575,-1067.623284151445,1745.6483998065405,1076.3051401979922,-453.68933519319694,453.68933519319694,-1076.3051401979922,3149.531831631416,0.0
312154.6038362722,4680833.5216966402,-47500.0,-501.83838797280276,874.8611274505256,942.57775871694605,-1414.462987159736,444.2783813164898,-1306.2344947643219,1987.9429977097652,1357.0548081830548,-632.61540731506068,632.61540731506068,-1357.0548081830548,3575.7077998412565,0.0
317154.6038362722,4680833.5216966402,-47500.0,-268.39071030306013,1027.8157551784134,1075.4634402293298,-1544.0464895581508,530.6344167011116,-1609.487162672742,2274.0921614352974,1724.3276122151424,-890.55368595991558,890.55368595991558,-1724.3276122151424,4070.9820343911615,0.0
322154.6038362722,4680833.5216966402,-47500.0,105.45683483212319,1221.6124068138513,1222.3206493926059,-1621.1531191294648,647.10719442515847,-1985.5306435035659,2612.5802442835329,2201.1179005878871,-1262.6775725646639,1262.6775725646639,-2201.1179005878871,4644.6342970946607,0.0
327154.6038362722,4680833.5216966402,-47500.0,669.34563363535074,1469.4653487974135,1378.7195377754169,-1576.6978819005255,811.73855058944605,-2423.3132752943043,3012.8661555669978,2804.0402868034435,-1790.6829876827926,1790.6829876827926,-2804.0402868034435,5307.944449324501,0.0
332154.6038362722,4680833.5216966402,-47500.0,1463.5362590358388,1785.5565140025435,1535.1320321044288,-1298.7473523143094,1054.2501958660732,-2863.2417884911624,3486.5641226693538,3523.887664859129,-2508.9676458879198,2508.9676458879198,-3523.887664859129,6082.3608839383887,0.0
337154.6038362722,4680833.5216966402,-47500.0,2483.3709570094798,2178.7887506899269,1674.4179823584238,-633.31827738528955,1419.9118034506164,-3147.8890540637153,4052.1979564781691,4289.6441048888573,-3409.3796585332602,3409.3796585332602,-4289.6441048888573,7021.6205865215034,0.0
342154.6038362722,4680833.5216966402,-47500.0,3621.6593988182417,2638.9470874764697,1769.3953631163176,576.97677781366826,1967.8145204058555,-2961.1647770654745,4745.2264886769763,4918.6328563005363,-4375.4793263951478,4375.4793263951478,-4918.6328563005363,8251.002452568182,0.0
347154.6038362722,4680833.5216966402,-47500.0,4611.537594361107,3115.3114974920618,1782.1927996466941,2383.5256667726908,2752.8049526198106,-1800.695313841378,5626.8428929650372,5081.1352025981823,-5097.9708492808504,5097.9708492808504,-5081.1352025981823,9993.6175306196819,0.0
352154.6038362722,4680833.5216966402,-47500.0,5038.5994983372793,3499.6858997839877,1669.2207664329972,4549.0753065782183,3779.9110515615785,917.90609721322892,6767.4495642274778,4350.2440254301446,-5037.7618544931893,5037.7618544931893,-4350.2440254301446,12495.499019166149,0.0
357154.6038362722,4680833.5216966402,-47500.0,4517.4922417817334,3642.5590947785349,1397.9590555602124,6393.912247313915,4940.4214096964533,5518.200952379234,8188.3083079159605,2421.9218039849402,-3569.2438261537372,3569.2438261537372,-2421.9218039849402,15796.486702046379,0.0
362154.6038362722,4680833.5216966402,-47500.0,3036.546308744209,3425.2932407826493,977.92943152598525,6907.6775186063442,5982.701095942236,11538.22116285903,9977.5959013766787,-522.06870487174251,-399.71600339728292,399.71600339728292,522.06870487174251,19486.973463854163,0.0
367154.6038362722,4680833.5216966402,-47500.0,1221.2833434652737,2856.0303174601759,488.1926023599238,5314.732640049403,6587.4176454008129,17439.340044874807,11865.699090055812,-3597.963616991095,3920.6935610581845,-3920.6935610581845,3597.963616991095,22690.178111785317,0.0
372154.6038362722,4680833.5216966402,-47500.0,97.699100729774415,2099.0530890901646,62.165771469700729,1822.6501650630767,6538.1917935081556,21139.3000278527,12966.481389427032,-5562.8745203786302,7959.3173892177592,-7959.3173892177592,5562.8745203786302,24391.104907298748,0.0
377154.6038362722,4680833.5216966402,-47500.0,329.87899364683409,1385.4898840155902,-182.68112164350816,-2243.2895410460446,5857.3059373610076,21311.776958133018,12903.495896929406,-5656.9856803255552,10205.029047282926,-10205.029047282926,5656.9856803255552,23979.931884518443,0.0
382154.6038362722,4680833.5216966402,-47500.0,1671.6127797006291,876.73826485744917,-213.97008540548364,-5307.8184344615383,4778.4495315695958,18297.367700991181,11738.989649735333,-4147.6198012502946,10105.263807711679,-10105.263807711679,4147.6198012502946,21601.989430956015,0.0
387154.6038362722,4680833.5216966402,-47500.0,3265.0119290653356,603.92070773693422,-87.522325274624407,-6587.5805357017425,3590.4790976664672,13670.46364677995,9870.8470195798127,-1988.6477559433447,8273.5223089473911,-8273.5223089473911,1988.6477559433447,18009.857793742874,0.0
392154.6038362722,4680833.5216966402,-47500.0,4366.2351130175657,509.52044685811978,105.89041089666227,-6301.5174180851336,2502.6455803558974,9053.1493264371693,7784.5600947510275,-62.478825685856464,5801.0969693199631,-5801.0969693199631,62.478825685856464,14098.988447207732,0.0
397154.6038362722,4680833.5216966402,-47500.0,4723.7037369110303,516.47359505661041,292.5420246442194,-5148.3829606612744,1611.5029718399373,5358.8923975124508,5850.0045250667918,1229.0888846037192,3528.9442660979626,-3528.9442660979626,-1229.0888846037192,10533.84470003901,0.0
402154.6038362722,4680833.5216966402,-47500.0,4472.9864028848524,565.75203679173137,434.68564716827558,-3763.8025848669117,933.48645866749825,2787.3149556807689,4259.356588176498,1894.0618742891377,1816.5222110440329,-1816.5222110440329,-1894.0618742891377,7642.9810704271222,0.0
407154.6038362722,4680833.5216966402,-47500.0,3878.0100463506724,622.118100461886,523.94321931041134,-2511.8634715886346,445.66769876336565,1157.2149796745809,3064.1986140054669,2113.1693399997412,678.22495283449416,-678.22495283449416,-2113.1693399997412,5496.5523543783102,0.0
412154.6038362722,4680833.5216966402,-47500.0,3163.1698533868162,667.83508895345926,567.45304797994766,-1523.2660568792542,111.88875824764538,192.1625316009445,2238.7927474279759,2073.0095582496838,-13.625167794245954,13.625167794245954,-2073.0095582496838,4023.5958354102722,0.0
417154.6038362722,4680833.5216966402,-47500.0,2465.6211164335764,695.85145463712718,577.21276587102454,-800.21620737745047,-104.50743522921239,-344.69815508206784,1725.9159351049475,1906.1245666245882,-402.41337296472693,402.41337296472693,-1906.1245666245882,3092.471699905213,0.0
422154.6038362722,4680833.5216966402,-47500.0,1849.6990956219699,705.1308152366945,564.58839282986548,-296.44208743428089,-235.48097647630971,-619.48930746695589,1442.632292386189,1690.7625128903153,-600.21883221625944,600.21883221625944,-1690.7625128903153,2548.8892578146497,0.0
427154.6038362722,4680833.5216966402,-47500.0,1335.1765720786454,697.74688236229724,538.43526341394443,41.793800357885203,-306.73239235925462,-738.46369778682515,1287.4952748529888,1467.9881716328628,-682.67828993937292,682.67828993937292,-1467.9881716328628,2242.916048758696,0.0
432154.6038362722,4680833.5216966402,-47500.0,919.52229081697726,677.09887345487959,504.99055512698885,260.49609448953828,-337.82394931513613,-766.91589240957524,1188.3720668949916,1257.3770419820164,-697.49456714642815,697.49456714642815,-1257.3770419820164,2058.680771693123,0.0
437154.6038362722,4680833.5216966402,-47500.0,591.1333415908224,646.84873792253302,468.38102208583365,394.91036356662102,-343.02472792685268,-744.46334861780019,1110.6533814563788,1067.1519102346683,-673.94648490960083,673.94648490960083,-1067.1519102346683,1926.4058259137785,0.0
442154.6038362722,4680833.5216966402,-47500.0,336.01055583418389,610.34511712912058,431.21222316509932,470.80325966118386,-332.37806265160702,-695.10026171472157,1040.3316687522138,899.81594447648183,-629.88119454431364,629.88119454431364,-899.81594447648183,1812.2837769211346,0.0
447154.6038362722,4680833.5216966402,-47500.0,140.69864767428481,570.36765199897536,395.05510183456255,506.64627758613341,-312.7303321925649,-633.31785139092483,972.55788124951027,755.07137119305855,-576.16637176543088,576.16637176543088,-755.07137119305855,1702.9693913567201,0.0
452154.6038362722,4680833.5216966402,-47500.0,-6.6292797512280499,529.06736586765817,360.80061840124614,515.56983150051792,-288.60597535177664,-567.76078146206237,906.24155652897798,631.30288693160685,-519.37899679169266,519.37899679169266,-631.30288693160685,1594.711132511919,0.0
457154.6038362722,4680833.5216966402,-47500.0,-115.92400453963226,488.0124951479354,328.90289703369075,506.85847001233378,-262.8966278629901,-503.43615868371955,841.66637562861945,526.34088900233655,-463.41916081758643,463.41916081758643,-526.34088900233655,1487.5958778442143,0.0
462154.6038362722,4680833.5216966402,-47500.0,-195.3556493600714,448.28058269290153,299.5408782026546,487.03811904122296,-237.37660017936153,-443.0787469247075,779.47626620480219,437.86370864321208,-410.49683678264336,410.49683678264336,-437.86370864321208,1382.9007153215009,0.0
467154.6038362722,4680833.5216966402,-47500.0,-251.53073831761887,410.56170137491273,272.72470133774857,460.65718006879376,-213.07398695613142,-388.01253036252723,720.27532002426847,363.61133800395078,-361.75169311177615,361.75169311177615,-363.61133800395078,1281.9991356346618,0.0
472154.6038362722,4680833.5216966402,-47500.0,-289.73458681127596,375.25406051070229,248.36435113658894,430.84743213532926,-190.53037298657082,-338.70128013781073,664.49711973402884,301.49480367655536,-317.65104502316677,317.65104502316677,-301.49480367655536,1185.9755300861475,0.0
477154.6038362722,4680833.5216966402,-47500.0,-314.16118008234866,342.54492387564142,226.31411974829555,399.72911071896254,-169.97841064235357,-295.10185636354993,612.38828818298248,249.64551896717344,-278.24950460626985,278.24950460626985,-249.64551896717344,1095.5431778743741,0.0
482154.6038362722,4680833.5216966402,-47500.0,-328.1165364744918,312.47501557319589,206.40106211498389,368.70408677784258,-151.46099943285617,-256.88964410438939,564.03504302198928,206.42921424612416,-243.35894893618922,243.35894893618922,-206.42921424612416,1011.0794359860943,0.0
267154.6038362722,4685833.5216966402,-47500.0,-507.76916367984387,333.16742766903337,274.31911258939135,-434.59913078019429,155.40434352378344,-254.5730767676686,668.94445407216563,268.35446081914864,-72.490968474733407,72.490968474733407,-268.35446081914864,1204.0892770454525,0.0
272154.6038362722,4685833.5216966402,-47500.0,-525.92870375544521,372.8429927094038,306.12696879460253,-483.40084721800588,177.51413491694674,-294.41273213142478,739.09168230974706,319.9294111809304,-96.847784827500718,96.847784827500718,-319.9294111809304,1328.8644562410159,0.0
277154.6038362722,4685833.5216966402,-47500.0,-539.97714068965149,418.556413273695,342.53161340167162,-538.08346288416055,203.47041891876947,-341.40580349600617,818.6725519290909,382.22796070489699,-127.55176826535012,127.55176826535012,-382.22796070489699,1470.163875256248,0.0
282154.6038362722,4685833.5216966402,-47500.0,-547.59711777001746,471.45444704210553,384.25946298170044,-599.27075996267047,234.09447070512994,-397.14772703228397,909.30784069959759,457.87920293269769,-166.43949542026348,166.43949542026348,-457.87920293269769,1630.7603543208861,0.0
287154.6038362722,4685833.5216966402,-47500.0,-545.40975886181877,532.95356222094415,432.12360296624558,-667.51590304814454,270.4365676018723,-463.75438428412514,1012.9885837895281,550.33393105038931,-216.05348615125061,216.05348615125061,-550.33393105038931,1814.0223187903184,0.0
292154.6038362722,4685833.5216966402,-47500.0,-528.43095519230576,604.81341096617336,487.00083479999114,-743.10668638055358,313.86410102510587,-544.08812496262294,1132.1831349292729,664.18318953570656,-280.00894667384682,280.00894667384682,-664.18318953570656,2024.0548671019842,0.0
297154.6038362722,4685833.5216966402,-47500.0,-489.24048906628781,689.22732140516302,549.77285217265489,-825.63931139317526,366.19334217290361,-642.05472436081016,1269.975070503483,805.58986258721291,-363.5687757394652,363.5687757394652,-805.58986258721291,2265.8581936666019,0.0
302154.6038362722,4685833.5216966402,-47500.0,-416.75202027928054,788.92585378198157,621.2013757584989,-913.13422102863728,429.88797809199468,-762.91892385591666,1430.2372653778239,982.82162236014221,-474.51431147534242,474.51431147534242,-982.82162236014221,2545.49587249776,0.0
307154.6038362722,4685833.5216966402,-47500.0,-294.5028133979236,907.27650572610742,701.68575302926013,-1000.2913111344824,508.35757630784468,-913.43379236092881,1617.8480882433471,1206.7732165204056,-624.37410316259138,624.37410316259138,-1206.7732165204056,2870.2824865056036,0.0
312154.6038362722,4685833.5216966402,-47500.0,-98.558809027423507,1048.3310622677709,790.82053823089154,-1075.2336310295975,606.39769064166126,-1101.2165484147135,1838.965552474878,1491.1117439000043,-829.92021550396498,829.92021550396498,-1491.1117439000043,3249.0909284516697,0.0
317154.6038362722,4685833.5216966402,-47500.0,204.35483113360678,1216.7065372897237,886.62995216820491,-1113.8465280003718,730.80836668585243,-1332.0379317643312,2101.4239931871134,1851.1267895001747,-1114.3720214618161,1114.3720214618161,-1851.1267895001747,3693.1793735007022,0.0
322154.6038362722,4685833.5216966402,-47500.0,656.69584810561901,1417.0518888525544,984.32248768232637,-1070.9130625870021,891.17196044771254,-1602.2889493755508,2415.4919526880135,2299.3223291702275,-1506.6043650252941,1506.6043650252941,-2299.3223291702275,4218.7308574368481,0.0
327154.6038362722,4685833.5216966402,-47500.0,1303.8981062346643,1652.6184120654764,1074.4327304953463,-868.57237250025184,1100.5712029838903,-1881.8376193841091,2795.694400757317,2834.2024814421093,-2034.3622438162349,2034.3622438162349,-2834.2024814421093,4853.9693130343849,0.0
332154.6038362722,4685833.5216966402,-47500.0,2175.0809923114916,1922.1268475544348,1140.4232640112316,-387.01289170133856,1375.4833103294495,-2080.9089711060733,3265.1793955744429,3417.3074615845653,-2703.9190245443624,2703.9190245443624,-3417.3074615845653,5655.9162897364813,0.0
337154.6038362722,4685833.5216966402,-47500.0,3242.4664643696278,2213.9789248065294,1156.4390971451119,527.88927627602061,1732.8869680506664,-1997.8484860373997,3864.1450353695045,3935.4006189572633,-3455.7883352178646,3455.7883352178646,-3935.4006189572633,6740.2352771581964,0.0
342154.6038362722,4685833.5216966402,-47500.0,4359.9625633437599,2497.9068710622073,1087.2031907780438,2011.0715815863887,2180.7551901815832,-1262.5782596536237,4659.3214268088268,4157.0202955094164,-4091.9455239615554,4091.9455239615554,-4157.0202955094164,8309.1286286646773,0.0
347154.6038362722,4685833.5216966402,-47500.0,5212.4921240054409,2718.5165375238489,893.86210692134898,4046.6105490699929,2697.4941695642765,665.58106852463118,5738.0023079337843,3723.9195155163084,-4200.9748949864552,4200.9748949864552,-3723.9195155163084,10621.399648262353,0.0
352154.6038362722,4685833.5216966402,-47500.0,5358.9050279919975,2803.6852953604925,550.30335516954574,6272.7840931227465,3203.2239496871748,4332.7887217512261,7158.9114008898005,2257.5517553661748,-3173.6536491118432,3173.6536491118432,-2257.5517553661748,13843.725137899693,0.0
357154.6038362722,4685833.5216966402,-47500.0,4461.7281532300476,2703.4890529331692,70.03929183697592,7867.5611455262497,3548.8186660351284,9871.4752670041908,8978.9966550225163,-358.2416150714547,-452.17272821216329,452.17272821216329,358.2416150714547,17824.552648517059,0.0
362154.6038362722,4685833.5216966402,-47500.0,2655.5456611989384,2447.3713656450709,-469.47364107193795,7775.0218396754399,3569.4459535717683,16476.49016411895,11346.813354606837,-3631.2268139616585,3958.1771037696312,-3958.1771037696312,3631.2268139616585,21943.55435685928,0.0
367154.6038362722,4685833.5216966402,-47500.0,733.49273160522637,2154.5109101601465,-933.11627378079015,5378.3618581428273,3205.1740081616131,22287.86354706129,13249.322837069487,-6419.9473460171694,9048.5158800312529,-9048.5158800312529,6419.9473460171694,25195.568999700045,0.0
372154.6038362722,4685833.5216966402,-47500.0,-232.03941823646883,1948.3920864388251,-1183.9133964494586,1194.4957104478335,2578.5146451454525,25178.674291021285,14139.652360627551,-7511.0180312813236,13045.229093626545,-13045.229093626545,7511.0180312813236,26578.442409816591,0.0
377154.6038362722,4685833.5216966402,-47500.0,298.95519909706769,1852.9818113593449,-1159.4951385080537,-3207.56929858081,1913.8971609758514,24120.584297066322,13753.832684773162,-6491.853807321324,14473.972579207399,-14473.972579207399,6491.853807321324,25622.1561835137,0.0
382154.6038362722,4685833.5216966402,-47500.0,1898.4843098584197,1795.8851706584985,-903.68715809472906,-6232.5752321216651,1372.4268729367434,19875.906048835277,12254.93644593367,-4043.4828993512847,13154.73248630044,-13154.73248630044,4043.4828993512847,22655.615967273759,0.0
387154.6038362722,4685833.5216966402,-47500.0,3608.2838593904153,1701.2926871957677,-527.0742343067609,-7249.3948739224179,980.3573529050683,14298.683211448735,10113.231074211832,-1333.8800471281984,10121.88583057225,-10121.88583057225,1333.8800471281984,18569.386756429139,0.0
392154.6038362722,4685833.5216966402,-47500.0,4692.4346956194386,1552.2162906298629,-140.74894328356297,-6647.7295774582444,686.06712060116331,9074.686276203076,7842.1724775716129,778.12620834973632,6711.9223637352661,-6711.9223637352661,-778.12620834973632,14316.463801140293,0.0
397154.6038362722,4685833.5216966402,-47500.0,4956.7687616825642,1377.5488382031808,184.06924990208807,-5226.5473590763531,439.90973939063838,5052.4459827666096,5806.9247156900374,2025.2465889710043,3816.7233951951152,-3816.7233951951152,-2025.2465889710043,10557.856288948113,0.0
402154.6038362722,4685833.5216966402,-47500.0,4589.8990347193348,1212.0506390414691,420.15975393902409,-3652.6285076835111,223.84625684619243,2337.88045285422,4182.8764878660777,2544.0902432239786,1741.4494452585091,-1741.4494452585091,-2544.0902432239786,7592.7985460724103,0.0
407154.6038362722,4685833.5216966402,-47500.0,3887.1764866555818,1074.1604185426122,569.9293284437515,-2284.9195013176186,40.900722495681677,673.72423544421088,3007.6043444172328,2596.0451947553652,420.41416682560475,-420.41416682560475,-2596.0451947553652,5458.9047010547029,0.0
412154.6038362722,4685833.5216966402,-47500.0,3086.3859238066843,965.77554736572222,649.46341500086908,-1237.2568036121027,-102.20954233386286,-267.35331715252875,2246.4861163833471,2405.7501234884285,-342.75535658987178,342.75535658987178,-2405.7501234884285,4054.0444441162167,0.0
417154.6038362722,4685833.5216966402,-47500.0,2327.5125814957241,880.41621416459611,677.8521819282937,-494.45722859545555,-203.75504136282277,-753.44285560135665,1812.0110502941088,2118.2260950757477,-739.96545018067218,739.96545018067218,-2118.2260950757477,3211.6266899708289,0.0
422154.6038362722,4685833.5216966402,-47500.0,1672.6175046270714,810.11433656032648,671.99301561005302,4.034239295344789,-267.69727527049821,-968.75334039212123,1574.2210426517145,1812.017622625433,-914.20726645024342,914.20726645024342,-1812.017622625433,2742.0720250496252,0.0
427154.6038362722,4685833.5216966402,-47500.0,1137.2399776628927,748.66007438127656,644.93967848652551,322.53536520140335,-301.22525642973642,-1029.2995458028142,1430.0851598057236,1523.8662181725924,-959.46511604785496,959.46511604785496,-1523.8662181725924,2476.9816122443431,0.0
432154.6038362722,4685833.5216966402,-47500.0,714.30551364763244,692.25502936705391,605.99415234227399,514.35429402103296,-312.25235053115512,-1005.0574637582472,1325.3618140133833,1267.9806671592628,-933.64842613216069,933.64842613216069,-1267.9806671592628,2303.378071881215,0.0
437154.6038362722,4685833.5216966402,-47500.0,388.13957621237176,639.02731295466856,561.42156347646835,619.46479286788906,-307.88547171691653,-937.36926206662451,1235.9484388685223,1047.6226456021427,-871.27363032678545,871.27363032678545,-1047.6226456021427,2162.7170719021124,0.0
442154.6038362722,4685833.5216966402,-47500.0,141.43674143332461,588.31102934319222,515.24915683256859,666.48541928279042,-293.80566487461658,-850.35048464866213,1152.3605421474656,861.19916855379836,-792.53645084099878,792.53645084099878,-861.19916855379836,2030.7691529312976,0.0
447154.6038362722,4685833.5216966402,-47500.0,-41.768189859215283,540.05687220494315,469.9438744482876,675.45282433762884,-274.21219030275012,-757.83617569801129,1071.5917568597622,705.22219557807887,-709.05604277250939,709.05604277250939,-705.22219557807887,1900.077374639111,0.0
452154.6038362722,4685833.5216966402,-47500.0,-175.1082472713687,494.45146056845124,426.92476734877181,660.22750304524959,-252.02869470840676,-667.51358919481254,993.26569443329572,575.67886891540002,-627.33483872705983,627.33483872705983,-575.67886891540002,1770.0435702650875,0.0
457154.6038362722,4685833.5216966402,-47500.0,-269.77288216706359,451.71006222111436,386.92793275293144,630.31279631100426,-229.18590335813025,-583.38729973966065,917.90025817554283,468.64244052488391,-550.81631193428359,550.81631193428359,-468.64244052488391,1642.2995908866369,0.0
462154.6038362722,4685833.5216966402,-47500.0,-334.7403191702619,411.98293824702313,350.25605265994079,592.16042924611611,-206.88946123565904,-507.26695118171443,846.16427248503044,380.52759746656386,-481.11552242145137,481.11552242145137,-380.52759746656386,1518.7913216672048,0.0
467154.6038362722,4685833.5216966402,-47500.0,-377.11261393737777,375.3278917503535,316.94601230485387,550.09275220371978,-185.83985759623428,-439.67756347361694,778.59533262625973,308.18077072800793,-418.76619328001402,418.76619328001402,-308.18077072800793,1401.1010090533848,0.0
472154.6038362722,4685833.5216966402,-47500.0,-402.45238932426207,341.71464161446931,286.87848697157051,506.95045859938057,-166.39866361727823,-380.41896002944947,715.52268576580821,248.89087627864251,-363.67870181915998,363.67870181915998,-248.89087627864251,1290.2878527530229,0.0
477154.6038362722,4685833.5216966402,-47500.0,-415.08397115963135,311.04276085471741,259.84901296279747,464.54864526399564,-148.70829707646811,-328.90965294369659,657.07704400899763,200.36342532708116,-315.42330675612698,315.42330675612698,-200.36342532708116,1186.9289186705987,0.0
267154.6038362722,4690833.5216966402,-47500.0,-395.12602856872985,370.38856172758568,237.57008781210521,-373.03259543518169,176.21949023973298,-228.82404623702075,625.67111124719474,313.54652081927605,-117.51244712124937,117.51244712124937,-313.54652081927605,1115.7620914027361,0.0
272154.6038362722,4690833.5216966402,-47500.0,-396.65885358187404,414.2616985075025,262.89417827222235,-409.98850515675667,201.74615988417889,-262.61425706091109,689.29106646436117,369.4172407809333,-148.1151243022573,148.1151243022573,-369.4172407809333,1227.1035662739939,0.0
277154.6038362722,4690833.5216966402,-47500.0,-391.16710568169913,464.59386282544739,291.44049585835063,-450.08252520625854,231.76300799511543,-301.87749893822701,761.17838132088423,436.16954319344705,-185.99532916340848,185.99532916340848,-436.16954319344705,1352.5470392889179,0.0
282154.6038362722,4690833.5216966402,-47500.0,-375.77194937031936,522.50185559095053,323.59302324905298,-493.18523380142256,267.2249492311883,-347.65362813484103,842.72019173183946,516.25209120997499,-233.09565498777613,233.09565498777613,-516.25209120997499,1494.3842036896435,0.0
287154.6038362722,4690833.5216966402,-47500.0,-346.43714151696508,589.30475818811237,359.72417643329607,-538.85541131236721,309.34035138638791,-401.28004182861906,935.62665501353752,612.78960276662792,-292.03551764891108,292.03551764891108,-612.78960276662792,1655.4182557308609,0.0
292154.6038362722,4690833.5216966402,-47500.0,-297.43189444730945,666.54023045345457,400.14098682748005,-586.06047296315762,359.65347465867671,-464.50864551442129,1042.0337688122227,729.80014955571232,-366.4274675789095,366.4274675789095,-729.80014955571232,1839.1168837035564,0.0
297154.6038362722,4690833.5216966402,-47500.0,-220.53673363655597,755.95330652849771,444.98631844653232,-632.63892806283332,420.15215741742105,-539.63166129285446,1164.6454916098778,872.45359881068293,-461.34936467698799,461.34936467698799,-872.45359881068293,2049.8251844660167,0.0
302154.6038362722,4690833.5216966402,-47500.0,-103.91264203468617,859.42190347892608,494.06477762685654,-674.2795735944419,493.39820346497152,-629.5267203782887,1306.9356405624151,1047.3105518994507,-584.01028159519353,584.01028159519353,-1047.3105518994507,2293.088467606357,0.0
307154.6038362722,4690833.5216966402,-47500.0,69.386476630165618,978.7515182931495,546.54506226688648,-702.63311653459459,582.65811619648264,-737.36103985665159,1473.4506975933809,1262.3521536982948,-744.57948825427002,744.57948825427002,-1262.3521536982948,2576.2149190785613,0.0
312154.6038362722,4690833.5216966402,-47500.0,323.05781893987881,1115.2210873219417,600.46989754857998,-701.96765822884993,691.96308870349446,-865.31280963503309,1670.3087430192704,1526.3271822477352,-956.9230516352502,956.9230516352502,-1526.3271822477352,2909.4190704078296,0.0
317154.6038362722,4690833.5216966402,-47500.0,688.56993758075123,1268.6916023914837,651.98678078581588,-643.63937491984041,825.91789156905702,-1010.9041300668948,1906.1199596345523,1846.3803779427294,-1238.413973125776,1238.413973125776,-1846.3803779427294,3308.3756557110441,0.0
322154.6038362722,4690833.5216966402,-47500.0,1203.5326827173992,1436.0231043483343,694.22923614464071,-477.95229099356374,988.864206730614,-1158.2220417385299,2193.8399938409425,2221.9773558958536,-1606.7261795531724,1606.7261795531724,-2221.9773558958536,3799.9717186025819,0.0
327154.6038362722,4690833.5216966402,-47500.0,1903.2181041626629,1608.5723258522305,715.89762359862436,-124.67973746886881,1182.6339147675437,-1259.5829368259629,2554.53560805707,2631.9520970020317,-2069.2519090867431,2069.2519090867431,-2631.9520970020317,4434.2756701522976,0.0
332154.6038362722,4690833.5216966402,-47500.0,2798.4551726637028,1768.9029347650858,699.95897235253858,531.58655468383211,1401.6391169515898,-1202.5450101395102,3024.2526539182222,3011.2108138166536,-2597.8352486535109,2597.8352486535109,-3011.2108138166536,5305.1095464829859,0.0
337154.6038362722,4690833.5216966402,-47500.0,3833.3695229061414,1888.0126357965028,623.70333480637225,1625.1395301526209,1623.8185797960741,-762.4392843515335,3663.2333829133968,3217.7841036153332,-3080.93465655004,3080.93465655004,-3217.7841036153332,6572.6535320767289,0.0
342154.6038362722,4690833.5216966402,-47500.0,4828.1702423782262,1926.9433209927706,462.67088722732865,3243.5186216046532,1797.2841288068787,438.31326164638449,4559.7391314859133,3006.4201669890449,-3256.4746774861519,3256.4746774861519,-3006.4201669890449,8459.0645265621006,0.0
347154.6038362722,4690833.5216966402,-47500.0,5446.7621787170783,1850.1108762111139,201.72276421771525,5288.4091095094309,1828.1324339861837,2898.1812481734632,5816.2615244071467,2056.0074899907218,-2666.9827002082288,2666.9827002082288,-2056.0074899907218,11172.960389595373,0.0
352154.6038362722,4690833.5216966402,-47500.0,5275.8259616926998,1657.2740407352712,-146.31362686190315,7300.866826269822,1587.1539272331556,7025.3029789624707,7562.8008896169376,121.98391629200046,-742.24140129636601,742.24140129636601,-121.98391629200046,14752.999352524637,0.0
357154.6038362722,4690833.5216966402,-47500.0,4085.1535379691145,1425.1128452099026,-523.95511797989388,8420.7500671540365,964.45509842896001,12709.012784474828,9794.5902202644156,-2675.2148483667493,2874.2859510232879,-2874.2859510232879,2675.2148483667493,18893.744760170488,0.0
362154.6038362722,4690833.5216966402,-47500.0,2159.8641942656604,1313.1841986544666,-835.36161149812779,7712.1346665060501,-20.326909646957162,18908.425856345617,12002.882289629366,-5615.1752834089202,7828.8331922884354,-7828.8331922884354,5615.1752834089202,22874.813236116748,0.0
367154.6038362722,4690833.5216966402,-47500.0,360.60806804516096,1476.0176053608554,-987.80131226050037,4831.042847154542,-1128.009110786119,23760.527812725228,13615.012186454909,-7546.0371133793942,12816.301438325261,-12816.301438325261,7546.0371133793942,25715.69843005775,0.0
372154.6038362722,4690833.5216966402,-47500.0,-347.59162897379076,1913.2475413801556,-942.82971018522949,525.04323054582892,-1972.5271735298302,25473.794882709812,14164.172200100853,-7558.0067280289813,16074.596711011571,-16074.596711011571,7558.0067280289813,26569.707042364429,0.0
377154.6038362722,4690833.5216966402,-47500.0,384.32960565550388,2421.7218174509489,-731.3568093945903,-3650.9418313521624,-2270.2295928767298,23471.483897387527,13489.643872187815,-5661.4233189149772,16460.213467356174,-16460.213467356174,5661.4233189149772,25160.755941279753,0.0
382154.6038362722,4690833.5216966402,-47500.0,2030.4487913319415,2742.9634909206306,-424.12276964277936,-6315.0324218296337,-2034.0626889289263,18746.345237461701,11818.019932194813,-2775.5046615674328,14174.005769395975,-14174.005769395975,2775.5046615674328,21933.972787661492,0.0
387154.6038362722,4690833.5216966402,-47500.0,3670.7048853152014,2752.9867058812147,-92.828183582022376,-7034.8611600733375,-1512.3097146605051,13083.96756076989,9622.0621384449696,-31.499432265401083,10445.634874195548,-10445.634874195548,31.499432265401083,17783.888348025928,0.0
392154.6038362722,4690833.5216966402,-47500.0,4652.4835394091524,2503.3976806033575,210.2759535928744,-6267.3612469087984,-976.33866543741692,7978.1634752851587,7381.8105982810775,1885.2372072096168,6614.8214558419149,-6614.8214558419149,-1885.2372072096168,13603.928782484683,0.0
397154.6038362722,4690833.5216966402,-47500.0,4832.5733128651382,2128.3914208339988,455.48043917369944,-4784.3134254867346,-578.65527944633402,4128.3080984955541,5426.7505587650203,2864.78448613408,3497.0193562479162,-3497.0193562479162,-2864.78448613408,9991.7935349013242,0.0
402154.6038362722,4690833.5216966402,-47500.0,4410.4389765649748,1745.9251493881843,631.81553843548761,-3205.1801663894989,-346.63964369912645,1574.0871653300853,3913.3582064570874,3131.1772916713057,1322.9525531598779,-1322.9525531598779,-3131.1772916713057,7206.258527014119,0.0
407154.6038362722,4690833.5216966402,-47500.0,3674.7391732558935,1419.3146039100411,741.65786898524118,-1857.1819244256317,-241.32882173709385,43.853438416833114,2877.8351553862244,2977.5204159037285,-23.415290981067301,23.415290981067301,-2977.5204159037285,5263.2754845799418,0.0
412154.6038362722,4690833.5216966402,-47500.0,2855.3954425952925,1165.4149217456672,795.19228032077274,-839.60468394538532,-210.24722748744989,-786.21851814246975,2260.1258251243503,2631.8572227086688,-769.65985273196918,769.65985273196918,-2631.8572227086688,4040.4604065107578,0.0
417154.6038362722,4690833.5216966402,-47500.0,2087.8187952681697,976.32675797061881,805.63323555512557,-131.67663349880451,-212.55487828291768,-1178.9505745708821,1914.418724885852,2232.2797916056893,-1127.4661005493754,1127.4661005493754,-2232.2797916056893,3342.8093220519413,0.0
422154.6038362722,4690833.5216966402,-47500.0,1431.8270609006245,836.31468855287665,785.91752751351714,329.71874459588253,-223.87684826680015,-1315.2971343299139,1709.2141345995756,1848.2277561021206,-1252.6303071366992,1252.6303071366992,-1848.2277561021206,2960.450880912359,0.0
427154.6038362722,4690833.5216966402,-47500.0,901.51817520969598,730.4388345116563,746.97301488056905,610.74640808934976,-232.61544562769063,-1309.4899837357791,1568.5100285364838,1508.0511086280549,-1247.1711548073727,1247.1711548073727,-1508.0511086280549,2729.9682616461791,0.0
432154.6038362722,4690833.5216966402,-47500.0,488.44857939983154,647.39662752112531,697.17813027955572,766.28033348367637,-234.86341118151495,-1230.2080385361999,1455.2380712641577,1219.0368765930846,-1173.6196056051097,1173.6196056051097,-1219.0368765930846,2557.4380371630164,0.0
437154.6038362722,4690833.5216966402,-47500.0,175.54161451236283,579.57048313661289,642.50610751082354,837.4892938128213,-230.5324612666644,-1117.4980875686795,1353.2658163588826,979.02646886581249,-1068.7620011033539,1068.7620011033539,-979.02646886581249,2401.0659240021314,0.0
442154.6038362722,4690833.5216966402,-47500.0,-55.825622868459796,522.15854854080908,586.95855770402943,853.74171979951541,-221.02830325772408,-994.09774727550837,1256.4890408099643,782.31987832399693,-953.56267490760513,953.56267490760513,-782.31987832399693,2246.7235066244707,0.0
447154.6038362722,4690833.5216966402,-47500.0,-222.73250938481704,472.2415681662539,533.05150359032677,835.41196339314922,-208.06618730474926,-872.45731146437322,1163.2316413310691,622.39633321118754,-839.53943280928843,839.53943280928843,-622.39633321118754,2092.1409531156019,0.0
452154.6038362722,4690833.5216966402,-47500.0,-339.66946129471899,428.06254645206405,482.24566556202882,796.3830790167433,-193.16567796801561,-758.96741685019617,1073.5785674614367,493.05376037777415,-732.65246837510358,732.65246837510358,-493.05376037777415,1939.1524379770335,0.0
457154.6038362722,4690833.5216966402,-47500.0,-418.43062308805344,388.54413960396766,435.28558701001322,745.97351802204878,-177.49602777741904,-656.48534422393232,988.15092225685248,388.8171377441879,-635.62773102285882,635.62773102285882,-388.8171377441879,1790.4123060418206,0.0
462154.6038362722,4690833.5216966402,-47500.0,-468.38291913647322,352.99183616329549,392.44964361299907,690.33525544615031,-161.87896143588051,-565.84785057902945,907.57657619344059,305.02851092105874,-549.33955523987913,549.33955523987913,-305.02851092105874,1648.1946180773105,0.0
467154.6038362722,4690833.5216966402,-47500.0,-496.84861919665639,320.92147002840579,353.72590223747449,633.44216084061395,-146.8487351380349,-486.77893324912748,832.29525052776751,237.80628110754327,-473.63430298612053,473.63430298612053,-237.80628110754327,1514.0758676446671,0.0
472154.6038362722,4690833.5216966402,-47500.0,-509.48802233146938,291.96358442811697,318.93165873938102,577.78109443968526,-132.72284841024535,-418.43250004214968,762.51931956104045,183.95685790450824,-407.82094035581923,407.82094035581923,-183.95685790450824,1388.9583636786031,0.0
477154.6038362722,4690833.5216966402,-47500.0,-510.63927090062731,265.81308739761727,287.79264298384845,524.83323748928694,-119.66517903697108,-359.71369999446318,698.26082138618904,140.87537364747936,-350.96206680875503,350.96206680875503,-140.87537364747936,1273.2034777158494,0.0
267154.6038362722,4695833.5216966402,-47500.0,-279.61830515564219,391.34241373520189,197.24449839883641,-309.09324905236855,188.88418680337838,-201.63819666860132,579.7249711909069,345.88633673075771,-154.781441794741,154.781441794741,-345.88633673075771,1024.3961586444602,0.0
272154.6038362722,4695833.5216966402,-47500.0,-264.50667648793831,436.02485653468489,215.58538161801275,-333.86591687246704,215.81097719790915,-229.08166277173328,636.42089205456784,403.23970121384195,-189.69291162576053,189.69291162576053,-403.23970121384195,1122.1459618261176,0.0
277154.6038362722,4695833.5216966402,-47500.0,-239.60948397488212,486.75012124847285,235.72262114946966,-359.00430592026896,247.27952873091334,-260.24857921279738,700.16248121332842,470.90486238898364,-232.2401542788794,232.2401542788794,-470.90486238898364,1231.6849514399892,0.0
282154.6038362722,4695833.5216966402,-47500.0,-201.58906463661137,544.36758213405744,257.7114684246859,-383.64044003942251,284.17396864966884,-295.6026889835548,772.10195306741343,550.93112287226745,-284.27102003397647,284.27102003397647,-550.93112287226745,1354.9128154687623,0.0
287154.6038362722,4695833.5216966402,-47500.0,-145.91822727208498,609.78837716037788,281.51689165887757,-406.37328417414363,327.57412909461488,-335.67405558604878,853.67390442604869,645.82387432426299,-348.19660517860501,348.19660517860501,-645.82387432426299,1494.2135468216222,0.0
292154.6038362722,4695833.5216966402,-47500.0,-66.391731535211321,683.92359678480273,306.9460714918369,-424.92518796088945,378.79497946576737,-381.06451973377574,946.70104109907811,758.63523082084555,-427.21582213302588,427.21582213302588,-758.63523082084555,1652.6569336778759,0.0
297154.6038362722,4695833.5216966402,-47500.0,45.561777702463715,767.54888745962012,333.5414947176701,-435.53580524724623,439.41532929440444,-432.40301129390463,1053.5542618152854,893.02005111203414,-525.62262459574833,525.62262459574833,-893.02005111203414,1834.3261741975557,0.0
302154.6038362722,4695833.5216966402,-47500.0,201.79844484098078,861.03428650012063,360.41649845738061,-431.89138107421127,511.26066279248164,-490.13409592025755,1177.4076551793114,1053.1558535190054,-649.17695368468094,649.17695368468094,-1053.1558535190054,2044.8903000964774,0.0
307154.6038362722,4695833.5216966402,-47500.0,418.5486238938206,963.83816607417737,386.01077680997241,-403.26579312496443,596.25665289228266,-553.8522563036488,1322.6713623783539,1243.2861135562166,-805.4146131195439,805.4146131195439,-1243.2861135562166,2292.6775332284183,0.0
312154.6038362722,4695833.5216966402,-47500.0,717.35904862596919,1073.614898470227,407.74947868208886,-331.42219460650301,695.97141349323272,-620.53669383933129,1495.7777717480672,1466.3734878256237,-1003.4977270111859,1003.4977270111859,-1466.3734878256237,2590.7904714850179,0.0
317154.6038362722,4695833.5216966402,-47500.0,1124.9684381960178,1184.751457551371,421.61814763407853,-185.8272216777109,810.48147964649388,-680.37542108731122,1706.6791266580803,1720.8691440778468,-1252.5958991710802,1252.5958991710802,-1720.8691440778468,2961.3042662826833,0.0
322154.6038362722,4695833.5216966402,-47500.0,1670.0224061195236,1286.2125975069428,421.7549040473026,82.740309969670093,935.90053188065212,-707.82312138481836,1971.7122669321482,1993.9217284008757,-1556.6047167925869,1556.6047167925869,-1993.9217284008757,3443.171451413994,0.0
327154.6038362722,4695833.5216966402,-47500.0,2372.7143439402535,1358.9412331402661,400.36467582917402,548.16016827934982,1059.5504502165002,-644.45166827450726,2318.7430837815259,2248.8213380073321,-1901.1656238655976,1901.1656238655976,-2248.8213380073321,4105.1299103739047,0.0
332154.6038362722,4695833.5216966402,-47500.0,3221.841171234832,1374.1154646415973,348.64239356825999,1307.6854381054638,1151.6693200780135,-370.69525160912031,2795.0311162554426,2405.483262307916,-2227.2989522950943,2227.2989522950943,-2405.483262307916,5060.9532818071821,0.0
337154.6038362722,4695833.5216966402,-47500.0,4135.9304979010094,1295.7252604205748,259.89255988880393,2458.048048811871,1153.7774894158158,329.63462168270871,3476.126582012329,2318.6755219358447,-2388.1988088995331,2388.1988088995331,-2318.6755219358447,6474.1432747686631,0.0
342154.6038362722,4695833.5216966402,-47500.0,4918.9301938978979,1093.7714183736343,136.14826918805008,4025.9667031485915,968.44030079705806,1787.3537105494729,4472.7967375848475,1774.2565205419398,-2100.7821953418115,2100.7821953418115,-1774.2565205419398,8528.3051123976111,0.0
347154.6038362722,4695833.5216966402,-47500.0,5253.5405197197451,774.31137467492852,-2.1409492848906719,5842.8277244222518,464.94433795534792,4387.1448277850841,5912.4462497324839,546.89374370959888,-941.54923930949997,941.54923930949997,-546.89374370959888,11343.827876629217,0.0
352154.6038362722,4695833.5216966402,-47500.0,4807.4650418576093,420.99693907387001,-109.29199402164481,7419.2909301725531,-474.61221605208806,8349.4750818746907,7784.061562781736,-1436.6574699429971,1518.7631643738455,-1518.7631643738455,1436.6574699429971,14848.591075030914,0.0
357154.6038362722,4695833.5216966402,-47500.0,3483.8106297038971,214.19979995767355,-123.74061765999673,7982.7204693570529,-1855.3260951889058,13371.780453279567,9847.37331372876,-3870.2266121737157,5381.969341187636,-5381.969341187636,3870.2266121737157,18657.265576774273,0.0
362154.6038362722,4695833.5216966402,-47500.0,1666.7697978248875,371.73004481764445,-3.325445770765393,6835.3270335162661,-3459.5717920308452,18387.661367223041,11706.626844112905,-5986.2767519841955,10045.912818011762,-10045.912818011762,5986.2767519841955,22063.283120914788,0.0
367154.6038362722,4695833.5216966402,-47500.0,162.94255898613966,997.9909279572064,232.35415002564406,3903.6570771568577,-4844.8505569802428,21830.181963959989,12907.878446322715,-6857.2720441757519,14187.339016474049,-14187.339016474049,6857.2720441757519,24229.969624501606,0.0
372154.6038362722,4695833.5216966402,-47500.0,-270.76805694267392,1946.8721101752146,500.71993861297597,4.5688261225947624,-5539.6030603702875,22435.286740679832,13113.021775458839,-5987.1096756252236,16359.398722952494,-16359.398722952494,5987.1096756252236,24537.222160610832,0.0
377154.6038362722,4695833.5216966402,-47500.0,530.41941566219612,2862.0370821508295,713.69794961249318,-3535.0213498583407,-5335.968493713669,20022.422329213015,12262.446265333896,-3697.2304876859416,15858.773817681664,-15858.773817681664,3697.2304876859416,22888.422374500329,0.0
382154.6038362722,4695833.5216966402,-47500.0,2040.5863850713527,3403.9149147323656,837.46736701952864,-5663.9176267680396,-4417.3652776949148,15572.198357226631,10603.060515831719,-912.71546648316325,13123.25800716563,-13123.25800716563,912.71546648316325,19757.816289346818,0.0
387154.6038362722,4695833.5216966402,-47500.0,3476.4820605713776,3453.109325602783,894.30538444933802,-6124.4231185513472,-3199.834737402241,10551.337796653192,8555.8429291831144,1449.7051493872596,9325.8820953762588,-9325.8820953762588,-1449.7051493872596,15937.507403311489,0.0
392154.6038362722,4695833.5216966402,-47500.0,4306.9492374689853,3116.8141144575843,921.95012334721923,-5342.5426393366079,-2063.9224585706838,6123.8235904697167,6529.3062078763505,2929.0701172830841,5619.330907497234,-5619.330907497234,-2929.0701172830841,12184.439809412144,0.0
397154.6038362722,4695833.5216966402,-47500.0,4424.0943873931983,2594.6990609363656,942.17222091122198,-3971.9435237630969,-1206.3871034376809,2816.8765740475937,4806.9175141385467,3537.6736960105864,2669.8155369313808,-2669.8155369313808,-3537.6736960105864,9000.1793865848304,0.0
402154.6038362722,4695833.5216966402,-47500.0,4003.9455123573734,2055.4066357819183,957.41988515559626,-2534.7024726225254,-653.06971579666367,641.35754819635497,3541.9177286937979,3529.9550104551035,642.82389277152583,-642.82389277152583,-3529.9550104551035,6600.8972994478854,0.0
407154.6038362722,4695833.5216966402,-47500.0,3300.1176721052543,1591.4216972096563,961.59901186541094,-1311.6065959256584,-340.71097480164099,-638.31650742855902,2749.5216241513695,3186.3750790116492,-588.35333419843937,588.35333419843937,-3186.3750790116492,4987.6736097474168,0.0
412154.6038362722,4695833.5216966402,-47500.0,2519.1255523115124,1230.9605333451641,949.45712467973897,-391.37617369134352,-186.63515889948178,-1301.1548616738244,2289.1544081403504,2712.985848269318,-1243.2904962077871,1243.2904962077871,-2712.985848269318,4021.3981826254812,0.0
417154.6038362722,4695833.5216966402,-47500.0,1786.4697136892469,966.4762374165424,919.96398022226379,242.40528404319119,-122.89338959271737,-1577.1659077794602,2013.9231528496043,2229.3164579757986,-1525.0838742120932,1525.0838742120932,-2229.3164579757986,3489.1382176883394,0.0
422154.6038362722,4695833.5216966402,-47500.0,1160.0121945806416,777.42829658525955,875.67571752293122,645.82365934402662,-104.2680608827621,-1627.7374037873847,1831.184404151571,1791.570940694824,-1584.7291657838946,1584.7291657838946,-1791.570940694824,3186.9735654894175,0.0
427154.6038362722,4695833.5216966402,-47500.0,654.89122560709882,642.63579021685928,820.88905067409178,879.67068160934957,-104.58503852950811,-1556.3958263844213,1690.77995995426,1418.9345705558894,-1522.3080294003603,1522.3080294003603,-1418.9345705558894,2979.5356076352705,0.0
432154.6038362722,4695833.5216966402,-47500.0,264.11903265608714,544.98745924349214,760.09922171256062,995.57771743314413,-110.3896533544939,-1425.9347941297924,1568.9005108325823,1112.2246340992624,-1399.6521498642928,1399.6521498642928,-1112.2246340992624,2800.2907161836497,0.0
437154.6038362722,4695833.5216966402,-47500.0,-28.370448164182907,472.17654739617115,697.14295022227395,1032.9339847012534,-115.64915910123966,-1272.8829020355231,1455.5553391583335,864.61660293188606,-1253.095446970121,1253.095446970121,-864.61660293188606,2624.4857608318989,0.0
442154.6038362722,4695833.5216966402,-47500.0,-240.69923080430064,415.90991774388698,634.89998718730419,1020.1114379190991,-118.23145527584371,-1117.6058382447757,1347.2183851650661,667.02513719410376,-1103.0286871604046,1103.0286871604046,-667.02513719410376,2446.6751267485538,0.0
447154.6038362722,4695833.5216966402,-47500.0,-389.78228462167499,370.80396849459322,575.31555157216962,976.84105836770311,-117.84700373737954,-970.78643093572612,1243.1736850628117,510.49434282642903,-960.23478282054077,960.23478282054077,-510.49434282642903,2268.592372783166,0.0
452154.6038362722,4695833.5216966402,-47500.0,-490.10694520767032,333.43050957694078,519.56310743222309,916.50303319251987,-114.9519828552104,-837.42528517695382,1143.7976832721131,387.10195601774069,-829.85294182556311,829.85294182556311,-387.10195601774069,2093.7630214202763,0.0
457154.6038362722,4695833.5216966402,-47500.0,-553.51069009537878,301.61790825515209,468.23846876707182,847.96868036440583,-110.21173887773112,-719.26635166581138,1049.7471951403188,290.18635866734303,-713.78697124484461,713.78697124484461,-290.18635866734303,1925.4401079498452,0.0
462154.6038362722,4695833.5216966402,-47500.0,-589.39207579590345,273.98048108077967,421.53553778099024,776.97441435677263,-104.2650652145896,-616.25463544900629,961.59207708328859,214.29374781065576,-612.147424634858,612.147424634858,-214.29374781065576,1765.9925213702327,0.0
467154.6038362722,4695833.5216966402,-47500.0,-605.07219142169049,249.61657750278189,379.38606063745698,707.10922295535738,-97.638949486211857,-527.40436247941045,879.68100598264527,155.02660579572773,-524.10645157441093,524.10645157441093,-155.02660579572773,1616.8690011274018,0.0
472154.6038362722,4695833.5216966402,-47500.0,-606.17608660823623,227.92093259158045,341.56297259009369,640.5107038248791,-90.733089940993992,-451.30912995508629,804.12643539509975,108.87189287342159,-448.39874206771736,448.39874206771736,-108.87189287342159,1478.7571995792532,0.0
477154.6038362722,4695833.5216966402,-47500.0,-596.9790022696867,208.46991604114709,307.75247237578014,578.34911681475762,-83.832773394536204,-386.43401183488692,734.84083308883987,73.039644920045674,-383.60894058494466,383.60894058494466,-73.039644920045674,1351.7794112446597,0.0
267154.6038362722,4700833.5216966402,-47500.0,-166.14902131442241,396.17435811640667,156.46661374990492,-245.27280524701024,193.40024500375844,-174.00050768387638,532.37572615107092,365.15066790110063,-183.29817650329753,183.29817650329753,-365.15066790110063,932.85855490424922,0.0
272154.6038362722,4700833.5216966402,-47500.0,-135.56880527497501,438.43870760486942,168.15008772885676,-258.25170599473205,219.7631418839886,-195.13143264128064,582.07672131663389,421.27815757969489,-220.4053053078764,220.4053053078764,-421.27815757969489,1017.613883215419,0.0
277154.6038362722,4700833.5216966402,-47500.0,-92.927415936048675,485.58276893781573,180.40608539728191,-269.04162567431962,250.16430920511601,-218.29735191854999,637.64562993193385,486.50835641600042,-264.91397705593624,264.91397705593624,-486.50835641600042,1112.1893892984399,0.0
282154.6038362722,4700833.5216966402,-47500.0,-34.632260704365443,538.00044169508556,193.06304661173959,-276.14748639806101,285.2357696039457,-243.42565145980265,700.03351607946854,562.32852178381017,-318.3862136491361,318.3862136491361,-562.32852178381017,1218.2631774700603,0.0
287154.6038362722,4700833.5216966402,-47500.0,44.037639299216416,595.96304094547213,205.83340119671703,-277.38181938761113,325.68087470890941,-270.3033885376226,770.45309612936512,650.42440620022205,-382.76442729364373,382.76442729364373,-650.42440620022205,1338.0542412760281,0.0
292154.6038362722,4700833.5216966402,-47500.0,149.32533097150153,659.47746742568995,218.262120349192,-269.49718004654392,372.24536756319577,-298.48927336816109,850.49878887521459,752.64444995704093,-460.47853481496963,460.47853481496963,-752.64444995704093,1474.6113803818657,0.0
297154.6038362722,4700833.5216966402,-47500.0,289.50990942250166,728.03641433437997,229.65961746811087,-247.5800980260079,425.63466927479215,-327.13341503287199,942.34198830338323,870.86837114624211,-554.55726927815556,554.55726927815556,-870.86837114624211,1632.3045536033687,0.0
302154.6038362722,4700833.5216966402,-47500.0,475.51716059523244,800.18936038861898,239.02298704771013,-204.04912837478972,486.31316149635273,-354.57994262424154,1049.062471582027,1006.6587530783471,-668.67557797137817,668.67557797137817,-1006.6587530783471,1817.6898023171927,0.0
307154.6038362722,4700833.5216966402,-47500.0,721.48862407364413,872.83104805963364,244.96571958955633,-127.02849073954702,554.05522427479036,-377.47735981245859,1175.2360470913579,1160.450891661276,-806.94540947965834,806.94540947965834,-1160.450891661276,2041.068409449811,0.0
312154.6038362722,4700833.5216966402,-47500.0,1044.9001435975531,940.08020365053028,245.71064347195195,2.1687430323704016,626.9967441086759,-388.83025296927701,1328.0091849355545,1329.8187378972534,-972.98012239125421,972.98012239125421,-1329.8187378972534,2319.2899037847969,0.0
317154.6038362722,4700833.5216966402,-47500.0,1465.2653681370148,991.66017824166681,239.27527449341812,212.56821578236028,699.74012110287447,-373.93432671247945,1519.084368815335,1506.0366331324017,-1167.2183488767082,1167.2183488767082,-1506.0366331324017,2680.5784448110576,0.0
322154.6038362722,4700833.5216966402,-47500.0,1999.5058446763576,1010.917880813282,224.10829242886234,547.50713801326026,759.80926972606187,-302.48120014234598,1768.3022154051878,1667.8422743539988,-1380.5777593162609,1380.5777593162609,-1667.8422743539988,3171.9593504990567,0.0
327154.6038362722,4700833.5216966402,-47500.0,2650.8642292143113,973.28499107113964,200.62112236796858,1066.5668120412511,781.60598062338261,-114.76134093358127,2109.7796525268386,1771.4819119200715,-1581.4015579847496,1581.4015579847496,-1771.4819119200715,3868.2282933594156,0.0
332154.6038362722,4700833.5216966402,-47500.0,3387.8961878016612,847.44224899827668,174.19573278089777,1838.9600816607858,717.55251394933384,298.59038845492387,2601.796125640733,1738.0852370170512,-1692.5410847551004,1692.5410847551004,-1738.0852370170512,4877.2963777313662,0.0
337154.6038362722,4700833.5216966402,-47500.0,4113.9019977940288,603.730554332785,159.95849875467965,2916.0707112483988,488.62972751988218,1116.90805026107,3336.3944107605157,1445.5627287074901,-1559.8387638162969,1559.8387638162969,-1445.5627287074901,6331.3388108039317,0.0
342154.6038362722,4700833.5216966402,-47500.0,4640.8592842179005,235.82907486540486,188.06926572738234,4268.8226453431271,-17.183570330449282,2586.6368448082321,4405.4759002214605,744.1962558845446,-928.68537537914585,928.68537537914585,-744.1962558845446,8350.8334805866398,0.0
347154.6038362722,4700833.5216966402,-47500.0,4706.8939062988638,-203.05185951247989,304.63518701307373,5693.490059628899,-920.70411172043202,4949.2210153002497,5821.2424962454634,-474.02948430513771,525.5377782991261,-525.5377782991261,474.02948430513771,10973.589040147983,0.0
352154.6038362722,4700833.5216966402,-47500.0,4089.2609193475755,-566.96413113603842,559.08622519334904,6745.8160745389787,-2281.9991171789966,8257.8035458884897,7491.2860647454982,-2140.369254886738,3048.5502096656451,-3048.5502096656451,2140.369254886738,14059.145532968225,0.0
357154.6038362722,4700833.5216966402,-47500.0,2806.9980383389056,-631.88825159104931,971.38850968587371,6828.4751365379707,-3995.1944302421584,12133.079373000246,9199.01040627355,-3877.7948483283744,6536.7630611574095,-6536.7630611574095,3877.7948483283744,17217.174597768939,0.0
362154.6038362722,4700833.5216966402,-47500.0,1264.6005174119093,-199.40852071432448,1491.5375228821563,5506.5170981696428,-5722.0560139411773,15673.143732228275,10617.826709166317,-5039.8997419518328,10320.119019841119,-10320.119019841119,5039.8997419518328,19841.825630195137,0.0
367154.6038362722,4700833.5216966402,-47500.0,126.02770628158206,746.09680847375182,1990.3643632241099,2885.6439679496434,-6970.6508810086516,17747.76140935607,11405.980987199226,-5023.8148908820203,13288.462024785842,-13288.462024785842,5023.8148908820203,21297.16252362802,0.0
372154.6038362722,4700833.5216966402,-47500.0,-80.556437792482512,1957.6014311202994,2314.8574896350551,-298.26323043108164,-7332.0359868082533,17591.021870239736,11346.923698717444,-3679.3463732812224,14427.252099047146,-14427.252099047146,3679.3463732812224,21183.288013685458,0.0
377154.6038362722,4700833.5216966402,-47500.0,680.27324092600099,3031.1280542742288,2380.4940805076471,-3038.9343907224043,-6719.8423335377047,15252.901322858414,10450.455631087338,-1453.4711818758778,13401.016362082453,-13401.016362082453,1453.4711818758778,19524.676070697966,0.0
382154.6038362722,4700833.5216966402,-47500.0,1951.2379118739016,3637.4856149190791,2219.3359255268288,-4610.3360402891321,-5411.4913691792335,11539.870379345068,8946.6309719767032,881.24313777029784,10708.526907567835,-10708.526907567835,-881.24313777029784,16755.75341035103,0.0
387154.6038362722,4700833.5216966402,-47500.0,3122.1325761924822,3686.8860229397733,1941.3028642663576,-4874.352872482953,-3860.1289603472105,7521.7687420943394,7178.6086429544694,2673.9358928902302,7312.1009030887226,-7312.1009030887226,-2673.9358928902302,13516.859786713367,0.0
392154.6038362722,4700833.5216966402,-47500.0,3786.751146537511,3310.0880070717822,1655.9430499939444,-4173.3038597489476,-2451.380845705291,4023.1399992419329,5475.3933828278577,3657.5680221084649,4098.935867408175,-4098.935867408175,-3657.5680221084649,10404.189993862759,0.0
397154.6038362722,4700833.5216966402,-47500.0,3859.8402635972243,2723.864826679333,1424.1686974046763,-3009.3154381322579,-1380.5365531797588,1417.7300597210283,4101.1169283083836,3911.9613433375694,1571.2542811314784,-1571.2542811314784,-3911.9613433375694,7816.1448531707365,0.0
402154.6038362722,4700833.5216966402,-47500.0,3477.7840244770928,2111.9257599153698,1257.6999767894656,-1790.7705442138749,-671.32163093252518,-288.17387325271358,3201.2669489965128,3677.789107044362,-152.31477903767063,152.31477903767063,-3677.789107044362,5924.8422664224254,0.0
407154.6038362722,4700833.5216966402,-47500.0,2845.82850788006,1579.4639924618932,1141.6647678933582,-747.21621948247844,-255.24640665771935,-1272.0602942491912,2653.7688812241622,3197.2170022927762,-1181.2272904777387,1181.2272904777387,-3197.2170022927762,4711.4958758615148,0.0
412154.6038362722,4700833.5216966402,-47500.0,2138.8213763092153,1162.947894545156,1055.3867420278925,41.405983870272159,-40.579610128160546,-1750.612643970157,2316.1314164406908,2642.9269833198382,-1701.7769397503075,1701.7769397503075,-2642.9269833198382,4019.3291699735728,0.0
417154.6038362722,4700833.5216966402,-47500.0,1468.7734487960026,858.11477396489749,982.81408882985727,582.54718001923061,51.537709062735786,-1908.4967138973452,2093.8429743596407,2112.620376677824,-1889.8954780675137,1889.8954780675137,-2112.620376677824,3638.1353957438268,0.0
422154.6038362722,4700833.5216966402,-47500.0,891.18333872710912,643.93947466394161,914.77464946168107,920.27981439032669,76.714153746481486,-1879.4298473416532,1927.9614685244289,1649.6736757606022,-1879.7649045521371,1879.7649045521371,-1649.6736757606022,3397.7331426890396,0.0
427154.6038362722,4700833.5216966402,-47500.0,423.43687983702046,496.7134332161823,847.50281157638574,1105.8696847371561,69.580315369920271,-1751.4850349277472,1787.6429661143713,1265.7384320995095,-1762.4553926498436,1762.4553926498436,-1265.7384320995095,3202.4939940562294,0.0
432154.6038362722,4700833.5216966402,-47500.0,61.726251372366683,396.15371086747086,780.41253030606015,1184.712185582405,49.739682648453147,-1579.0655913567125,1659.1447676831335,956.91030373531464,-1595.2489657381625,1595.2489657381625,-956.91030373531464,3012.7706030569248,0.0
437154.6038362722,4700833.5216966402,-47500.0,-207.35994846771143,326.96746470349825,714.34471875293798,1192.4701031427887,27.318114928238103,-1394.0318709343246,1537.1711506469394,713.17307989143546,-1412.0937950320763,1412.0937950320763,-713.17307989143546,2817.8728932203162,0.0
442154.6038362722,4700833.5216966402,-47500.0,-400.11486262201038,278.41944836049913,650.51155682775311,1155.3548263334505,6.9648931339908247,-1213.9719917287082,1420.1187980155046,523.18317659259105,-1231.9314867663729,1231.9314867663729,-523.18317659259105,2618.8682903922158,0.0
447154.6038362722,4700833.5216966402,-47500.0,-532.3140217009784,243.29917486239805,589.98272860227587,1091.8166681923976,-9.6111860840688763,-1047.7687647560965,1307.9351213606301,376.37389158609562,-1064.4837889641842,1064.4837889641842,-376.37389158609562,2420.2868160461207,0.0
452154.6038362722,4700833.5216966402,-47500.0,-617.77143181753615,216.89962147310862,533.50379228458303,1014.4238643459018,-22.159969012863954,-899.16372673210219,1201.173084402177,263.69403308205608,-914.00853509467208,914.00853509467208,-263.69403308205608,2226.7359750060077,0.0
457154.6038362722,4700833.5216966402,-47500.0,-667.93078327636329,196.20469923291225,481.4829853627034,931.48248762285164,-31.076386381101187,-768.97181725807161,1100.5045596519856,177.71676007358985,-781.64242229057788,781.64242229057788,-177.71676007358985,2041.7796671923691,0.0
462154.6038362722,4700833.5216966402,-47500.0,-691.95107494108663,179.30478404337077,434.04855447676374,848.29985308819209,-36.978881625226883,-656.43193231321482,1006.4642968796456,112.49337325510754,-666.82832648829685,666.82832648829685,-112.49337325510754,1867.7615173130525,0.0
467154.6038362722,4700833.5216966402,-47500.0,-696.99355131922971,164.99906128014536,391.12367992948936,768.11839663381795,-40.50624918199459,-560.0136308536562,919.34804947234193,63.326752615930928,-568.16594704754721,568.16594704754721,-63.326752615930928,1705.9678627798814,0.0
472154.6038362722,4700833.5216966402,-47500.0,-688.56223231700699,152.53411121040787,352.49575384071386,692.78601248607356,-42.230368370601433,-477.88757817240662,839.20769827643426,26.540826664457057,-483.90777270001706,483.90777270001706,-26.540826664457057,1556.8778255980542,0.0
477154.6038362722,4700833.5216966402,-47500.0,-670.83026440463289,141.43585639538318,317.87189966416219,623.22755886010191,-42.627620398041046,-408.18981119774514,765.89310401838645,-0.72502964182194773,-412.23879742134113,412.23879742134113,0.72502964182194773,1420.4014254043923,0.0
267154.6038362722,4705833.5216966402,-47500.0,-59.211390523031532,386.13327845480524,118.11280454918175,-183.89918000709332,190.29742367069096,-146.85042770668483,484.85484710393143,371.98475630745565,-202.69076570431096,202.69076570431096,-371.98475630745565,843.83515718515889,0.0
272154.6038362722,4705833.5216966402,-47500.0,-15.356323404650803,423.23962626541976,124.17359272107474,-186.12067818338784,214.36582148364445,-162.00767657091612,527.79195173132223,424.53940331194099,-239.91510462060023,239.91510462060023,-424.53940331194099,916.84985052834281,0.0
277154.6038362722,4705833.5216966402,-47500.0,42.098249854916695,463.51527520385702,129.9809247168192,-184.02176671074267,241.52192488107991,-177.68704621762879,575.54845580356209,484.52157475207161,-283.77478577402223,283.77478577402223,-484.52157475207161,998.23546527434405,0.0
282154.6038362722,4705833.5216966402,-47500.0,116.73640990422913,506.79963320718622,135.29531914523633,-175.66410601085963,272.01911442499465,-193.36949578753968,628.93410542225115,552.77986062269713,-335.39981026047502,335.39981026047502,-552.77986062269713,1089.6603911917859,0.0
287154.6038362722,4705833.5216966402,-47500.0,213.10962721310946,552.62468846025365,139.80331038102346,-158.34607356222597,306.02214659216548,-208.23912518657963,689.02659451864008,630.11217032497723,-396.07989437045961,396.07989437045961,-630.11217032497723,1193.4706953401808,0.0
292154.6038362722,4705833.5216966402,-47500.0,336.99932116384713,600.01382748843594,143.1120786133279,-128.25801976203826,343.50430082171255,-221.03393570527629,757.3168382240126,717.13016830494712,-467.25195400761027,467.25195400761027,-717.13016830494712,1313.0817193346393,0.0
297154.6038362722,4705833.5216966402,-47500.0,495.71226531052548,647.1612561904044,144.76454293545765,-79.949627191671809,384.05461644294314,-229.78655517594527,835.95219179070341,813.99605473765109,-550.42562396379617,550.42562396379617,-813.99605473765109,1453.6242403631968,0.0
302154.6038362722,4705833.5216966402,-47500.0,698.33851175583322,690.93078656699959,144.30415790170588,-5.5091038500734166,426.51510878297989,-231.34215955985897,928.1546683265185,919.91781088586333,-646.95013971204924,646.95013971204924,-919.91781088586333,1623.0150048782471,0.0
307154.6038362722,4705833.5216966402,-47500.0,955.77995547953026,726.10128758942881,141.44972323687011,106.66664643721218,468.3017157195705,-220.42678872284674,1038.9597739721762,1032.2009788781052,-757.40711125065866,757.40711125065866,-1032.2009788781052,1833.7113654610639,0.0
312154.6038362722,4705833.5216966402,-47500.0,1280.110920913869,744.30516940567054,136.4936156256266,273.58991642141825,504.15391205037122,-187.8394018941469,1176.5505303356392,1144.5249031127723,-880.18134887857366,880.18134887857366,-1144.5249031127723,2105.4699433954679,0.0
317154.6038362722,4705833.5216966402,-47500.0,1682.3943371627138,732.72613554610678,131.12138776476147,519.72927314260858,523.91231652264776,-117.04922339823787,1354.7335480779795,1243.9813869016907,-1008.3671380500538,1008.3671380500538,-1243.9813869016907,2469.3091015798259,0.0
322154.6038362722,4705833.5216966402,-47500.0,2167.4506559661686,672.9726577759302,129.95139485988832,878.52045922059551,508.80566286441706,21.794913822972969,1597.7506475610953,1306.4444814011781,-1123.631352323705,1123.631352323705,-1306.4444814011781,2972.2366338220245,0.0
327154.6038362722,4705833.5216966402,-47500.0,2723.5776543854645,541.33790404145213,143.12972784937764,1390.8803834871032,425.8874811519081,281.22953190658978,1949.0850181391575,1290.4964075386324,-1185.3253160325139,1185.3253160325139,-1290.4964075386324,3680.8082056499466,0.0
332154.6038362722,4705833.5216966402,-47500.0,3305.9709963763657,313.04029520490661,190.03893367718047,2095.5180717910016,221.31524198849996,748.0986333658924,2473.1160259200265,1132.3332058802303,-1114.1948869540229,1114.1948869540229,-1132.3332058802303,4679.3267776995845,0.0
337154.6038362722,4705833.5216966402,-47500.0,3817.0972770706348,-25.45882557986026,303.07405157977661,3003.0635482869579,-183.82004600271787,1550.5810177304115,3222.1977873912638,748.88935709941575,-775.10629080971466,775.10629080971466,-748.88935709941575,6056.3479354603787,0.0
342154.6038362722,4705833.5216966402,-47500.0,4098.3957799906948,-452.67084364364456,527.92369534088959,4048.3064325466044,-885.74408192044302,2842.8896106118727,4216.8373499914878,62.94142780017313,24.573136732744217,-24.573136732744217,-62.94142780017313,7872.5175292380336,0.0
347154.6038362722,4705833.5216966402,-47500.0,3962.4151105681608,-881.38470288312806,913.45704793643336,5032.527679711664,-1963.6109029279619,4740.1625173496595,5436.3306365798117,-935.8957024840563,1487.798857536048,-1487.798857536048,935.8957024840563,10106.887769336008,0.0
352154.6038362722,4705833.5216966402,-47500.0,3291.8506268466954,-1144.11780037118,1484.4783486678411,5606.0379978706424,-3410.2421738286084,7191.0073938492369,6786.7625461331736,-2104.5649660238341,3700.6267869834082,-3700.6267869834082,2104.5649660238341,12594.304413944812,0.0
357154.6038362722,4705833.5216966402,-47500.0,2177.8927141530776,-1033.6899125825257,2202.1926825942223,5367.5832487301714,-5053.1560364307188,9842.9843735885297,8082.0940878303127,-3100.2870846203268,6454.6576759997179,-6454.6576759997179,3100.2870846203268,14993.649030119723,0.0
362154.6038362722,4705833.5216966402,-47500.0,980.44210749423939,-414.75253639144103,2940.053786634393,4095.7734350607693,-6538.0043757631902,12041.752359975442,9071.4123091787478,-3473.5879251504034,9160.1702585555668,-9160.1702585555668,3473.5879251504034,16840.291934024994,0.0
367154.6038362722,4705833.5216966402,-47500.0,190.15118587545612,652.93254706669211,3512.2725852863291,1970.5490359779208,-7440.8663265200412,13070.135533098211,9518.8311520088628,-2911.9970717891792,11013.457170026273,-11013.457170026273,2911.9970717891792,17696.58848657554,0.0
372154.6038362722,4705833.5216966402,-47500.0,141.51433176679845,1890.8618820158633,3758.8583934851627,-430.36998874149276,-7474.6442225760566,12521.177419493084,9300.2888592931722,-1470.1492763675469,11388.326487504233,-11388.326487504233,1470.1492763675469,17333.562391628533,0.0
377154.6038362722,4705833.5216966402,-47500.0,801.18685215534026,2927.7025780016597,3633.1842605453339,-2408.1621630161799,-6646.9372434130128,10528.40616660132,8459.3088579387277,421.80913781425352,10178.306032820394,-10178.306032820394,-421.80913781425352,15835.053878739423,0.0
382154.6038362722,4705833.5216966402,-47500.0,1807.940210589114,3491.4525202458171,3221.8889387140648,-3493.2878817578794,-5246.4084666475401,7676.8425197890447,7187.5200229616148,2193.9201187287927,7826.2488729717061,-7826.2488729717061,-2193.9201187287927,13560.945635896884,0.0
387154.6038362722,4705833.5216966402,-47500.0,2714.3960029721302,3523.6348993788147,2683.5134014670766,-3616.890393252716,-3675.8114931297537,4684.6121360950892,5746.8450146303785,3425.2605923408501,5044.8474145749151,-5044.8474145749151,-3425.2605923408501,10998.728026815583,0.0
392154.6038362722,4705833.5216966402,-47500.0,3222.6764498126122,3150.7027704788984,2162.2478849863724,-3028.6820670662983,-2266.2457114960707,2099.1845675725376,4411.2359696280582,3981.9590616918636,2466.9915421365554,-2466.9915421365554,-3981.9590616918636,8596.6561973084135,0.0
397154.6038362722,4705833.5216966402,-47500.0,3263.4749214258354,2571.89652477968,1738.7030903111784,-2089.3016155794244,-1187.1381210282477,175.10497096902822,3513.3750079463784,3966.7241003166382,451.50486757463204,-451.50486757463204,-3966.7241003166382,6657.4235454590853,0.0
402154.6038362722,4705833.5216966402,-47500.0,2933.0080045584778,1959.9480074647161,1430.7239979657218,-1101.6046927302282,-461.74527838431214,-1077.8243651209689,2943.3660734867776,3584.2591048163335,-914.8616398162917,914.8616398162917,-3584.2591048163335,5303.0781242029589,0.0
407154.6038362722,4705833.5216966402,-47500.0,2387.662300764157,1419.4707225969837,1219.4814446664213,-246.07327877771928,-30.354098606611736,-1780.8684110037518,2572.2654297095,3030.7750794465592,-1713.9556919398128,1713.9556919398128,-3030.7750794465592,4483.3925456494089,0.0
412154.6038362722,4705833.5216966402,-47500.0,1768.8454005801784,991.74283834075823,1074.9874592156943,406.52817778669458,191.75537703626608,-2090.4995458735275,2325.303748095117,2444.8621804781192,-2090.4373723029389,2090.4373723029389,-2444.8621804781192,4031.7381540747106,0.0
417154.6038362722,4705833.5216966402,-47500.0,1173.1966195970115,677.53902911499313,970.66758024100443,854.85824710406405,281.20138469167921,-2146.2433900422402,2143.6351784287044,1904.3511613354149,-2186.1416263216383,2186.1416263216383,-1904.3511613354149,3767.5144226836719,0.0
422154.6038362722,4705833.5216966402,-47500.0,652.81140181257672,458.7911927445362,888.1292042660873,1130.2721257905098,294.8963529520243,-2053.2664749494352,1991.8346930292253,1442.4578486198527,-2113.1917077759999,2113.1917077759999,-1442.4578486198527,3569.3031714986219,0.0
427154.6038362722,4705833.5216966402,-47500.0,227.23970530396798,312.56611056734562,816.63825471969369,1273.323842004582,270.27505173072643,-1883.2196468332349,1853.1492103580815,1065.8405936318902,-1950.1473010956672,1950.1473010956672,-1065.8405936318902,3379.5902649387726,0.0
432154.6038362722,4705833.5216966402,-47500.0,-103.60949597486861,217.94019506529091,750.86233448345763,1321.9930200093256,229.8122440389032,-1681.5065269035779,1721.2688510670905,767.98169215635312,-1747.6980483064015,1747.6980483064015,-767.98169215635312,3179.9498638844711,0.0
437154.6038362722,4705833.5216966402,-47500.0,-349.71696842196945,158.35928598960646,688.6674740315832,1307.301603561355,185.91320218769371,-1475.108645277001,1594.375016314732,537.29150694422856,-1536.3869704900728,1536.3869704900728,-537.29150694422856,2969.7431673833116,0.0
442154.6038362722,4705833.5216966402,-47500.0,-524.78676121023921,121.7417974816037,629.54027935015154,1252.7071768823746,144.76848610611069,-1278.9096449728597,1472.220080986586,361.35209974402215,-1333.3184844981718,1333.3184844981718,-361.35209974402215,2754.4217958628428,0.0
447154.6038362722,4705833.5216966402,-47500.0,-642.83150673037278,99.716749611899616,573.63435031053723,1175.058639911425,108.9870750246839,-1100.2171213429194,1355.1511544558364,228.82481285208956,-1147.1103302069289,1147.1103302069289,-228.82481285208956,2540.3027428235528,0.0
452154.6038362722,4705833.5216966402,-47500.0,-716.53400551795767,86.693680240351298,521.26819851445339,1085.9826880834257,79.247029299300451,-941.7918365493631,1243.808936840466,130.11196486447329,-981.25787313815249,981.25787313815249,-130.11196486447329,2332.6343220626236,0.0
457154.6038362722,4705833.5216966402,-47500.0,-756.63571762326069,79.044896509038665,472.70035344618645,993.21026708817089,55.270049516754291,-803.79576967973719,1138.8902452404557,57.421786246106365,-836.30924265967292,836.30924265967292,-57.421786246106365,2135.1288779158435,0.0
462154.6038362722,4705833.5216966402,-47500.0,-771.86499948428525,74.475138842487866,428.05502359569897,901.67472100110456,36.368166244516971,-685.00754528873222,1040.9445338107923,4.5843775994811153,-711.22384083075826,711.22384083075826,-4.5843775994811153,1950.074295414576,0.0
467154.6038362722,4705833.5216966402,-47500.0,-769.11626113013847,71.568784014707092,387.31953627544704,814.3566990222871,21.734216479984656,-583.55826464306836,950.27259603638231,-33.209801753907868,-604.1951216646936,604.1951216646936,33.209801753907868,1778.6240509760173,0.0
472154.6038362722,4705833.5216966402,-47500.0,-753.72266230726598,69.478227806734978,350.37066522479341,732.90777016140146,10.58539133513611,-497.36264378226389,866.9199737846568,-59.671329535458256,-513.13363302629136,513.13363302629136,59.671329535458256,1621.1034426386939,0.0
477154.6038362722,4705833.5216966402,-47500.0,-729.741265732339,67.715445568493095,317.00760240277873,658.09720282600256,2.2256806568480494,-424.35951927380233,790.72045133416646,-77.642714303964283,-435.93826254770858,435.93826254770858,77.642714303964283,1477.2711319621121,0.0
267154.6038362722,4710833.5216966402,-47500.0,37.46353345602445,363.3707485941041,84.539667085881476,-126.96275395237242,180.547352574146,-121.01464701982448,438.2820782541034,367.76338389079331,-213.19517206062767,213.19517206062767,-367.76338389079331,759.64307479605156,0.0
272154.6038362722,4710833.5216966402,-47500.0,91.668974913542669,393.30324768038957,86.514001685807983,-119.96498754079332,200.96210759621817,-130.78610040502633,474.93904845196755,414.94765573004094,-248.68217456564815,248.68217456564815,-414.94765573004094,822.65455630518682,0.0
277154.6038362722,4710833.5216966402,-47500.0,160.14216384937342,424.41139461450689,87.911593457393991,-107.07514341390781,223.22244816006602,-139.82684099445547,515.55766959873461,467.63938630945796,-289.63168099666649,289.63168099666649,-467.63938630945796,893.18915442435934,0.0
282154.6038362722,4710833.5216966402,-47500.0,246.18891785085307,455.98512898951412,88.597239898886457,-86.131561847589097,247.14848721333556,-147.2935324953857,560.87981870962017,526.06604211229933,-336.6632931918262,336.6632931918262,-526.06604211229933,973.10040165887779,0.0
287154.6038362722,4710833.5216966402,-47500.0,353.84084185170849,486.86447564657686,88.463312713344251,-54.23165717910581,272.31277382761868,-151.95283226674718,611.94870509544785,590.20559608764881,-390.33655414398953,390.33655414398953,-590.20559608764881,1065.0930520328068,0.0
292154.6038362722,4710833.5216966402,-47500.0,487.97162674903058,515.21635313625336,87.488503030137636,-7.4509080895505067,297.8780864174866,-152.00780962242305,670.28728026625015,659.59578117972148,-451.03958377504921,451.03958377504921,-659.59578117972148,1173.1852924335687,0.0
297154.6038362722,4710833.5216966402,-47500.0,654.36817111288576,538.20728032212025,85.853368367393102,59.560178350054969,322.32673752468645,-144.82043103462328,738.19764396641062,733.01712577724152,-518.77519085105837,518.77519085105837,-733.01712577724152,1303.4139801756357,0.0
302154.6038362722,4710833.5216966402,-47500.0,859.65925936738563,551.5371798293462,84.160056986302337,154.14463610166021,343.00380848221579,-126.44376509371452,819.27944985798513,807.9660049065684,-592.74483260506975,592.74483260506975,-807.9660049065684,1464.8864820964282,0.0
307154.6038362722,4710833.5216966402,-47500.0,1110.8962108548876,548.81301754988453,83.837729531377235,286.39864647789955,355.34535089410667,-90.805650110217556,919.37664670929848,879.78935586706189,-670.53814481245445,670.53814481245445,-879.78935586706189,1671.2836660468529,0.0
312154.6038362722,4710833.5216966402,-47500.0,1414.3910003769249,520.80198954628872,87.863327203636615,470.05906822678855,351.59296294074602,-28.276182281299214,1048.4793085925339,940.31103995004628,-746.5798184400785,746.5798184400785,-940.31103995004628,1942.8458202388736,0.0
317154.6038362722,4710833.5216966402,-47500.0,1773.140273611589,454.77735754788068,101.98164832247222,723.19767591973164,318.73452003942384,76.769720912337618,1224.8959585896966,975.80392439069556,-809.26969991675605,809.26969991675605,-975.80392439069556,2308.6418031149051,0.0
322154.6038362722,4710833.5216966402,-47500.0,2181.8841372903362,334.55432439542398,136.61776606476391,1067.8107873130421,235.45235886567625,249.78783741934339,1480.9040144322823,964.40459792964248,-836.07532677275776,836.07532677275776,-964.40459792964248,2808.4180446389159,0.0
327154.6038362722,4710833.5216966402,-47500.0,2618.9320594440414,142.51230015395467,209.50729624656168,1526.3069475654186,68.252800110677498,531.21517172315703,1853.0300721482033,873.85214226627784,-786.06867480668222,786.06867480668222,-873.85214226627784,3492.4827874704956,0.0
332154.6038362722,4710833.5216966402,-47500.0,3035.2304713736971,-134.18225533166247,348.44490648164816,2111.4720816186427,-231.83002511955291,981.15488515450272,2366.2207743661711,662.18731271562729,-590.93161297311508,590.93161297311508,-662.18731271562729,4416.9418968678392,0.0
337154.6038362722,4710833.5216966402,-47500.0,3345.1759284519758,-490.59160954840314,592.09683109764353,2806.0405967356942,-727.98115965058332,1678.0053946032422,3039.304115735692,286.78851969087253,-149.69532012050178,149.69532012050178,-286.78851969087253,5630.5018725546788,0.0
342154.6038362722,4710833.5216966402,-47500.0,3430.9232237038145,-884.09505943780641,984.56500588978315,3532.0812887343091,-1484.2668058921606,2700.0192919299366,3876.4541431181678,-271.12429739430922,660.04976507919196,-660.04976507919196,271.12429739430922,7149.2410096239664,0.0
347154.6038362722,4710833.5216966402,-47500.0,3177.6959487590811,-1215.558938871714,1558.0780710499548,4123.8251040456162,-2531.767034540786,4077.3243547518337,4845.8162146614022,-964.63437745389251,1935.8791788009305,-1935.8791788009305,964.63437745389251,8920.1811420929407,0.0
352154.6038362722,4710833.5216966402,-47500.0,2547.4661461706496,-1332.509028700227,2302.48429226078,4337.8922225143051,-3815.7322844761879,5717.3083246119113,5859.7741448511561,-1639.8344207128202,3661.649154802396,-3661.649154802396,1639.8344207128202,10786.221567165272,0.0
357154.6038362722,4710833.5216966402,-47500.0,1658.8039771296556,-1078.8340748231999,3134.3029983377878,3938.0769071563018,-5151.3459387421617,7345.8969285841022,6771.824655596979,-2040.7260792639458,5612.3728493897615,-5612.3728493897615,2040.7260792639458,12480.180949068676,0.0
362154.6038362722,4710833.5216966402,-47500.0,795.88476943586818,-387.2949655738397,3894.1811339358796,2842.1869327413269,-6239.210211297268,8540.5232194995715,7404.725934636861,-1903.1961257757421,7342.8926248366542,-7342.8926248366542,1903.1961257757421,13676.658362537288,0.0
367154.6038362722,4710833.5216966402,-47500.0,291.61694790967238,642.13361499565985,4395.7801090958392,1233.8200492523333,-6769.7827832874582,8890.8573270799934,7608.1976935116782,-1111.3059592087566,8333.0154543891622,-8333.0154543891622,1111.3059592087566,14099.369633179856,0.0
372154.6038362722,4710833.5216966402,-47500.0,340.49711419215976,1752.7921208071036,4510.0551708261592,-473.92573167140102,-6570.9645341366631,8207.300035332175,7319.4370299428701,196.70736082230269,8235.6213893614113,-8235.6213893614113,-196.70736082230269,13634.298414963043,0.0
377154.6038362722,4710833.5216966402,-47500.0,882.83507586945836,2643.9001299164029,4229.912231665231,-1824.8783337025782,-5697.963518776467,6627.3808880937895,6591.1260627694055,1672.2182048813056,7057.7322993662137,-7057.7322993662137,-1672.2182048813056,12382.924747020197,0.0
382154.6038362722,4710833.5216966402,-47500.0,1650.5076200831948,3111.0426301696216,3667.9246074134712,-2528.4408941823754,-4400.3652594849673,4542.8985381780658,5570.6584957117475,2926.8089446879349,5143.6046983083052,-5143.6046983083052,-2926.8089446879349,10625.684919507454,0.0
387154.6038362722,4710833.5216966402,-47500.0,2327.9319030175802,3119.2605117090789,2992.1110609386596,-2552.5786737419871,-2996.2413252499055,2411.007359680696,4444.5443665085322,3704.7180011533023,2987.6605628443408,-2987.6605628443408,-3704.7180011533023,8721.3288444205537,0.0
392154.6038362722,4710833.5216966402,-47500.0,2702.4490710412547,2775.833696716893,2349.6605643475841,-2069.3674073934571,-1743.5954480914102,580.85754098366908,3610.2543608089472,3950.3695220025784,1020.3002878200241,-1020.3002878200241,-3950.3695220025784,6997.1504942235897,0.0
397154.6038362722,4710833.5216966402,-47500.0,2717.8683051472035,2246.4836452146346,1824.684735298061,-1327.4033292064923,-778.22741639473054,-778.72096805889305,3095.2404122420139,3763.5466524850281,-510.60151290694375,510.60151290694375,-3763.5466524850281,5669.5499098527343,0.0
402154.6038362722,4710833.5216966402,-47500.0,2437.8281201246209,1679.5625432697652,1438.6397358892793,-543.65989561182414,-123.09188784631388,-1655.238239329967,2734.3071878266587,3307.9232361496083,-1540.910305689385,1540.910305689385,-3307.9232361496083,4801.7464929891194,0.0
407154.6038362722,4710833.5216966402,-47500.0,1976.7381460770132,1170.5626675861738,1173.7461277785353,144.1165796514191,267.25309425637312,-2126.693870356054,2488.3146974519377,2736.8696679553718,-2126.6025646094863,2126.6025646094863,-2736.8696679553718,4309.8909068690218,0.0
412154.6038362722,4710833.5216966402,-47500.0,1445.2130583575843,762.01356848022613,997.66011554545832,675.23587270413964,462.80062739435533,-2301.1379718124872,2308.3619090410584,2159.3483773414673,-2373.8652946369893,2373.8652946369893,-2159.3483773414673,4038.704866497375,0.0
417154.6038362722,4710833.5216966402,-47500.0,924.25827424207716,459.68286762836146,879.16903737184077,1042.1263431514565,530.52830209844319,-2280.0648096226332,2158.4175856696806,1637.1074013255839,-2391.8403056204352,2391.8403056204352,-1637.1074013255839,3855.0780513705299,0.0
422154.6038362722,4710833.5216966402,-47500.0,461.44511489977771,250.13867196572622,794.61877046319444,1265.250757108837,522.85089645926701,-2143.4968858040097,2019.5613589468803,1196.1571424877645,-2270.4947986292436,2270.4947986292436,-1196.1571424877645,3684.4309250159495,0.0
427154.6038362722,4710833.5216966402,-47500.0,77.638585145572307,113.3198586534066,728.59182992188437,1375.2194506139058,476.03015272708507,-1948.0917963522202,1884.8690752728073,840.47051732632701,-2075.2377387688643,2075.2377387688643,-840.47051732632701,3498.2857762535891,0.0
432154.6038362722,4710833.5216966402,-47500.0,-223.84830382866699,29.503542918884161,672.1770110701126,1402.7000694471853,412.94350190940509,-1730.8800459621823,1753.299790731812,562.70966492574553,-1849.6003667094183,1849.6003667094183,-562.70966492574553,3292.6016259135267,0.0
437154.6038362722,4710833.5216966402,-47500.0,-449.47604054403143,-17.754816197567568,620.80429536498968,1373.9205749137579,346.86207813407532,-1514.3536253312943,1625.5348428082871,351.07325506046755,-1620.4350290582856,1620.4350290582856,-351.07325506046755,3073.1157885629905,0.0
442154.6038362722,4710833.5216966402,-47500.0,-610.07797738052739,-40.963493767895621,572.46731151849258,1309.4121442989383,284.76663551447672,-1311.0410499849434,1502.1833598535572,193.06855892986846,-1402.9834865710864,1402.9834865710864,-193.06855892986846,2847.9244711082447,0.0
447154.6038362722,4710833.5216966402,-47500.0,-717.58424130434207,-49.082131804573933,526.50855207995107,1224.3196364816656,229.79762130536199,-1127.020318135023,1383.7171031148819,77.294522949888233,-1204.9002108627383,1204.9002108627383,-77.294522949888233,2624.3675383188729,0.0
452154.6038362722,4710833.5216966402,-47500.0,-783.27038618730637,-48.251077510997391,482.88357119580303,1129.3086702648386,182.89894082961163,-964.40235625488128,1270.7762470972091,-5.903549496702226,-1029.1393247063836,1029.1393247063836,5.903549496702226,2408.0386999394,0.0
457154.6038362722,4710833.5216966402,-47500.0,-816.97198739479745,-42.527011557593852,441.75899591740773,1031.5790322470348,143.85084145656538,-822.99516061295117,1164.1099776631866,-64.352933749491797,-875.90176802197743,875.90176802197743,64.352933749491797,2202.7238262950273,0.0
462154.6038362722,4710833.5216966402,-47500.0,-826.85390225362573,-34.497869056222385,403.31595523242015,935.77148055218788,111.88556825991202,-701.37332423154032,1064.348053616988,-104.22727505679472,-743.89028327057747,743.89028327057747,104.22727505679472,2010.6792559860444,0.0
467154.6038362722,4710833.5216966402,-47500.0,-819.4691728456886,-25.751616566495553,367.67025266379346,844.70315784964555,86.036488669599038,-597.5415233901939,971.86336588861548,-130.30729961128895,-631.08951829048806,631.08951829048806,130.30729961128895,1832.9919200507115,0.0
472154.6038362722,4710833.5216966402,-47500.0,-799.94795747754586,-17.214267655781516,334.85256478680736,759.9299651304882,65.324065184100746,-509.3293068001289,886.75309646085066,-146.24751803593614,-535.23185122858172,535.23185122858172,146.24751803593614,1669.9127456557417,0.0
267154.6038362722,4715833.5216966402,-47500.0,121.14376933614321,330.65354166258663,57.404207259580595,-75.993391275222905,165.43600869987932,-97.157335355690748,393.61076364798771,354.38305441440917,-215.56931631223659,215.56931631223659,-354.38305441440917,682.07857801554087,0.0
272154.6038362722,4715833.5216966402,-47500.0,182.38919509579856,352.23843119039003,57.076017169798341,-61.632618882019592,181.28863893042833,-102.30555502527189,424.6601842140995,395.04602165618525,-247.82978400851965,247.82978400851965,-395.04602165618525,737.07983122644441,0.0
277154.6038362722,4715833.5216966402,-47500.0,257.69637640823845,372.99698736110651,56.355108201262503,-40.423631852745686,197.6260830462661,-105.7772481779553,459.03975791973278,439.27789240059036,-284.13604761559185,284.13604761559185,-439.27789240059036,799.32459951984504,0.0
282154.6038362722,4715833.5216966402,-47500.0,349.86718203270198,391.76753963637537,55.353707143260436,-10.198581410945909,213.85252064650015,-106.53799268977394,497.5004587494364,486.78324950731434,-324.59310291661831,324.59310291661831,-486.78324950731434,870.96644408786335,0.0
287154.6038362722,4715833.5216966402,-47500.0,462.14485458831581,406.86750204905809,54.346796389744618,31.850487510135885,228.99829839692964,-103.13350321867517,541.15497985091861,536.89546634183864,-369.06183429048406,369.06183429048406,-536.89546634183864,955.14762040273877,0.0
292154.6038362722,4715833.5216966402,-47500.0,598.19405647752399,415.89012927421453,53.893932008405912,89.364058672677643,241.52629586444914,-93.524512862343101,591.70406814507498,588.37949481292617,-416.98516829716891,416.98516829716891,-588.37949481292617,1056.4521569337314,0.0
297154.6038362722,4715833.5216966402,-47500.0,761.9824953239297,415.43363590652763,55.042534475229033,167.06314331083766,249.03274288117541,-74.840270299384983,651.83680723469695,639.1373590011101,-467.10102542991109,467.10102542991109,-639.1373590011101,1181.5204256847094,0.0
302154.6038362722,4715833.5216966402,-47500.0,957.46326843832446,400.76074232651797,59.663778297838135,271.05143624157949,247.78255218572787,-42.996567063989325,726.01985057704212,685.77279621618482,-516.96073187243519,516.96073187243519,-685.77279621618482,1339.8411164272484,0.0
307154.6038362722,4715833.5216966402,-47500.0,1187.8787379332834,365.419955578062,70.996795995839818,409.13264375399785,231.9912442770468,7.9109584205286509,822.28980481206031,722.96509447681615,-562.11519830219618,562.11519830219618,-722.96509447681615,1544.6967768890636,0.0
312154.6038362722,4715833.5216966402,-47500.0,1454.3929497550066,300.94404740937279,94.501399345934644,591.00550485124791,192.7417849114284,86.567820870671014,955.79469022434114,742.62458401685467,-594.75500877876402,594.75500877876402,-742.62458401685467,1814.15805351513,0.0
317154.6038362722,4715833.5216966402,-47500.0,1753.6411889544206,196.92019540521639,139.11818929279482,827.98378815247679,116.44197988601519,205.89544540670914,1147.6929374268962,732.9086125360559,-601.52787358218256,601.52787358218256,-732.9086125360559,2171.8680109446932,0.0
322154.6038362722,4715833.5216966402,-47500.0,2073.7783645137383,42.046453470789281,218.94290596708757,1131.4900674623377,-17.122490798137633,385.01498308784011,1413.453718608147,677.46987359064553,-560.32084055399844,560.32084055399844,-677.46987359064553,2647.0645450919196,0.0
327154.6038362722,4715833.5216966402,-47500.0,2389.0208718086874,-172.75964150636702,355.00713646116799,1509.0010611531038,-236.62055796994224,651.25258770132882,1765.6304039586864,555.93676040316063,-436.26962113509529,436.26962113509529,-555.93676040316063,3272.7914813431012,0.0
332154.6038362722,4715833.5216966402,-47500.0,2654.0530559397075,-447.79939269465132,576.126658198727,1955.6956980262671,-579.34651709749517,1040.5412661105483,2217.9828817810862,347.63705198200529,-178.63970755223085,178.63970755223085,-347.63705198200529,4080.5853388872565,0.0
337154.6038362722,4715833.5216966402,-47500.0,2802.5167660286297,-763.7418117942002,916.54227419385199,2440.8102114871049,-1086.529992325281,1592.5604613922972,2778.883201442065,41.493118284843661,277.04486448470033,-277.04486448470033,-41.493118284843661,5089.5144876123732,0.0
342154.6038362722,4715833.5216966402,-47500.0,2757.3965783787166,-1068.5442211361981,1406.8677111020686,2891.5371183550533,-1789.1925715692107,2335.11325532516,3440.5055226159348,-345.90378160992799,993.91971355078067,-993.91971355078067,345.90378160992799,6288.3938140708497,0.0
347154.6038362722,4715833.5216966402,-47500.0,2461.3310112475897,-1270.3883756565306,2055.6244870233913,3185.4240110827382,-2681.6937289386451,3254.1308048617948,4166.527183352232,-747.86178753148783,1998.1820219359849,-1998.1820219359849,747.86178753148783,7613.911962905092,0.0
352154.6038362722,4715833.5216966402,-47500.0,1924.124963931323,-1251.2634938583528,2824.4851777424365,3170.3256763929762,-3689.1166497051217,4256.6048430507253,4883.5571721769884,-1036.4058209760299,3226.7044607201206,-3226.7044607201206,1036.4058209760299,8934.7445100690475,0.0
357154.6038362722,4715833.5216966402,-47500.0,1260.9834170857789,-912.15963507771119,3611.4562868564331,2725.1788587369078,-4650.1230043918758,5152.721515260143,5485.0725882280312,-1046.9004895161804,4486.6395166318234,-4486.6395166318234,1046.9004895161804,10058.3179619724,0.0
362154.6038362722,4715833.5216966402,-47500.0,678.11560181078062,-237.55515894652521,4263.2757089426068,1843.1063373721518,-5344.1944611376612,5691.8158919557163,5854.4861184709453,-649.39345463380096,5475.0189068518084,-5475.0189068518084,649.39345463380096,10772.989785217462,0.0
367154.6038362722,4715833.5216966402,-47500.0,386.88394453119349,663.22061963857573,4625.9870794667813,679.66948054151612,-5570.3844260080905,5658.4007341474135,5903.0412982683101,164.64596432149119,5882.4679246168216,-5882.4679246168216,-164.64596432149119,10918.120984991838,0.0
372154.6038362722,4715833.5216966402,-47500.0,490.69147304048198,1580.0155904178243,4611.8775447174476,-486.35984037948685,-5239.9571126663222,4979.2729602625259,5605.1633627941983,1244.8451930878482,5535.9446306278869,-5535.9446306278869,-1244.8451930878482,10450.057225045683,0.0
377154.6038362722,4715833.5216966402,-47500.0,925.95693342946265,2288.0707869001017,4240.2973308188921,-1368.9476569553292,-4422.0710557011407,3768.2794799988428,5011.757449056513,2333.7409682364023,4486.9762611515016,-4486.9762611515016,-2333.7409682364023,9467.5878340290692,0.0
382154.6038362722,4715833.5216966402,-47500.0,1500.5341928501225,2642.7939601900716,3624.8625274518081,-1793.7951262464564,-3311.2856787147612,2277.1390901512541,4237.0719858791226,3178.7270641903056,2985.0610605705674,-2985.0610605705674,-3178.7270641903056,8183.2843896964087,0.0
387154.6038362722,4715833.5216966402,-47500.0,1996.5386489160492,2624.7289198803874,2918.2693631467682,-1748.297348832823,-2141.6825504189042,788.93182851988342,3514.0252245821744,3630.5221055811521,1360.973769033993,-1360.973769033993,-3630.5221055811521,6857.0138579399636,0.0
392154.6038362722,4715833.5216966402,-47500.0,2264.5763975958175,2318.3136353396321,2252.3336909672698,-1348.2209647216505,-1102.9238309325715,-478.41335004249902,3078.7438692148821,3674.5029987568378,-100.18256231748273,100.18256231748273,-3674.5029987568378,5719.8529348066213,0.0
397154.6038362722,4715833.5216966402,-47500.0,2260.0646709115163,1853.3607411663597,1704.723167879833,-761.6550950933746,-298.55747767806241,-1414.9360150669784,2768.0352777507701,3396.7200440595225,-1230.5267987693449,1230.5267987693449,-3396.7200440595225,4907.7242268800974,0.0
402154.6038362722,4715833.5216966402,-47500.0,2023.4441464995932,1350.2639549496137,1298.2073625690282,-141.18817648662494,249.89526443869048,-2008.3529057217468,2551.4710771331584,2923.7204748551953,-1982.9469789313594,1982.9469789313594,-2923.7204748551953,4424.2662456803973,0.0
407154.6038362722,4715833.5216966402,-47500.0,1636.4340920227685,891.32871386466718,1018.8061962689445,410.14703460848824,574.15788556658902,-2307.4960689016725,2393.9328534730662,2373.3078282833785,-2393.9553742231574,2393.9553742231574,-2373.3078282833785,4168.597159323409,0.0
412154.6038362722,4715833.5216966402,-47500.0,1183.6727795054119,517.37078816738017,836.62052629452103,841.92813995343295,728.25864631710147,-2385.4173868023522,2262.8285394755385,1830.5621460945019,-2539.1644840671697,2539.1644840671697,-1830.5621460945019,4017.5636449536901,0.0
417154.6038362722,4715833.5216966402,-47500.0,731.54401741996389,237.92377539789726,720.48659304936666,1143.2309328751662,767.08503780227329,-2314.5294640814159,2138.1567458657591,1344.7954987255891,-2500.355225672105,2500.355225672105,-1344.7954987255891,3886.0026539102705,0.0
422154.6038362722,4715833.5216966402,-47500.0,322.33899261250735,44.360219110754066,645.06901234288148,1326.2776580859472,735.90291728733939,-2154.6415994613908,2011.9275272866278,937.10661278428051,-2347.9896549653649,2347.9896549653649,-937.10661278428051,3734.5124971870491,0.0
427154.6038362722,4715833.5216966402,-47500.0,-22.815407928782221,-79.622387730185778,592.60155561323666,1413.369375945199,667.60500021718588,-1949.8569183920442,1883.6151961821095,610.37669101015013,-2135.3595062743398,2135.3595062743398,-610.37669101015013,3553.4642981828647,0.0
432154.6038362722,4715833.5216966402,-47500.0,-297.93646168912312,-151.49477421609586,551.9414532325444,1428.6372945388748,583.93859942887366,-1730.0161211089453,1755.8070021423387,357.65861136619628,-1899.1773989970213,1899.1773989970213,-357.65861136619628,3347.3953930989887,0.0
437154.6038362722,4715833.5216966402,-47500.0,-506.29567758006544,-186.67852652566563,516.78217992850387,1393.7970564620744,498.1070485855459,-1513.7636043932011,1631.0157969772686,167.88198731699583,-1662.759394750939,1662.759394750939,-167.88198731699583,3125.585908323475,0.0
442154.6038362722,4715833.5216966402,-47500.0,-655.9020260226107,-197.43589626029035,483.95340782875809,1326.5224181857952,417.38456741103386,-1311.7033577539448,1510.2566111006645,29.196122678799497,-1439.6475833286972,1439.6475833286972,-29.196122678799497,2897.4854817350656,0.0
447154.6038362722,4715833.5216966402,-47500.0,-756.50578972644018,-192.87529191519897,452.12903555917222,1240.2679958497085,345.22508052531668,-1129.0314031168371,1393.77742818979,-69.339621484444706,-1236.7445279178,1236.7445279178,69.339621484444706,2670.9097160203678,0.0
452154.6038362722,4715833.5216966402,-47500.0,-817.83469230632409,-179.42861969176778,420.96312603008715,1144.7620499879604,282.77845945717507,-967.51110789214044,1282.1132943684063,-137.07237908402806,-1056.7038374141357,1056.7038374141357,137.07237908402806,2451.6029846922825,0.0
457154.6038362722,4715833.5216966402,-47500.0,-848.68863656414578,-161.44850545041962,390.56337261333431,1046.7223152485126,229.90304894494838,-826.85951006599703,1176.1121827149502,-181.62199216372437,-899.62092549723366,899.62092549723366,181.62199216372437,2243.3938966082987,0.0
462154.6038362722,4715833.5216966402,-47500.0,-856.57213402657112,-141.76104188063735,361.19610318653218,950.56817972067586,185.80395183544087,-705.67214220158769,1076.5606242108356,-209.01071061011203,-764.16546111884577,764.16546111884577,209.01071061011203,2048.5523101664749,0.0
467154.6038362722,4715833.5216966402,-47500.0,-847.63616958232728,-122.11711877258227,333.13666069683069,859.03648748600676,149.41574004729324,-602.01466629236938,983.96915958218324,-223.89609118553096,-648.30797755026435,648.30797755026435,223.89609118553096,1868.1743025470741,0.0
472154.6038362722,4715833.5216966402,-47500.0,-826.77824471629515,-103.53502283057553,306.60423507748231,773.67354999464055,119.61902664714023,-513.78405321989783,898.53855841530594,-229.82268368757303,-549.76539356893682,549.76539356893682,229.82268368757303,1702.520484412531,0.0
272154.6038362722,4720833.5216966402,-47500.0,255.131405962277,303.94297553791023,36.742017984850975,-12.2574734376694,157.266105974353,-77.133519178751726,377.83966090508346,367.66518855082194,-238.95021481516829,238.95021481516829,-367.66518855082194,661.3043096630812,0.0
277154.6038362722,4720833.5216966402,-47500.0,333.15427558321863,314.24615106144688,36.107827965887608,14.693670501896751,167.28189034552463,-76.208643059051226,407.02380535405672,403.11259626470633,-269.49424726589132,269.49424726589132,-403.11259626470633,717.67968145574309,0.0
282154.6038362722,4720833.5216966402,-47500.0,426.41731136962153,320.49691863424238,36.135260511652305,50.845938846925222,175.52738482178182,-71.877073423199946,439.99880281394894,439.69784401008167,-302.24367719342956,302.24367719342956,-439.69784401008167,783.88925252929494,0.0
287154.6038362722,4720833.5216966402,-47500.0,537.22932830563434,320.7304186457996,37.567196454616372,98.679315258087342,180.61776486803893,-62.641306602278291,478.08856633014921,476.34382053384576,-336.47972490712317,336.47972490712317,-476.34382053384576,863.39998924550525,0.0
292154.6038362722,4720833.5216966402,-47500.0,667.93272042725891,312.32076072050273,41.611072254248484,161.26074256011091,180.52672150460367,-46.472610590696902,523.45958044123836,511.40059376608218,-370.91857322975039,370.91857322975039,-511.40059376608218,961.05348712030491,0.0
297154.6038362722,4720833.5216966402,-47500.0,820.65770770924416,291.81002861509342,50.192709771639031,242.34352647871955,172.30825104133976,-20.625311890622815,579.93311609640568,542.42780385779474,-403.41727952110455,403.41727952110455,-542.42780385779474,1083.4736476552332,0.0
302154.6038362722,4720833.5216966402,-47500.0,996.87211135615053,254.74155367455296,66.33778007109882,346.43968112208358,151.69902592463438,18.625461425651881,654.79627855216302,565.91652987796454,-430.52933616622556,430.52933616622556,-565.91652987796454,1239.4948472859335,0.0
307154.6038362722,4720833.5216966402,-47500.0,1196.5997458582085,195.5653474194994,94.72957473173949,478.79704101862239,112.5611180136704,76.35696725784031,759.89725250003369,576.96192325968616,-446.83572245088033,446.83572245088033,-576.96192325968616,1440.5509034841239,0.0
312154.6038362722,4720833.5216966402,-47500.0,1417.1381775491043,107.76563240028361,142.48519800816763,645.13308890645328,46.137337689869604,159.51683613986759,905.30596541627017,568.94900259485507,-443.96333155024621,443.96333155024621,-568.94900259485507,1700.922464497479,0.0
317154.6038362722,4720833.5216966402,-47500.0,1651.106418064961,-15.497596163222866,220.14103017800207,850.83531215061055,-59.844305057303153,277.57960226583782,1097.0039679289068,533.43261984297999,-409.23458903717579,409.23458903717579,-533.43261984297999,2037.6445363501916,0.0
322154.6038362722,4720833.5216966402,-47500.0,1883.7992813793192,-179.74275753520442,342.6836326252847,1099.1321810049426,-222.00114803408241,443.19231919885124,1342.4783206866271,460.62048494968866,-324.05674892965959,324.05674892965959,-460.62048494968866,2469.6749763893117,0.0
327154.6038362722,4720833.5216966402,-47500.0,2090.3116304409759,-385.84778187554133,530.11856918764181,1387.5509337738456,-461.4534787979099,672.30799165682606,1650.4484066100672,341.22541595621954,-162.61901767324386,162.61901767324386,-341.22541595621954,3015.6132913545207,0.0
332154.6038362722,4720833.5216966402,-47500.0,2233.9477452989836,-624.5016258616289,806.47183790501185,1702.0988470809309,-802.03881955739814,982.65910972929771,2027.3941692000039,170.80329087463474,107.60434264446309,-107.60434264446309,-170.80329087463474,3688.9637348813449,0.0
337154.6038362722,4720833.5216966402,-47500.0,2269.0056148409458,-868.82067549572332,1195.4052872929783,2009.6413516285938,-1264.5657909519425,1388.6299216670889,2472.5937593555923,-42.462141402516124,520.71627415653916,-520.71627415653916,42.462141402516124,4490.0345762429042,0.0
342154.6038362722,4720833.5216966402,-47500.0,2152.1127551779518,-1067.9498660090139,1710.4767449170386,2251.6127803902541,-1855.092757626009,1890.4674205318829,2971.747529594757,-267.24498096624666,1099.0170489645552,-1099.0170489645552,267.24498096624666,5394.7091812784838,0.0
347154.6038362722,4720833.5216966402,-47500.0,1864.2526912056667,-1148.0619855897592,2339.9098191739054,2346.1265215315602,-2547.6263374911305,2458.0662426628583,3490.7251767650673,-440.67012021843834,1829.9700814619985,-1829.9700814619985,440.67012021843834,6343.0813008073692,0.0
352154.6038362722,4720833.5216966402,-47500.0,1437.5474865130163,-1028.9210345956631,3030.8111341145204,2207.3315065955358,-3267.7451223122976,3015.7297759575845,3973.1130450248406,-472.0386822053481,2640.0097876914006,-2640.0097876914006,472.0386822053481,7234.7864583510709,0.0
357154.6038362722,4720833.5216966402,-47500.0,968.92292977919521,-658.40604528607344,3684.2905435282751,1784.1059402980848,-3890.9218164937124,3441.788098728553,4346.2760689868483,-268.86121917181572,3383.3860520644557,-3383.3860520644557,268.86121917181572,7939.83379894666,0.0
362154.6038362722,4720833.5216966402,-47500.0,599.33426704466285,-52.035613855915983,4173.8151652135921,1102.830992033116,-4269.0434497758724,3596.5785423626962,4538.2069261059914,217.04593409294989,3867.9923008126798,-3867.9923008126798,-217.04593409294989,8329.3350372372406,0.0
367154.6038362722,4720833.5216966402,-47500.0,455.93980851561452,689.53462942226486,4387.2149813797332,283.83724263759484,-4282.9889072427413,3375.8263385714231,4501.0897405681435,947.04805915988823,3921.8965419382112,-3921.8965419382112,-947.04805915988823,8318.763796690313,0.0
372154.6038362722,4720833.5216966402,-47500.0,587.26030833590494,1405.9411507128004,4273.1482718244442,-490.52443138523716,-3895.9141254432288,2762.532579562278,4231.6005795636302,1789.7397809365025,3470.3578373948508,-3470.3578373948508,-1789.7397809365025,7904.8127416895131,0.0
377154.6038362722,4720833.5216966402,-47500.0,935.27981857069699,1937.5613330324848,3863.9803294092749,-1044.9718914708101,-3174.0043445440965,1843.5446415691647,3780.3914473515097,2564.3791928633623,2575.5569010795793,-2575.5569010795793,-2564.3791928633623,7176.5895296460139,0.0
382154.6038362722,4720833.5216966402,-47500.0,1364.2121076121623,2186.2806819433899,3260.6544155353999,-1277.4967838697166,-2260.8626660767627,778.70505736714256,3272.834981130809,3110.676371737648,1412.8918984194681,-1412.8918984194681,-3110.676371737648,6294.4146684602847,0.0
387154.6038362722,4720833.5216966402,-47500.0,1724.8115977631364,2142.5585888904993,2590.3069817506562,-1185.9794211373739,-1322.2162004102536,-257.89998909240063,2908.9110501431751,3343.8701380327052,200.63451721390129,-200.63451721390129,-3343.8701380327052,5443.5591065963736,0.0
392154.6038362722,4720833.5216966402,-47500.0,1912.9358414501244,1870.4389957644451,1962.3158715831851,-848.45321593572862,-492.92915561082151,-1131.149210166358,2667.8718111044882,3268.563740739321,-874.21373337855721,874.21373337855721,-3268.563740739321,4775.2896610891412,0.0
397154.6038362722,4720833.5216966402,-47500.0,1894.1059270610747,1468.3145394008459,1443.3305981524836,-378.33804135975328,150.52893991951413,-1770.2045111268831,2501.5665733744663,2954.7593624435576,-1699.0088204269648,1699.0088204269648,-2954.7593624435576,4352.4507242811987,0.0
402154.6038362722,4720833.5216966402,-47500.0,1693.5170693194611,1030.6451488459284,1055.4672980985697,117.65678000386787,589.27602243333672,-2164.8544667683564,2383.4279182018436,2498.7563857188115,-2239.6805167970251,2239.6805167970251,-2498.7563857188115,4135.4880799208922,0.0
407154.6038362722,4720833.5216966402,-47500.0,1368.9102394641043,625.74168873664416,789.08187806381045,563.29060715180083,844.36906368000723,-2345.6586206011502,2286.3535044550326,1990.4590488734993,-2519.6934856189473,2519.6934856189473,-1990.4590488734993,4030.6121897170033,0.0
412154.6038362722,4720833.5216966402,-47500.0,984.22297005043129,290.7851494318636,618.9164756698168,917.68284945275207,955.93630249771422,-2361.8128441796739,2190.5632042379839,1496.2903785636213,-2592.2663173831916,2592.2663173831916,-1496.2903785636213,3953.3039322580935,0.0
417154.6038362722,4720833.5216966402,-47500.0,592.97872881898888,37.52004422012709,516.59489921064164,1168.7488526503696,967.27307315734049,-2264.6545535989067,2086.5534245869067,1055.9850100574972,-2517.9213701216936,2517.9213701216936,-1055.9850100574972,3855.2071266685525,0.0
422154.6038362722,4720833.5216966402,-47500.0,231.93263513523837,-138.55368938111366,457.55514468098045,1322.9405414303517,915.97095951465565,-2098.5487055635358,1972.8857680130127,687.21608410760564,-2351.1376797556591,2351.1376797556591,-687.21608410760564,3719.2704450903962,0.0
427154.6038362722,4720833.5216966402,-47500.0,-78.439485500832276,-249.92911339929418,423.49184753699143,1396.0178024181091,830.68501933948562,-1897.5728862504543,1852.8074028247829,392.65816929668983,-2134.7969015106696,2134.7969015106696,-392.65816929668983,3546.5990820592565,0.0
432154.6038362722,4720833.5216966402,-47500.0,-330.32176339005969,-311.39514990254145,402.18292492719274,1406.5755514651792,731.24699568798212,-1685.6496857886013,1731.4126607857713,166.40977307808475,-1899.5379311529584,1899.5379311529584,-166.40977307808475,3346.1459357295553,0.0
437154.6038362722,4720833.5216966402,-47500.0,-524.32512510406559,-336.83051541725001,386.2276816462446,1372.2848111104572,630.24925633161024,-1478.2328198632308,1612.8367365183994,-1.3288146697244656,-1665.4795100155061,1665.4795100155061,1.3288146697244656,3128.7590519129262,0.0
442154.6038362722,4720833.5216966402,-47500.0,-665.87472166845816,-337.80114146518048,371.60109697598,1308.142448250223,534.96059495446036,-1284.3888378845895,1498.0755088284491,-121.32464947489893,-1444.6767809080322,1444.6767809080322,121.32464947489893,2904.3409868720532,0.0
447154.6038362722,4720833.5216966402,-47500.0,-762.59195624761037,-323.24003018755013,356.428391427073,1225.9710292622799,449.03317414378256,-1108.7062490326346,1386.5972949604716,-203.7165632252719,-1243.4732243316021,1243.4732243316021,203.7165632252719,2680.7965603511648,0.0
452154.6038362722,4720833.5216966402,-47500.0,-822.61175915720992,-299.6705389291281,340.08923323063004,1134.5853351406211,373.82312152415341,-952.8245171673442,1278.7291299142364,-257.29800748737443,-1064.4193619118053,1064.4193619118053,257.29800748737443,2463.8826241160705,0.0
457154.6038362722,4720833.5216966402,-47500.0,-853.62073636750961,-271.63852842834677,322.62319154707779,1040.2475461026784,309.32814670579694,-816.56253045682206,1175.516606603484,-289.31600028562536,-907.70162476804251,907.70162476804251,289.31600028562536,2257.4526900537285,0.0
462154.6038362722,4720833.5216966402,-47500.0,-862.38821016122233,-242.17281406131502,304.36498169789667,947.1951224863775,254.81225294404464,-698.70386780376407,1077.9887640699342,-305.53917529315981,-772.14133306999042,772.14133306999042,305.53917529315981,2063.8296960485495,0.0
467154.6038362722,4720833.5216966402,-47500.0,-854.60588007028161,-213.19295156747768,285.73745063321076,858.13539767753014,209.20070591308286,-597.51770224555196,986.84612454604189,-310.44511418311868,-655.85968674992137,655.85968674992137,310.44511418311868,1884.1831243728154,0.0
472154.6038362722,4720833.5216966402,-47500.0,-834.90228868117185,-185.83747605177609,267.1446272694601,774.66221965772968,171.31632959990372,-511.08767718928493,902.428633466615,-307.44224029419922,-556.69937589703557,556.69937589703557,307.44224029419922,1718.8553267251173,0.0
272154.6038362722,4725833.5216966402,-47500.0,309.58926514813987,252.19404217683842,25.447223410741341,27.722561006703941,130.80051863886075,-55.565186720990717,335.13484471270203,335.61430175424391,-223.88739751221956,223.88739751221956,-335.61430175424391,595.6141326583197,0.0
277154.6038362722,4725833.5216966402,-47500.0,386.64751701742301,252.83788529557577,26.752680157669566,57.967341055911973,134.65215834902489,-51.410721886504128,360.29434864758463,362.66697765858714,-248.16016097476799,248.16016097476799,-362.66697765858714,648.08923282073192,0.0
282154.6038362722,4725833.5216966402,-47500.0,476.6850787492167,247.94499358850013,29.96562516118626,96.95564522173737,135.35407933848094,-43.550047361471762,389.40282991604306,389.20250013496155,-272.87251560937619,272.87251560937619,-389.20250013496155,710.91296001586795,0.0
287154.6038362722,4725833.5216966402,-47500.0,581.05991599283368,235.52137816059974,36.284067980405489,146.69155182110114,131.27315539880806,-30.581362474928486,424.38710977484391,413.97428371618912,-296.8968672935224,296.8968672935224,-413.97428371618912,787.6182443105223,0.0
292154.6038362722,4725833.5216966402,-47500.0,700.85804695485922,213.06276925967316,47.492658724455339,209.51239161930064,120.14433850296024,-10.672120350984452,468.88863507921042,435.25453523448795,-318.49511899592886,318.49511899592886,-435.25453523448795,882.86458157929508,0.0
297154.6038362722,4725833.5216966402,-47500.0,836.59139656507716,177.4982725294937,66.220106354579954,288.0696336440937,98.849755352353171,18.556516911450995,529.41810719771536,450.71750097602683,-335.06806370719517,335.06806370719517,-450.71750097602683,1002.6193083970641,0.0
302154.6038362722,4725833.5216966402,-47500.0,987.72555393246921,125.19690012797972,96.291899814249035,385.23767179882572,63.133424852207625,60.171961887406894,613.02650315905225,457.33099851055806,-342.8143290748734,342.8143290748734,-457.33099851055806,1154.2796925302221,0.0
307154.6038362722,4725833.5216966402,-47500.0,1151.970664041389,52.117413655543636,143.19120230717641,503.88258912427011,7.2514248972930879,118.09882524715407,723.32124589677505,451.30111214707375,-336.27916422078016,336.27916422078016,-451.30111214707375,1346.6913971667075,0.0
312154.6038362722,4725833.5216966402,-47500.0,1324.2760613149364,-45.756659693664574,214.61045331275915,646.3725489147464,-76.411614536271443,197.29643173274206,863.4656427407408,428.16518385418709,-307.79404990417919,307.79404990417919,-428.16518385418709,1589.9874047955193,0.0
317154.6038362722,4725833.5216966402,-47500.0,1495.5345918961773,-171.47124733775053,320.99870288414536,813.64271617610814,-197.65383924385696,303.88004100228409,1038.1087164034172,383.2155405867303,-246.87672650861154,246.87672650861154,-383.2155405867303,1895.0951905293643,0.0
322154.6038362722,4725833.5216966402,-47500.0,1651.1882923837186,-325.34437518541091,475.84952786369098,1003.5633026366478,-368.43884052842657,445.01319435320266,1252.4087356474058,312.55868711604256,-139.82398792037736,139.82398792037736,-312.55868711604256,2272.6243774982836,0.0
327154.6038362722,4725833.5216966402,-47500.0,1770.3236026264333,-502.12044080818225,695.20013496303579,1208.3862889520369,-602.03969156431936,628.20099180567752,1510.3896070230469,215.23116357555637,29.951488112126,-29.951488112126,-215.23116357555637,2730.7021366119052,0.0
332154.6038362722,4725833.5216966402,-47500.0,1826.4706195074139,-687.08416719366426,995.45996918959486,1411.3488736990769,-910.52000484803773,859.34660385523898,1812.6657747510933,96.745630839945292,279.81500566254181,-279.81500566254181,-96.745630839945292,3271.2884512669848,0.0
337154.6038362722,4725833.5216966402,-47500.0,1791.9334136385585,-852.08265305064776,1388.4778023983108,1583.351603849683,-1299.5823793257828,1138.7747522077357,2153.3584474089625,-26.091707933316172,622.60135916763898,-622.60135916763898,26.091707933316172,3884.8110210601867,0.0
342154.6038362722,4725833.5216966402,-47500.0,1647.2884236169978,-953.97599617060871,1873.2353107541958,1682.1013171474794,-1760.3830126786384,1454.8482628397583,2516.5927390805518,-120.65059911729526,1057.0061628858271,-1057.0061628858271,120.65059911729526,4543.8988377619389,0.0
347154.6038362722,4725833.5216966402,-47500.0,1395.4036098338129,-939.57647076373314,2425.4513961372404,1657.5292875869943,-2259.8957339626418,1776.4526110669431,2873.887567845115,-137.95772629588805,1554.7391392197485,-1554.7391392197485,137.95772629588805,5198.625408627564,0.0
352154.6038362722,4725833.5216966402,-47500.0,1074.4085217992988,-760.59566938758587,2989.7711093600619,1466.6774024440988,-2734.7807597060732,2048.5417271185052,3184.6652100384031,-21.30797970173478,2049.9319670706227,-2049.9319670706227,21.30797970173478,5777.3483176223172,0.0
357154.6038362722,4725833.5216966402,-47500.0,759.10404195259764,-397.0846879850148,3482.0706366793006,1096.2687252985552,-3096.2810262104931,2197.2117819613304,3402.1119237772537,273.35425777450973,2440.6800560993283,-2440.6800560993283,-273.35425777450973,6197.2650656980823,0.0
362154.6038362722,4725833.5216966402,-47500.0,541.73603558137688,120.83346712857053,3807.5907584340384,582.76854858058209,-3251.2038013212091,2148.5779381756629,3484.8006971670325,750.78339484769072,2611.2218819627524,-2611.2218819627524,-750.78339484769072,6385.4266851481625,0.0
367154.6038362722,4725833.5216966402,-47500.0,495.0998981430975,708.45215403028124,3891.7857836414291,14.895639561210247,-3134.5272100702819,1857.2030750870665,3411.2883947268515,1358.3687768430243,2471.9986426643372,-2471.9986426643372,-1358.3687768430243,6304.62726333315,0.0
372154.6038362722,4725833.5216966402,-47500.0,636.74404179149872,1248.250092371987,3709.861182555881,-489.59543780897116,-2738.2451917261342,1330.1457855358124,3193.5041316333391,1992.0237738354558,1999.4352998109821,-1999.4352998109821,-1992.0237738354558,5973.3915242912817,0.0
377154.6038362722,4725833.5216966402,-47500.0,917.14756719932268,1630.2551697894257,3298.1665861049719,-824.36764239435297,-2119.3587207618011,631.58318851046488,2892.2220374312083,2528.1666521278744,1252.0699945404908,-1252.0699945404908,-2528.1666521278744,5469.7092012930389,0.0
382154.6038362722,4725833.5216966402,-47500.0,1240.2843317865081,1789.8614913817435,2740.5146089835862,-930.95869016517508,-1381.407003901782,-136.18957312149655,2628.852620108773,2866.2169388446778,352.37623784065954,-352.37623784065954,-2866.2169388446778,4913.8701425748823,0.0
387154.6038362722,4725833.5216966402,-47500.0,1503.6565064800564,1723.8527812651587,2137.6414482810414,-812.78622113423796,-639.82075811480308,-865.20940719542739,2457.9157368447513,2959.2394491101104,-555.29565693874542,555.29565693874542,-2959.2394491101104,4431.7343453311332,0.0
392154.6038362722,4725833.5216966402,-47500.0,1634.6852864672089,1480.27877371912,1576.3132009893714,-523.41474003219366,10.980294027487508,-1471.2684784566027,2348.8106106024702,2819.6247245255795,-1348.0056308332419,1348.0056308332419,-2819.6247245255795,4106.6995880074974,0.0
397154.6038362722,4725833.5216966402,-47500.0,1607.228994236043,1132.6889417217826,1111.1465145325913,-140.13659830696,515.57111939972833,-1908.8580432229758,2277.9324999249443,2502.7178599253057,-1950.2258662206098,1950.2258662206098,-2502.7178599253057,3945.8845595619073,0.0
402154.6038362722,4725833.5216966402,-47500.0,1436.8963413489562,753.90477550678634,762.24910804793819,262.12813684742423,858.28456529707398,-2170.2996380692616,2223.2885536379972,2081.4080590491008,-2337.6598989249846,2337.6598989249846,-2081.4080590491008,3892.8954305120119,0.0
407154.6038362722,4725833.5216966402,-47500.0,1164.4082871920534,399.32183076459376,523.63749590413465,627.1170074521126,1052.7504536816296,-2275.0173928005652,2166.3843492024293,1624.280814031001,-2525.4755896443103,2525.4755896443103,-1624.280814031001,3875.4876145433414,0.0
412154.6038362722,4725833.5216966402,-47500.0,837.76832123539339,101.60501092368281,375.07492332754231,922.18612749959016,1128.2062842105786,-2256.3331704062075,2096.3058770606949,1183.3222970191359,-2551.1143181288012,2551.1143181288012,-1183.3222970191359,3841.448898995804,0.0
417154.6038362722,4725833.5216966402,-47500.0,499.65764143946444,-126.62635031252246,292.10024655637267,1135.4295670710678,1118.0819104799425,-2150.6750469147673,2009.7002615799306,790.78531065163054,-2459.1860108483047,2459.1860108483047,-790.78531065163054,3766.0685550726166,0.0
422154.6038362722,4725833.5216966402,-47500.0,181.45221401808064,-286.69728939968184,252.27336519688984,1269.4532496920265,1052.8671324093975,-1990.8854783506902,1908.5160053720788,461.79614175947313,-2291.5480269037807,2291.5480269037807,-461.79614175947313,3644.8075948526175,0.0
427154.6038362722,4725833.5216966402,-47500.0,-97.673497083310593,-387.67569904702077,237.92843026511611,1335.0377161924046,956.89888108720254,-1803.2132272891051,1797.7536430352145,199.20577583679449,-2082.4567928528891,2082.4567928528891,-199.20577583679449,3484.0633899684021,0.0
432154.6038362722,4725833.5216966402,-47500.0,-328.83818251984667,-441.63252729791611,236.60696431954108,1346.2266170831074,847.78850500278986,-1606.7925174708844,1684.1802718562576,-1.5926421921442397,-1857.312253474011,1857.312253474011,1.5926421921442397,3294.51677817265,0.0
437154.6038362722,4725833.5216966402,-47500.0,-510.5755962718851,-460.66194851627773,240.32219511584663,1317.1609118836536,737.23009394576502,-1414.4465309100362,1574.2233241308404,-148.8957990654759,-1633.403676496112,1633.403676496112,148.8957990654759,3087.3024435883804,0.0
442154.6038362722,4725833.5216966402,-47500.0,-646.06860954968215,-455.34935450403344,244.4455995216498,1260.3818191043895,632.30740071786943,-1233.9964020299558,1468.4294625317707,-252.16335522678924,-1421.4829529591368,1421.4829529591368,252.16335522678924,2872.1745663480228,0.0
447154.6038362722,4725833.5216966402,-47500.0,-740.95752278618215,-434.21242175624855,246.63938639181148,1186.1505183589632,536.80310134156525,-1069.5997788485213,1364.3680578967462,-320.53698825341644,-1227.4643149044489,1227.4643149044489,320.53698825341644,2656.8538933975792,0.0
452154.6038362722,4725833.5216966402,-47500.0,-801.81039120775381,-403.70052357060968,246.00354300886696,1102.3782680150312,452.29549562184116,-922.90281344817492,1262.2327674299111,-362.10424777738967,-1053.9189146741239,1053.9189146741239,362.10424777738967,2447.0000540381179,0.0
457154.6038362722,4725833.5216966402,-47500.0,-835.1651157237626,-368.45965231279013,242.46442058253382,1014.8681105793711,378.98766482318575,-793.9375821757061,1163.4819479471175,-383.63324405347009,-901.25130269148042,901.25130269148042,383.63324405347009,2246.4664389227687,0.0
462154.6038362722,4725833.5216966402,-47500.0,-846.99943336957608,-331.68502276271585,236.37008085209234,927.67829696839078,316.29164686657998,-681.77581792986609,1069.4646474455383,-390.57393407812469,-768.56089648894044,768.56089648894044,390.57393407812469,2057.6484801961556,0.0
467154.6038362722,4725833.5216966402,-47500.0,-842.49032923998925,-295.46737761776876,228.2408570433202,843.50028255119616,263.21734257777354,-584.97984564171179,981.09161714702282,-387.19101939707912,-654.23841696711838,654.23841696711838,387.19101939707912,1881.8298591692696,0.0
272154.6038362722,4730833.5216966402,-47500.0,346.6084484044809,200.32714884311778,22.360997596039873,58.477596679466714,103.62144833666488,-37.650372485236851,297.11430318699314,301.43494277709954,-204.5317980065565,204.5317980065565,-301.43494277709954,539.50005464355763,0.0
277154.6038362722,4730833.5216966402,-47500.0,419.70822131910251,192.75550862262739,26.942902710633764,89.869219962988225,101.89969369358732,-31.342054883072002,319.73345060050536,321.00588298466471,-222.55894301909586,222.55894301909586,-321.00588298466471,589.40493113868376,0.0
282154.6038362722,4730833.5216966402,-47500.0,503.19276581920991,178.81539148905097,34.760551290245985,129.08105092188069,96.021813396374455,-21.349737864091786,347.43275730418651,338.94379415062633,-239.57114802602587,239.57114802602587,-338.94379415062633,649.94778477131752,0.0
287154.6038362722,4730833.5216966402,-47500.0,597.56139527211735,156.70123793175094,47.374652229384971,177.58043548689355,84.276797269748258,-6.4592030113225123,383.72505388201756,354.03912738633301,-254.21697048081217,254.21697048081217,-354.03912738633301,724.43095768725811,0.0
292154.6038362722,4730833.5216966402,-47500.0,702.84271240033627,124.29478565099549,66.97768975718715,236.94364878753598,64.397571508161221,14.855241989319437,433.40051089541242,364.74839275762679,-264.57307348878464,264.57307348878464,-364.74839275762679,816.94523622039594,0.0
297154.6038362722,4730833.5216966402,-47500.0,818.29839510481042,79.211699736437026,96.613390177853574,308.75915570857251,33.41483897927381,44.482205323944235,499.48913717529393,369.1744210071858,-267.96506029007122,267.96506029007122,-369.1744210071858,932.38349641544323,0.0
302154.6038362722,4730833.5216966402,-47500.0,942.0120237316504,18.943989707574563,140.44536591893234,394.44573001015158,-12.503716207661066,84.717134656692679,583.42053858775034,365.09960602528304,-260.75523577344006,260.75523577344006,-365.09960602528304,1076.3793892119118,0.0
307154.6038362722,4730833.5216966402,-47500.0,1070.3475058486656,-58.830039232504085,204.05609179893489,494.93432474894087,-78.203986683347154,138.28181539448417,687.30054066960054,350.12455650127828,-238.11328092883645,238.11328092883645,-350.12455650127828,1255.1403224337885,0.0
312154.6038362722,4730833.5216966402,-47500.0,1197.294601464509,-155.66283605111141,294.71713649230759,610.14067915870737,-169.62742068201976,208.28434776551634,814.02080950080358,321.99845821964897,-193.81761422253345,193.81761422253345,-321.99845821964897,1475.1125654671644,0.0
317154.6038362722,4730833.5216966402,-47500.0,1313.8012755589552,-271.34814100859847,421.49497388442052,738.13994828007435,-293.70474555978961,298.04953438156372,966.59210064512922,279.2701207027099,-120.20031235492269,120.20031235492269,-279.2701207027099,1742.3630733701123,0.0
322154.6038362722,4730833.5216966402,-47500.0,1407.3476610836872,-402.40398250347204,594.93184924021421,873.96904942464778,-457.84482308489527,410.68908001515962,1147.324922861872,222.42013929845467,-8.4617921553524837,8.4617921553524837,-222.42013929845467,2061.4957743878149,0.0
327154.6038362722,4730833.5216966402,-47500.0,1462.2662691193123,-540.03224082847134,825.8788563858883,1008.0892468784924,-668.68101269943793,548.20057236884293,1356.7321122503345,155.60463704621748,150.25353976548701,-150.25353976548701,-155.60463704621748,2433.894877740428,0.0
332154.6038362722,4730833.5216966402,-47500.0,1461.5840267824408,-667.90415604001646,1122.9339406523768,1124.8222398018386,-929.65928721041485,709.82439455861424,1592.0422789602903,88.941664214217724,362.47395225349089,-362.47395225349089,-88.941664214217724,2855.1716639442684,0.0
337154.6038362722,4730833.5216966402,-47500.0,1391.2228695064259,-760.76304827741581,1488.0467839078326,1201.5934964570299,-1237.1885227746495,889.47138878393957,1845.4109996972722,40.767308551572455,628.20571115372616,-628.20571115372616,-40.767308551572455,3312.0053325651461,0.0
342154.6038362722,4730833.5216966402,-47500.0,1246.7860237350501,-785.63297036930908,1910.5149665165627,1210.4555631440487,-1575.6920669788149,1072.4668248114961,2102.2726639690441,38.447163130094054,935.01763911437763,-935.01763911437763,-38.447163130094054,3779.1938245425067,0.0
347154.6038362722,4730833.5216966402,-47500.0,1041.4300530017426,-707.75151116909194,2361.0377316624254,1123.5923111024431,-1913.1729519730668,1232.7871012382427,2340.7393488197376,115.5165505754311,1251.9662220606606,-1251.9662220606606,-115.5165505754311,4218.562977738663,0.0
352154.6038362722,4730833.5216966402,-47500.0,810.78153019032516,-502.11286797886731,2789.3283463056646,923.39790985925526,-2200.4423190069278,1333.1195594050512,2533.2664531293995,303.14673485601747,1526.9860643828329,-1526.9860643828329,-303.14673485601747,4581.9424450643528,0.0
357154.6038362722,4730833.5216966402,-47500.0,609.37856149075083,-168.02988961644866,3129.5257192509912,614.71737219084469,-2377.5993197390803,1330.4051393539378,2651.5359983327708,616.3926946921523,1692.4709934015882,-1692.4709934015882,-616.3926946921523,4819.8753087590376,0.0
362154.6038362722,4730833.5216966402,-47500.0,495.54798638571748,260.21614015026751,3315.2944947786832,233.16671558611085,-2388.9566348992166,1187.649424090717,2674.4444569818788,1040.1665863387457,1681.5363417413323,-1681.5363417413323,-1040.1665863387457,4895.5084557263226,0.0
367154.6038362722,4730833.5216966402,-47500.0,508.66465931140584,714.87937202431317,3300.84379469952,-157.48495155832558,-2202.3599653054607,888.67466685661759,2597.9917538153513,1523.3442243444686,1451.23237681162,-1451.23237681162,-1523.3442243444686,4799.8277308154748,0.0
372154.6038362722,4730833.5216966402,-47500.0,649.96985803289226,1111.6634848910999,3078.5833022305128,-481.31516901122939,-1824.0827993067417,448.79370460822912,2447.1448144623505,1987.5567630221419,1002.4012773063944,-1002.4012773063944,-1987.5567630221419,4561.9544473575188,0.0
377154.6038362722,4730833.5216966402,-47500.0,878.58546600613522,1376.0287138441715,2683.9000420404782,-673.89670727123485,-1300.8321485013485,-85.148798162698583,2287.1509917481535,2349.3529630828452,385.02157536279492,-385.02157536279492,-2349.3529630828452,4248.1826915530255,0.0
382154.6038362722,4730833.5216966402,-47500.0,1125.9734722591716,1466.3827768476751,2184.0429720488419,-702.38327653979195,-706.89284254770894,-646.544859730447,2179.3316916082917,2545.8922500529798,-314.9469979291639,314.9469979291639,-2545.8922500529798,3945.4701249979148,0.0
387154.6038362722,4730833.5216966402,-47500.0,1321.0304009339559,1383.4286404417549,1656.8263854964032,-572.76312367134869,-122.54798243611678,-1167.2488264651267,2121.8478364940197,2552.0496376780175,-1000.9201963897319,1000.9201963897319,-2552.0496376780175,3729.7047940660323,0.0
392154.6038362722,4730833.5216966402,-47500.0,1412.8545971425926,1163.3834840554935,1169.4052221812294,-322.70059975924414,386.28944649445918,-1594.064703363352,2095.851033823863,2382.4001318505002,-1591.2205447521778,1591.2205447521778,-2382.4001318505002,3631.7003851157697,0.0
397154.6038362722,4730833.5216966402,-47500.0,1381.8182768284782,861.15276438930709,765.29776684118133,-5.7306125763401869,779.75887793662207,-1897.5874081082918,2083.3128108460091,2080.1471814479514,-2034.8781721814637,2034.8781721814637,-2080.1471814479514,3627.9058441570151,0.0
402154.6038362722,4730833.5216966402,-47500.0,1237.5899805697177,532.5176826165042,461.94946499518579,325.02586170900997,1045.3342878187539,-2072.3271410267421,2067.6504838175861,1700.4914062596822,-2314.6652405852401,2314.6652405852401,-1700.4914062596822,3665.4721029683901,0.0
407154.6038362722,4730833.5216966402,-47500.0,1008.9661047757477,221.84051539570333,256.0318799719978,627.91985879434458,1191.7395940454401,-2130.8721386025836,2037.0990866518739,1295.8953324189938,-2440.5138038978926,2440.5138038978926,-1295.8953324189938,3694.9454580195788,0.0
412154.6038362722,4730833.5216966402,-47500.0,731.90769602629598,-42.850440516090437,131.81693500318298,877.07678390650881,1240.1034775874182,-2095.9894102187127,1986.1724168205446,907.17936961477676,-2438.8745603170719,2438.8745603170719,-907.17936961477676,3686.0528318414558,0.0
417154.6038362722,4730833.5216966402,-47500.0,440.19768739887201,-248.99614133212162,68.903857311367972,1061.455250121064,1215.938444972084,-1993.6132697646617,1914.7125957709479,560.65306189183707,-2342.6182081910165,2342.6182081910165,-560.65306189183707,3627.5630630745909,0.0
422154.6038362722,4730833.5216966402,-47500.0,160.24534851741078,-395.65463306757459,47.536827625136098,1181.1922746912576,1143.6135307853256,-1848.0535745650177,1826.0101579246686,269.41153206824265,-2183.7993036461867,2183.7993036461867,-269.41153206824265,3521.1424896993126,0.0
427154.6038362722,4730833.5216966402,-47500.0,-90.471892524271325,-489.01234588283745,51.357248713587055,1243.3540102123272,1043.4495661795477,-1679.4890911254095,1725.2077351934179,36.575537147016348,-1989.6463172292219,1989.6463172292219,-36.575537147016348,3375.2048687947613,0.0
432154.6038362722,4730833.5216966402,-47500.0,-302.64080413577699,-538.5984320521369,68.234338652247317,1258.3119220824901,930.79895994015294,-1503.1900184444435,1619.2209444490638,-141.16579523551104,-1781.1001003307081,1781.1001003307081,141.16579523551104,3200.561240324083,0.0
437154.6038362722,4730833.5216966402,-47500.0,-473.28071712197146,-554.66013560655801,89.974826915184963,1237.1809522460851,816.3171756570938,-1329.7922833335306,1519.3117078700775,-270.5763837195251,-1572.9543195158449,1572.9543195158449,270.5763837195251,3007.859484227371,0.0
442154.6038362722,4730833.5216966402,-47500.0,-603.71712515523677,-546.63476832784897,111.54734771579346,1190.2812938166219,706.78157665093852,-1166.0684670156215,1425.1929650214684,-359.73766234117193,-1374.7871072731696,1374.7871072731696,359.73766234117193,2806.3196913914007,0.0
447154.6038362722,4730833.5216966402,-47500.0,-697.82049737743478,-522.44479410863391,130.21731742533987,1126.3903373360829,606.0456613895102,-1015.8342092796057,1329.9665314406918,-416.70499756984839,-1192.1431594462292,1192.1431594462292,416.70499756984839,2603.2848516163217,0.0
452154.6038362722,4730833.5216966402,-47500.0,-760.67482457169945,-488.32006502128104,144.78725345328385,1052.517265227473,515.91063944663949,-880.79102429552279,1234.6948033545057,-448.77582476744783,-1027.6622168850593,1027.6622168850593,448.77582476744783,2404.2231057411141,0.0
457154.6038362722,4730833.5216966402,-47500.0,-797.67396805473254,-448.91059588213346,155.00983089049856,973.98101781622654,436.82954412394702,-761.22271648701894,1141.5265055868729,-462.17400938798062,-882.02265885846748,882.02265885846748,462.17400938798062,2212.9500645150342,0.0
462154.6038362722,4730833.5216966402,-47500.0,-813.96912970597282,-407.52837545405811,161.17133993979135,894.63369412890017,368.43172946938239,-656.52695785541891,1052.1196242143722,-461.98848084585836,-754.6659711869321,754.6659711869321,461.98848084585836,2031.9279091222259,0.0
277154.6038362722,4735833.5216966402,-47500.0,434.84416398138882,137.05810859427817,34.746155314144119,111.4501743799398,70.755551357842151,-15.704132996093678,287.24415402691892,280.55579914782419,-194.87568404223458,194.87568404223458,-280.55579914782419,539.85734381022519,0.0
282154.6038362722,4735833.5216966402,-47500.0,509.53105839143456,116.50778295804152,47.821012917075386,148.86262754374394,59.576498890684,-4.7419367805762445,317.48217792915568,291.63936927489101,-205.00491217421975,205.00491217421975,-291.63936927489101,598.37980032360156,0.0
287154.6038362722,4735833.5216966402,-47500.0,591.75791567007479,87.915587307265625,67.132894351111204,193.83342045939858,41.992399296917476,10.627531324045549,358.0717861251465,299.46538019312607,-211.63381172846798,211.63381172846798,-299.46538019312607,670.26869034686638,0.0
292154.6038362722,4735833.5216966402,-47500.0,680.76648456278144,49.707668586135455,95.067107093483671,247.24123602552214,15.921432677183292,31.5797503520009,410.05601230138376,302.83850144326107,-212.87837450547795,212.87837450547795,-302.83850144326107,758.82582318551499,0.0
297154.6038362722,4735833.5216966402,-47500.0,774.98840101533585,0.32171170982364988,134.76586369622638,309.76636860657862,-21.229222982193136,59.487642570699343,474.29500212080831,300.44765665508794,-206.27627168116587,206.27627168116587,-300.44765665508794,867.73525984638445,0.0
302154.6038362722,4735833.5216966402,-47500.0,871.74078139934227,-61.569414062693184,190.28649856390999,381.68014795937717,-72.613324501830476,95.897545583189896,552.25677015574547,290.99286590802006,-188.69629238776912,188.69629238776912,-290.99286590802006,1000.9198965297795,0.0
307154.6038362722,4735833.5216966402,-47500.0,966.88347807102389,-136.68073316988918,266.72446315000195,462.52882673246256,-141.93947285521898,142.4586629650976,645.76879634325269,273.42662789169731,-156.29073250352553,156.29073250352553,-273.42662789169731,1162.3056880678844,0.0
312154.6038362722,4735833.5216966402,-47500.0,1054.4954682672724,-224.52545126257161,370.22475503416854,550.68108186473762,-233.34794859056205,200.77282228349492,756.62176612278813,247.36704817322169,-104.55137034186528,104.55137034186528,-247.36704817322169,1355.4442641742671,0.0
317154.6038362722,4735833.5216966402,-47500.0,1126.6962456169072,-322.56359493539384,507.74766726488275,642.72121479098178,-351.0712705647407,272.11303599547244,886.12449659809613,213.74551962682708,-28.573362464732497,28.573362464732497,-213.74551962682708,1582.9192497850647,0.0
322154.6038362722,4735833.5216966402,-47500.0,1173.8380146519905,-425.09624860247607,686.38084597425916,732.7144299275792,-498.73353344249881,356.93615621284033,1034.5339079570101,175.72918105276432,76.31067347321742,-76.31067347321742,-175.72918105276432,1845.4472769370655,0.0
327154.6038362722,4735833.5216966402,-47500.0,1185.4100815809463,-522.05659638981285,911.92935780743801,811.47773657965161,-678.11409723790302,454.10114212901374,1200.3102236079717,139.87099168183474,213.31176177522102,-213.31176177522102,-139.87099168183474,2140.6165887773132,0.0
332154.6038362722,4735833.5216966402,-47500.0,1152.0456116298176,-598.11475094876323,1186.5393459821566,866.1798400139005,-887.24197628580259,559.73076389849575,1379.2174028042766,117.23995272909954,382.1777435761644,-382.1777435761644,-117.23995272909954,2461.3165445876261,0.0
337154.6038362722,4735833.5216966402,-47500.0,1068.8507524103068,-632.87739825560482,1505.3471690256606,880.8482710554199,-1117.8936036392518,665.78341445552485,1563.424133547978,123.94953855961103,576.38263077857084,-576.38263077857084,-123.94953855961103,2794.1493535637869,0.0
342154.6038362722,4735833.5216966402,-47500.0,939.6826943364938,-603.24193586031311,1852.72534952712,838.5413212739104,-1353.030124793738,758.69450441535764,1740.9633380712728,180.12549397907702,779.99114366176855,-779.99114366176855,-180.12549397907702,3118.4743465937281,0.0
347154.6038362722,4735833.5216966402,-47500.0,780.94005478744236,-488.75675537254136,2199.5934970302242,725.7437609976198,-1565.3908251007213,818.88490312008355,1896.1146866688428,306.24634173162144,965.48889133427383,-965.48889133427383,-306.24634173162144,3407.0946031151175,0.0
352154.6038362722,4735833.5216966402,-47500.0,622.33454333027464,-279.6836531617181,2504.0491029875075,538.6284917713532,-1719.0007819059604,822.27999609972392,2011.3404347482212,516.44992341049829,1094.6388217000735,-1094.6388217000735,-516.44992341049829,3629.6707091769181,0.0
357154.6038362722,4735833.5216966402,-47500.0,502.06130720674884,14.628460499551551,2717.368466722854,289.22080208133571,-1775.0485868212443,744.75430657814195,2071.1771400323905,810.12094204338405,1124.3247657144736,-1124.3247657144736,-810.12094204338405,3759.3651875340697,0.0
362154.6038362722,4735833.5216966402,-47500.0,455.85976046728143,361.35876917940124,2795.4526148308851,8.0894499162071352,-1701.8686846465996,569.20470754061967,2068.0811873377634,1165.2555525261293,1017.5512485465213,-1017.5512485465213,-1165.2555525261293,3781.8472510263973,0.0
367154.6038362722,4735833.5216966402,-47500.0,503.31557068667126,707.9134475681202,2712.4762354497079,-259.52291978525761,-1486.0529194859614,293.06359369739778,2010.3123900654414,1538.0292041669345,756.5617545215315,-756.5617545215315,-1538.0292041669345,3704.0002372814065,0.0
372154.6038362722,4735833.5216966402,-47500.0,637.87947378861008,994.41521385361807,2470.9432019128622,-464.43409767140486,-1139.7963655285478,-67.23967275424296,1930.684845640586,1871.0310259336075,352.4040751400986,-352.4040751400986,-1871.0310259336075,3558.2205080919548,0.0
377154.6038362722,4735833.5216966402,-47500.0,826.43459683073434,1170.6925821319542,2102.972208040751,-567.45011784615645,-700.38678960461743,-477.68239009975809,1874.5121241772154,2108.1783400581608,-154.30046571359617,154.30046571359617,-2108.1783400581608,3397.6772964974589,0.0
382154.6038362722,4735833.5216966402,-47500.0,1019.4271697373511,1210.4422627807246,1661.7037051186689,-550.51662677991897,-221.35866912652617,-894.03682940216686,1856.4449160240017,2210.2816544364277,-702.64192734140602,702.64192734140602,-2210.2816544364277,3279.4134714460188,0.0
387154.6038362722,4735833.5216966402,-47500.0,1166.8173147841856,1116.6108686871783,1206.6378687736119,-420.40498320742893,241.04109690529228,-1272.3587269730374,1865.7002277932488,2164.6598694270915,-1226.9649531760517,1226.9649531760517,-2164.6598694270915,3239.3329186088308,0.0
392154.6038362722,4735833.5216966402,-47500.0,1232.496979081448,916.80379914511718,789.18601146647961,-204.19727127806243,640.54571922919376,-1578.4131049389275,1887.7974905070655,1985.5111764799594,-1672.1837112101557,1672.1837112101557,-1985.5111764799594,3275.546747593587,0.0
397154.6038362722,4735833.5216966402,-47500.0,1201.7226037429939,652.2443344907158,443.50766370208009,60.359987982922249,948.46191775796524,-1792.9498648960739,1908.3994648730343,1706.4142292623726,-2003.4950126077349,2003.4950126077349,-1706.4142292623726,3355.33689990434,0.0
402154.6038362722,4735833.5216966402,-47500.0,1080.4533321103975,365.68524797781862,184.29096934715335,335.13425647574257,1154.9620427777631,-1912.0919415232886,1915.7141431254822,1369.3255441577824,-2208.6323673270053,2208.6323673270053,-1369.3255441577824,3437.5226143567056,0.0
407154.6038362722,4735833.5216966402,-47500.0,889.12985494318468,92.466055466347996,9.9805568123787136,589.09680552397549,1265.5772992765712,-1944.1151251724707,1902.4980019542663,1014.5426251214833,-2294.1563418005753,2294.1563418005753,-1014.5426251214833,3490.1501435413707,0.0
412154.6038362722,4735833.5216966402,-47500.0,654.67741683478459,-143.70816783258644,-91.429792307482188,801.78417900446254,1295.5207512999712,-1904.6879464886213,1866.3027933709482,674.2297200986186,-2278.8319639139363,2278.8319639139363,-674.2297200986186,3496.157584386965,0.0
417154.6038362722,4735833.5216966402,-47500.0,403.69099237595941,-330.90523708735202,-136.60463760499357,963.3053474245495,1264.1259068297625,-1812.3258495214257,1808.4368331567211,369.91694754804689,-2186.8902154266716,2186.8902154266716,-369.91694754804689,3451.341061904523,0.0
422154.6038362722,4735833.5216966402,-47500.0,158.14554037104574,-466.66283926168541,-142.51525858701382,1072.2795353234324,1190.6725554995535,-1685.0159586282939,1732.5153580222877,112.99221839283496,-2042.8173603204975,2042.8173603204975,-112.99221839283496,3359.9480716298085,0.0
427154.6038362722,4735833.5216966402,-47500.0,-66.372862054638617,-554.84373232674363,-123.88933990880047,1133.0493246575793,1091.9135822565215,-1538.2322056265116,1643.1639644917323,-93.199535738058557,-1868.1571705404388,1868.1571705404388,93.199535738058557,3230.6043921721807,0.0
432154.6038362722,4735833.5216966402,-47500.0,-260.60801254145525,-602.71241529745953,-92.171242082384964,1153.0711080531312,981.03818363741652,-1384.1193757997164,1545.0911989865936,-250.80157108417916,-1680.0766867896273,1680.0766867896273,250.80157108417916,3073.3862131564156,0.0
437154.6038362722,4735833.5216966402,-47500.0,-420.56952451439696,-618.71937513200385,-55.478040284612931,1140.9067798120498,867.60229328405592,-1231.4699753717459,1455.4223840976244,-365.13546890928831,-1491.1600601509313,1491.1600601509313,365.13546890928831,2898.0254029793527,0.0
442154.6038362722,4735833.5216966402,-47500.0,-546.11794491929561,-611.07243530528217,-19.073660479465868,1104.8988906774812,757.983202832492,-1086.1376050993758,1373.3619708902193,-442.93335031277695,-1309.898085767491,1309.898085767491,442.93335031277695,2712.9799175969092,0.0
447154.6038362722,4735833.5216966402,-47500.0,-639.60463095563955,-586.96751287144514,13.977192675730317,1052.4316940202866,656.03632163566203,-951.62405574751938,1286.5133931768787,-491.14847120730633,-1141.4719869889307,1141.4719869889307,491.14847120730633,2525.0814853075735,0.0
452154.6038362722,4735833.5216966402,-47500.0,-704.75889183623735,-552.28614219476378,42.171068009932561,989.61810682329656,563.75866369222581,-829.67688681888183,1198.3262849701659,-516.25199469984148,-988.57822421165667,988.57822421165667,516.25199469984148,2339.5250151826908,0.0
457154.6038362722,4735833.5216966402,-47500.0,-745.87430595963724,-511.58172038600492,65.033195842019353,921.26067603870024,481.86425088592324,-720.8156682051316,1111.3199739761853,-523.88588689685059,-852.16478144843711,852.16478144843711,523.88588689685059,2160.0392155826653,0.0
462154.6038362722,4735833.5216966402,-47500.0,-767.26757985100949,-468.21748676721131,82.713518071769684,850.96290574272007,410.23761327943851,-624.75359054907926,1027.2453805223563,-518.74905009297026,-732.02509855817198,732.02509855817198,518.74905009297026,1989.1267054962273,0.0
277154.6038362722,4740833.5216966402,-47500.0,435.10788007857138,87.81498068950485,47.980570171606139,124.12453463940162,42.466471279488289,-4.0242281081352997,265.08733891458121,243.04551471471203,-166.92293932827496,166.92293932827496,-243.04551471471203,497.46341285349189,0.0
282154.6038362722,4740833.5216966402,-47500.0,499.7795498340339,63.105878843055088,66.284185854264109,158.32307312544916,27.384992068515839,7.0092526306187697,297.99595079526352,249.06105982592362,-171.27224083526903,171.27224083526903,-249.06105982592362,553.64484347854375,0.0
287154.6038362722,4740833.5216966402,-47500.0,569.00809841968373,31.087491228706849,91.86328369780361,198.29800459607225,5.8417923289121827,21.800595732942782,338.87402942085549,251.92365401025609,-171.50214966061122,171.50214966061122,-251.92365401025609,622.07232260777209,0.0
292154.6038362722,4740833.5216966402,-47500.0,641.53253466178091,-9.2164450778920948,127.08444505103904,244.35132530785881,-23.937257207888109,41.182807804425181,388.3734169751815,250.85462947727436,-165.92749316824367,165.92749316824367,-250.85462947727436,705.21229238322155,0.0
297154.6038362722,4740833.5216966402,-47500.0,715.3486885946603,-58.553463203836472,174.90957720495487,296.46606693250419,-64.043089856165793,66.055027911490129,447.52394942360991,245.15326925016274,-152.47576835957483,152.47576835957483,-245.15326925016274,805.61744312931341,0.0
302154.6038362722,4740833.5216966402,-47500.0,787.52297226751739,-117.1913367139322,238.94478666487339,354.10985723782477,-116.85041615510758,97.320184718591648,517.51131417939121,234.36732123054938,-128.6918817585271,128.6918817585271,-234.36732123054938,925.76054204970205,0.0
307154.6038362722,4740833.5216966402,-47500.0,854.03250303270454,-184.55062869615304,323.41175905447528,415.97194510111768,-184.90968623253664,135.77326572441251,599.43864571995948,218.55953382610315,-91.814248335196197,91.814248335196197,-218.55953382610315,1067.7925885802174,0.0
312154.6038362722,4740833.5216966402,-47500.0,909.69900343731445,-258.70230198650302,432.96877542904298,479.63303733787188,-270.71486889431191,181.917086124083,694.06561121198365,198.69528726874492,-38.975052989471038,38.975052989471038,-198.69528726874492,1233.1935798902398,0.0
317154.6038362722,4740833.5216966402,-47500.0,948.32772646204921,-335.74127098146016,572.27519186745928,541.18969243298386,-376.28088092187676,235.67686441539186,801.4901898455015,177.16076236479526,32.401526518707954,-32.401526518707954,-177.16076236479526,1422.2798436830524,0.0
322154.6038362722,4740833.5216966402,-47500.0,963.20971178029629,-409.11206278241616,745.16514939501212,594.90019337569765,-502.45499732007033,295.98376552106805,920.75314249889448,158.37774336150753,123.91313465297824,-123.91313465297824,-158.37774336150753,1633.5448380918187,0.0
327154.6038362722,4740833.5216966402,-47500.0,948.17134835757054,-469.08005615363311,953.30398462005928,632.99554055234739,-647.90478510509752,360.21230865126705,1049.373744626577,149.39328436872847,235.12449509621348,-235.12449509621348,-149.39328436872847,1862.8580590647334,0.0
332154.6038362722,4740833.5216966402,-47500.0,899.2979222418104,-502.7052510710779,1194.2921175479983,645.90050494348088,-807.80381025271799,423.50340959094189,1182.8782673255589,160.18042945088797,362.13596539723966,-362.13596539723966,-160.18042945088797,2102.6411238540036,0.0
337154.6038362722,4740833.5216966402,-47500.0,817.24228543747256,-494.83018060838839,1459.4184530049517,623.19695383432384,-972.41287439151051,478.10583335968573,1314.4686335020206,203.21768254348245,495.94975984594333,-495.94975984594333,-203.21768254348245,2341.2910024113453,0.0
342154.6038362722,4740833.5216966402,-47500.0,709.60188404953556,-430.59876708887595,1731.6724910812,555.63993272397909,-1126.0390995708976,513.02986664340096,1435.0862046040052,291.81910135004455,621.12526979152994,-621.12526979152994,-291.81910135004455,2563.3034594827318,0.0
347154.6038362722,4740833.5216966402,-47500.0,592.28957932199864,-299.66823845154352,1985.0883962460807,438.26271472858406,-1247.1545271042655,514.47209299692645,1534.2042984696068,436.85159886320366,715.58409719884776,-715.58409719884776,-436.85159886320366,2750.6612355389007,0.0
352154.6038362722,4740833.5216966402,-47500.0,488.47932503018541,-101.43366162937862,2186.707738576577,274.00546314898577,-1310.5456600501593,467.50422498513694,1601.6842973613514,642.0887518166212,752.60022751307019,-752.60022751307019,-642.0887518166212,2885.9544930822622,0.0
357154.6038362722,4740833.5216966402,-47500.0,424.10128068195479,150.54021553313945,2301.9573767750694,76.527446417907086,-1291.9262108896262,359.22463983165341,1630.9467061447822,899.47179230424433,705.61175315658204,-705.61175315658204,-899.47179230424433,2957.2213164509326,0.0
362154.6038362722,4740833.5216966402,-47500.0,420.30968420903918,427.38314279993443,2302.8414560005963,-129.57391185174987,-1174.3620735335899,182.87738779751936,1623.7124879129151,1186.4798722081896,555.31720992747887,-555.31720992747887,-1186.4798722081896,2963.6109556142337,0.0
367154.6038362722,4740833.5216966402,-47500.0,485.36887853166741,688.96866425520011,2176.5196039528778,-312.39031831979213,-954.52376249538133,-58.392857330757913,1595.9921522520553,1467.7996478609639,296.94661688016561,-296.94661688016561,-1467.7996478609639,2919.8277498788298,0.0
372154.6038362722,4740833.5216966402,-47500.0,609.65018298490497,892.88295774116193,1930.7738953850489,-439.8127034269944,-646.09657755579997,-349.87806051385786,1576.7670706103993,1701.9902224619018,-55.359578176047421,55.359578176047421,-1701.9902224619018,2856.2327920340608,0.0
377154.6038362722,4740833.5216966402,-47500.0,766.62626656618181,1005.3932823664958,1593.6266769205827,-487.83206057190017,-278.41219074951533,-666.92044442160579,1584.7227130400049,1851.3886930726703,-469.4919227628011,469.4919227628011,-1851.3886930726703,2811.3087571594992,0.0
382154.6038362722,4740833.5216966402,-47500.0,919.98187845203518,1010.121778717341,1206.8544909463717,-446.80570825119719,109.63078552194354,-979.61582143469059,1616.9292456143085,1891.6045184086033,-901.85182195043944,901.85182195043944,-1891.6045184086033,2816.32928574879,0.0
387154.6038362722,4740833.5216966402,-47500.0,1033.92723539078,911.10662188838273,815.9035629151324,-323.28558088470646,478.17122572855931,-1259.0094883950919,1662.6243179580804,1816.9679897748069,-1307.0653885903307,1307.0653885903307,-1816.9679897748069,2880.1056141895747,0.0
392154.6038362722,4740833.5216966402,-47500.0,1082.472339550111,729.6387957541325,460.05117174170715,-137.08360477279751,794.39502826731268,-1482.6118734665229,1709.9033836581348,1640.2487520932357,-1647.355136958771,1647.355136958771,-1640.2487520932357,2986.1659133944709,0.0
397154.6038362722,4740833.5216966402,-47500.0,1054.4489586179805,496.93868406771389,165.96030343480686,84.746427492845413,1037.5015927228701,-1637.590854262726,1747.7946039355193,1387.5410761197445,-1898.60125739044,1898.60125739044,-1387.5410761197445,3104.2329671390271,0.0
402154.6038362722,4740833.5216966402,-47500.0,953.45409267260209,245.91387011406181,-54.20341419098834,314.48936593436537,1199.8157079649143,-1721.1671095516119,1768.1154869527454,1090.8956697774809,-2051.9623111310862,2051.9623111310862,-1090.8956697774809,3204.7893646427024,0.0
407154.6038362722,4740833.5216966402,-47500.0,794.03301841435643,4.6912924264358482,-200.85799228522848,528.8545710599094,1284.7772283179308,-1738.8113909562028,1766.4284171010008,781.41545638949424,-2111.7651155709882,2111.7651155709882,-781.41545638949424,3267.45923719742,0.0
412154.6038362722,4740833.5216966402,-47500.0,596.33782555692676,-206.84935395868553,-283.05273741926442,711.65207358681084,1303.3042929459525,-1701.3504533671614,1741.8762294733401,484.53322171170987,-2091.3521224514334,2091.3521224514334,-484.53322171170987,3282.6279148670683,0.0
417154.6038362722,4740833.5216966402,-47500.0,381.20999851181051,-377.70399509550805,-314.20458424948549,854.21240309659481,1269.9677194303465,-1622.0184112290626,1696.3402096686893,217.90646959605613,-2008.5820945575424,2008.5820945575424,-217.90646959605613,3249.4495983943712,0.0
422154.6038362722,4740833.5216966402,-47500.0,166.75514266639334,-504.46395116647727,-308.63650709374087,954.28746453837664,1199.8958532714628,-1514.1048686858242,1633.4327209110552,-8.5559955070235674,-1882.1100492486662,1882.1100492486662,8.5559955070235674,3172.8404135271217,0.0
427154.6038362722,4740833.5216966402,-47500.0,-33.380046012598235,-589.17967796022913,-279.33255244651718,1014.2640180965002,1106.7527497158835,-1389.4343855959301,1557.7417350545898,-191.38256760516231,-1728.901497741193,1728.901497741193,191.38256760516231,3060.7431392773774,0.0
432154.6038362722,4740833.5216966402,-47500.0,-210.35126777301079,-637.16806543417511,-236.83296889868853,1039.3249404543778,1001.7242859954581,-1257.6183067007123,1475.1336258479544,-331.73333329858576,-1562.9417742403161,1562.9417742403161,331.73333329858576,2922.0932874282867,0.0
437154.6038362722,4740833.5216966402,-47500.0,-359.58807996430016,-655.20591445064815,-188.96480100626104,1035.9174097040402,893.25501056331416,-1125.8826266278591,1394.803534232869,-433.64182918755739,-1394.8576446247307,1394.8576446247307,433.64182918755739,2765.5089722571174,0.0
442154.6038362722,4740833.5216966402,-47500.0,-479.8602768059983,-650.25809032294569,-141.07106264509557,1010.6553913662901,787.24614009644392,-999.25272781177671,1316.8054184606856,-502.58151230642648,-1232.1150601020117,1232.1150601020117,502.58151230642648,2598.5689095703692,0.0
447154.6038362722,4740833.5216966402,-47500.0,-572.26957264426323,-628.70854494596813,-96.467454164787554,969.63915150582579,687.47693192786085,-880.91293598525078,1236.532952255156,-544.43791085446219,-1079.5084384956285,1079.5084384956285,544.43791085446219,2427.5087434401016,0.0
452154.6038362722,4740833.5216966402,-47500.0,-639.35499655186857,-595.98341430690675,-56.948950084770907,918.10712989453566,596.08759966698312,-772.61609519982551,1155.1244119250441,-564.85490504602808,-939.74279967220969,939.74279967220969,564.85490504602808,2257.1839687301185,0.0
457154.6038362722,4740833.5216966402,-47500.0,-684.38937804456816,-556.44042416144976,-23.24900312884067,860.31988980412689,514.0311570911532,-675.06865404002917,1074.4904340258433,-568.87507922537009,-813.99056389544091,813.99056389544091,568.87507922537009,2091.1824480324331,0.0
282154.6038362722,4745833.5216966402,-47500.0,478.03094986874584,19.52667146228146,87.472504598719524,159.60183692344992,0.18751639644176982,14.728967440234129,281.83535804985689,212.13688096873588,-139.86931057641951,139.86931057641951,-212.13688096873588,513.61497386323504,0.0
287154.6038362722,4745833.5216966402,-47500.0,534.42305178548202,-13.296180775358652,118.3006542418813,193.8315849317828,-23.573750915206858,28.242601627325129,320.24599969076729,212.03760156456215,-135.35142760118308,135.35142760118308,-212.03760156456215,577.62709057661755,0.0
292154.6038362722,4745833.5216966402,-47500.0,591.38684530630496,-52.710158460448241,159.15328961333284,232.03113009020478,-54.883341461923841,45.337509975917271,365.56279997160857,208.87466018132361,-125.13571442972173,125.13571442972173,-208.87466018132361,654.11148851382973,0.0
297154.6038362722,4745833.5216966402,-47500.0,646.80278009896608,-98.754719499341078,212.60904201517721,273.70469927055586,-95.29453838567629,66.518003081572971,418.57781430389764,202.48974529629993,-107.61751822647521,107.61751822647521,-202.48974529629993,744.67578607065968,0.0
302154.6038362722,4745833.5216966402,-47500.0,697.85981944991715,-150.86216770178939,281.6103703908318,317.83241648690137,-146.42164214132134,92.184690115779091,479.9991845830304,193.10944500541001,-81.049214713167316,81.049214713167316,-193.10944500541001,850.67175511159041,0.0
307154.6038362722,4745833.5216966402,-47500.0,741.03695137869045,-207.54846762188481,369.32737091230803,362.68019115921777,-209.7807807953987,122.515344356405,550.28947737562601,181.58469524470277,-43.68366490496814,43.68366490496814,-181.58469524470277,972.98015082328232,0.0
312154.6038362722,4745833.5216966402,-47500.0,772.20588550426021,-266.04184181581883,478.86914189895413,405.59450829432291,-286.52378570065605,157.29158183201164,629.47667660879563,169.69561176610841,5.9696157186926797,-5.9696157186926797,-169.69561176610841,1111.7248878012297,0.0
317154.6038362722,4745833.5216966402,-47500.0,786.9342066178408,-321.8922391267846,612.77367480004818,442.81946050785348,-377.03066206120343,195.66093764984586,716.93167640465265,160.49849934543835,68.734813320751826,-68.734813320751826,-160.49849934543835,1265.9095258005354,0.0
322154.6038362722,4745833.5216966402,-47500.0,781.07838192989334,-368.65964873052349,772.21038992357217,469.40668382018032,-480.33587721553562,235.8322831898225,811.11769673545166,158.64961887194409,144.17324006995449,-144.17324006995449,-158.64961887194409,1432.9906107512202,0.0
327154.6038362722,4745833.5216966402,-47500.0,751.73425278810521,-397.85601852061683,955.87021033073802,479.33266020613723,-593.39884843446703,274.7239962407574,909.34065991142893,170.57560660073958,229.79983796651462,-229.79983796651462,-170.57560660073958,1608.4462786494696,0.0
332154.6038362722,4745833.5216966402,-47500.0,698.52508699440909,-399.39398315230903,1158.6210320424702,465.97691725326229,-710.30291496906034,307.62429119715995,1007.5673591477957,204.28251735639969,320.1891399523962,-320.1891399523962,-204.28251735639969,1785.4647569977303,0.0
337154.6038362722,4745833.5216966402,-47500.0,625.02818127442526,-362.8252074863309,1370.1899996851246,423.11764055068886,-821.58719036164632,327.98514949082892,1100.4288607431847,268.53975423533171,406.17753763004924,-406.17753763004924,-268.53975423533171,1954.9614740335685,0.0
342154.6038362722,4745833.5216966402,-47500.0,539.88191110703349,-279.5472095450919,1574.3764402371908,346.5170841968731,-914.06329776100074,327.54383087236909,1181.5805761171232,371.21174782674836,474.53703675765109,-474.53703675765109,-371.21174782674836,2106.2113631832221,0.0
347154.6038362722,4745833.5216966402,-47500.0,456.87307678637092,-145.83312381081731,1749.4886994878082,235.94457648160912,-971.56370033895826,297.00476704861364,1244.6213503314018,516.72736651578782,508.62207105790719,-508.62207105790719,-516.72736651578782,2228.3807574594694,0.0
352154.6038362722,4745833.5216966402,-47500.0,393.2910664029975,33.996795270804803,1870.652094304701,97.138404003239415,-976.9931585037026,227.45467056052922,1284.7910966494605,703.11369113525711,490.43934337274823,-490.43934337274823,-703.11369113525711,2313.0973596730018,0.0
357154.6038362722,4745833.5216966402,-47500.0,366.27206134655978,245.48995198455131,1914.1538893898319,-57.127403072875644,-915.68487265669546,112.45716256651211,1301.7027909238745,919.56052685312716,404.21358816890438,-404.21358816890438,-919.56052685312716,2357.8079977165648,0.0
362154.6038362722,4745833.5216966402,-47500.0,387.77292359511983,464.44622575578251,1863.0910261024428,-207.76211258633211,-779.43143501141503,-49.597171134467722,1303.1643598835537,1145.8056703186394,240.82663572171964,-240.82663572171964,-1145.8056703186394,2369.0256189806641,0.0
367154.6038362722,4745833.5216966402,-47500.0,459.833352861214,660.55228264878292,1712.6309746181298,-332.3001788782924,-569.93382191699038,-253.6622936673223,1306.7834910705271,1354.3502055636693,1.771051837022469,-1.771051837022469,-1354.3502055636693,2363.7206757313202,0.0
372154.6038362722,4745833.5216966402,-47500.0,572.21274874535527,803.72614082254393,1472.818828363138,-409.58758112463426,-300.22586451470562,-487.58331260338986,1329.2995020134938,1515.5062781143249,-299.02334171290113,299.02334171290113,-1515.5062781143249,2366.5032380350499,0.0
377154.6038362722,4745833.5216966402,-47500.0,703.80961302861442,871.23205507436933,1167.5163315383729,-424.79718883514448,6.820418326836446,-733.49951767390928,1373.1753091053195,1603.9471060176327,-636.59165486465076,636.59165486465076,-1603.9471060176327,2401.2506635265345,0.0
382154.6038362722,4745833.5216966402,-47500.0,827.67228687332408,853.03172923419493,829.56314936116451,-373.00078327424688,322.68464895976911,-970.87494471719481,1431.3844929404474,1604.5526210351675,-979.43484835640788,979.43484835640788,-1604.5526210351675,2480.1070177210117,0.0
387154.6038362722,4745833.5216966402,-47500.0,917.78665023289147,753.50471173747053,493.80174725299861,-260.0450404672834,618.75650836878367,-1180.249623843878,1494.5020222298335,1515.5192427174372,-1295.7065427449731,1295.7065427449731,-1515.5192427174372,2597.4489157973549,0.0
392154.6038362722,4745833.5216966402,-47500.0,955.14564474195697,589.23200862548094,190.33709929064739,-100.59943135452066,871.46972117043231,-1346.5450170036386,1553.0036031970476,1347.8633325082633,-1559.0670354220956,1559.0670354220956,-1347.8633325082633,2733.6205969295274,0.0
397154.6038362722,4745833.5216966402,-47500.0,931.17758959085711,384.07318625815822,-60.005984163561244,85.678078200912196,1065.5837992556283,-1461.0300291535525,1598.7207949441936,1121.9002120922491,-1752.5301229555107,1752.5301229555107,-1121.9002120922491,2864.4284957942327,0.0
402154.6038362722,4745833.5216966402,-47500.0,847.94554105266138,163.50286311476748,-247.21620972131558,278.41783314311715,1195.0775102128014,-1521.6517742252913,1625.9736932189037,862.24835567814921,-1869.6142119700596,1869.6142119700596,-862.24835567814921,2969.2857974481799,0.0
407154.6038362722,4745833.5216966402,-47500.0,715.80002915357272,-50.061889346451217,-370.99376277845454,460.01065580730619,1262.0039641387498,-1532.0146217656397,1631.9962830354766,593.03456471232448,-1913.1335725909717,1913.1335725909717,-593.03456471232448,3034.9943077715261,0.0
412154.6038362722,4745833.5216966402,-47500.0,549.80924653975808,-240.0317617392632,-438.07672063902174,617.63208184226528,1274.1602756612454,-1499.6059381246203,1616.698786201031,334.43945135511865,-1892.5746703260593,1892.5746703260593,-334.43945135511865,3056.0006399118188,0.0
417154.6038362722,4745833.5216966402,-47500.0,366.23645825408647,-396.46335467686424,-459.14170147587788,743.79904307580023,1242.4684834923419,-1433.8800818948794,1582.0568561385785,100.96807566423445,-1821.0859299722129,1821.0859299722129,-100.96807566423445,3032.8758974166899,0.0
422154.6038362722,4745833.5216966402,-47500.0,179.86824844797056,-515.42911973606044,-446.10621928421796,835.83879116656942,1178.7106861430384,-1344.6317805390372,1531.432235667238,-98.77091038209619,-1712.8375055246006,1712.8375055246006,98.77091038209619,2970.2868397154107,0.0
427154.6038362722,4745833.5216966402,-47500.0,2.4653074666595205,-597.61281310288371,-410.22378111947899,894.77278456727606,1093.9231387098055,-1240.8576433096775,1469.0713124003028,-261.28524988979461,-1581.124037348352,1581.124037348352,261.28524988979461,2875.1243729213379,0.0
432154.6038362722,4745833.5216966402,-47500.0,-157.77748680121343,-646.70753302324852,-361.01048410142204,924.04778953976631,997.47954591608277,-1130.1180202717346,1399.8557021425008,-386.94973418586255,-1437.2632103517251,1437.2632103517251,386.94973418586255,2755.0534057686732,0.0
437154.6038362722,4745833.5216966402,-47500.0,-296.05681972733345,-667.98620252799412,-305.84291352392432,928.39520440967908,896.7367838317075,-1018.3060623013538,1328.2432388786606,-478.69231086699961,-1290.1550539916782,1290.1550539916782,478.69231086699961,2617.5278379884871,0.0
442154.6038362722,4745833.5216966402,-47500.0,-410.38924825125395,-667.21275169098146,-250.002923601014,912.95075109164577,797.0636107381157,-909.69401683065871,1255.5686601527725,-540.85414781135751,-1146.2984499678732,1146.2984499678732,540.85414781135751,2469.2099283527787,0.0
447154.6038362722,4745833.5216966402,-47500.0,-500.89632726947508,-649.91938884337878,-196.96492222154413,882.65889312343711,702.08498025652307,-807.13677066187472,1181.4836381686112,-578.32184876022689,-1010.0709309774913,1010.0709309774913,578.32184876022689,2315.6963004040645,0.0
452154.6038362722,4745833.5216966402,-47500.0,-569.11153585119121,-620.99747112278123,-148.77473144914759,841.92575262206469,614.01555652791103,-712.34039709521153,1106.6951050484959,-595.93733340090307,-884.1221219702395,884.1221219702395,595.93733340090307,2161.4526839243645,0.0
287154.6038362722,4750833.5216966402,-47500.0,492.49254391789589,-45.811844577335485,143.84431629526122,183.0578088013383,-46.292473851430671,31.080920586258419,300.92600758563799,179.65412092915449,-103.99306558380719,103.99306558380719,-179.65412092915449,535.5759207590603,0.0
292154.6038362722,4750833.5216966402,-47500.0,535.54096854842192,-82.16682185870701,188.40700124278447,213.56930064763475,-77.381380760563744,45.562390458804877,341.51209428472652,176.13425740644718,-91.02836346139398,91.02836346139398,-176.13425740644718,604.60410450370352,0.0
297154.6038362722,4750833.5216966402,-47500.0,575.19087713364934,-122.79553835170904,244.88580010936533,245.50849065757077,-116.1078326354158,62.888438167978101,388.12822198560849,170.826336084649,-71.703007177047255,71.703007177047255,-170.826336084649,684.72017086246558,0.0
302154.6038362722,4750833.5216966402,-47500.0,608.98315341246769,-166.55235051131262,315.47428190395766,277.62344269808563,-163.41967206579653,83.100261053100553,441.07355884267781,164.43176988447374,-44.916121311781112,44.916121311781112,-164.43176988447374,776.47300770332095,0.0
307154.6038362722,4750833.5216966402,-47500.0,634.08091838051917,-211.4262138706161,402.28407270293457,308.07190136307531,-219.99545813035041,105.97195817218704,500.35474051850332,158.27242083604156,-9.767555967781675,9.767555967781675,-158.27242083604156,879.90731678135512,0.0
312154.6038362722,4750833.5216966402,-47500.0,647.46128069527902,-254.30496911520578,507.01728513821718,334.32012634397478,-285.99307126824903,130.86885467604216,565.55384224836439,154.49542993073914,34.188810013399632,-34.188810013399632,-154.49542993073914,994.35353328188216,0.0
317154.6038362722,4750833.5216966402,-47500.0,646.27043588683307,-290.78658628508202,630.47302132135019,353.09704055105789,-360.70779895159086,156.57226461671249,635.68690284368734,156.26007464929353,86.590174843210775,-86.590174843210775,-156.26007464929353,1118.1910915983842,0.0
322154.6038362722,4750833.5216966402,-47500.0,628.37762006133551,-315.12837034880829,771.87251245963307,360.46116915162651,-442.14577230205879,181.08211935196061,709.06767546884259,167.83805570408035,145.8103171770089,-145.8103171770089,-167.83805570408035,1248.6159351586437,0.0
327154.6038362722,4750833.5216966402,-47500.0,593.12552875208723,-320.46565403004371,928.03650204428743,352.05689586586624,-526.55329596108913,201.42744062626301,783.21031945310835,194.52082034562349,208.44315641335814,-208.44315641335814,-194.52082034562349,1381.4770141718491,0.0
332154.6038362722,4750833.5216966402,-47500.0,542.19400439760159,-299.45364346298499,1092.5345180278134,323.64045623550686,-607.99675390823688,213.5410188142817,854.82910068634283,242.19719327811526,268.82061550591573,-268.82061550591573,-242.19719327811526,1511.2860634384326,0.0
337154.6038362722,4750833.5216966402,-47500.0,480.37228019281332,-245.45636924150918,1255.0467903154047,271.92717056183199,-678.15777519242761,212.286517263017,920.02276432841381,316.46958370414075,318.73864234103951,-318.73864234103951,-316.46958370414075,1631.5463002999952,0.0
342154.6038362722,4750833.5216966402,-47500.0,415.90041714133434,-154.28206853920295,1401.3005744848806,195.7254926904132,-726.56945987476377,191.74994445611628,974.7596982617938,421.25632218258846,347.63730446582491,-347.63730446582491,-421.25632218258846,1735.5629147637881,0.0
347154.6038362722,4750833.5216966402,-47500.0,359.96874546442649,-26.223956916974341,1513.9844904004904,97.172499007032187,-741.52202169983059,145.8978093204924,1015.8075978611006,557.01102333828521,343.494398374073,-343.494398374073,-557.01102333828521,1817.8490678660748,0.0
352154.6038362722,4750833.5216966402,-47500.0,325.06592779720876,132.14320289987234,1574.9110791062074,-17.295924656561912,-711.75435858672415,69.633355940070217,1042.3007212084103,718.9609019015702,294.58185356753967,-294.58185356753967,-718.9609019015702,1876.0798460051972,0.0
357154.6038362722,4750833.5216966402,-47500.0,322.21759302496667,307.19197945219844,1568.3215878206711,-136.72831703151982,-628.78808512076364,-39.864642029324827,1058.1054813460578,896.02041081273933,191.95868551596823,-191.95868551596823,-896.02041081273933,1913.2116540145371,0.0
362154.6038362722,4750833.5216966402,-47500.0,357.70322142608387,479.22367738752479,1484.6807604470825,-246.61693168821495,-489.41018377903322,-181.8246292363967,1073.7974691337608,1071.0949039110483,32.186484370526045,-32.186484370526045,-1071.0949039110483,1938.8649154398233,0.0
367154.6038362722,4750833.5216966402,-47500.0,430.33072905726266,625.45526218017517,1323.8347168579485,-331.12907390163429,-297.53183977293889,-351.02948675875535,1102.5384388118691,1223.1909405712181,-180.57218524434222,180.57218524434222,-1223.1909405712181,1968.5323122996188,0.0
372154.6038362722,4750833.5216966402,-47500.0,530.44172999403293,724.47430219631588,1096.3269307089947,-376.19503169741256,-64.649104516761867,-537.84805662589929,1149.644621510417,1331.1098908896383,-433.94419833417396,433.94419833417396,-1331.1098908896383,2019.3301310836384,0.0
377154.6038362722,4750833.5216966402,-47500.0,641.31846602399639,760.8889196062695,822.16069594017483,-372.58151098186448,191.49333723832288,-729.33362960157854,1211.4380303962128,1377.7821996316891,-708.70763103299919,708.70763103299919,-1377.7821996316891,2102.992807004207,0.0
382154.6038362722,4750833.5216966402,-47500.0,742.73185598227781,728.6616451315939,527.20772548875675,-317.95915300132179,449.80261535437239,-911.19695197800661,1280.8536677914831,1353.903630712223,-981.91480837523545,981.91480837523545,-1353.903630712223,2220.0392363470942,0.0
387154.6038362722,4750833.5216966402,-47500.0,815.48544697524335,632.06326237578139,238.34211096440418,-217.29900872196524,689.48652001219534,-1070.1276765827952,1350.1006272974801,1259.7204533908987,-1230.9017352876128,1230.9017352876128,-1259.7204533908987,2359.3867207021181,0.0
392154.6038362722,4750833.5216966402,-47500.0,845.45765539257889,484.09868954769649,-21.220525542137825,-81.552567207629991,893.39902590538827,-1195.8208563666612,1411.7856578868759,1104.5090544121745,-1437.0174562260513,1437.0174562260513,-1104.5090544121745,2503.2598806978976,0.0
397154.6038362722,4750833.5216966402,-47500.0,825.97181467752387,303.15216897654045,-235.1433318807604,74.837600695269273,1050.2365700734777,-1282.2109835365156,1459.8787559668758,904.12851311287159,-1588.1085527017003,1588.1085527017003,-904.12851311287159,2633.414444689738,0.0
402154.6038362722,4750833.5216966402,-47500.0,758.08422136877903,109.06021312622954,-395.18846971682734,236.75744080609331,1155.2328502501773,-1327.7306530623264,1490.3720322080499,677.59302511832539,-1679.3355752706834,1679.3355752706834,-677.59302511832539,2735.449089188895,0.0
407154.6038362722,4750833.5216966402,-47500.0,649.14074998612318,-80.27022881079148,-500.6085702289937,390.80871664427957,1209.5155751089585,-1334.7286079670894,1501.4724602814867,443.71097381889513,-1712.4796196687057,1712.4796196687057,-443.71097381889513,2800.5386535928096,0.0
412154.6038362722,4750833.5216966402,-47500.0,510.38866223363999,-251.0383375775009,-556.34919419024254,526.8212044845526,1218.6120932088368,-1308.3741547280154,1493.3955472419952,218.55009420841486,-1694.2728925260476,1694.2728925260476,-218.55009420841486,2825.3165267647692,0.0
417154.6038362722,4750833.5216966402,-47500.0,354.46590134970961,-394.39270421162132,-570.81550672087803,638.41247562053343,1190.661699631064,-1255.4100479763144,1467.9296177340022,14.041287335644029,-1634.379996502897,1634.379996502897,-14.041287335644029,2810.806308254445,0.0
422154.6038362722,4750833.5216966402,-47500.0,193.35211303963058,-506.1985530623781,-553.80205641399482,722.78140032908118,1134.7746364106806,-1183.0329913887065,1427.9373772732351,-162.35588511734943,-1543.5313491988559,1543.5313491988559,162.35588511734943,2761.049374558876,0.0
427154.6038362722,4750833.5216966402,-47500.0,37.043292284274926,-586.14910724659239,-514.91992819660334,780.03289047977182,1059.7835611946452,-1098.0554094469371,1376.892315364621,-307.22284021380744,-1432.094849162881,1432.094849162881,307.22284021380744,2681.8034179760666,0.0
432154.6038362722,4750833.5216966402,-47500.0,-107.05446107450287,-636.62456851991919,-462.61262422630102,812.32021456455539,973.45518961813559,-1006.3855240501939,1318.391139852286,-420.3376631205623,-1309.168792025574,1309.168792025574,420.3376631205623,2579.4889809191768,0.0
437154.6038362722,4750833.5216966402,-47500.0,-234.16963849110886,-661.59031286682375,-403.69222626851985,823.01400157373689,882.11159941206688,-912.78850773441479,1255.4298421377873,-503.71081228730395,-1182.1436989256783,1182.1436989256783,503.71081228730395,2460.4357822710936,0.0
442154.6038362722,4750833.5216966402,-47500.0,-341.85417103918041,-665.69473020703663,-343.25643314011586,816.01509673491273,790.55590701349672,-820.85566298936487,1189.7839337859086,-560.69546152398834,-1056.615303209529,1056.615303209529,560.69546152398834,2330.4074691149981,0.0
447154.6038362722,4750833.5216966402,-47500.0,-429.50182367951919,-653.62093279306987,-284.83938853474655,795.25353295759703,702.19020000737305,-733.10494759905328,1122.438776930388,-595.27033297975174,-936.52147183476302,936.52147183476302,595.27033297975174,2194.352020888884,0.0
292154.6038362722,4755833.5216966402,-47500.0,478.04308357854819,-99.63343766599283,212.99293936479867,191.65407539607537,-92.371826873301174,43.142708038067326,316.72184732860347,151.39465204715023,-63.485214412732063,63.485214412732063,-151.39465204715023,556.49931813821604,0.0
297154.6038362722,4755833.5216966402,-47500.0,504.7588694760401,-133.70779185871925,270.09309423072636,214.99435709907709,-128.06610381173093,56.784500893731668,357.08643123791217,148.17810643545002,-44.047268016869367,44.047268016869367,-148.17810643545002,626.20174934752163,0.0
302154.6038362722,4755833.5216966402,-47500.0,525.04853091884547,-168.46543037864336,339.39355036023369,236.9478176980852,-170.29104436441827,72.047550603749187,402.05749336059597,145.44486624828184,-18.795976867022745,18.795976867022745,-145.44486624828184,704.37738449288554,0.0
307154.6038362722,4755833.5216966402,-47500.0,536.79432764729211,-201.6822888500528,422.05540361997731,255.76696863369895,-219.10250175903278,88.473333439592125,451.35937290684956,144.72295800701562,12.522867844828085,-12.522867844828085,-144.72295800701562,790.57703515273158,0.0
312154.6038362722,4755833.5216966402,-47500.0,537.98037750476533,-230.27269720055583,518.62542247438307,269.22996929314183,-273.98953781761213,105.23279109426912,504.35086704426516,148.1996526545135,49.63536501783684,-49.63536501783684,-148.1996526545135,883.74824049567269,0.0
317154.6038362722,4755833.5216966402,-47500.0,527.03015412360344,-250.25019540386231,628.61175597923909,274.67932706565927,-333.61460564541778,121.00972270284809,559.94852106417545,158.78337976166591,91.464535902815612,-91.464535902815612,-158.78337976166591,982.10661983670434,0.0
322154.6038362722,4755833.5216966402,-47500.0,503.26122250952307,-256.83899157025365,749.9663072596959,269.16525399652301,-395.52582185539512,133.88801881791031,616.57406141699232,180.05758672757074,135.81836395682532,-135.81836395682532,-180.05758672757074,1083.0497873509082,0.0
327154.6038362722,4755833.5216966402,-47500.0,467.42089146480362,-244.82208398484573,878.53298558039944,249.73744753134554,-455.88889428549288,141.27135030195313,672.15727899038041,216.05275398667629,179.08910302956184,-179.08910302956184,-216.05275398667629,1183.1714526255944,0.0
332154.6038362722,4755833.5216966402,-47500.0,422.20575099702825,-209.20367670566765,1007.5811794428938,213.91749160570714,-509.31992935397187,139.87835106995743,724.24053808551355,270.76054764739195,216.04950271285665,-216.04950271285665,-270.76054764739195,1278.4528390478949,0.0
337154.6038362722,4755833.5216966402,-47500.0,372.59717912847918,-146.21466905864349,1127.6137145024036,160.34916861363044,-548.93501314724722,125.86947416965381,770.2502771530651,347.34403420040491,239.87052783327096,-239.87052783327096,-347.34403420040491,1364.7229491757678,0.0
342154.6038362722,4755833.5216966402,-47500.0,325.78806017434107,-54.582890961998743,1226.6839787767051,89.557772972176949,-566.74766951021843,95.162885133852683,808.02418887650617,447.07629726512437,242.5046978357833,-242.5046978357833,-447.07629726512437,1438.4641563765479,0.0
347154.6038362722,4755833.5216966402,-47500.0,290.48248339794492,63.168620482840218,1291.431348593102,4.6580706392240332,-554.51385994483473,43.97381563698773,836.72219840114496,568.16969715883829,215.55004666482915,-215.55004666482915,-568.16969715883829,1497.9654550733035,0.0
352154.6038362722,4755833.5216966402,-47500.0,275.47113121529247,199.79375574838875,1308.9057026582784,-88.234204738022399,-505.02607066028247,-30.444155348552322,858.2795247130905,704.81020602401532,151.60661994910788,-151.60661994910788,-704.81020602401532,1544.6608250292488,0.0
357154.6038362722,4755833.5216966402,-47500.0,287.6323212500659,343.23898793529764,1268.9855929259338,-180.15998796454045,-413.68947110963762,-128.96570138637662,879.05549506220086,846.81259090938875,45.956846423528702,-45.956846423528702,-846.81259090938875,1584.1927902275979,0.0
362154.6038362722,4755833.5216966402,-47500.0,329.82041815076337,477.76163384349098,1166.8802510619573,-260.22828830360879,-280.02808714283384,-249.86906062679924,908.76941736824688,980.27175633318188,-101.80390484281816,101.80390484281816,-980.27175633318188,1626.3812114968466,0.0
367154.6038362722,4755833.5216966402,-47500.0,399.32760851056275,586.27222667737499,1004.9829849306911,-317.24978131099016,-108.6543515059049,-388.46902887380145,953.77165103080551,1089.344868741812,-286.69289731699109,286.69289731699109,-1089.344868741812,1683.1756273981389,0.0
372154.6038362722,4755833.5216966402,-47500.0,487.5754674186316,653.45440560969712,793.37970562119369,-341.77693159412723,90.711242593719675,-537.31287681202218,1013.0931771921123,1158.9045514936795,-498.28090519502808,498.28090519502808,-1158.9045514936795,1764.498663001247,0.0
377154.6038362722,4755833.5216966402,-47500.0,581.34429971843383,668.83113957000467,548.66781076064683,-328.01396622984538,304.3368285125224,-686.99785449463025,1081.7808281991865,1177.4175073748675,-721.84577162603375,721.84577162603375,-1177.4175073748675,1873.7561437273048,0.0
382154.6038362722,4755833.5216966402,-47500.0,665.29879748254689,628.86494804523284,291.29487204796266,-275.03214544218781,516.49745760349458,-827.46748246832874,1153.7546390771627,1139.230360800253,-940.54224178399124,940.54224178399124,-1139.230360800253,2005.8863221012459,0.0
387154.6038362722,4755833.5216966402,-47500.0,725.07838467344175,537.47753057173713,42.131090243070872,-186.93047037342035,711.90672298863387,-949.47609981127539,1222.8051589351255,1045.5984910008253,-1138.0411606339042,1138.0411606339042,-1045.5984910008253,2149.1454372616022,0.0
392154.6038362722,4755833.5216966402,-47500.0,750.0350588048675,404.92016696087126,-180.78901563100857,-71.932692005465569,877.93283132007673,-1045.8575353656076,1283.2800052740345,904.2175370283519,-1300.9491047208887,1300.9491047208887,-904.2175370283519,2289.0403526133314,0.0
397154.6038362722,4755833.5216966402,-47500.0,734.89379619529529,245.45815317743086,-364.56737432887195,59.255248192336651,1006.0880673107307,-1112.3146125211128,1330.7059263780122,727.50655084858226,-1420.4403542853725,1420.4403542853725,-727.50655084858226,2412.0493604459066,0.0
402154.6038362722,4755833.5216966402,-47500.0,680.05211110699429,74.621725405418204,-502.40261297412468,195.32920034968291,1092.5615549854774,-1147.6161887750879,1362.1818286559096,530.22957359959719,-1492.8388795106521,1492.8388795106521,-530.22957359959719,2507.9221525355961,0.0
407154.6038362722,4755833.5216966402,-47500.0,590.69582298797718,-93.249526744901445,-593.27684247262187,326.03999044875468,1137.8665912740726,-1153.2652288156632,1376.4739886972679,327.11953138380386,-1519.2223391969501,1519.2223391969501,-327.11953138380386,2570.5258207700344,0.0
412154.6038362722,4755833.5216966402,-47500.0,475.19993954328868,-246.69908533176365,-640.75394207333375,443.31570087195621,1145.8824380833757,-1132.8187198165128,1373.8589498091362,131.01179743150226,-1504.3537237599576,1504.3537237599576,-131.01179743150226,2597.6739294747981,0.0
417154.6038362722,4755833.5216966402,-47500.0,343.34555366353902,-377.93929762946635,-651.38095870249049,541.76603961585079,1122.6367597566179,-1091.0742378858922,1355.8093314765993,-48.2696119247056,-1455.3239191140201,1455.3239191140201,48.2696119247056,2590.3997997350607,0.0
422154.6038362722,4755833.5216966402,-47500.0,204.76829695078413,-482.84926434488546,-633.11804909709997,618.65263581846636,1075.1253597080317,-1033.3024887457502,1324.6142618650426,-204.28108530979932,-1380.2354129610094,1380.2354129610094,204.28108530979932,2552.0221976748908,0.0
427154.6038362722,4755833.5216966402,-47500.0,67.862044090653072,-560.44056494579161,-594.06666241970311,673.4980075941437,1010.3572809129745,-964.63756259516549,1282.9879793780462,-333.75283715650619,-1287.1378206813451,1287.1378206813451,333.75283715650619,2487.2291823783639,0.0
432154.6038362722,4755833.5216966402,-47500.0,-60.816493507142503,-612.06529851071753,-541.60322718263978,707.51854221229053,934.7003761540542,-889.66670421636798,1233.6713839027543,-436.03373355064309,-1183.3000114386584,1183.3000114386584,436.03373355064309,2401.3042291120028,0.0
437154.6038362722,4755833.5216966402,-47500.0,-176.71569130993052,-640.58702722263342,-481.90421296225014,723.03107384628106,853.51775015305384,-812.20991491356835,1179.0465646665239,-512.39641992862039,-1074.8086794154667,1074.8086794154667,512.39641992862039,2299.5438826907475,0.0
442154.6038362722,4755833.5216966402,-47500.0,-277.15634204557017,-649.65403356750244,-419.78284446609439,722.92930161261393,771.03836137347696,-735.25147738727969,1120.9254003351684,-565.35514253690906,-966.43026707679599,966.43026707679599,565.35514253690906,2186.8673587570825,0.0
297154.6038362722,4760833.5216966402,-47500.0,438.33465050300049,-134.5673689216955,287.6589875762906,184.41610772766515,-132.90534158061936,49.430130942974387,326.31613627521966,132.54015397396194,-23.588719639803031,23.588719639803031,-132.54015397396194,569.82098644968289,0.0
302154.6038362722,4760833.5216966402,-47500.0,448.50324650311114,-160.52323281898504,353.45190090004286,198.12176417593204,-169.46591513447413,60.430729482974222,364.0596641639271,133.50822346213096,-0.93881871047932464,0.93881871047932464,-133.50822346213096,635.58173050724486,0.0
307154.6038362722,4760833.5216966402,-47500.0,450.87187722377507,-183.06829374131988,429.70471458585047,207.92803765436449,-210.34583800631793,71.540201710106359,404.6128359656206,137.67416617861534,25.781580529359978,-25.781580529359978,-137.67416617861534,706.60562925937177,0.0
312154.6038362722,4760833.5216966402,-47500.0,444.25890026006027,-199.37714845186633,516.09489787764926,212.00178590067696,-254.63422057375033,81.88238831090186,447.26723857474371,147.05690889504893,55.853422225037903,-55.853422225037903,-147.05690889504893,781.73691081234529,0.0
317154.6038362722,4760833.5216966402,-47500.0,428.04141456578111,-206.06283584511397,611.26437781379741,208.29971036467597,-300.69628960251998,90.201243156451142,490.99841087399136,164.13209535268106,87.841557272533393,-87.841557272533393,-164.13209535268106,859.3098822281089,0.0
322154.6038362722,4760833.5216966402,-47500.0,402.49565520791731,-199.37193864571231,712.45599112909576,194.73544611603333,-345.99849576086547,94.807308792369824,534.47018554240253,191.70529049048542,119.40189964299918,-119.40189964299918,-191.70529049048542,937.16422278313837,0.0
327154.6038362722,4760833.5216966402,-47500.0,369.14543350633539,-175.56499212039029,815.18321076300867,169.45177451786748,-386.98280384937237,93.563070295956223,576.09804179742446,232.63676689100154,147.1350528873954,-147.1350528873954,-232.63676689100154,1012.7652565387577,0.0
332154.6038362722,4760833.5216966402,-47500.0,331.03235528905691,-131.51010639800961,913.03365159868702,131.20267730855124,-419.05116842008414,83.936447592219039,614.20814942474419,289.38471760105949,166.55170804387851,-166.55170804387851,-289.38471760105949,1083.4808868710763,0.0
337154.6038362722,4760833.5216966402,-47500.0,292.78572673324754,-65.469482633669131,997.74026057789558,79.820072622513038,-436.73429881504575,63.154638956603904,647.34541366787528,363.36832814361412,172.22995547272771,-172.22995547272771,-363.36832814361412,1147.0631379462914,0.0
342154.6038362722,4760833.5216966402,-47500.0,260.35597811383587,22.020665052882379,1059.6590270720269,16.694878851685417,-434.11289303811299,28.483368334840197,674.81275661304858,454.21432373382743,158.23994965262435,-158.23994965262435,-454.21432373382743,1202.3475591189592,0.0
347154.6038362722,4760833.5216966402,-47500.0,240.31087301276801,127.37156650982755,1088.7444149402672,-54.847829004862426,-405.52269100984694,-22.365289521091889,697.56415741527769,559.03309898761722,118.87328344291691,-118.87328344291691,-559.03309898761722,1250.0971434518315,0.0
352154.6038362722,4760833.5216966402,-47500.0,238.69710270805498,243.53544928003745,1075.9985966275226,-129.43429776715988,-346.50100037817271,-90.731974938216055,719.41954543547536,671.94798651268366,49.635774056040702,-49.635774056040702,-671.94798651268366,1293.7564898562348,0.0
357154.6038362722,4760833.5216966402,-47500.0,259.63232637913728,360.24563164152499,1015.1955660118859,-199.93346729446398,-254.82989097579377,-176.50119048918552,747.27342018481511,784.12822532755717,-51.647810907933092,51.647810907933092,-784.12822532755717,1339.6568388678827,0.0
362154.6038362722,4760833.5216966402,-47500.0,303.96396536534263,465.0642611615861,904.50542018254919,-258.22332295170486,-131.43673202981861,-277.71184811808712,787.38240310853655,884.50954483059706,-183.87240341070094,183.87240341070094,-884.50954483059706,1396.078876125883,0.0
367154.6038362722,4760833.5216966402,-47500.0,368.42445326584374,545.17048381741495,747.5520255133855,-296.36386201074708,19.126153682299002,-390.42571973904438,840.78356834294459,961.21283077398471,-342.13489112167781,342.13489112167781,-961.21283077398471,1470.8898461672072,0.0
372154.6038362722,4760833.5216966402,-47500.0,445.64885170056829,589.54647284478756,553.5038135780793,-307.95120982979046,188.84224751097693,-508.95275279720477,904.34222550679328,1003.4319007180454,-517.89942698864206,517.89942698864206,-1003.4319007180454,1568.4503794974567,0.0
377154.6038362722,4760833.5216966402,-47500.0,525.18600777416623,591.01883785752875,336.04141199591959,-289.3209022794436,367.09180781453665,-626.44337149608305,973.48107804825543,1003.3558424834507,-699.91476525170833,699.91476525170833,-1003.3558424834507,1687.4537539057096,0.0
382154.6038362722,4760833.5216966402,-47500.0,595.30688219766682,547.59732015215639,111.38412447918172,-240.27309357117321,542.06449756220366,-735.74759198850381,1043.2538470545016,957.62112654355542,-875.72664415379177,875.72664415379177,-957.62112654355542,1821.0006614538984,0.0
387154.6038362722,4760833.5216966402,-47500.0,645.13668374360782,462.75041747893863,-104.14811306528269,-164.1213988231799,702.40246212347301,-830.35477931870651,1108.8053802769555,867.90513020796516,-1033.4395775097182,1033.4395775097182,-867.90513020796516,1958.6394376918859,0.0
392154.6038362722,4760833.5216966402,-47500.0,666.53882091847004,344.58865550259259,-296.4379718481664,-67.069790397439107,838.69078721322126,-905.20303459582124,1165.8262349159504,740.53301771288477,-1163.3129725214039,1163.3129725214039,-740.53301771288477,2089.0360545539925,0.0
397154.6038362722,4760833.5216966402,-47500.0,655.29343685633103,204.24736219780183,-455.22982663365974,42.886635937882993,944.4815429906123,-957.19369274521762,1210.9575157097781,585.26248059888269,-1258.8506496310461,1258.8506496310461,-585.26248059888269,2202.1528314475931,0.0
402154.6038362722,4760833.5216966402,-47500.0,611.3751478666469,53.944753412566669,-574.88099246693412,157.2355660166387,1016.6995675857221,-985.33979579593426,1242.0378290227832,413.61644558755199,-1317.2184853964168,1317.2184853964168,-413.61644558755199,2290.5288792380088,0.0
407154.6038362722,4760833.5216966402,-47500.0,538.41588721122821,-94.808858787474492,-654.22307813070847,268.10088836746951,1055.4580425619577,-990.57798407576172,1258.1573452214002,237.18886155672863,-1339.0214655699629,1339.0214655699629,-237.18886155672863,2349.7335483814695,0.0
412154.6038362722,4760833.5216966402,-47500.0,442.63373770208131,-232.51851896217983,-695.76335622131296,369.07258304847807,1063.4447547266143,-975.34477487912113,1259.5450044181384,66.265551682391902,-1327.6166637807469,1327.6166637807469,-66.265551682391902,2378.2285269395252,0.0
417154.6038362722,4760833.5216966402,-47500.0,331.5699776302389,-352.39729484762267,-704.54658414237281,455.6357101795785,1045.0941847343124,-943.04497072172057,1247.3430959029786,-91.056726140294927,-1288.1979022324413,1288.1979022324413,91.056726140294927,2376.8803008540635,0.0
422154.6038362722,4760833.5216966402,-47500.0,212.92529464528079,-450.48843757359589,-686.97535981114356,525.22993505131626,1005.7434856570501,-897.52681659179018,1223.3250121749074,-229.23037159683292,-1226.868690094846,1226.868690094846,229.23037159683292,2348.3201071418098,0.0
427154.6038362722,4760833.5216966402,-47500.0,93.674624545319332,-525.36793228440638,-649.79861720268752,577.03769422861967,950.91146438321914,-842.6427712331872,1189.598543427114,-345.18843625082445,-1149.8551191349643,1149.8551191349643,345.18843625082445,2296.2938686228686,0.0
432154.6038362722,4760833.5216966402,-47500.0,-20.476076018463676,-577.61007587329743,-599.37154227944848,611.61828326459477,885.76914662642969,-781.93291114811802,1148.3236832741727,-437.99185800812916,-1062.9325319443699,1062.9325319443699,437.99185800812916,2225.0897687241281,0.0
437154.6038362722,4760833.5216966402,-47500.0,-125.31642686997627,-609.17774420876856,-541.20251689761687,630.49240834526336,814.81254008018175,-718.43475556361045,1101.4826633313701,-508.33820990828394,-971.07636360424294,971.07636360424294,508.33820990828394,2139.0871788085969,0.0
302154.6038362722,4765833.5216966402,-47500.0,380.50147294024237,-146.09028537172048,358.52982151835329,162.53866763334551,-163.1359390297134,49.173786839315518,327.92053273146928,126.40316643596651,10.396215950101769,-10.396215950101769,-126.40316643596651,571.05564203073016,0.0
307154.6038362722,4765833.5216966402,-47500.0,376.66244855950453,-159.39595804882495,427.00955822129623,165.62952053187419,-196.46135058606163,56.065212259949952,361.01115775838457,134.59064351700994,32.347386076350283,-32.347386076350283,-134.59064351700994,629.10283654702459,0.0
312154.6038362722,4765833.5216966402,-47500.0,365.53422708659031,-165.67060928781709,502.30859233409967,163.11677890859852,-231.17487528974272,61.536463511076789,395.13107485904254,148.39249866368499,55.778898711674245,-55.778898711674245,-148.39249866368499,689.33877036120623,0.0
317154.6038362722,4765833.5216966402,-47500.0,347.15477736988504,-162.18034780505556,582.55909377025819,153.50448642848696,-265.5729800318889,64.471417503156204,429.40105355384065,169.79063187084068,79.142812271784351,-79.142812271784351,-169.79063187084068,750.37008075031781,0.0
322154.6038362722,4765833.5216966402,-47500.0,322.37498604082612,-146.12245706821901,664.71339658876752,135.40202682191961,-297.26421913876294,63.456663060572474,462.77841901291873,200.8498852154097,100.1921239310948,-100.1921239310948,-200.8498852154097,810.57168984867928,0.0
327154.6038362722,4765833.5216966402,-47500.0,293.06226215082989,-114.98261057283223,744.37818916842343,107.75329220592548,-323.13494564904414,56.801816716986096,494.15339493717318,243.44831261588718,115.93468447526237,-115.93468447526237,-243.44831261588718,868.26094202711977,0.0
332154.6038362722,4765833.5216966402,-47500.0,262.20518395501819,-67.024530913937724,815.79116484894257,70.125728252311703,-339.41445488081268,42.614207733837773,522.53331580317285,298.89058092986431,122.68988657502476,-122.68988657502476,-298.89058092986431,921.99585363193762,0.0
337154.6038362722,4765833.5216966402,-47500.0,233.83779376259949,-1.871892197198807,872.02748887845428,23.028520491895343,-341.88300721785885,18.944518543413828,547.36650796655556,367.42783550802551,116.29514275895008,-116.29514275895008,-367.42783550802551,971.0104544047847,0.0
342154.6038362722,4765833.5216966402,-47500.0,212.70849726555207,78.910908575773874,905.51015577894179,-31.798707789261037,-326.25327484374446,-15.988713473308859,569.09276033627043,447.75112018542688,92.495909155991512,-92.495909155991512,-447.75112018542688,1015.7540180096137,0.0
347154.6038362722,4765833.5216966402,-47500.0,203.65822687373921,171.38565081607155,908.84923440710088,-91.210609576641545,-288.72327665127096,-63.504957437696234,589.98440334997383,536.57354338423102,47.51892037203595,-47.51892037203595,-536.57354338423102,1058.4102420769827,0.0
352154.6038362722,4765833.5216966402,-47500.0,210.75070758342855,269.13016993785578,875.95019888438844,-150.68729585801216,-226.64906308082601,-124.13147225766912,614.76503852683402,628.45087044425441,-21.225569208260538,21.225569208260538,-628.45087044425441,1103.142064820222,0.0
357154.6038362722,4765833.5216966402,-47500.0,236.29904064778671,363.60361852719592,803.22012969455204,-204.64547777615724,-139.22481927594364,-197.2977012990626,648.95910553642557,715.98477766401675,-114.43114431100702,114.43114431100702,-715.98477766401675,1155.6961247805127,0.0
362154.6038362722,4765833.5216966402,-47500.0,280.02358536739769,445.04634961728266,690.60814900128935,-247.04541068748787,-28.012831851984799,-281.13277497632276,694.93438191034761,790.48990375260632,-230.34013515770408,230.34013515770408,-790.48990375260632,1222.0988114649779,0.0
367154.6038362722,4765833.5216966402,-47500.0,338.60797245472133,503.8238430620878,542.18435046997467,-272.22459690530434,102.8418969173586,-372.44286322981452,751.10127152792893,843.08691814760118,-364.52241599621061,364.52241599621061,-843.08691814760118,1306.6572777916426,0.0
372154.6038362722,4765833.5216966402,-47500.0,405.8559613277294,531.96235130548621,366.02996731662284,-275.80197254349969,246.82728150889616,-466.9147755606042,814.12384411225935,866.0401946642844,-510.1106053472638,510.1106053472638,-866.0401946642844,1410.1344054076724,0.0
377154.6038362722,4765833.5216966402,-47500.0,473.49645933350359,524.52150601899882,173.37618843779418,-255.44597336908834,395.72376964124805,-559.5390228935056,880.18734937996851,854.05000658341544,-658.50586609916752,658.50586609916752,-854.05000658341544,1529.0905362697304,0.0
382154.6038362722,4765833.5216966402,-47500.0,532.48616442946457,480.45784463333234,-22.862212865120906,-211.31381484677485,540.59890298772848,-645.18403850342236,945.36299501076633,805.18460478416455,-800.43656120694664,800.43656120694664,-805.18460478416455,1656.6602002317106,0.0
387154.6038362722,4765833.5216966402,-47500.0,574.50013858660577,402.76471767227383,-209.83791708619921,-146.05036964503788,672.93196369550105,-719.20842392269162,1005.880205065142,721.22168226793281,-927.14963988004877,927.14963988004877,-721.22168226793281,1784.1877255140932,0.0
392154.6038362722,4765833.5216966402,-47500.0,593.2469686048338,297.87812556472761,-376.41692081379887,-64.355100388184312,785.63067198624481,-777.98626416575883,1058.4381457834318,607.33061808406296,-1031.4795343126239,1031.4795343126239,-607.33061808406296,1902.9342646326502,0.0
397154.6038362722,4765833.5216966402,-47500.0,585.31601851693358,174.53535424195459,-514.38631758302881,27.762603197926282,873.74440550314398,-819.24817546258919,1100.4768048630049,471.20525959310515,-1108.5865638865098,1108.5865638865098,-471.20525959310515,2005.3755738528423,0.0
402154.6038362722,4765833.5216966402,-47500.0,550.42067800663688,42.39111915804336,-619.04112375356783,123.85438685073157,934.77281143428161,-842.19275636945576,1130.3407885740698,321.88355010309948,-1156.2589719802802,1156.2589719802802,-321.88355010309948,2085.9569129364213,0.0
407154.6038362722,4765833.5216966402,-47500.0,491.07715437802312,-89.294402537890747,-689.14593833769879,217.84333419380118,968.57775765102519,-847.38159470926871,1147.3155371277007,168.53008352414759,-1174.7907520602166,1174.7907520602166,-168.53008352414759,2141.3628115871074,0.0
412154.6038362722,4765833.5216966402,-47500.0,411.88700920891063,-212.66182325876682,-726.40831184099159,304.6368503199227,976.99128736883085,-836.47461702399983,1151.5498367480138,19.41297824110552,-1166.5380806512258,1166.5380806512258,-19.41297824110552,2170.4240833010913,0.0
417154.6038362722,4765833.5216966402,-47500.0,318.64438220438785,-321.84259370453844,-734.67200034419557,380.479025601552,963.25337215687807,-811.88195426583388,1143.8968645331033,-118.78877518907814,-1135.3001087764301,1135.3001087764301,118.78877518907814,2173.7928367582776,0.0
422154.6038362722,4765833.5216966402,-47500.0,217.46934365625643,-413.13930594371226,-719.03742026585451,443.04904523385937,931.41117772199016,-776.40573891584791,1125.7107025449436,-241.31446319620227,-1085.6665069364335,1085.6665069364335,241.31446319620227,2153.5022254593582,0.0
427154.6038362722,4765833.5216966402,-47500.0,114.10604406164646,-484.88181554701572,-685.06750400897818,491.35905869888114,885.77987512670063,-732.92573270255048,1098.6310927942968,-345.33415904986248,-1022.4384045231194,1022.4384045231194,345.33415904986248,2112.5023220811322,0.0
432154.6038362722,4765833.5216966402,-47500.0,13.44943915737756,-537.07841352042988,-638.17017894495825,525.52496551458842,830.52280285170491,-684.15939690879406,1064.3845251463279,-429.73497064908383,-950.1833828047204,950.1833828047204,429.73497064908383,2054.2356545993766,0.0
307154.6038362722,4770833.5216966402,-47500.0,313.65970993555771,-133.53701751635984,416.02823076633689,129.19091719610097,-179.61781183388774,42.48745621277493,321.08840071153486,133.62256561176133,34.185639043909354,-34.185639043909354,-133.62256561176133,558.68431795917661,0.0
312154.6038362722,4770833.5216966402,-47500.0,300.35748785049276,-131.97815864637002,480.15716826598032,122.30275056607674,-206.01987902132055,44.394425721835077,348.31426552796773,150.43174580783116,51.704051682617035,-51.704051682617035,-150.43174580783116,606.90053068333589,0.0
317154.6038362722,4770833.5216966402,-47500.0,281.8428996263155,-121.08740648713129,546.2270080171869,109.19396495874597,-230.72338102128171,43.603219931171886,375.19646085561965,174.31206605821365,67.836750956666108,-67.836750956666108,-174.31206605821365,655.0573781583239,0.0
322154.6038362722,4770833.5216966402,-47500.0,259.26246126094094,-98.878959496896783,611.18642803136981,89.003907464377917,-251.59399589861343,38.973469440313274,400.98580236539505,206.68778969647155,80.565133589980519,-80.565133589980519,-206.68778969647155,702.06662289571966,0.0
327154.6038362722,4770833.5216966402,-47500.0,234.55014353925776,-63.79794910750477,670.98340710109028,61.23462509789907,-266.01247392146081,29.206611935265858,424.99436873265677,248.66736938414536,87.371069652150055,-87.371069652150055,-248.66736938414536,746.99811838660821,0.0
332154.6038362722,4770833.5216966402,-47500.0,210.43092433555665,-15.1021292139118,720.64216394121581,25.959199120303346,-270.97497773042869,12.921880619557239,446.79213305605134,300.73758135737216,85.334546088433157,-85.334546088433157,-300.73758135737216,789.35723474389169,0.0
337154.6038362722,4770833.5216966402,-47500.0,190.27705585870447,46.726382801857881,754.5231367183269,-15.970811191417425,-263.29783098163091,-11.22011522103687,466.54635335573784,362.41964416690644,71.340736351746955,-71.340736351746955,-362.41964416690644,829.43429346940707,0.0
342154.6038362722,4770833.5216966402,-47500.0,177.78046508229139,119.61642169534879,766.79928697018192,-62.763210156003332,-239.93623032363675,-44.346495931815376,485.58174480096466,431.94571547287569,42.407067238064201,-42.407067238064201,-431.94571547287569,868.66025048015001,0.0
347154.6038362722,4770833.5216966402,-47500.0,176.43961528370949,199.69403769335867,752.14083232508847,-111.62373643008797,-198.401738614821,-87.166204531947685,507.02330959498659,506.03999455009659,-3.8853761428102587,3.8853761428102587,-506.03999455009659,909.82446777468954,0.0
352154.6038362722,4770833.5216966402,-47500.0,188.91384182870075,281.32936933886094,706.54126946554231,-158.84955204586569,-137.23093200116625,-139.75619189021296,535.36180081148223,579.9005465011146,-68.90671101280418,68.90671101280418,-579.9005465011146,956.93570202443971,0.0
357154.6038362722,4770833.5216966402,-47500.0,216.35924050069607,357.5237638171306,628.14963382648193,-200.11164022953824,-56.423570241331923,-201.38073717420352,573.67382420548199,647.46062471638902,-152.52573312020399,152.52573312020399,-647.46062471638902,1014.5215203642498,0.0
362154.6038362722,4770833.5216966402,-47500.0,257.90648779805184,420.6473441414966,517.92730824387513,-230.91997069689995,42.251976095101703,-270.39167564148732,621.67403097698661,701.95799196335622,-252.79830338904003,252.79830338904003,-701.95799196335622,1086.3878910905432,0.0
367154.6038362722,4770833.5216966402,-47500.0,310.44511840238494,463.4401032040073,379.94396792698211,-247.2133110775207,155.18328265674447,-344.25165576241341,677.04682231273534,736.7613921713322,-365.89896789205375,365.89896789205375,-736.7613921713322,1174.2562044640342,0.0
372154.6038362722,4770833.5216966402,-47500.0,368.82574635210329,480.09518962781448,221.18461281754747,-245.9671952007786,277.12788910430743,-419.70140622670311,736.89290230264896,746.31799412857163,-486.35721114027569,486.35721114027569,-746.31799412857163,1276.9210192687101,0.0
377154.6038362722,4770833.5216966402,-47500.0,426.489238305387,467.19090663538213,50.850281831907729,-225.69052902480155,401.71155626798617,-493.05980528578851,798.14485757358284,727.028191233092,-607.59056466681659,607.59056466681659,-727.028191233092,1390.3178858627089,0.0
382154.6038362722,4770833.5216966402,-47500.0,476.41108547883255,424.25437701501693,-120.73481758118857,-186.69539044772532,522.13313500879599,-560.61101306428964,857.70972547086035,677.8499335504215,-722.64982678762874,722.64982678762874,-677.8499335504215,1508.361505937899,0.0
387154.6038362722,4770833.5216966402,-47500.0,512.15610429444928,353.8270488455085,-283.39240939673158,-131.07637470250887,631.94326385278669,-619.00881105573637,912.65703428885502,600.49367502339658,-825.03414115101293,825.03414115101293,-600.49367502339658,1624.1045507895578,0.0
392154.6038362722,4770833.5216966402,-47500.0,528.80895874274472,261.03015293906299,-428.27878340570601,-62.407569438062829,725.74728292821237,-665.62305037709336,960.4377298041785,499.17109274117274,-909.4170953017242,909.4170953017242,-499.17109274117274,1730.8177917548833,0.0
397154.6038362722,4770833.5216966402,-47500.0,523.59009490146434,152.75140994112328,-548.77201911293264,14.767479716740382,799.70787803542407,-698.76916729842219,999.07118446515221,379.97125897418067,-972.15396266590574,972.15396266590574,-379.97125897418067,1822.7896731729211,0.0
402154.6038362722,4770833.5216966402,-47500.0,496.06242143514919,36.650725493304058,-640.930833657074,95.537255110833797,851.78003183101134,-717.79182888847515,1027.2592614396649,250.01736437035009,-1011.5019199212998,1011.5019199212998,-250.01736437035009,1895.7983289709275,0.0
407154.6038362722,4770833.5216966402,-47500.0,447.94399262199448,-79.805642603993405,-703.51139999669135,175.1956031684357,881.67711272459883,-723.00794286314374,1044.4140859370541,116.58523866953533,-1027.5562619189557,1027.5562619189557,-116.58523866953533,1947.2878444096318,0.0
412154.6038362722,4770833.5216966402,-47500.0,382.62794686147345,-190.11795410900299,-737.62359098603736,249.69429446515392,890.62154253541473,-715.54098537767209,1050.6069784614638,-13.658754095138534,-1021.9629316012796,1021.9629316012796,13.658754095138534,1976.3120968615592,1.0
417154.6038362722,4770833.5216966402,-47500.0,304.5521786077623,-289.24454591644815,-746.16157597182678,315.92625455911957,880.96354530041674,-697.09284040303248,1046.4585112786162,-135.20029290182953,-997.49849887130199,997.49849887130199,135.20029290182953,1983.3193542449067,0.0
422154.6038362722,4770833.5216966402,-47500.0,218.55766356797776,-373.80056540797028,-733.15190056229449,371.83458850644291,855.75492992141005,-669.69925863321862,1032.9942750157634,-243.96604435350014,-957.61052953706462,957.61052953706462,243.96604435350014,1969.8481713099591,0.0
427154.6038362722,4770833.5216966402,-47500.0,129.3393550301796,-442.01023880439237,-703.13677002903535,416.37550772101315,818.34909904992662,-635.50629165326495,1011.4905585559588,-337.38032623628203,-905.99339496185428,905.99339496185428,337.38032623628203,1938.1950906670361,0.0
312154.6038362722,4775833.5216966402,-47500.0,246.98852570009768,-100.12548623854362,452.26188747409515,88.863374516998093,-180.85303779372018,30.338100453055144,306.84778805299305,152.0932892131749,45.332560457348976,-45.332560457348976,-152.0932892131749,534.26212831040039,0.0
317154.6038362722,4775833.5216966402,-47500.0,229.56997241870991,-84.165702389246078,505.39386735952621,73.989043694945423,-197.72003747683399,27.094738750798445,328.06653186483896,176.99654279188701,55.611292418755284,-55.611292418755284,-176.99654279188701,572.60537951084439,0.0
322154.6038362722,4775833.5216966402,-47500.0,209.87135974371125,-58.32698126223999,555.32818531516114,53.349127402961336,-210.21222645897853,20.31402395092935,348.25777057093825,209.11643893833775,61.962300455679667,-61.962300455679667,-209.11643893833775,609.97402915657676,0.0
327154.6038362722,4775833.5216966402,-47500.0,189.7304027480568,-21.771640515567071,598.47616774273808,26.815808264915237,-216.18766950460324,9.0201399946315455,367.0876340319416,248.99044639706071,62.332898866516615,-62.332898866516615,-248.99044639706071,646.0529816551051,0.0
332154.6038362722,4775833.5216966402,-47500.0,171.51789795255331,25.568567568642951,630.66337022960295,-5.2470756886336565,-213.30492048075536,-7.7744973235897632,384.58175306239832,296.55775705170134,54.463164241712676,-54.463164241712676,-296.55775705170134,681.04510634568646,0.0
337154.6038362722,4775833.5216966402,-47500.0,157.97232298390324,82.712580456890308,647.39495185531666,-41.854732615562405,-199.20487161983598,-30.970623120111032,401.48770727355361,350.92353552476254,36.07089288026873,-36.07089288026873,-350.92353552476254,715.91494702828038,0.0
342154.6038362722,4775833.5216966402,-47500.0,151.90732718803446,147.41454026343126,644.26910887307724,-81.318917370417552,-171.76457697996815,-61.256431433126679,419.79991536866669,410.16405373331327,5.1116333969312109,-5.1116333969312109,-410.16405373331327,752.56444824640391,0.0
347154.6038362722,4775833.5216966402,-47500.0,155.80541697427864,216.08331474794755,617.51695751342936,-121.24749070029684,-129.40464059376288,-98.966343219876833,442.91495949741227,471.23128192811703,-39.905840475004311,39.905840475004311,-471.23128192811703,793.80904511533436,0.0
352154.6038362722,4775833.5216966402,-47500.0,171.34776295086684,283.90326204596073,564.6070451888163,-158.65629509676805,-71.411193875906037,-143.94444760266268,474.07137714165702,530.01629471732167,-99.590105841951527,99.590105841951527,-530.01629471732167,843.0130199910277,0.0
357154.6038362722,4775833.5216966402,-47500.0,198.96582232244396,345.19438519352843,484.81315772297529,-190.20678624014425,1.7849124490091681,-195.43952576260838,514.04560344693141,581.61193351588167,-173.3841319772298,173.3841319772298,-581.61193351588167,903.34207729502157,0.0
362154.6038362722,4775833.5216966402,-47500.0,237.52241073087507,394.00049532810363,379.62200770256578,-212.55592095863483,88.437162730929828,-252.0605826958257,561.40169518441121,620.7777310570367,-259.39751316464219,259.39751316464219,-620.7777310570367,976.8141961386915,0.0
367154.6038362722,4775833.5216966402,-47500.0,284.2233711311103,424.83166226492273,252.86525420740125,-222.77296957114785,185.47782551707158,-311.81568622550429,613.94757155464265,642.55816016872052,-354.41281445910897,354.41281445910897,-642.55816016872052,1063.5273903000693,0.0
372154.6038362722,4775833.5216966402,-47500.0,334.82020492627106,433.4322232086468,110.50451151882713,-218.75145256240512,288.70767050879118,-372.24296387330679,669.3205979847354,642.95472896636704,-454.09539674090763,454.09539674090763,-642.95472896636704,1161.401703702348,0.0
377154.6038362722,4775833.5216966402,-47500.0,384.09685781416977,417.41991334365179,-39.927215894088476,-199.53420680730179,393.16960965607456,-430.62299573837953,725.08299165279993,619.52287523876885,-553.39229600989847,553.39229600989847,-619.52287523876885,1266.4955194235545,0.0
382154.6038362722,4775833.5216966402,-47500.0,426.5588744806879,376.65806644531267,-190.14306539622862,-165.48140164516849,493.65147362097491,-484.24197541131059,778.80220054630945,571.76758500386813,-647.05987695673002,647.05987695673002,-571.76758500386813,1373.6914981147665,0.0
387154.6038362722,4775833.5216966402,-47500.0,457.18803335832973,313.28118161905752,-332.03041175633115,-118.24448334158629,585.23130484785929,-530.66228061405059,828.18985050939364,501.25292469932526,-730.22788495889802,730.22788495889802,-501.25292469932526,1477.4816135705591,0.0
392154.6038362722,4775833.5216966402,-47500.0,472.10887277964554,231.37555123491882,-458.51767568813227,-60.552853115709901,663.76915366665219,-567.95424948086884,871.25873441365002,411.40592878573682,-798.89900040433088,798.89900040433088,-411.40592878573682,1572.6598699682629,0.0
397154.6038362722,4775833.5216966402,-47500.0,469.04115894080473,136.39455406023086,-564.23203710898053,4.1390447081846782,726.26537185692086,-594.85278440648733,906.4553616134699,307.06430682007959,-850.3017449181923,850.3017449181923,-307.06430682007959,1654.834346557411,0.0
402154.6038362722,4775833.5216966402,-47500.0,447.47214414979032,34.438724479495306,-645.85864266448857,72.071009522298453,771.03979762723088,-610.82020707945617,932.74242131770643,193.86888555158566,-883.05226124745354,883.05226124745354,-193.86888555158566,1720.7379748423029,0.0
407154.6038362722,4775833.5216966402,-47500.0,408.55191228573983,-68.458777419027982,-702.18567030142378,139.58534885358949,797.72723128765904,-616.01677217523581,949.621896542635,77.62070741423446,-897.12392089564787,897.12392089564787,-77.62070741423446,1768.352411385089,0.0
412154.6038362722,4775833.5216966402,-47500.0,354.77270266356322,-166.92547317556972,-733.88295382968818,203.46150369608705,807.12002355929599,-611.1969958624818,957.1028752170032,-36.289091132575948,-893.66059363867771,893.66059363867771,36.289091132575948,1796.8779894913141,0.0
417154.6038362722,4775833.5216966402,-47500.0,289.52433637761214,-256.65273748041233,-743.10172027186559,261.1403141607301,800.90981357378314,-597.55969176100359,955.62649415926273,-143.30329783609579,-874.69060258795434,874.69060258795434,143.30329783609579,1806.5914940576379,0.0
422154.6038362722,4775833.5216966402,-47500.0,216.62103519566816,-334.59067616679391,-732.9938845352799,310.8291123188958,781.38594743042859,-576.58123373265528,945.96457172419503,-239.9457234986852,-842.80265908180115,842.80265908180115,239.9457234986852,1798.6357596031605,0.0
317154.6038362722,4780833.5216966402,-47500.0,187.99534443985578,-52.019712856760023,462.5292719059949,46.460841900877682,-167.45935290788864,14.328146577730923,287.46766335689546,177.63114866533022,43.554696038900232,-43.554696038900232,-177.63114866533022,501.92489133424618,0.0
322154.6038362722,4780833.5216966402,-47500.0,171.3790609700016,-24.445953847513866,499.67072279114439,26.410967847886972,-173.62175844384063,6.4302435007516463,303.59616253200954,208.42714120449011,45.166557905533082,-45.166557905533082,-208.42714120449011,532.40381823398752,0.0
327154.6038362722,4780833.5216966402,-47500.0,155.45552742927893,11.869056807186375,529.18012970868585,1.8603571452903729,-173.54856869880697,-5.3377189013171833,318.86457170186247,245.31830098851961,41.076294298432771,-41.076294298432771,-245.31830098851961,562.50089942627062,0.0
332154.6038362722,4780833.5216966402,-47500.0,142.2223612817518,56.561613083150085,547.63081000155091,-26.679854302804674,-165.4455011826777,-21.66998751257756,333.67424752693842,287.90073902765528,29.569089730279103,-29.569089730279103,-287.90073902765528,592.88260967394922,0.0
337154.6038362722,4780833.5216966402,-47500.0,133.85629377528235,108.39789782775367,551.50164673105155,-58.215215548343352,-147.59127878083726,-43.158793619217292,349.25222456313077,335.07755714440259,9.0038555108108369,-9.0038555108108369,-335.07755714440259,624.86671707264122,0.0
342154.6038362722,4780833.5216966402,-47500.0,132.4666031536857,165.15757217959876,537.5202884971153,-91.233485519267106,-118.53360667112769,-70.204051836718008,368.00438052889245,384.95050662489962,-21.987043928256753,21.987043928256753,-384.95050662489962,660.44586715000446,0.0
347154.6038362722,4780833.5216966402,-47500.0,139.78195982769643,223.63003079922476,503.0789045820348,-123.73379909274568,-77.311610816168823,-102.91786215206716,392.9030513211892,434.79741975536251,-64.271701418749814,64.271701418749814,-434.79741975536251,702.10580692303517,0.0
352154.6038362722,4780833.5216966402,-47500.0,156.81265118389391,279.76177373265648,446.6708530495635,-153.33554383232078,-23.674722497140788,-141.03827989531015,425.49571006867177,481.17072446696392,-117.99804436249002,117.99804436249002,-481.17072446696392,752.38572835302921,0.0
357154.6038362722,4780833.5216966402,-47500.0,183.55046775547052,328.97024544693556,368.27408252425687,-177.47020812660594,41.741417811605565,-183.8697276303638,465.15588144528135,520.13560941408889,-182.41988409162661,182.41988409162661,-520.13560941408889,813.24653693075106,0.0
362154.6038362722,4780833.5216966402,-47500.0,218.7779445420081,366.60509937007879,269.59876860379012,-193.64170755263646,117.3236179011528,-230.26733177611717,510.25027686423675,547.6399555888604,-255.81277897373499,255.81277897373499,-547.6399555888604,885.45411549208097,0.0
367154.6038362722,4780833.5216966402,-47500.0,260.04879085448675,388.49803951003906,154.12692543405143,-199.72141130297385,200.50785839395081,-278.6775667553473,558.94827710765162,559.97416249924913,-335.51335015207417,335.51335015207417,-559.97416249924913,968.22050151279393,0.0
372154.6038362722,4780833.5216966402,-47500.0,303.87157876310607,391.51049791482995,26.905752667229294,-194.22950861161104,287.93823476095037,-327.23814467254607,609.36182859445807,554.24959263661879,-418.09484968308112,418.09484968308112,-554.24959263661879,1059.2241136899854,0.0
377154.6038362722,4780833.5216966402,-47500.0,346.08437343070716,373.97616707033109,-105.89450652217769,-176.55035263679122,375.74633653368153,-373.9284748976786,659.55666488550457,528.80897459441985,-499.66431100952695,499.66431100952695,-528.80897459441985,1154.9516608309159,0.0
382154.6038362722,4780833.5216966402,-47500.0,382.36108814426763,335.94950762084602,-237.59487068012612,-147.03843271114684,459.91235079534277,-416.75016501077556,707.61362673111307,483.4877770165379,-576.23868299828086,576.23868299828086,-483.4877770165379,1251.2056709352833,0.0
387154.6038362722,4780833.5216966402,-47500.0,408.75705815911834,279.21069222798224,-361.6917335755042,-106.9932297389055,536.65078221183649,-453.91017338113903,751.73390697029708,419.67414380499002,-644.13921239308308,644.13921239308308,-419.67414380499002,1343.6315858851826,0.0
392154.6038362722,4780833.5216966402,-47500.0,422.19182835137957,207.02965090636502,-472.49517922110039,-58.5080148148528,602.75854407837073,-483.97797998997197,790.3535087596548,340.15677774947596,-700.33935848749991,700.33935848749991,-340.15677774947596,1428.1726746879522,0.0
397154.6038362722,4780833.5216966402,-47500.0,420.78482409685523,123.74233496614805,-565.62048065455065,-4.2234483215766909,655.87298142962391,-505.99386768040438,822.23934939433889,248.79479301788021,-742.71323929423238,742.71323929423238,-248.79479301788021,1501.4102913988488,0.0
402154.6038362722,4780833.5216966402,-47500.0,403.99709992579727,34.225443283754792,-638.27017652060636,52.967366956492043,694.6088805851723,-519.51617557184863,846.55048158352338,150.07616154989012,-770.15526887476801,770.15526887476801,-150.07616154989012,1560.7771906683358,0.0
407154.6038362722,4780833.5216966402,-47500.0,372.57722076572486,-56.634775950507738,-689.29117818695011,110.21148379000279,718.56894098071859,-524.60733094478383,862.85802929646445,48.645609158027298,-782.56848280841336,782.56848280841336,-48.645609158027298,1604.6491419862855,0.0
412154.6038362722,4780833.5216966402,-47500.0,328.347652783049,-144.39816899026411,-719.0349988274811,164.94400134130711,728.24544149611836,-521.76914156748944,871.12594069365286,-51.123776996023764,-780.7430473065574,780.7430473065574,51.123776996023764,1632.3319926486538,0.0
327154.6038362722,4785833.5216966402,-47500.0,129.23127518227491,38.143368104904845,464.51881059193795,-15.807888364643494,-137.59252217037439,-15.209642182593536,278.834725314656,238.57159749876345,23.482587895345972,-23.482587895345972,-238.57159749876345,493.57843679833627,0.0
332154.6038362722,4785833.5216966402,-47500.0,120.07552496622765,79.471991701141604,472.38349819309576,-40.846279723363601,-126.20893272699573,-30.525891081642936,292.10318074056198,276.11415697570942,9.9247236334700517,-9.9247236334700517,-276.11415697570942,521.15113581818821,0.0
337154.6038362722,4785833.5216966402,-47500.0,115.67771472361751,125.86069288297368,466.84025159914427,-67.761718510088443,-106.46859378005793,-49.964797211295384,307.36501049366905,316.56678451339855,-11.31209496882434,11.31209496882434,-316.56678451339855,551.5654010906045,0.0
342154.6038362722,4785833.5216966402,-47500.0,117.59613565172899,175.22655750687562,445.49376491665964,-95.241157667180914,-77.39947113348623,-73.740882199627592,327.0631822367539,358.15672234472993,-41.115928817082448,41.115928817082448,-358.15672234472993,586.65438916419066,0.0
347154.6038362722,4785833.5216966402,-47500.0,127.00873790389376,224.76590343732911,406.58680674342241,-121.63591657236933,-38.454503001910268,-101.84011574472085,353.16476558726384,398.51604642535608,-79.944591781373788,79.944591781373788,-398.51604642535608,628.40916925209979,0.0
352154.6038362722,4785833.5216966402,-47500.0,144.47284352116344,271.10277722514434,349.31249649782859,-145.05835619556552,10.340829833627813,-133.96604331395406,385.80161845535599,434.78934638804196,-127.67965879636947,127.67965879636947,-434.78934638804196,678.5716969761379,0.0
357154.6038362722,4785833.5216966402,-47500.0,169.72601518913424,310.55234326419031,274.07072633489508,-163.53302174856844,68.279090489416959,-169.50703134903983,423.83072818419549,463.83827981242268,-183.52176207535277,183.52176207535277,-463.83827981242268,738.17855345523503,0.0
362154.6038362722,4785833.5216966402,-47500.0,201.57535323089252,339.47900361615069,182.61373681240147,-175.18924555800339,133.92596604640661,-207.53496153536318,465.80904792696458,482.53121963218007,-245.95407409298616,245.95407409298616,-482.53121963218007,807.21353419927289,0.0
367154.6038362722,4785833.5216966402,-47500.0,237.9131303968183,354.70391887643615,78.036208840041965,-178.47066740860686,205.15932825934084,-246.84193440400051,510.26776632491595,488.0845772041493,-312.79289768063137,312.79289768063137,-488.0845772041493,884.4873955672316,0.0
372154.6038362722,4785833.5216966402,-47500.0,275.87488344647221,353.89790032934792,-35.41028506989899,-172.32896145791699,279.29834476472837,-286.01532220580157,555.70223067031134,478.40468299924873,-381.32985462519844,381.32985462519844,-478.40468299924873,967.75857144282691,0.0
377154.6038362722,4785833.5216966402,-47500.0,312.12727336138784,335.89082096613282,-152.66515796768368,-156.36819807434654,353.31222655873461,-323.54466076352912,600.57328689080055,452.37240823948321,-448.55300744415092,448.55300744415092,-452.37240823948321,1054.0231816748451,0.0
382154.6038362722,4785833.5216966402,-47500.0,343.24261815829112,300.83931399705102,-268.32266312353369,-130.91254370726196,424.08140133495954,-357.94652177267278,643.35898463590195,410.0173091508355,-511.41681908091908,511.41681908091908,-410.0173091508355,1139.8761491257885,0.0
387154.6038362722,4785833.5216966402,-47500.0,366.0972127421154,250.22167526983102,-377.14031738898507,-96.984274659649742,488.67307058840009,-387.88992933163746,682.63503880986184,352.54878733039061,-567.1207664903385,567.1207664903385,-352.54878733039061,1221.8681246581421,0.0
392154.6038362722,4785833.5216966402,-47500.0,378.22468582645882,186.6626825852745,-474.5130242345881,-56.196028115072544,544.59017634772681,-412.304242726175,717.1594325415623,282.23857543435071,-613.3543227760299,613.3543227760299,-282.23857543435071,1296.8122428588551,0.0
397154.6038362722,4785833.5216966402,-47500.0,378.06721230843556,113.62407030218077,-556.84337405641065,-10.577116755415453,589.95906621328993,-430.45490552601666,745.94333108955914,202.17793296211178,-648.47384245621743,648.47384245621743,-202.17793296211178,1362.017601180492,0.0
402154.6038362722,4785833.5216966402,-47500.0,365.09128661790788,35.018618928393074,-621.76365971614973,37.635583846377735,623.6344962815939,-441.97907951021938,768.29746090769459,115.95432288197594,-671.59157967082638,671.59157967082638,-115.95432288197594,1415.4405870680428,0.0
342154.6038362722,4790833.5216966402,-47500.0,105.98099582272779,179.55226206420119,366.79901265676841,-95.302838183588023,-45.934896426340565,-73.70292671815227,294.35477696164105,331.0817131536997,-54.115816248805345,54.115816248805345,-331.0817131536997,526.75623937713794,0.0
347154.6038362722,4790833.5216966402,-47500.0,116.55049586402001,221.37312228444046,325.74119330122653,-116.71792972578797,-9.8589066630314424,-97.68308649265272,320.78670302073425,363.52385797309387,-89.22854478905009,89.22854478905009,-363.52385797309387,568.02415925854791,0.0
352154.6038362722,4790833.5216966402,-47500.0,133.76364271001813,259.55610536919261,269.36546833340151,-135.26251793514862,34.035580846681441,-124.6685481915257,352.39920782578383,391.64901200565271,-131.26719730691005,131.26719730691005,-391.64901200565271,617.00093465173825,0.0
357154.6038362722,4790833.5216966402,-47500.0,157.22261891302443,291.1426342674286,198.30711285178251,-149.41551857027616,85.044407240678481,-154.1376024407661,388.04463118462394,412.96151612261679,-179.45369737776787,179.45369737776787,-412.96151612261679,674.08452426444831,0.0
362154.6038362722,4790833.5216966402,-47500.0,185.81372709979192,313.28429424609834,114.25646574735549,-157.76885598058959,141.92177280268123,-185.34466039580363,426.5518598005857,425.0395242089628,-232.48318625916724,232.48318625916724,-425.0395242089628,738.82302625587374,0.0
367154.6038362722,4790833.5216966402,-47500.0,217.73908963517414,323.54543874154979,19.924324811404404,-159.17685817387877,202.92151792397368,-217.35120871245033,466.75175995453651,425.788204376897,-288.57514110331209,288.57514110331209,-425.788204376897,809.9105879596741,0.0
372154.6038362722,4790833.5216966402,-47500.0,250.64893145704309,320.18701022534128,-81.11802339196926,-152.8908574527064,265.90004908493034,-249.08178072511296,507.44102574155215,413.68551520124601,-345.58638783784312,345.58638783784312,-413.68551520124601,885.3250680635756,0.0
377154.6038362722,4790833.5216966402,-47500.0,281.86271083926709,302.38474902819729,-184.71211219600121,-138.65697053349675,328.47260607915359,-279.40018215060269,547.3889172629232,387.98093358734002,-401.17582683118928,401.17582683118928,-387.98093358734002,962.5521285442934,0.0
382154.6038362722,4790833.5216966402,-47500.0,308.64810020097838,270.34361841950351,-286.46411141440331,-116.7598952077177,388.2034313936627,-307.19662924452558,585.38116066033706,348.81258842925729,-452.99956501878103,452.99956501878103,-348.81258842925729,1038.8396912576125,0.0
387154.6038362722,4790833.5216966402,-47500.0,328.51450947655786,225.28839225383922,-382.12574545773373,-88.00472749507378,442.80452432558837,-331.47459847505638,620.28176729666666,297.22187758641974,-498.9096822394888,498.9096822394888,-297.22187758641974,1111.4436477601055,0.0
392154.6038362722,4790833.5216966402,-47500.0,339.47419414545493,169.33293699237245,-467.94930164546452,-53.639600497784272,490.31545328816935,-351.42569292284429,651.09622075710035,235.06279155901848,-537.1285591334854,537.1285591334854,-235.06279155901848,1177.8399023312138,0.0
