x,y,z,stresses_full_xx,stresses_full_xy,stresses_full_yy,stresses_full_xz,stresses_full_yz,stresses_full_zz,stresses_full_max_shear,stresses_full_cfs_1,stresses_full_cfs_2,stresses_full_cfs_3,stresses_full_cfs_4,von_mises,aftershocksyn
598296.95196600363,3550566.251970998,-2500.0,680.84512091046872,1347.8365216212849,4726.3497400071565,62.986640799855884,196.4287805466044,5.8622963081799924,2572.5084119968287,249.8266390163592,3395.5870803090165,-3395.5870803090165,-249.8266390163592,5012.9831624161216,0.0
603296.95196600363,3550566.251970998,-2500.0,569.33761050300814,1085.7281364444652,5262.9996416023841,50.649853660248681,217.00884287117407,6.3986268682980452,2756.8224531896535,-113.96681282440431,3799.3362460201511,-3799.3362460201511,113.96681282440431,5354.9043306368521,0.0
608296.95196600363,3550566.251970998,-2500.0,483.46689515574298,751.7152364547461,5689.6567002224892,35.336302567752661,233.3718959632694,6.8251779122601723,2904.2121451610833,-484.38779794538254,4105.7214432424034,-4105.7214432424034,484.38779794538254,5628.094485742834,0.0
613296.95196600363,3550566.251970998,-2500.0,435.62408193763389,364.98006349242763,5978.3857942530458,17.833064247023472,244.48464009329052,7.1165586340977187,3007.6093802031,-834.72316862822004,4292.1170758801363,-4292.1170758801363,834.72316862822004,5819.0072008161442,0.0
618296.95196600363,3550566.251970998,-2500.0,433.66143840710288,-49.419942166879331,6111.0182733270949,-0.84468924758311414,249.66988090900242,7.2560071769392964,3062.2928743699822,-1139.4227433945953,4345.2468805546232,-4345.2468805546232,1139.4227433945953,5918.5633639496846,0.0
623296.95196600363,3550566.251970998,-2500.0,479.54566269287778,-463.48887319409982,6081.5034670369005,-19.56511971516753,248.6912399863935,7.2373832236482549,3066.3422458768664,-1377.4106241016741,4263.0465303926085,-4263.0465303926085,1377.4106241016741,5923.0071409483844,0.0
628296.95196600363,3550566.251970998,-2500.0,569.04833018126635,-849.7592644682652,5896.5362944942153,-37.211169912011904,241.77745450077688,7.0657437095232263,3020.7852287172191,-1534.7090031919665,4054.851905952542,-4054.851905952542,1534.7090031919665,5834.1840347764746,0.0
633296.95196600363,3550566.251970998,-2500.0,692.54278718823775,-1184.6029145191262,5574.3234720232576,-52.807158427308046,229.58093932001975,6.7565253148186217,2929.4052112234544,-1605.8470920809534,3739.8633183248066,-3739.8633183248066,1605.8470920809534,5659.1769529891671,0.0
638296.95196600363,3550566.251970998,-2500.0,836.69994206317676,-1450.7604634736942,5141.8102801086425,-65.617818826459271,213.08144653790714,6.333285024347644,2798.2596404835044,-1593.8449054086955,3344.2603154939375,-3344.2603154939375,1593.8449054086955,5409.3945925221387,0.0
643296.95196600363,3550566.251970998,-2500.0,986.66176598589971,-1638.6728181497604,4630.9760030280468,-75.203838591580478,193.45515350821518,5.8246872894974615,2634.9921925840617,-1508.8972677490042,2897.6013015702606,-2897.6013015702606,1508.8972677490042,5099.267939564259,0.0
648296.95196600363,3550566.251970998,-2500.0,1128.2043516024871,-1746.5238385737878,4074.9573264901233,-81.429725150742101,171.93550885574354,5.2612271108153799,2448.0612235704202,-1366.174805370073,2429.2403822533579,-2429.2403822533579,1366.174805370073,4744.7871145846048,0.0
583296.95196600363,3555566.251970998,-2500.0,1215.9435915386787,1893.4661114837734,3017.5871470680027,95.665221153787655,138.85583062896376,4.6928931777384628,2112.1313165248621,1330.0573015523964,2018.0882566199116,-2018.0882566199116,-1330.0573015523964,4211.4403527794657,0.0
588296.95196600363,3555566.251970998,-2500.0,1098.8027825469858,1908.3265627826338,3817.99177510857,94.636309321533972,171.2159737243789,5.5882080440913775,2406.0608023774544,1086.101392081672,2647.9414390467546,-2647.9414390467546,-1086.101392081672,4754.1253194921446,0.0
593296.95196600363,3555566.251970998,-2500.0,955.05703736899204,1820.0870589768026,4622.8142028627935,89.035144962778077,203.56455711966115,6.4754833610663285,2692.3453641546153,756.44716234528596,3278.7536669515912,-3278.7536669515912,-756.44716234528596,5283.7169157733215,0.0
598296.95196600363,3555566.251970998,-2500.0,801.84809319443161,1620.4540542723309,5386.6400306033875,78.577499867801933,234.13668104886503,7.3088997973629581,2957.4737870829822,356.58300914275856,3870.4525409357193,-3870.4525409357193,-356.58300914275856,5775.3791026852605,0.0
603296.95196600363,3555566.251970998,-2500.0,659.49381240892694,1311.5496030897696,6060.4789395628122,63.407071371756039,261.04388544323939,8.0399245735980571,3188.3915322883126,-88.33383635950986,4380.4021574690923,-4380.4021574690923,88.33383635950986,6204.0716836215652,0.0
608296.95196600363,3555566.251970998,-2500.0,548.56264171867235,907.28866460212726,6597.3194147201357,44.144217423158395,282.48174190996252,8.6224821179520514,3373.0740396442857,-545.65063645099553,4768.6222605354669,-4768.6222605354669,545.65063645099553,6546.7329771696632,0.0
613296.95196600363,3555566.251970998,-2500.0,486.45112964709654,432.85035145802857,6958.2546513977341,21.861047681887072,296.95682517262264,9.0184389659906117,3501.7157307448406,-979.09038480698291,5003.386991609932,-5003.386991609932,979.09038480698291,6784.5482850196368,0.0
618296.95196600363,3555566.251970998,-2500.0,484.22566568221652,-77.939498610427705,7117.9719623807941,-2.0231527156056548,303.48966805677429,9.2025883772052044,3567.776635190934,-1353.6930636619725,5066.0392265484134,-5066.0392265484134,1353.6930636619725,6904.9238478404741,0.0
623296.95196600363,3555566.251970998,-2500.0,544.52750694221243,-586.95286629739121,7068.3986022971549,-25.912306701259681,301.75079013270783,9.1659751972694057,3568.685547320486,-1640.8162182037281,4953.9034471109862,-4953.9034471109862,1640.8162182037281,6902.8147609299822,0.0
628296.95196600363,3555566.251970998,-2500.0,661.10414745810408,-1056.9625655876982,6819.6266871552425,-48.237373200697746,292.09783597678734,8.9168349315598707,3506.0531833241275,-1822.0713879650548,4680.5571665708676,-4680.5571665708676,1822.0713879650548,6781.1291089246761,0.0
633296.95196600363,3555566.251970998,-2500.0,820.09106804423084,-1456.5842381671403,6397.9453659845476,-67.651904240983441,275.50750479101703,8.4791210747005685,3385.3706912464631,-1891.3410342545076,4273.4147037466528,-4273.4147037466528,1891.3410342545076,6550.1589395098154,0.0
638296.95196600363,3555566.251970998,-2500.0,1002.6737535100257,-1763.9125879686731,5841.4598154559653,-83.179853422430014,253.41778551395265,7.8887555586244291,3215.239293985162,-1854.5259391645341,3769.2141603043183,-3769.2141603043183,1854.5259391645341,6226.1208443319765,0.0
643296.95196600363,3555566.251970998,-2500.0,1188.4191514748065,-1968.2308986851992,5194.4456189290868,-94.291295106064283,227.52146718391342,7.1886792381625284,3006.3291384130248,-1727.3167846125025,3208.5589325681858,-3208.5589325681858,1727.3167846125025,5829.1820380849722,0.0
648296.95196600363,3555566.251970998,-2500.0,1358.457916943036,-2069.6968863331167,4501.579980475567,-100.90036669474976,199.55080957219965,6.4235150987363365,2770.210952358103,-1531.6953849675231,2630.6390145479636,-2630.6390145479636,1531.6953849675231,5381.2417081765097,0.0
653296.95196600363,3555566.251970998,-2500.0,1497.8795533525852,-2077.4260435386032,3803.1802211074087,-103.29941466977755,171.09545217624185,5.6350779186093778,2518.2856231612909,-1292.0975180559367,2069.1321545704886,-2069.1321545704886,1292.0975180559367,4903.8971335543247,0.0
658296.95196600363,3555566.251970998,-2500.0,1597.0118416295361,-2006.6586805965196,3132.0354929273935,-102.05375062989128,143.47613181225526,4.8589312143296945,2260.92919157816,-1032.0280235312302,1549.7516003144683,-1549.7516003144683,1032.0280235312302,4416.8177640298754,0.0
573296.95196600363,3560566.251970998,-2500.0,1560.691055212123,1808.9227317504794,1504.3959537409921,102.01014118266696,83.590290651441322,3.4581225261272568,1811.9825578164741,1831.1170893987066,779.78940737163452,-779.78940737163452,-1831.1170893987066,3494.1756573258403,0.0
578296.95196600363,3560566.251970998,-2500.0,1539.9832741736197,2045.1495160662264,2312.9598590487703,111.20729383295837,118.45609309618145,4.4981268230016278,2084.9551589943358,1791.7736413517193,1407.3672145316161,-1407.3672145316161,-1791.7736413517193,4095.0223268747568,0.0
583296.95196600363,3560566.251970998,-2500.0,1459.0734826905207,2205.2200658317256,3223.4088324885893,116.58242769920476,157.28133439859059,5.637451758666197,2380.2207241669726,1641.5242739788532,2121.8302086488025,-2121.8302086488025,-1641.5242739788532,4742.7499774537191,0.0
588296.95196600363,3560566.251970998,-2500.0,1323.786506524445,2259.7881418417628,4202.8030346399764,116.91634840052374,198.67189970538439,6.8362206114045954,2727.9204323913773,1372.0677944392373,2893.7920486423009,-2893.7920486423009,-1372.0677944392373,5412.3897745240483,0.0
593296.95196600363,3560566.251970998,-2500.0,1148.4133745683598,2184.3664602297235,5203.307420972712,111.22779876894735,240.65734607876578,8.0399142720596011,3085.5325819459154,986.96516825111871,3680.5935056818653,-3680.5935056818653,-986.96516825111871,6073.8739000244495,0.0
598296.95196600363,3560566.251970998,-2500.0,955.13082258580675,1964.3463320120413,6164.7449050261166,98.975058529461293,280.79893217865327,9.1824067877022095,3419.6294176062579,504.0143450618425,4428.9223554033479,-4428.9223554033479,-504.0143450618425,6693.6406629989806,0.0
603296.95196600363,3560566.251970998,-2500.0,771.53890740811562,1599.459780535565,7020.1424900346301,80.230328071703184,316.41025578587823,10.191818359720527,3712.1805556243357,-44.595012108055926,5080.2065356888634,-5080.2065356888634,44.595012108055926,7237.1627110522431,0.0
608296.95196600363,3560566.251970998,-2500.0,626.45215323094749,1106.3950070376304,7703.8122535825223,55.777125613356937,344.87115569038292,10.998554197114677,3946.3741846701737,-615.00988964121098,5578.2576947309881,-5578.2576947309881,615.00988964121098,7672.1618340681571,0.0
613296.95196600363,3560566.251970998,-2500.0,544.69939543321334,518.4904537627217,8160.6677896196779,27.090630826109194,363.98563280046505,11.544424322745741,4108.380126672083,-1157.2694895054888,5877.8385299198162,-5877.8385299198162,1157.2694895054888,7972.0684640228747,0.0
618296.95196600363,3560566.251970998,-2500.0,542.17064551464614,-117.93981052025003,8354.811874520723,-3.8148667005016343,372.31077845201435,11.790765544906245,4188.9829352198049,-1622.7657471360185,5952.2442454507218,-5952.2442454507218,1622.7657471360185,8119.1103275620289,0.0
623296.95196600363,3560566.251970998,-2500.0,622.47958068242087,-750.14178395097542,8275.2837908594538,-34.651116441151295,369.37846533977535,11.724327519577564,4184.6776804538167,-1971.9414823453535,5797.9402670455192,-5797.9402670455192,1971.9414823453535,8106.385518283183,0.0
628296.95196600363,3560566.251970998,-2500.0,776.23648168031707,-1326.89800452185,7937.497141549592,-63.178884928699063,355.75567505045495,11.358618594845771,4098.0056214298074,-2180.3350161854355,5434.9958655873743,-5434.9958655873743,2180.3350161854355,7938.5022575580961,0.0
633296.95196600363,3560566.251970998,-2500.0,983.14719746003516,-1806.0399924085516,7379.9841926420559,-87.515694111535069,332.92764679685467,10.731481118780914,3937.0451599960561,-2241.4923787268181,4903.1661759173148,-4903.1661759173148,2241.4923787268181,7630.6186842217903,0.0
638296.95196600363,3560566.251970998,-2500.0,1216.2850257372565,-2159.75923838177,6657.4300105375487,-106.36049282264467,303.03863990998013,9.8985202667951633,3714.2039530564366,-2166.2304144582981,4254.7544928148691,-4254.7544928148691,2166.2304144582981,7206.1547200037276,0.0
643296.95196600363,3560566.251970998,-2500.0,1447.2738933668513,-2376.7187356322088,5831.809092400963,-119.0943945330601,268.55521525376787,8.9248909051523366,3444.5572777369853,-1978.7898766024232,3546.1208003431125,-3546.1208003431125,1978.7898766024232,6693.637320209672,0.0
648296.95196600363,3560566.251970998,-2500.0,1651.0189719666512,-2460.9706338149399,4963.7756454149039,-125.75404018923031,231.93196355968479,7.8766448982368127,3144.0913802347795,-1711.2203879059043,2829.876586739997,-2829.876586739997,1711.2203879059043,6123.3612598337795,0.0
653296.95196600363,3560566.251970998,-2500.0,1808.9782236934975,-2428.5078093495194,4105.942637318416,-126.90617797939657,195.34219777276354,6.8137445302480177,2828.1375403635084,-1397.5420275136185,2149.2168225374871,-2149.2168225374871,1397.5420275136185,5524.4087285870482,0.0
658296.95196600363,3560566.251970998,-2500.0,1910.5720676529645,-2302.6830403375075,3298.8910379602958,-123.46934667214664,160.50848623838169,5.7851604838001416,2510.1996544585713,-1068.939655175179,1535.0091217723254,-1535.0091217723254,1068.939655175179,4922.4145535087519,0.0
663296.95196600363,3560566.251970998,-2500.0,1952.9060914869749,-2109.6777217540193,2569.9137665760522,-116.52906696209988,128.63732029220989,4.8268208993530912,2201.2611379480286,-750.66182038179204,1005.4560014818924,-1005.4560014818924,750.66182038179204,4338.2359545210602,0.0
668296.95196600363,3560566.251970998,-2500.0,1939.3350071350162,-1874.836908108857,1933.9004564652591,-107.18082483219372,100.43887398198737,3.961625404352648,1909.5700091839226,-460.69913791636668,567.62701256862943,-567.62701256862943,460.69913791636668,3787.4726615807594,0.0
568296.95196600363,3565566.251970998,-2500.0,1760.5340012594836,1629.0753330867028,580.02363799048646,103.42191741182272,49.169768909548054,2.7459225006103507,1735.2308889984602,2045.8437780115394,12.996349665404296,-12.996349665404296,-2045.8437780115394,3226.3504466112586,0.0
573296.95196600363,3565566.251970998,-2500.0,1838.4576916850185,2001.0083800142727,1363.110470260192,119.8533802318135,85.299185234807581,3.9097064648274316,2018.3329582349711,2163.5252226790481,603.48682878308705,-603.48682878308705,-2163.5252226790481,3846.6218901229427,0.0
578296.95196600363,3565566.251970998,-2500.0,1841.9787292802641,2328.4869644146333,2310.4240778085236,133.53408710337303,128.27857617719559,5.2612377524291514,2344.4191592621146,2168.2876050490136,1334.9501953785266,-1334.9501953785266,-2168.2876050490136,4563.089832627571,0.0
583296.95196600363,3565566.251970998,-2500.0,1764.9890138809089,2571.2593731706338,3404.9504960925628,142.6527881057834,177.26578103765883,6.7720652685825353,2704.2276821238975,2033.5751465231924,2192.5370327066557,-2192.5370327066557,-2033.5751465231924,5352.9105907177882,0.0
588296.95196600363,3565566.251970998,-2500.0,1611.4936189015252,2687.3098051870898,4608.8170323051991,145.37824264702229,230.55829917945638,8.3902853154765253,3102.298694826256,1742.697057760291,3142.4633074786357,-3142.4633074786357,-1742.697057760291,6184.3904270337353,0.0
593296.95196600363,3565566.251970998,-2500.0,1397.7800791424195,2639.275831479134,5861.8234530193731,140.13830948026782,285.55139124407731,10.040034232143789,3552.5509053961937,1294.7520928276008,4130.8999742215656,-4130.8999742215656,-1294.7520928276008,7017.7847787327837,0.0
598296.95196600363,3565566.251970998,-2500.0,1152.3865942064583,2402.1741831113368,7083.9490903837795,125.94425654210276,338.85595090110888,11.625187719712777,3978.0692791611891,709.14341678358642,5086.6693613338175,-5086.6693613338175,-709.14341678358642,7807.3456539377867,0.0
603296.95196600363,3565566.251970998,-2500.0,913.06936525882406,1970.7921352251203,8182.6980830716275,102.69170255414743,386.60572622609959,13.03797148003326,4353.2211381150819,26.904651230349373,5928.4724153202378,-5928.4724153202378,-26.904651230349373,8504.8542558089539,0.0
608296.95196600363,3565566.251970998,-2500.0,720.74959679223593,1364.5850240398659,9064.9283392753478,71.351881088382527,424.93601818502094,14.171667664041999,4654.1242737944194,-692.52071078584095,6576.1574827983186,-6576.1574827983186,692.52071078584095,9064.4164615013378,0.0
613296.95196600363,3565566.251970998,-2500.0,611.49897207968331,628.05460433806218,9651.2524384948465,33.974507367385151,450.55798751101145,14.935739676692581,4860.9231470703762,-1379.2900992447476,6964.0480278489349,-6964.0480278489349,1379.2900992447476,9447.838008335244,0.0
618296.95196600363,3565566.251970998,-2500.0,608.60695626703716,-174.40529675759336,9889.7300225045201,-6.5352412752428579,461.301730088743,15.269950356250245,4960.3722099600855,-1964.6140768550513,7053.1192516861365,-7053.1192516861365,1964.6140768550513,9629.5329873330284,0.0
623296.95196600363,3565566.251970998,-2500.0,717.12792694303437,-968.52549378151855,9765.198203465261,-46.837208353224177,456.48887147730414,15.15413993835404,4947.6059443147424,-2392.8836197864412,6838.6033714869945,-6838.6033714869945,2392.8836197864412,9599.8803857934818,0.0
628296.95196600363,3565566.251970998,-2500.0,922.71356676898722,-1682.6648746157593,9301.5317684281272,-83.679760355687918,437.03115217846857,14.61090417761717,4826.6606727964263,-2631.1641846009329,6350.6834034152416,-6350.6834034152416,2631.1641846009329,9366.2239377539809,0.0
633296.95196600363,3565566.251970998,-2500.0,1195.1321597225192,-2259.4864620400153,8556.2071016459468,-114.39507297808208,405.22884377679998,13.700905577705768,4609.6326972492325,-2673.4763817161074,5648.0407486882905,-5648.0407486882905,2673.4763817161074,8951.2867941682598,0.0
638296.95196600363,3565566.251970998,-2500.0,1495.2676575900932,-2663.8033723903509,7608.8686602830312,-137.2452168727431,364.32986073036733,12.511644629278202,4314.6852938026659,-2539.0191844524434,4806.2387196505242,-4806.2387196505242,2539.0191844524434,8389.3935402318075,0.0
643296.95196600363,3565566.251970998,-2500.0,1783.339443704836,-2885.0331100394483,6547.2988070134597,-151.55218486240034,317.97676330595601,11.143325642865436,3963.418799886987,-2265.4847718832284,3904.3726808635661,-3904.3726808635661,2265.4847718832284,7721.4725399161543,0.0
648296.95196600363,3565566.251970998,-2500.0,2025.9804500518994,-2934.4977926533466,5454.3333921247686,-157.61402024934472,269.6766979035076,9.6947405962484989,3578.1397804240787,-1899.8983274736993,3013.3604603339472,-3013.3604603339472,1899.8983274736993,6989.8559347974078,0.0
653296.95196600363,3565566.251970998,-2500.0,2200.620090176988,-2839.2737544867123,4398.4529326136617,-156.46901356421304,222.40446291657528,8.2521523419925025,3179.5711450393665,-1489.6946434690108,2188.2177022952214,-2188.2177022952214,1489.6946434690108,6233.9128872132296,0.0
658296.95196600363,3565566.251970998,-2500.0,2296.7520563820253,-2634.794551163403,3429.0415879708389,-149.59352848216818,178.38394761970829,6.8827588932590862,2785.2697705791729,-1075.9729250261378,1464.9492368095428,-1464.9492368095428,1075.9729250261378,5487.0210649584669,0.0
663296.95196600363,3565566.251970998,-2500.0,2314.6489967158527,-2358.1170950673404,2575.911148629526,-138.61227433516461,139.04005785937105,5.632483511173092,2408.8515540570675,-689.7481148031768,861.36350601228401,-861.36350601228401,689.7481148031768,4775.0245021698811,0.0
668296.95196600363,3565566.251970998,-2500.0,2262.5774735892014,-2042.9852966436704,1851.8238479019678,-125.07247096557643,105.07749880356047,4.5272030655545974,2061.3151789174799,-351.003150487997,380.40125295079827,-380.40125295079827,351.003150487997,4115.9965024009571,0.0
673296.95196600363,3565566.251970998,-2500.0,2153.5701037498075,-1717.0002263430335,1256.5186474983191,-110.30091477760359,76.62967537821612,3.5762912130396978,1777.5348300036414,-69.747848073609362,14.489752398894758,-14.489752398894758,69.747848073609362,3520.923764763394,0.0
678296.95196600363,3565566.251970998,-2500.0,2002.5226929262453,-1400.6286751484824,781.01310409960422,-95.33867166620432,53.428503295709696,2.7768657039322497,1530.2435951125435,151.84975149090553,-250.20945847073574,250.20945847073574,-151.84975149090553,2994.9081128981966,0.0
558296.95196600363,3570566.251970998,-2500.0,1559.4424135430172,781.47904558846835,-907.69572383689467,71.489576032206045,-18.276560910395244,0.74996565476379917,1462.0236841592036,1696.0121132760992,-1106.362912280611,1106.362912280611,-1696.0121132760992,2553.2814231785446,0.0
563296.95196600363,3570566.251970998,-2500.0,1817.6681161311653,1223.0292353227596,-431.05855414919051,93.930777256919129,6.5877378489459169,1.6774814032955263,1663.5106079925636,2041.5357113965092,-794.30419040140987,794.30419040140987,-2041.5357113965092,2963.9378786908255,0.0
568296.95196600363,3570566.251970998,-2500.0,2028.4428885824059,1701.7292187472633,235.76946297491588,117.35959804240586,40.123712541242369,2.869308364311026,1926.196509469662,2339.0140545257336,-322.33452718131207,322.33452718131207,-2339.0140545257336,3524.0929294478133,0.0
573296.95196600363,3570566.251970998,-2500.0,2167.5044862420459,2187.4740522129164,1116.3314975581252,140.19257784258571,83.220742806064791,4.3451693740488322,2253.4617615496936,2548.0884236228039,331.73696645543691,-331.73696645543691,-2548.0884236228039,4236.181697972871,0.0
578296.95196600363,3570566.251970998,-2500.0,2213.2772588633097,2637.3185755298728,2220.3221195528145,160.29938087938407,136.11974457050306,6.1044541654637161,2642.1975569930505,2624.7271129342034,1177.612030456052,-1177.612030456052,-2624.7271129342034,5087.8514011720263,0.0
583296.95196600363,3570566.251970998,-2500.0,2151.9770198030169,2997.2229664636434,3535.6114023722148,175.11206697234607,198.08550815283036,8.1175478334636324,3082.3238075088643,2527.3694483965564,2205.1109550035781,-2205.1109550035781,-2527.3694483965564,6052.8206699608054,0.0
588296.95196600363,3570566.251970998,-2500.0,1983.1197881625894,3207.2409581460429,5020.9263040689111,181.8829283711342,267.11924701671228,10.318573116720266,3557.4264773419759,2225.4468581010788,3377.5030671709901,-3377.5030671709901,-2225.4468581010788,7091.2401887068518,0.0
593296.95196600363,3570566.251970998,-2500.0,1723.9199233565128,3210.473184597533,6601.5990157532669,178.09637906279184,339.80964886434924,12.602474644906213,4109.1628325075699,1709.0031618323956,4627.8765593849275,-4627.8765593849275,-1709.0031618323956,8150.4968584039634,0.0
598296.95196600363,3570566.251970998,-2500.0,1410.6396705428306,2964.8982648445644,8171.1044380011444,161.98947233163287,411.42891541667342,14.828704576711814,4657.2718124868843,997.00220610668612,5861.1045978286238,-5861.1045978286238,-997.00220610668612,9167.7102468173034,0.0
603296.95196600363,3570566.251970998,-2500.0,1095.202733889296,2455.6740842719851,9600.450788668395,133.07464872086737,476.34963875832955,16.833672770769915,5144.7124243317394,141.21262193707707,6963.2307687760349,-6963.2307687760349,-141.21262193707707,10074.66028264184,0.0
608296.95196600363,3570566.251970998,-2500.0,836.5389451504517,1704.2390297590036,10755.531518618856,92.511374690978855,528.77851884527831,18.451256982260034,5536.9605695040655,-777.11092191315174,7818.1328215729027,-7818.1328215729027,777.11092191315174,10805.002271282488,0.0
613296.95196600363,3570566.251970998,-2500.0,688.06763625825158,770.40634015707394,11519.701576901238,43.173023146955259,563.69147018144304,19.538121414586158,5804.9446308676042,-1658.7653668896332,8328.5639116648254,-8328.5639116648254,1658.7653668896332,11302.738882984078,0.0
618296.95196600363,3570566.251970998,-2500.0,684.70715154894594,-254.794732597419,11816.133225955547,-10.677378156168036,577.7521087747391,19.998373800055219,5929.2114959712117,-2404.4920209011561,8436.1833783334696,-8436.1833783334696,2404.4920209011561,11530.227075551828,0.0
623296.95196600363,3570566.251970998,-2500.0,833.71370763545497,-1264.7771956747297,11623.369869843262,-64.067630016133094,569.95429699761632,19.800733900817065,5902.8545066574807,-2934.5510068495441,8134.3718580525074,-8134.3718580525074,2934.5510068495441,11473.744694291459,0.0
628296.95196600363,3570566.251970998,-2500.0,1112.7347802315201,-2157.4868435991993,10979.029736131983,-112.18597556678141,541.78970654337604,18.983502832843136,5732.3641402324183,-3204.0366707013436,7469.4226887945024,-7469.4226887945024,3204.0366707013436,11145.131426028491,0.0
633296.95196600363,3570566.251970998,-2500.0,1475.855107498608,-2853.9890628703988,9970.4722420854905,-151.19758802652163,496.89001008474901,17.645713010075973,5436.1858159821386,-3209.2609510478833,6529.6211197322555,-6529.6211197322555,3209.2609510478833,10579.076864302582,0.0
638296.95196600363,3570566.251970998,-2500.0,1865.3479536397633,-3310.2117987992119,8715.618916062158,-178.7859251548289,440.26101259481629,15.927277477736913,5041.3741066777802,-2983.8300030715354,5425.9091347341082,-5425.9091347341082,2983.8300030715354,9826.7741812204713,0.0
643296.95196600363,3570566.251970998,-2500.0,2224.9491365527515,-3519.3627205772486,7340.2466096159869,-194.30741534572431,377.35299498951326,13.984365316541318,4579.3090080935672,-2586.8164643431273,4270.4587287642753,-4270.4587287642753,2586.8164643431273,8947.768984799266,0.0
648296.95196600363,3570566.251970998,-2500.0,2510.5052631241506,-3505.9439516639623,5957.9864949926869,-198.58260065675597,313.21370087082028,11.965822445034307,4081.4264595182599,-2087.6375260268983,3159.03237059306,-3159.03237059306,2087.6375260268983,8001.8145817843879,0.0
653296.95196600363,3570566.251970998,-2500.0,2695.6074476517042,-3314.8062878180253,4657.3205527866903,-193.45452366774646,251.90608557592086,9.9962254700981763,3575.8455365122304,-1552.3729162650661,2160.7156305608351,-2160.7156305608351,1552.3729162650661,7042.4208079838791,0.0
658296.95196600363,3570566.251970998,-2500.0,2772.0164018610458,-2999.2320667188355,3496.5919386571327,-181.2764093641303,196.24680704711881,8.1668072093388169,3085.2974058783798,-1034.5068270925626,1315.4006749473024,-1315.4006749473024,1034.5068270925626,6112.8383670563526,0.0
663296.95196600363,3570566.251970998,-2500.0,2746.3224020040593,-2611.088795966722,2505.6082062860823,-164.46191384866864,147.82338368904877,6.534264487725391,2627.2407765192161,-570.878644445144,637.15924258985922,-637.15924258985922,570.878644445144,5244.5141803050228,0.0
668296.95196600363,3570566.251970998,-2500.0,2634.8591683716577,-2194.4751161362169,1691.2202248880205,-145.16981355338271,107.192978238877,5.1249297375863785,2248.692048495257,-181.92783156095157,120.7468341084803,-120.7468341084803,181.92783156095157,4457.4986166000708,0.0
673296.95196600363,3570566.251970998,-2500.0,2458.6032574925675,-1782.8570465017528,1044.3139659091089,-125.13584351056487,74.159833499664003,3.9416387089484504,1921.0894098006954,125.42943667754119,-251.22868210250036,251.22868210250036,-125.42943667754119,3762.0725599861462,0.0
678296.95196600363,3570566.251970998,-2500.0,2239.102678386756,-1398.870469429271,546.39601270594551,-105.62605972167728,48.052728428580849,2.9713296146454784,1637.3915910180001,353.89894314673768,-502.07322238377321,502.07322238377321,-353.89894314673768,3160.90784173255,0.0
683296.95196600363,3570566.251970998,-2500.0,1995.8015679459538,-1055.7300818967001,174.82735273370167,-87.471002854977442,27.957055523925529,2.1916746835350529,1395.9855765363673,512.02465796365027,-656.41080795029961,656.41080795029961,-512.02465796365027,2651.2471830264462,0.0
553296.95196600363,3575566.251970998,-2500.0,1285.1108371656828,164.09374257596073,-1690.1250406176086,46.680793809727561,-57.548126214063203,-0.48012777794878092,1498.4294708315829,1293.2952491223841,-1657.1457671916237,1657.1457671916237,-1293.2952491223841,2603.2843128673849,0.0
558296.95196600363,3575566.251970998,-2500.0,1655.1217273385028,602.91100959739822,-1412.7603093389691,71.66859725258081,-40.272542526225166,0.29625965865101528,1650.2078842799444,1751.8733501604804,-1529.5337323115766,1529.5337323115766,-1751.8733501604804,2860.8247143683989,0.0
563296.95196600363,3575566.251970998,-2500.0,2010.6831938937783,1126.6068417961867,-948.22965940985193,100.1902172274642,-13.722303507701978,1.3828703656120243,1862.0554914175971,2215.2386499297727,-1250.120799406641,1250.120799406641,-2215.2386499297727,3268.870842020538,0.0
568296.95196600363,3575566.251970998,-2500.0,2321.2255145979134,1719.1655538925545,-250.14955372146113,131.15351190176509,24.126211139895705,2.8357269657441586,2149.9437697141348,2643.2374126393311,-776.25944140007016,776.25944140007016,-2643.2374126393311,3865.9270310139691,0.0
573296.95196600363,3575566.251970998,-2500.0,2551.8245854819293,2347.8351610006775,722.94787090918419,162.66160030373416,74.984227033517442,4.6980143066825537,2523.8843176983505,2983.0523882215984,-69.278895435490767,69.278895435490767,-2983.0523882215984,4669.8498319374485,0.0
578296.95196600363,3575566.251970998,-2500.0,2668.0383838224902,2960.3238732390846,1997.7861349123159,191.92687519585564,139.80510884554781,6.9867855755468984,2984.9149843572086,3172.5937225180414,896.35421946108272,-896.35421946108272,-3172.5937225180414,5675.0818806924526,0.0
583296.95196600363,3575566.251970998,-2500.0,2643.2639631020752,3485.2077720218649,3573.9428776472964,215.34470327227066,218.24483382108434,9.6777911140661441,3523.6143534230519,3148.1664954943685,2121.485577758252,-2121.485577758252,-3148.1664954943685,6853.8306497759704,0.0
588296.95196600363,3575566.251970998,-2500.0,2467.6937134735344,3837.5172491978446,5410.9487008999076,228.8054406471166,308.12474318655688,12.691187075862121,4119.7323895244908,2856.6699900579597,3570.3820559083533,-3570.3820559083533,-2856.6699900579597,8157.0202911582255,0.0
593296.95196600363,3575566.251970998,-2500.0,2156.6734911876733,3930.7921274065243,7418.6359397779315,228.28735507852383,405.05924963848952,15.882845697825081,4774.430887926831,2270.9602066661655,5162.1368574326061,-5162.1368574326061,-2270.9602066661655,9515.1425616390188,0.0
598296.95196600363,3575566.251970998,-2500.0,1755.1308820601141,3695.0374455997712,9455.6443943810173,210.68826618389272,502.45034534392317,19.046769478183755,5488.6172552664138,1404.810088412326,6770.0380645620617,-6770.0380645620617,-1404.810088412326,10841.175140414625,0.0
603296.95196600363,3575566.251970998,-2500.0,1334.6291543042651,3097.2180633424568,11340.53757841177,174.73624805216613,592.02207796681239,21.932089309955852,6131.0512265029438,322.08935674834765,8232.9678631727566,-8232.9678631727566,-322.08935674834765,12037.335730311454,0.0
608296.95196600363,3575566.251970998,-2500.0,981.21273617361715,2158.1496387308966,12877.125266502262,121.70980015128208,664.94363431797456,24.276170428334716,6650.5995213688047,-865.39805870238888,9379.9536751808646,-9379.9536751808646,865.39805870238888,13005.991531965221,0.0
613296.95196600363,3575566.251970998,-2500.0,775.63951074603187,958.59137325241409,13890.403371467904,55.665898752482505,713.3774957265249,25.848028338076936,7003.782429911229,-2014.3612732064703,10063.911694517074,-10063.911694517074,2014.3612732064703,13663.281718527563,0.0
618296.95196600363,3575566.251970998,-2500.0,771.59692098381004,-370.45884545946308,14263.913024841821,-17.024250441782733,732.06860518497331,26.491773550242797,7161.3345929012821,-2978.4795297833566,10195.391723550027,-10195.391723550027,2978.4795297833566,13952.466870732331,0.0
623296.95196600363,3575566.251970998,-2500.0,979.83385179460367,-1672.7357631275574,13966.479293135146,-88.79900428282663,719.48535387527113,26.158084263103376,7113.1992053242493,-3640.8420490208673,9764.8596979297981,-9764.8596979297981,3640.8420490208673,13853.457130266934,0.0
628296.95196600363,3575566.251970998,-2500.0,1364.7699735482679,-2799.8898607325004,13058.533635415175,-152.39008122467169,678.11540318003381,24.912647625168773,6869.9695022082878,-3939.4001920785954,8844.8753730117278,-8844.8753730117278,3939.4001920785954,13385.613192930294,0.0
633296.95196600363,3575566.251970998,-2500.0,1855.1658194568499,-3641.8663550340457,11675.6257963151,-202.20384430244295,613.81225996907699,22.920101586522058,6460.3391173210166,-3876.6296226533777,7571.0712142767024,-7571.0712142767024,3876.6296226533777,12602.959238490326,0.0
638296.95196600363,3575566.251970998,-2500.0,2364.3975750604959,-4144.7090133885495,9995.468907014465,-235.18172845444982,534.43427425030279,20.407613378010552,5925.3788096488643,-3511.1699632106311,6109.1598733323053,-6109.1598733323053,3511.1699632106311,11583.320894566059,0.0
643296.95196600363,3575566.251970998,-2500.0,2812.2996810725599,-4311.7578103106271,8200.3464398500728,-250.94790630010533,448.24452169600562,17.621613735660659,5311.3533657454354,-2936.475437905734,4619.8105707462983,-4619.8105707462983,2936.475437905734,10414.633441961012,0.0
648296.95196600363,3575566.251970998,-2500.0,3141.1846827117729,-4191.022552397998,6446.3789584362275,-251.33232864683208,362.54623919865537,14.78807019547599,4662.9739914895954,-2255.5287501761418,3232.032653737127,-3232.032653737127,2255.5287501761418,9182.039338591112,0.0
653296.95196600363,3575566.251970998,-2500.0,3322.4620927833912,-3855.7021350334408,4846.1184660240324,-239.54388739158676,282.84387874248262,12.086327113290038,4018.4459627780257,-1559.9158708046846,2030.267721200961,-2030.267721200961,1559.9158708046846,7958.3575095824899,0.0
658296.95196600363,3575566.251970998,-2500.0,3354.6124330525963,-3385.1212161780286,3464.9147375719722,-219.30460444572475,212.58388569900214,9.6380442217652451,3407.4315633414776,-917.68937455289131,1054.4717280499508,-1054.4717280499508,917.68937455289131,6799.0422003829808,0.0
663296.95196600363,3575566.251970998,-2500.0,3255.8552903701134,-2850.7210442818596,2327.1607045170276,-194.16286941472808,153.34060412654586,7.5091791842235427,2894.0942065104778,-370.11490780794526,308.69698122160872,-308.69698122160872,370.11490780794526,5741.1648421333657,0.0
668296.95196600363,3575566.251970998,-2500.0,3055.2788303918792,-2308.5435051169852,1427.3332331017471,-167.07608146545269,105.24734573662333,5.7201519229284754,2452.2590538621998,65.252156112346711,-226.98793455620216,226.98793455620216,-65.252156112346711,4805.2672125773606,0.0
673296.95196600363,3575566.251970998,-2500.0,2785.1117956187159,-1797.2602633594738,741.57711083433173,-140.24536220332405,67.489427044374807,4.2590593429965553,2070.7884413988641,388.42164405890901,-585.16583933098707,585.16583933098707,-388.42164405890901,3998.6886656517554,0.0
678296.95196600363,3575566.251970998,-2500.0,2475.361959543603,-1339.8068538490822,237.34768782600133,-115.131024655137,38.740804546995783,3.0943799695444358,1748.2280906459473,610.36173750449757,-802.35401986003376,802.35401986003376,-610.36173750449757,3319.2408716484201,0.0
683296.95196600363,3575566.251970998,-2500.0,2150.9046915717499,-946.72309553123102,-119.77156990805111,-92.568533943716801,17.492306583046705,2.1852490247832335,1480.2471473009134,747.435331124237,-913.3742814265039,913.3742814265039,-747.435331124237,2758.5137842850618,0.0
688296.95196600363,3575566.251970998,-2500.0,1830.4969180759911,-619.82747645860934,-361.93901989646719,-72.920527240201551,2.2657205373763083,1.4887157256054069,1260.8394440314905,817.42630351581181,-948.38317110817218,948.38317110817218,-817.42630351581181,2304.4715109468252,0.0
548296.95196600363,3580566.251970998,-2500.0,775.17501153712215,-533.73597137747333,-2291.4855650715795,12.69372971104257,-93.229989984096534,-1.8052234920529862,1625.7158831198412,649.27077029047314,-2004.3574327377905,2004.3574327377905,-649.27077029047314,2916.5993672477321,0.0
553296.95196600363,3580566.251970998,-2500.0,1219.239382454105,-168.90380256134299,-2238.8014826905573,36.841856030871654,-85.984758581875298,-1.289738404525294,1739.5070430419898,1155.9951453984156,-2074.9746862036695,2074.9746862036695,-1155.9951453984156,3055.9672723374742,0.0
558296.95196600363,3580566.251970998,-2500.0,1695.5594556302526,314.74299320170144,-2033.7577740623719,66.851935406646419,-70.335756883100004,-0.45806707944561464,1893.495073899458,1726.9724905076455,-2031.3871672147707,2031.3871672147707,-1726.9724905076455,3284.0117878776318,0.0
563296.95196600363,3580566.251970998,-2500.0,2176.8876286809682,922.30516978988851,-1615.9716725740197,102.58336218437125,-43.361102244178475,0.78139519309767758,2111.6803148510908,2334.9100425857191,-1819.4638383085405,1819.4638383085405,-2334.9100425857191,3668.338359960258,0.0
568296.95196600363,3580566.251970998,-2500.0,2624.4804302104808,1644.0382957527693,-917.52768126946103,143.06502352308965,-1.8905162084594829,2.5231872036071228,2420.0835750225369,2933.8257467446288,-1377.2877149302099,1377.2877149302099,-2933.8257467446288,4278.2574375542881,0.0
573296.95196600363,3580566.251970998,-2500.0,2989.7710616370559,2448.0581086483503,129.45108288305903,186.17380245394773,57.098541595758405,4.851027360570102,2840.0272547265272,3456.9862982729633,-642.08226333873108,642.08226333873108,-3456.9862982729633,5161.984102778184,0.0
578296.95196600363,3580566.251970998,-2500.0,3219.8168122234156,3273.8283641694034,1579.7513065896376,228.38333629985095,135.84436173361988,7.8174042337109411,3381.5538866905422,3818.9587505117452,437.64781371961931,-437.64781371961931,-3818.9587505117452,6332.8161206053583,0.0
583296.95196600363,3580566.251970998,-2500.0,3267.3289786292034,4029.2948687655271,3456.4949805751917,264.71761082260042,234.94006177751555,11.417725336157055,4039.3061122020163,3924.1809302635779,1884.7705952410229,-1884.7705952410229,-3924.1809302635779,7767.5039579515196,0.0
588296.95196600363,3580566.251970998,-2500.0,3104.7236073760641,4595.3991714174772,5729.2858690957264,289.07179953331433,352.36812758621494,15.563115656228963,4790.8470094521062,3683.6579472409239,3673.2217649710356,-3673.2217649710356,-3683.6579472409239,9408.2512561088788,0.0
593296.95196600363,3580566.251970998,-2500.0,2739.2839587336043,4841.3006621362738,8294.5545113519929,295.02841210052293,482.68544386272816,20.059978671649905,5597.4441262431301,3038.9273820476656,5710.1095484012121,-5710.1095484012121,-3038.9273820476656,11164.04461552975,0.0
598296.95196600363,3580566.251970998,-2500.0,2223.9664446447218,4651.0931225765826,10966.582053012135,277.16916437470991,616.72832564130454,24.606165636536577,6512.1636645434191,1988.4793112119096,7828.3907979167616,-7828.3907979167616,-1988.4793112119096,12913.876499365013,0.0
603296.95196600363,3580566.251970998,-2500.0,1657.0876811814348,3957.9065095266687,13488.518044921455,232.66407690777851,742.22080401334517,28.813972225051309,7372.0099880814378,607.58802734895562,9798.7950744602203,-9798.7950744602203,-607.58802734895562,14515.817972893412,0.0
608296.95196600363,3580566.251970998,-2500.0,1165.9415598139215,2775.2933046873891,15568.696800396005,162.66813837482448,845.47557451912553,32.262486929438168,8072.4181898445358,-949.40555049589602,11365.462362009283,-11365.462362009283,949.40555049589602,15823.505217261954,0.0
613296.95196600363,3580566.251970998,-2500.0,875.32584489586293,1212.2763339764927,16938.545377079554,72.930696920940704,913.99161467004433,34.573083263454606,8546.8082801694745,-2471.9053438068831,12300.755019495959,-12300.755019495959,2471.9053438068831,16708.381834641899,0.0
618296.95196600363,3580566.251970998,-2500.0,870.12621549228027,-538.99211106858127,17416.660404366976,-26.840457789730827,939.27424551126342,35.487742389887906,8749.9640742740939,-3739.0601964407342,12463.622040460677,-12463.622040460677,3739.0601964407342,17082.599220190943,0.0
623296.95196600363,3580566.251970998,-2500.0,1166.8803126601319,-2243.9043064758853,16956.295510940443,-124.87516386785853,918.92262252941953,34.926896384833512,8666.7969041032557,-4575.1098733462677,11839.65785751371,-11839.65785751371,4575.1098733462677,16915.826633750137,0.0
628296.95196600363,3580566.251970998,-2500.0,1707.5671988647798,-3681.8896491149808,15656.68829451055,-209.9465015734994,857.17396309999253,33.005230848175515,8314.9044199562049,-4893.1171536331085,10545.371302200376,-10545.371302200376,4893.1171536331085,16240.265181767887,0.0
633296.95196600363,3580566.251970998,-2500.0,2379.0251058351,-4697.589238549549,13733.091198399577,-273.77553996380072,763.67843318068117,30.000544668135952,7739.956605962383,-4709.8463177511067,8794.0446630395309,-8794.0446630395309,4709.8463177511067,15142.001872044801,0.0
638296.95196600363,3580566.251970998,-2500.0,3048.969838510357,-5228.0738283756455,11458.366138612124,-312.41568098972874,651.00776345277427,26.287266098925002,7005.562464927003,-4128.0306191382215,6837.7048222540261,-6837.7048222540261,4128.0306191382215,13741.761297912117,0.0
643296.95196600363,3580566.251970998,-2500.0,3602.6684575169879,-5299.7121481555305,9099.5230528962948,-326.29101525385909,531.84846062093789,22.258016900943026,6180.9972556139592,-3297.054648178661,4908.4584087195926,-4908.4584087195926,3297.054648178661,12171.465702407488,0.0
648296.95196600363,3580566.251970998,-2500.0,3966.777342329065,-5002.0449506685263,6870.3480793605504,-319.14441354008392,416.78511978840169,18.257355080075683,5330.3508825258759,-2370.1141979191239,3178.4780207966828,-3178.4780207966828,2370.1141979191239,10553.406570773668,0.0
653296.95196600363,3580566.251970998,-2500.0,4115.487076549538,-4453.1507008524541,4909.7825235788887,-296.49079961755791,313.14532006747288,14.541528967288155,4505.6968772740938,-1472.6334370924515,1745.8017198702028,-1745.8017198702028,1472.6334370924515,8986.4106221053698,0.0
658296.95196600363,3580566.251970998,-2500.0,4062.5159259716529,-3769.5420659729689,3283.6354481916419,-264.16258391836186,224.88043208812539,11.267555127857367,3798.096107086682,-687.78661914878796,641.55862725859004,-641.55862725859004,687.78661914878796,7540.108175225203,0.0
663296.95196600363,3580566.251970998,-2500.0,3846.34690108415,-3047.2422145298146,2000.4365253046062,-227.29447772945744,153.1392343931665,8.5035776028118413,3190.3828401866649,-56.814890723691249,-151.35025600183513,151.35025600183513,56.814890723691249,6255.7581663423198,0.0
668296.95196600363,3580566.251970998,-2500.0,3515.436063413998,-2354.4112395611646,1031.8080950811075,-189.82538366057716,97.129188040696306,6.2509417832352732,2666.6999257159314,411.9950939447229,-677.49396181789189,677.49396181789189,-411.9950939447229,5151.0618235554157,0.0
673296.95196600363,3580566.251970998,-2500.0,3117.1557699393984,-1732.2581058787077,330.73991163276139,-154.4122046878627,54.954556548657251,4.4684361281119722,2226.6629568912267,731.67210344811917,-991.85264230322366,991.85264230322366,-731.67210344811917,4226.3977874170205,0.0
678296.95196600363,3580566.251970998,-2500.0,2691.4413351526423,-1200.2769316907604,-155.08693663378105,-122.59268694852706,24.273275096075228,3.0930026976313956,1864.5597547166153,926.12501624150491,-1148.4512584335348,1148.4512584335348,-926.12501624150491,3470.7821943372328,0.0
683296.95196600363,3580566.251970998,-2500.0,2268.3695368176413,-762.68373994778335,-475.17013943542372,-95.050508538571975,2.7322047727738084,2.054833648205816,1571.6100977295087,1022.5456805881694,-1194.2656626732751,1194.2656626732751,-1022.5456805881694,2866.6450139225481,0.0
688296.95196600363,3580566.251970998,-2500.0,1868.3188603185647,-414.2469348044832,-672.18107260338593,-71.886049552702588,-11.790073793720449,1.2868938499468117,1337.6809603363058,1046.7570435763694,-1166.964370945768,1166.964370945768,-1046.7570435763694,2393.2143836859332,0.0
693296.95196600363,3580566.251970998,-2500.0,1503.4591480976337,-144.77630280040853,-780.71114386323814,-52.844148282244618,-21.079434931029592,0.72982139811936753,1152.4738102259639,1020.8988502421259,-1094.9750438423791,1094.9750438423791,-1020.8988502421259,2028.7263838195947,0.0
543296.95196600363,3585566.251970998,-2500.0,50.603913436563815,-1215.9301639107366,-2647.6550164644227,-27.314513305470836,-121.02198586279381,-3.0915632846708196,1818.9427600603669,-173.97854627624042,-2097.3999508366187,2097.3999508366187,173.97854627624042,3408.8467051297889,0.0
548296.95196600363,3585566.251970998,-2500.0,503.82099306039311,-986.69318265912398,-2804.8159428931199,-7.8034547394837199,-124.68424137891036,-2.9204566306380988,1929.0734131037727,296.27955418165016,-2340.247398375559,2340.247398375559,-296.27955418165016,3534.7918277240501,0.0
553296.95196600363,3585566.251970998,-2500.0,1037.1911386663476,-630.06465633791277,-2868.7528341302032,18.97583008258443,-122.26186494830658,-2.4770793097979902,2055.0560632868442,879.74784703867476,-2527.5477687583452,2527.5477687583452,-879.74784703867476,3676.0428538206484,0.0
558296.95196600363,3585566.251970998,-2500.0,1637.4141120508189,-119.90533149360141,-2779.5708701146486,54.050688672494012,-110.51749707076779,-1.6467243687521811,2214.8693294426312,1571.8561241562838,-2607.9215736916703,2607.9215736916703,-1571.8561241562838,3878.8024320291092,0.0
563296.95196600363,3585566.251970998,-2500.0,2276.3934510333174,563.04405898741788,-2458.8726109975805,97.910057995068499,-85.367665206658941,-0.2913044355092263,2437.1174233902939,2350.0649179148691,-2512.156918847641,2512.156918847641,-2350.0649179148691,4222.2041622513352,0.0
568296.95196600363,3585566.251970998,-2500.0,2908.0114265748975,1422.2634841035158,-1811.2206850922253,150.0378208560642,-42.029342170198142,1.7426696312394383,2759.2695917221499,3166.3032572946336,-2154.1716979598036,2154.1716979598036,-3166.3032572946336,4810.7719404465497,0.0
573296.95196600363,3585566.251970998,-2500.0,3467.6579052146149,2433.7666743044847,-731.42504477520708,208.34584132228082,24.537216835195302,4.6063776816366664,3219.7033524160174,3940.6022299208944,-1437.4893895336243,1437.4893895336243,-3940.6022299208944,5743.2633360945547,0.0
578296.95196600363,3585566.251970998,-2500.0,3877.0456433321906,3533.4302862704776,879.49941397750081,268.61666643979362,118.77380676584757,8.4184962272732555,3845.7264676136169,4559.3409110390894,-269.97622318647745,269.97622318647745,-4559.3409110390894,7075.9696041349025,0.0
583296.95196600363,3585566.251970998,-2500.0,4056.7275695963385,4607.4085563749868,3087.8794585108553,324.16780856308532,243.20551811347386,13.222462538937855,4643.3437884664218,4882.713605260692,1411.4492035964258,-1411.4492035964258,-4882.713605260692,8806.1569268629755,0.0
588296.95196600363,3585566.251970998,-2500.0,3947.0784910965094,5492.1065559221797,5891.8501447525587,366.04387501470433,396.76791475642932,18.936617573496356,5591.862719799542,4765.8492152504987,3607.6242553775428,-3607.6242553775428,-4765.8492152504987,10872.705104306558,0.0
593296.95196600363,3585566.251970998,-2500.0,3534.6708462233187,5991.0489927158023,9183.8615734667183,384.04874401610704,573.14774084817373,25.309686491796718,6642.4180372704604,4094.900022273423,6222.5368755779418,-6222.5368755779418,-4094.900022273423,13159.027378781866,0.0
598296.95196600363,3585566.251970998,-2500.0,2875.6637599257974,5913.2277908680098,12725.292263613406,368.76673186610412,759.79342358738234,31.901340052467397,7778.5504207771983,2832.7112386126691,9040.968893192985,-9040.968893192985,-2832.7112386126691,15496.799131339789,0.0
603296.95196600363,3585566.251970998,-2500.0,2103.412669144092,5129.3526814505203,16151.5387532113,314.32341087478579,938.39268422042164,38.108812278118677,8948.4245289825976,1059.5665111299804,11735.80959512011,-11735.80959512011,-1059.5665111299804,17677.609917055415,0.0
608296.95196600363,3585566.251970998,-2500.0,1408.3610869868317,3630.2913027926584,19022.149435730687,221.10085427860514,1087.387200758536,43.250438614642484,9911.2234177122355,-1012.116430852735,13918.055838065002,-13918.055838065002,1012.116430852735,19477.802018592683,0.0
613296.95196600363,3585566.251970998,-2500.0,987.88090956352869,1561.9060307321472,20914.87141549708,97.227569167591696,1186.3761033586698,46.696802986911706,10562.230093550636,-3067.3714604941715,15226.641931495065,-15226.641931495065,3067.3714604941715,20695.294649391137,0.0
618296.95196600363,3585566.251970998,-2500.0,980.41595521762702,-788.22292432904021,21538.399567473443,-42.20647209930241,1221.2408065439602,48.014797359406394,10829.453706647306,-4764.0674274577286,15432.06213004428,-15432.06213004428,4764.0674274577286,21189.900128625693,0.0
623296.95196600363,3585566.251970998,-2500.0,1412.6078971888323,-3058.368299702297,20819.945175891637,-178.41363335199028,1188.0941622194359,47.074431859094489,10689.450852559936,-5830.3344029550699,14511.196645706686,-14511.196645706686,5830.3344029550699,20914.154008224723,0.0
628296.95196600363,3585566.251970998,-2500.0,2187.2396168386877,-4912.1662771943766,18926.612209343075,-293.62920947761376,1094.3228914027359,44.078054129824864,10172.075552771877,-6142.6166370020956,12656.254098170641,-12656.254098170641,6142.6166370020956,19922.708925068753,0.0
633296.95196600363,3585566.251970998,-2500.0,3119.8007895440182,-6127.785878728555,16209.103545755759,-375.42809708268078,956.22191928581685,39.500661873494877,9351.878905332791,-5748.9706908199532,10211.368068517186,-10211.368068517186,5748.9706908199532,18356.25984897295,0.0
638296.95196600363,3585566.251970998,-2500.0,4004.6106571416608,-6639.6805968017143,13094.762950179658,-418.97319631285427,794.29746640324925,33.965526468866905,8329.5649505616457,-4831.1480304620154,7567.1551854249565,-7567.1551854249565,4831.1480304620154,16406.281623192684,0.0
643296.95196600363,3585566.251970998,-2500.0,4677.6023923485354,-6523.1492355092951,9978.10716423956,-426.64978761757351,628.24060905159661,28.102790016956536,7210.4818230401788,-3630.4457735662622,5060.7736465417247,-5060.7736465417247,3630.4457735662622,14273.838620937542,0.0
648296.95196600363,3585566.251970998,-2500.0,5050.7284404439943,-5940.6665021043709,7148.4718053827137,-405.78539701441554,473.33030633490182,22.437212463953543,6087.1535418227895,-2374.4405054453327,2916.9790520403049,-2916.9790520403049,2374.4405054453327,12135.607526145977,0.0
653296.95196600363,3585566.251970998,-2500.0,5112.9013504651211,-5080.4086503742292,4767.5850758512979,-365.7542953619826,338.98499571206963,17.329515339002221,5096.1322391538015,-1230.7607748088651,1238.000731138626,-1238.000731138626,1230.7607748088651,10124.338449172063,0.0
658296.95196600363,3585566.251970998,-2500.0,4908.6501692976271,-4110.0514945777577,2885.9767952963175,-315.57454297804088,229.15143500304433,12.97095151826878,4242.294382692322,-293.63801053430865,27.811004118108258,-27.811004118108258,293.63801053430865,8324.0846620573557,0.0
663296.95196600363,3585566.251970998,-2500.0,4510.1173565231384,-3153.7129968726881,1477.5296304000431,-262.49445585339066,143.70158784285681,9.4135248253638402,3506.484405105834,406.00720229541571,-770.5409954720501,770.5409954720501,-406.00720229541571,6775.7303337284429,0.0
668296.95196600363,3585566.251970998,-2500.0,3993.694291711101,-2288.3662221571558,474.91801031361399,-211.52842111839141,80.053938252024395,6.6145226080247719,2891.8378229828886,880.32691749176774,-1240.619509159269,1240.619509159269,-880.32691749176774,5487.4646694259291,0.0
673296.95196600363,3585566.251970998,-2500.0,3425.6091933800144,-1551.4836343469833,-203.22674475468642,-165.62430421877372,34.532181119756274,4.4790998428962281,2391.2040888925285,1164.3588728815675,-1468.6084221622332,1468.6084221622332,-1164.3588728815675,4445.7887487288126,0.0
678296.95196600363,3585566.251970998,-2500.0,2855.868960193523,-952.5828955138046,-635.46907128167527,-126.12482846748203,3.291529662143247,2.8927291145135272,1991.547891787849,1300.8160893641493,-1530.1385668338125,1530.1385668338125,-1300.8160893641493,3624.6665563487031,0.0
683296.95196600363,3585566.251970998,-2500.0,2317.8749792199351,-484.15593959674817,-889.29333067155835,-93.281429266536463,-17.160593094330672,1.7422655741619291,1677.2516255059613,1330.7655887212391,-1485.2595340176135,1485.2595340176135,-1330.7655887212391,2992.0528954263445,0.0
688296.95196600363,3585566.251970998,-2500.0,1830.9685471948217,-130.0733135955648,-1018.5367484322722,-66.694001385421501,-29.74181580601455,0.927033778619343,1432.3599965734131,1289.093623436625,-1378.320541179427,1378.320541179427,-1289.093623436625,2514.1150697512903,0.0
693296.95196600363,3585566.251970998,-2500.0,1403.9391111792502,128.8004311053437,-1063.98215854197,-45.634906735431521,-36.755893404957035,0.36317820114583726,1242.0134648930537,1203.1268030793265,-1240.1958026110776,1240.1958026110776,-1203.1268030793265,2157.9655161538849,0.0
698296.95196600363,3585566.251970998,-2500.0,1038.3849136333449,311.29750530302829,-1055.3401197524452,-29.262306083262732,-39.949035174097155,-0.016059695058634402,1093.2882927443134,1092.996598974325,-1091.2315199149225,1091.2315199149225,-1092.996598974325,1893.6499197622243,0.0
538296.95196600363,3590566.251970998,-2500.0,-821.70899771719803,-1785.0389110698904,-2741.1825608424529,-68.867504364074506,-137.91770727196979,-4.205503216991227,2030.0651237046181,-1074.215046778874,-1935.2846484219228,1935.2846484219228,1074.215046778874,3943.6342239136093,0.0
543296.95196600363,3590566.251970998,-2500.0,-437.04766631574864,-1725.6715173557232,-3057.3163659780821,-57.288008076980006,-151.51096377568675,-4.4150589353095153,2170.2798220598147,-723.12793242896191,-2290.5727983752085,2290.5727983752085,723.12793242896191,4147.1835903960909,0.0
548296.95196600363,3590566.251970998,-2500.0,61.459459736968761,-1559.0022073116663,-3347.9496506614096,-38.456116768368616,-162.2948622086198,-4.4427746711031668,2313.9313461882834,-235.74583724309673,-2653.6417285797097,2653.6417285797097,235.74583724309673,4333.4334010155881,0.0
553296.95196600363,3590566.251970998,-2500.0,680.80835174349954,-1245.9512820651712,-3567.9865555884367,-10.355094147221092,-167.456273516153,-4.1728112192820266,2466.8327596008994,407.93612580883769,-2989.4062387766808,2989.4062387766808,-407.93612580883769,4511.4014638195003,0.0
558296.95196600363,3590566.251970998,-2500.0,1416.2194568399896,-743.55991720013265,-3649.2271933166667,29.028430993962189,-162.95252545851002,-3.448170568249675,2643.7856394135542,1217.9079510913825,-3241.4061075861919,3241.4061075861919,-1217.9079510913825,4714.2112688954812,0.0
563296.95196600363,3590566.251970998,-2500.0,2244.1780805917051,-11.179695767437277,-3494.8488302819242,81.293735799791392,-143.30116585783458,-2.0674529987573269,2873.9459828699223,2184.4609931122536,-3326.0826647094395,3326.0826647094395,-2184.4609931122536,5017.2295102818771,0.0
568296.95196600363,3590566.251970998,-2500.0,3115.1302603948125,978.28275849095496,-2976.7296393941069,146.96360027292457,-101.56308042171761,0.20973824829413346,3204.1566434235674,3265.592652793428,-3129.581471479918,3129.581471479918,-3265.592652793428,5550.1963048223488,0.0
573296.95196600363,3590566.251970998,-2500.0,3948.3832063587652,2221.1868793297785,-1939.7154270784761,224.56136542295732,-29.724307623559522,3.6424841264135188,3694.2190560101044,4373.438232191048,-2511.0496024266627,2511.0496024266627,-4373.438232191048,6477.5465964759023,0.0
578296.95196600363,3590566.251970998,-2500.0,4633.4502341977086,3661.1318822353542,-218.42441825151994,309.5315083429677,80.268290736360484,8.4663576914141476,4400.5499860993741,5364.3612598298769,-1317.8494196969148,1317.8494196969148,-5364.3612598298769,7937.8674528767624,0.0
583296.95196600363,3590566.251970998,-2500.0,5043.1957587551769,5167.0067493926845,2327.8239063762639,393.30170733374717,234.59951408386547,14.825441066847482,5354.7392590515028,6040.5621717263784,581.93906402311904,-581.93906402311904,-6040.5621717263784,9986.3358077085031,0.0
588296.95196600363,3590566.251970998,-2500.0,5062.9132931088798,6521.2849543668772,5760.0284058947873,463.0157919547666,434.80420852014328,22.68352870446973,6548.0243499657254,6172.9378206115371,3248.0283934906829,-3248.0283934906829,-6172.9378206115371,12577.571038850738,0.0
593296.95196600363,3590566.251970998,-2500.0,4634.0820398948317,7433.1189053062135,9991.7104515074079,502.61958763041065,674.56543562530953,31.733480465763257,7924.7898382558733,5552.3837520110656,6604.7762441012628,-6604.7762441012628,-5552.3837520110656,15569.850120448516,0.0
598296.95196600363,3590566.251970998,-2500.0,3801.403570193037,7589.6476333085675,14729.750291739285,495.83384316487883,937.18426285393389,41.34100590341415,9383.552430435886,4066.4277669196308,10387.44805981939,-10387.44805981939,-4066.4277669196308,18730.692730703551,0.0
603296.95196600363,3590566.251970998,-2500.0,2740.2750670337027,6747.0461307988935,19458.682735575359,430.89941925633519,1195.3314373755932,50.56743659068006,10969.57359813531,1780.0614003170276,14131.350399030212,-14131.350399030212,-1780.0614003170276,21751.291454100261,0.0
608296.95196600363,3590566.251970998,-2500.0,1737.7095279453918,4839.1883058829071,23503.85858800749,305.85657528043151,1414.5580481695652,58.302092663348787,12321.777587245655,-1018.7046898381468,17236.53853181524,-17236.53853181524,1018.7046898381468,24283.259363925612,0.0
613296.95196600363,3590566.251970998,-2500.0,1113.3779877165734,2055.9964422545104,26184.199419656125,132.04155615123153,1560.7960825488997,63.492714998374389,13237.111332077193,-3850.9540234279157,19115.247458980713,-19115.247458980713,3850.9540234279157,26000.226053202969,0.0
618296.95196600363,3590566.251970998,-2500.0,1100.9862098747976,-1163.1406119407798,27015.826990828933,-66.613329252275193,1609.8950005136319,65.408562508308208,13597.079021294046,-6171.3276311571735,19380.826173351772,-19380.826173351772,6171.3276311571735,26670.873806610169,0.0
623296.95196600363,3590566.251970998,-2500.0,1745.9043523444172,-4243.5858589715344,25880.068090438006,-259.30427992347722,1555.3352930535309,63.838214691682566,13363.691462875675,-7545.3430795967324,17993.285656034826,-17993.285656034826,7545.3430795967324,26217.655272555683,0.0
628296.95196600363,3590566.251970998,-2500.0,2880.1765019488162,-6657.4890383143402,23066.480980628257,-417.19124457517347,1410.3207684449626,59.140883511244382,12588.850834661178,-7794.8975807578654,15279.529046948024,-15279.529046948024,7794.8975807578654,24735.542341024709,0.0
633296.95196600363,3590566.251970998,-2500.0,4194.0743056070505,-8085.2999659809129,19163.038859108769,-521.40316075856424,1203.0611614959998,52.131186273505975,11397.740236097221,-7035.3686984553169,11810.944961904774,-11810.944961904774,7035.3686984553169,22461.079030323301,0.0
638296.95196600363,3590566.251970998,-2500.0,5362.0461912556902,-8479.2550430222364,14852.99664863022,-566.69759597487655,967.64768706359132,43.848917073409332,9953.6338867195882,-5592.9355732680733,8204.7504381674735,-8204.7504381674735,5592.9355732680733,19705.376742701734,0.0
643296.95196600363,3590566.251970998,-2500.0,6152.0944879440094,-8015.4725675143691,10722.010351525623,-559.89857016892654,734.87660758414177,35.305506161826884,8419.1880321611425,-3861.0440295099615,4950.5683720785692,-4950.5683720785692,3861.0440295099615,16779.643649475263,0.0
648296.95196600363,3590566.251970998,-2500.0,6471.6679833350563,-6983.5869724995991,7150.9227634387307,-514.98489182637115,526.49106803176721,27.295283287829793,7011.7485209075294,-2174.6663632757,2328.1501330565679,-2328.1501330565679,2174.6663632757,13939.417684130953,0.0
653296.95196600363,3590566.251970998,-2500.0,6350.4854086469859,-5678.6333913140134,4305.5417189343907,-447.6950115206177,353.78277213698789,20.312613521538822,5784.8809301117435,-747.36872750786301,417.39221849241608,-417.39221849241608,747.36872750786301,11358.936842702456,0.0
658296.95196600363,3590566.251970998,-2500.0,5891.0448317012915,-4334.0056236525552,2188.0816446866911,-371.68093824765225,219.3616591303543,14.567574975086591,4723.8758383286367,330.38934694076823,-839.89962580690303,839.89962580690303,-330.38934694076823,9132.0400443622293,0.0
663296.95196600363,3590566.251970998,-2500.0,5218.4768423315099,-3099.7997229222583,706.11590869007557,-296.7707725962419,120.20509055253596,10.057029204378772,3841.8580328440935,1058.6352701564467,-1570.0832552244526,1570.0832552244526,-1058.6352701564467,7288.3886756225374,0.0
668296.95196600363,3590566.251970998,-2500.0,4446.5228742760719,-2051.3826272583474,-269.59646524905503,-228.87512156919087,50.545227220336557,6.650186516374764,3131.1608652049895,1487.9060857271838,-1914.6434225394282,1914.6434225394282,-1487.9060857271838,5814.1731685976483,0.0
673296.95196600363,3590566.251970998,-2500.0,3661.8479323274523,-1210.3850354839481,-868.13691234735234,-170.7578884246563,3.9358743046452354,4.1603057892409314,2572.2199499092721,1687.2400128037507,-2000.0062401607306,2000.0062401607306,-1687.2400128037507,4670.4163622325286,0.0
678296.95196600363,3590566.251970998,-2500.0,2921.551554691328,-566.12697740058013,-1200.2236422997596,-123.04008407616998,-25.566002178482414,2.3931634766331005,2140.2560278164556,1724.3706327598827,-1925.6424971615468,1925.6424971615468,-1724.3706327598827,3806.2157777017446,0.0
683296.95196600363,3590566.251970998,-2500.0,2257.5833679685184,-92.1841398705091,-1352.5918462710583,-85.088205395857543,-42.891559997476989,1.1736550903503709,1809.7473213391738,1656.2854232445063,-1763.2189407055746,1763.2189407055746,-1656.2854232445063,3167.2461641083451,0.0
688296.95196600363,3590566.251970998,-2500.0,1683.4140491962321,242.82935677795351,-1389.1384626580493,-55.664372892970377,-51.863852886443411,0.35653084422555587,1557.185584289814,1526.5384520596683,-1560.8542699789571,1560.8542699789571,-1526.5384520596683,2701.1557483885572,0.0
693296.95196600363,3590566.251970998,-2500.0,1200.3970803736747,469.22026868045992,-1354.8405744231259,-33.342044837003399,-55.308304995711701,-0.17220974287997587,1362.582120539842,1366.1255744983694,-1348.7957753867029,1348.7957753867029,-1366.1255744983694,2361.3304128926693,0.0
698296.95196600363,3590566.251970998,-2500.0,802.799255053965,613.40979641119156,-1280.2123256010004,-16.740235705285066,-55.238656745170118,-0.49865598202556999,1210.0309582352784,1195.7834381811692,-1144.6931151284273,1144.6931151284273,-1195.7834381811692,2109.4443099273012,0.0
533296.95196600363,3595566.251970998,-2500.0,-1742.1295500823915,-2167.2169977610856,-2602.9040706112914,-107.16893614656959,-142.88014554417649,-5.0420842224703621,2214.0083917021966,-1933.4152964235109,-1566.112946358593,1566.112946358593,1933.4152964235109,4409.0627764335586,0.0
538296.95196600363,3595566.251970998,-2500.0,-1496.0238926754901,-2275.7654444593468,-3006.7339746047051,-105.49129130576044,-163.84562098313,-5.6127356262051942,2402.2864582433731,-1760.0677620706388,-1957.6835583561101,1957.6835583561101,1760.0677620706388,4733.5394795680713,0.0
543296.95196600363,3595566.251970998,-2500.0,-1128.0502073481364,-2318.8331568164554,-3443.8327065952981,-98.063452012070016,-185.44002846739093,-6.1215453750961597,2596.6682079168663,-1459.7625465047543,-2407.5214793040386,2407.5214793040386,1459.7625465047543,5048.0382554975376,0.0
548296.95196600363,3595566.251970998,-2500.0,-612.47202242359413,-2257.029758595821,-3892.0118134775521,-82.417717273299829,-205.87929061828984,-6.4759588259944127,2795.016464323297,-995.40172778996225,-2903.6542799164499,2903.6542799164499,995.40172778996225,5342.2923501837513,0.0
553296.95196600363,3595566.251970998,-2500.0,72.908525849030326,-2038.6494607056841,-4309.334386867371,-55.533366240909217,-222.14718538374828,-6.5343612397588533,2998.3846693203554,-328.42421685505678,-3417.0505775731954,3417.0505775731954,328.42421685505678,5611.3991963304697,0.0
558296.95196600363,3595566.251970998,-2500.0,939.74622466862752,-1600.3089792456894,-4624.5361516693383,-13.995719651826029,-229.4997780475307,-6.090925096241361,3215.3494463226411,574.23173033695821,-3892.2899123624302,3892.2899123624302,-574.23173033695821,5868.0921828323944,0.0
563296.95196600363,3595566.251970998,-2500.0,1978.7781909946088,-871.84016424189849,-4725.8371108779702,45.572881031832601,-220.94469653235066,-4.8630974569268357,3469.8081644631484,1727.8863276404725,-4236.3801129181929,4236.3801129181929,-1727.8863276404725,6166.0476422555512,0.0
568296.95196600363,3595566.251970998,-2500.0,3146.5749252173168,211.51185904476253,-4450.682549954493,125.66667697703517,-186.86297625837113,-2.4885538820059239,3810.870084758154,3111.4650540865905,-4308.0886900792138,4308.0886900792138,-3111.4650540865905,6633.0247503999763,0.0
573296.95196600363,3595566.251970998,-2500.0,4352.0824561530744,1686.3827922755247,-3581.9536388539823,226.5173770382556,-115.08935368775545,1.4567074947008078,4317.9714022143189,4643.2370805038099,-3913.1080993347318,3913.1080993347318,-4643.2370805038099,7488.937123957453,0.0
578296.95196600363,3595566.251970998,-2500.0,5449.0637637028713,3526.6526867339708,-1860.1095538047821,344.20151681869459,8.0660127962222177,7.4040681069108132,5088.4958131559779,6155.9604487480756,-2814.222333258951,2814.222333258951,-6155.9604487480756,8996.0601226761828,0.0
583296.95196600363,3595566.251970998,-2500.0,6244.3688492786969,5600.8947841829076,976.32472172146925,468.56965539307788,195.29433403252858,15.689008110242586,6203.5528155192314,7383.0953557650682,-768.50533361124735,768.50533361124735,-7383.0953557650682,11341.029079453496,0.0
588296.95196600363,3595566.251970998,-2500.0,6533.3089777389314,7635.8118065251801,5111.449551640022,581.8273079864739,453.90509193379296,26.39769421932861,7689.7436958345061,7974.6780316932654,2398.4690766419608,-2398.4690766419608,-7974.6780316932654,14548.545972582071,0.0
593296.95196600363,3595566.251970998,-2500.0,6167.6376784649883,9211.6034795196119,10535.861962195313,659.11036946298577,779.93951993239887,39.190451027633202,9496.6957856706122,7562.9724039030352,6683.8550352617731,-6683.8550352617731,-7562.9724039030352,18468.860094934367,0.0
598296.95196600363,3595566.251970998,-2500.0,5144.6105489779884,9821.1902628691296,16921.966727704697,672.4936768261324,1152.431183544265,53.167452142559561,11491.215073514546,5885.3911497643876,11792.338693731153,-11792.338693731153,-5885.3911497643876,22788.177216640463,0.0
603296.95196600363,3595566.251970998,-2500.0,3679.6261302350272,9011.935748426331,23552.609868689986,598.95667675685968,1530.9101808707164,66.869980866462882,13581.849654692876,2939.5831088431096,17074.668879647215,-17074.668879647215,-2939.5831088431096,27046.922133950276,0.0
608296.95196600363,3595566.251970998,-2500.0,2205.0854351178527,6586.050965088617,29383.170257930407,430.60771230011306,1859.7108514370309,78.491824413804054,15526.088404362406,-898.98664722258582,21595.541915323745,-21595.541915323745,898.98664722258582,30692.466190568921,0.0
613296.95196600363,3595566.251970998,-2500.0,1250.9875954547292,2774.352666773927,33285.852920603014,182.71068378302803,2080.6963559341953,86.289543319928399,16849.001006792081,-4892.1084551457989,24372.350050115143,-24372.350050115143,4892.1084551457989,33182.513511113691,0.0
618296.95196600363,3595566.251970998,-2500.0,1227.1268679976026,-1738.219811044479,34426.045634246722,-106.04298607837708,2151.3592732618786,89.056772106538546,17348.130201739379,-8143.0895028265859,24727.996078826596,-24727.996078826596,8143.0895028265859,34120.801680237739,0.0
623296.95196600363,3595566.251970998,-2500.0,2216.0629461409594,-6007.5771646119938,32599.262735209504,-383.72420369227598,2060.3758730233121,86.468391376084682,16958.794581721952,-9930.9431821569706,22587.088344156287,-22587.088344156287,9930.9431821569706,33374.062209918084,0.0
628296.95196600363,3595566.251970998,-2500.0,3917.3785260483769,-9177.8649932467542,28323.908179503032,-602.26119225641696,1831.9699203603459,79.153750210113884,15773.786410430808,-9995.4979087290376,18525.089055487471,-18525.089055487471,9995.4979087290376,31111.806769523115,0.0
633296.95196600363,3595566.251970998,-2500.0,5793.9420215838891,-10787.411052241026,22617.826886816496,-732.78178301234038,1516.2021305403982,68.483134278988899,14010.071399022481,-8597.4895151628698,13521.493499763143,-13521.493499763143,8597.4895151628698,27744.561058088639,0.0
638296.95196600363,3595566.251970998,-2500.0,7321.9946679844807,-10861.686346195502,16596.387589549246,-771.49259029116376,1170.7227309400223,56.163712977216768,11939.208653015045,-6332.8647737789852,8570.0269031604748,-8570.0269031604748,6332.8647737789852,23791.151782689074,0.0
643296.95196600363,3595566.251970998,-2500.0,8184.0191599659911,-9781.618322386541,11126.224309748261,-734.85335713323502,843.76556362173005,43.800432278535709,9923.7085780133602,-3847.126949577952,4373.4609824875988,-4373.4609824875988,3847.126949577952,19739.958102843873,0.0
648296.95196600363,3595566.251970998,-2500.0,8317.2860050635154,-8055.7742134104519,6678.8805428085143,-649.0311652291349,565.2817831156467,32.580187369571874,8121.2485657360921,-1621.5748098939212,1244.4333833106029,-1244.4333833106029,1621.5748098939212,15957.940501682006,0.0
653296.95196600363,3595566.251970998,-2500.0,7845.6936094331595,-6134.6349890793817,3371.1703584665424,-539.97641461571982,346.86284807997623,23.158015093776427,6547.138657662842,97.567125743867336,-821.75154841123094,821.75154841123094,-97.567125743867336,12662.867309129902,0.0
658296.95196600363,3595566.251970998,-2500.0,6974.1584801188137,-4324.7682945447395,1093.6289595186058,-427.64849829041219,186.83748935686634,15.720596185497003,5241.798210534188,1260.7813169776095,-2007.8110685509323,2007.8110685509323,-1260.7813169776095,9942.1035346918507,0.0
663296.95196600363,3595566.251970998,-2500.0,5905.2104747483363,-2786.0128969016109,-361.87554484616771,-324.48773821667163,76.435793673270183,10.137985817048929,4201.4781232538389,1936.1690290033969,-2552.2822504353426,2552.2822504353426,-1936.1690290033969,7791.1698865063072,0.0
668296.95196600363,3595566.251970998,-2500.0,4796.3578197916786,-1568.9731660769012,-1215.7446441797883,-236.49618194543552,4.6086651010230044,6.1201406341079059,3396.849587171796,2238.5473977972997,-2675.7211831843551,2675.7211831843551,-2238.5473977972997,6151.84840072112,0.0
673296.95196600363,3595566.251970998,-2500.0,3750.1591443076768,-659.0976031717729,-1657.5680598967353,-165.23457610320304,-39.11956255966912,3.3330160982244021,2787.3370149395073,2284.4263706264451,-2550.4708117317055,2550.4708117317055,-2284.4263706264451,4940.661224436285,0.0
678296.95196600363,3595566.251970998,-2500.0,2821.8609637196942,-11.35211608488857,-1832.8273618187959,-109.70579518130606,-63.403712357654918,1.4658072741431114,2330.6021521843923,2170.8983118704955,-2297.2171474798006,2297.2171474798006,-2170.8983118704955,4067.092896237255,0.0
683296.95196600363,3595566.251970998,-2500.0,2032.7578951479559,427.83533298181135,-1845.1622305987739,-67.732874826429722,-74.819668088713541,0.26016271666688573,1988.1551836537089,1970.0193284120542,-1993.5315481929701,1993.5315481929701,-1970.0193284120542,3444.8706889400705,0.0
688296.95196600363,3595566.251970998,-2500.0,1382.884547606275,708.99568042149508,-1764.524333505929,-36.813242538058773,-78.086091461198208,-0.48415224151146752,1728.1625731489335,1730.9430006287703,-1685.3919875145816,1685.3919875145816,-1730.9430006287703,2999.3744806135055,0.0
693296.95196600363,3595566.251970998,-2500.0,860.70268826911183,874.79878816627502,-1636.1059852269864,-14.573943567512288,-76.448018072181398,-0.91514663726264245,1526.2226917060279,1484.8113139479915,-1397.5296756545017,1397.5296756545017,-1484.8113139479915,2671.9155711338062,0.0
698296.95196600363,3595566.251970998,-2500.0,449.58527868268703,959.00214647789278,-1487.9400577796555,1.0306686640872611,-72.061048606650431,-1.1385691616404672,1364.7606107506258,1249.8302452627713,-1141.3122773444611,1141.3122773444611,-1249.8302452627713,2420.4347674256987,0.0
703296.95196600363,3595566.251970998,-2500.0,131.72988484240099,987.18914162654528,-1336.6553394107245,11.667511928554248,-66.312497258388717,-1.2280606012085342,1231.7091165896552,1035.5028285436456,-920.21205179106346,920.21205179106346,-1035.5028285436456,2217.1664659972744,0.0
528296.95196600363,3600566.251970998,-2500.0,-2602.3821997648415,-2329.1035271599521,-2298.6882660444248,-138.19204805149303,-136.91599078043879,-5.5450717747953115,2397.5420388357229,-2646.9760277392006,-1071.0708066641228,1071.0708066641228,2646.9760277392006,4736.5439093046098,0.0
533296.95196600363,3600566.251970998,-2500.0,-2538.7899553787138,-2570.9209312718094,-2718.7795841604539,-146.65260979818254,-161.83457285290436,-6.4082109174742516,2606.9915212380806,-2672.1006863885805,-1427.8341271819709,1427.8341271819709,2672.1006863885805,5183.9320570023483,0.0
538296.95196600363,3600566.251970998,-2500.0,-2373.2745766219564,-2796.9479063306635,-3209.8185582181386,-151.94683215748188,-190.20168232982903,-7.3343792123632081,2834.4575432053798,-2607.0492183673887,-1869.3002543258035,1869.3002543258035,2607.0492183673887,5650.0653284096315,0.0
543296.95196600363,3600566.251970998,-2500.0,-2070.1764493100286,-2978.7459012978948,-3771.9036523210721,-151.83438868582292,-221.50413278373398,-8.2724446433604193,3104.286172963969,-2410.7207276676336,-2404.41861708948,2404.41861708948,2410.7207276676336,6123.0104077526739,0.0
548296.95196600363,3600566.251970998,-2500.0,-1588.14913685959,-3073.0466653226349,-4394.0397277809943,-143.18545406234409,-254.3511478393676,-9.1274127757842578,3385.1863243945177,-2031.1691283575651,-3034.2713621405214,3034.2713621405214,2031.1691283575651,6586.6023848077748,0.0
553296.95196600363,3600566.251970998,-2500.0,-883.54547622449763,-3017.3981519851068,-5045.1593698105444,-121.82675436607393,-285.90596212604322,-9.7383372906996488,3672.9848596299807,-1406.8715585439772,-3743.8562916124552,3743.8562916124552,1406.8715585439772,7023.0224120122766,0.0
558296.95196600363,3600566.251970998,-2500.0,82.151031123364334,-2726.9048792782141,-5660.6213706902527,-82.527977613475088,-311.09315464561303,-9.8506218375944474,3968.1055825271114,-472.26955277044271,-4489.3029901481632,4489.3029901481632,472.26955277044271,7421.4792814773264,0.0
563296.95196600363,3600566.251970998,-2500.0,1328.9793831793043,-2094.9253275699652,-6123.674541064358,-19.312450513164496,-321.60388268650723,-9.0865114838280583,4283.3633360402491,829.24211213031958,-5179.8292824786467,5179.8292824786467,-829.24211213031958,7799.8635424500453,0.0
568296.95196600363,3600566.251970998,-2500.0,2838.0033474467436,-1002.657378535398,-6243.3469093886879,73.632506213019099,-304.8561608533098,-6.9235139673386401,4658.8207532423958,2521.1802063866544,-5655.6342856890788,5655.6342856890788,-2521.1802063866544,8248.6239204535377,0.0
573296.95196600363,3600566.251970998,-2500.0,4524.9303675281117,655.37015674171323,-5734.6880848772707,200.11199694068094,-243.32547021354091,-2.6993983736928766,5180.8653387597278,4556.1881411877712,-5667.2790862228194,5667.2790862228194,-4556.1881411877712,8994.0944295952704,0.0
578296.95196600363,3600566.251970998,-2500.0,6214.7366394352593,2922.80473386414,-4214.9237740810995,358.90923087763491,-115.04106103514056,4.3267327139725547,5989.4059053138972,6767.284560519437,-4869.6168334614713,4869.6168334614713,-6767.284560519437,10422.526304933321,0.0
583296.95196600363,3600566.251970998,-2500.0,7632.8959939170591,5708.5212184917027,-1238.4915955998636,539.78696405826588,103.57757417483499,14.824693617869793,7245.3422562603046,8822.1210653607595,-2852.5674028449639,2852.5674028449639,-8822.1210653607595,12954.597765178794,0.0
588296.95196600363,3600566.251970998,-2500.0,8437.2021817763707,8703.500219870728,3600.8346116003681,719.60356342542639,431.33066838035325,29.135950465426294,9057.6728876791294,10211.044430997899,764.00996439382652,-764.00996439382652,-10211.044430997899,16816.239315279938,0.0
593296.95196600363,3600566.251970998,-2500.0,8312.9603806913747,11328.142778820653,10484.07486369859,860.93126892329394,871.98456267710981,46.941374465866076,11416.719253853229,10313.773722558266,6155.8642688270174,-6155.8642688270174,-10313.773722558266,21919.681054361728,0.0
598296.95196600363,3600566.251970998,-2500.0,7130.7494967958683,12776.298166000228,19123.136960753371,916.51803357923643,1402.2165065416498,66.97019587975268,14165.080155088266,8582.1473903838832,13066.720015125482,-13066.720015125482,-8582.1473903838832,27866.574013055666,0.0
603296.95196600363,3600566.251970998,-2500.0,5114.1892140010877,12219.348134306359,28558.180528330395,842.0915991384004,1963.3371944518697,86.95143642251135,17000.420094042798,4825.4818122994093,20625.075043579775,-20625.075043579775,-4825.4818122994093,33976.185885039864,0.0
608296.95196600363,3600566.251970998,-2500.0,2904.8244631389221,9167.8325204912726,37165.212264772264,615.94165857633641,2464.8901884237694,103.98559498170842,19843.4273809021,-511.83174547601629,27367.372507184045,-27367.372507184045,511.83174547601629,39358.472520554526,0.0
613296.95196600363,3600566.251970998,-2500.0,1399.7741705970061,3852.73254581434,43028.075933256718,257.04786316383894,2805.858723166868,115.30818720261286,21815.886986465383,-6284.0622499373349,31607.715678272412,-31607.715678272412,6284.0622499373349,43085.762063701317,0.0
618296.95196600363,3600566.251970998,-2500.0,1347.9539861601334,-2639.8843395410445,44646.403848862472,-170.97303640807084,2909.5460158751994,119.10921621401062,22533.127463447643,-10967.463677967347,32108.979146581798,-32108.979146581798,10967.463677967347,44450.691007155474,0.0
623296.95196600363,3600566.251970998,-2500.0,2911.7031421135875,-8699.1212874065568,41643.421787490355,-578.18433362638439,2755.7130655638257,115.00357636898565,21878.268412806308,-13312.107709531989,28714.815421312884,-28714.815421312884,13312.107709531989,43209.922781588852,0.0
628296.95196600363,3600566.251970998,-2500.0,5531.9664271073361,-12884.026484979589,34982.712686296138,-882.43775514767754,2389.9356201025948,104.0289061412175,20022.613151211244,-12933.743612435963,22478.768668512803,-22478.768668512803,12933.743612435963,39675.328013415834,0.0
633296.95196600363,3600566.251970998,-2500.0,8242.5720846773056,-14534.444093959206,26490.755031066379,-1039.6594365544875,1903.0065989850389,88.30389632073576,17355.905981457858,-10412.795531149937,15140.955232346454,-15140.955232346454,10412.795531149937,34585.344022696234,0.0
638296.95196600363,3600566.251970998,-2500.0,10190.762640106279,-13891.582383336889,18024.025622859859,-1052.8685395459545,1393.5758739225296,70.46317680053383,14486.538517701243,-6860.5396506622365,8327.354081384181,-8327.354081384181,6860.5396506622365,28829.418626070132,0.0
643296.95196600363,3600566.251970998,-2500.0,10976.9888873167,-11749.287056839927,10840.427082509084,-958.83396704306085,936.4656531404903,52.977783702913946,11789.163246038212,-3334.6075549583502,3011.205647116275,-3011.205647116275,3334.6075549583502,23181.611151212986,0.0
648296.95196600363,3600566.251970998,-2500.0,10660.871937598991,-8983.129233599504,5443.9840506511982,-805.57374172127231,570.20767276188985,37.607072208948921,9382.4033505502885,-489.36659571750124,-551.98911562159105,551.98911562159105,489.36659571750124,18156.579629491171,0.0
653296.95196600363,3600566.251970998,-2500.0,9562.992855843584,-6249.0059004924988,1777.8860463122101,-634.63008076141625,301.96531980063264,25.203794894222838,7381.6378547592703,1455.5335498493389,-2583.072499148655,2583.072499148655,-1455.5335498493389,13998.451380605824,0.0
658296.95196600363,3600566.251970998,-2500.0,8055.9656087186631,-3907.2540233129703,-490.29660311811119,-473.49749045260728,119.97396239544527,15.86016340314327,5803.3386043422206,2570.2546122681697,-3490.9695604330245,3490.9695604330245,-2570.2546122681697,10746.382037793826,0.0
663296.95196600363,3600566.251970998,-2500.0,6441.9959916813077,-2082.055163755304,-1752.9309139932836,-336.01481839214858,5.1202648644170763,9.2074687295124491,4605.0376919919936,3050.3299554764744,-3679.3550199575893,3679.3550199575893,-3050.3299554764744,8316.5510318732413,0.0
668296.95196600363,3600566.251970998,-2500.0,4916.4542997824356,-756.42554440368178,-2351.4008799067615,-226.26343401273741,-61.723765826778319,4.6941808992954748,3718.0786013378229,3106.1593074704488,-3463.1532145279707,3463.1532145279707,-3106.1593074704488,6567.3966580500437,0.0
673296.95196600363,3600566.251970998,-2500.0,3580.26180178193,149.96947296032016,-2541.6212909468036,-142.74990691677044,-96.388137403306388,1.7669396534699611,3069.2398537318709,2911.611183479974,-3055.7949185326779,3055.7949185326779,-2911.611183479974,5341.5754268537075,0.0
678296.95196600363,3600566.251970998,-2500.0,2468.2964320012652,732.92791489712317,-2498.5729319377374,-81.513377814684347,-110.64431637547811,-0.043219663243063318,2592.9745181785624,2591.2009111783586,-2587.3049820391448,2587.3049820391448,-2591.2009111783586,4491.1892735221027,0.0
683296.95196600363,3600566.251970998,-2500.0,1576.3511421979724,1080.1935838551397,-2334.3317353317584,-37.995029208433259,-112.65364602672183,-1.0973494291385291,2236.9030828287018,2225.4938411462408,-2129.1792204335652,2129.1792204335652,-2225.4938411462408,3893.0375595899486,0.0
688296.95196600363,3600566.251970998,-2500.0,880.81815252084596,1262.9943324026815,-2116.948283561745,-7.9729062772165102,-107.79336879788005,-1.6568014975503291,1962.6698532765076,1862.0893629856153,-1715.8055217807607,1715.8055217807607,-1862.0893629856153,3455.4919817228624,0.0
693296.95196600363,3600566.251970998,-2500.0,351.02213318148011,1335.2611578107444,-1885.6303439741114,12.078765678076916,-99.461877376184589,-1.9028444229638424,1744.0198549943466,1526.243556507329,-1359.860506636084,1359.860506636084,-1526.243556507329,3117.1593769878132,0.0
698296.95196600363,3600566.251970998,-2500.0,-43.953776598077411,1336.0148023796376,-1661.563975811348,24.933631428171747,-89.723962983246125,-1.9573099663673474,1563.8055391070429,1229.1545809927493,-1062.3033173906983,1062.3033173906983,-1229.1545809927493,2840.2787285095933,0.0
703296.95196600363,3600566.251970998,-2500.0,-332.00065409222697,1292.5806567326968,-1455.1057471798986,32.69235492951065,-79.779412076043926,-1.9000270355272184,1411.1087723601759,973.75055345529881,-818.41438184711114,818.41438184711114,-973.75055345529881,2603.0105773980663,0.0
708296.95196600363,3600566.251970998,-2500.0,-536.78825321145132,1223.6016419587775,-1270.34917310328,36.905601628229824,-70.283967063989508,-1.7821285564617666,1279.0048250819725,758.45604020750056,-621.22861604749346,621.22861604749346,-758.45604020750056,2393.1801592330239,0.0
523296.95196600363,3605566.251970998,-2500.0,-3311.1040164884298,-2280.7077447379734,-1907.8719101196275,-159.46495204374736,-122.57095165431875,-5.7123332606256145,2503.1053039593417,-3146.4662350333087,-540.29645636830037,540.29645636830037,3146.4662350333087,4897.2118973910738,0.0
528296.95196600363,3605566.251970998,-2500.0,-3439.0366212857002,-2601.8761135811933,-2289.1611959094153,-176.69264417058753,-148.03151952740731,-6.7691351775169402,2770.6430421408163,-3352.5232301784963,-812.84352444165575,812.84352444165575,3352.5232301784963,5442.855165222727,0.0
533296.95196600363,3605566.251970998,-2500.0,-3505.6592032791768,-2950.5311245330004,-2754.9897224841097,-193.73272202218482,-178.65497620645499,-7.9952591341145176,3059.7960352436385,-3519.3118025929621,-1171.168789550718,1171.168789550718,3519.3118025929621,6041.2597869527845,0.0
538296.95196600363,3605566.251970998,-2500.0,-3476.9793476180198,-3314.5343611468202,-3320.5079958687338,-209.11471140739243,-215.0390307905605,-9.3870128613529928,3366.1291145053715,-3614.1400128078471,-1636.511121717404,1636.511121717404,3614.1400128078471,6688.3800250573786,0.0
543296.95196600363,3605566.251970998,-2500.0,-3307.5485701204293,-3670.2598543501817,-3998.986714662542,-220.47781489593643,-257.42772715740909,-10.912901955793082,3695.9633260480841,-3589.9905978667625,-2231.3221584970547,2231.3221584970547,3589.9905978667625,7374.4405744467285,0.0
548296.95196600363,3605566.251970998,-2500.0,-2939.1214163859759,-3976.411391535808,-4796.6954011627713,-224.20913718060109,-305.28708529922812,-12.491937059961566,4092.9139586128758,-3381.7556651146624,-2975.2753408450953,2975.2753408450953,3381.7556651146624,8081.9629107786141,0.0
553296.95196600363,3605566.251970998,-2500.0,-2301.455509727788,-4165.9207591152162,-5703.3631120738919,-215.03308511549494,-356.5924838720648,-13.961173594154417,4510.3793952539399,-2903.5399561872214,-3877.0966622726123,3877.0966622726123,2903.5399561872214,8784.7782920564696,0.0
558296.95196600363,3605566.251970998,-2500.0,-1317.7446747339679,-4136.7069271773398,-6675.710407423946,-185.65396324071313,-406.70834536027439,-15.030353577960302,4940.0754359938392,-2049.6726301267654,-4919.6179387177226,4919.6179387177226,2049.6726301267654,9451.0015293773122,0.0
563296.95196600363,3605566.251970998,-2500.0,81.569629007666208,-3744.0317574860205,-7611.1985859430679,-126.68491596983094,-446.76525983373864,-15.225225855454678,5380.1847115364117,-704.21967940899367,-6034.9930727163355,6034.9930727163355,704.21967940899367,10057.022316232571,0.0
568296.95196600363,3605566.251970998,-2500.0,1932.0528213608882,-2800.840448202629,-8310.3004110340153,-27.301952893131034,-461.57800934978548,-13.831350034618364,5849.913457867804,1233.5538579621884,-7067.9954701933548,7067.9954701933548,-1233.5538579621884,10627.198714985248,0.0
573296.95196600363,3605566.251970998,-2500.0,4192.4901588695147,-1097.9232105440435,-8430.5419959805149,122.69351030476682,-427.51363390962183,-9.8661718617330276,6419.3556112566075,3798.7471783986803,-7730.0328173674752,7730.0328173674752,-3798.7471783986803,11320.955408734695,0.0
578296.95196600363,3605566.251970998,-2500.0,6689.8062431555009,1538.9999929179214,-7447.3646921544614,328.603979418515,-311.41814293970123,-2.132674959890017,7248.2567485413365,6879.8608676016647,-7558.0718187448565,7558.0718187448565,-6879.8608676016647,12560.135851320974,0.0
583296.95196600363,3605566.251970998,-2500.0,9070.9876257855922,5139.2746048414228,-4657.4020774613691,583.93094559329006,-72.715592517985243,10.57191771950364,8593.0279508056719,10116.844478414829,-5912.8828160223547,5912.8828160223547,-10116.844478414829,15048.259635093687,0.0
588296.95196600363,3605566.251970998,-2500.0,10804.269185753828,9427.5265803062903,716.83009892562052,861.81352525476075,328.38236138685903,29.029352317149186,10719.596480588158,12819.965825829302,-2073.859975429802,2073.859975429802,-12819.965825829302,19451.326180563712,0.0
593296.95196600363,3605566.251970998,-2500.0,11288.225029931393,13665.38560599913,9257.7643699629352,1108.5209386968588,914.20375571475006,52.979909082864289,13746.936275756116,13994.261199233453,4509.0756323816895,-4509.0756323816895,-13994.261199233453,25960.794152176193,0.0
598296.95196600363,3605566.251970998,-2500.0,10106.934754935201,16615.262395604892,20910.009933983056,1245.9188049936254,1665.889780941528,80.525201780027828,17536.934664122542,12575.077085686105,13800.085467786666,-13800.085467786666,-12575.077085686105,34157.498719131516,0.0
603296.95196600363,3605566.251970998,-2500.0,7381.4698125477762,16788.599683865978,34495.694313659689,1190.5185740636437,2501.7335956623988,108.01230117675246,21669.112004117691,7921.0990870967471,24729.83406562623,-24729.83406562623,-7921.0990870967471,43056.913135301671,0.0
608296.95196600363,3605566.251970998,-2500.0,4020.7596957216019,13068.111765751974,47512.661987583248,890.24354079950047,3275.0678349898822,130.87461605003492,25728.304074949079,427.54293186375071,35030.523143256723,-35030.523143256723,-427.54293186375071,51212.671446950066,0.0
613296.95196600363,3605566.251970998,-2500.0,1564.1134764079204,5530.1008474095615,56631.622655998872,364.67032784948714,3808.5330108068206,145.28813714771897,28773.680106934647,-8141.6118590192054,41744.070656090815,-41744.070656090815,8141.6118590192054,56993.2853988645,0.0
618296.95196600363,3605566.251970998,-2500.0,1441.4892508396772,-4088.4015887091282,59032.342074464184,-280.18690237780191,3961.863681922126,149.49216250959975,29851.224362973055,-15109.261825880627,42504.451436750423,-42504.451436750423,15109.261825880627,59078.35887908587,0.0
623296.95196600363,3605566.251970998,-2500.0,4001.5264075751106,-12919.7898628358,53963.366205411789,-885.13015892250542,3698.8290608123434,143.69592585906207,28734.359537277112,-18194.849384200363,36953.906903073308,-36953.906903073308,18194.849384200363,56990.963198235186,0.0
628296.95196600363,3605566.251970998,-2500.0,8155.402602948092,-18428.889301073446,43294.567506705731,-1307.3203721797029,3106.850067022428,129.24259569987393,25751.069588372276,-16827.523773868354,27109.790110557977,-27109.790110557977,16827.523773868354,51324.160089875266,0.0
633296.95196600363,3605566.251970998,-2500.0,12092.300315777729,-19711.414972191389,30438.367137169149,-1480.9445976901841,2352.5159618903417,108.40432795888312,21831.313723629264,-12312.513469568237,16189.262441652927,-16189.262441652927,12312.513469568237,43460.919373730103,0.0
638296.95196600363,3605566.251970998,-2500.0,14422.443094577371,-17584.99209479626,18530.862559031011,-1429.4483746379935,1604.6570271097999,84.479336355134649,17772.024101480245,-6766.0776774525784,6877.350030718917,-6877.350030718917,6766.0776774525784,34970.176808621829,0.0
643296.95196600363,3605566.251970998,-2500.0,14755.38972773694,-13667.798999704406,9299.081262039681,-1230.9561362818736,976.03889177009455,61.079702174965831,13985.043397741558,-1890.1167595932911,399.65486334132174,-399.65486334132174,1890.1167595932911,27080.385231421133,0.0
648296.95196600363,3605566.251970998,-2500.0,13497.366611337775,-9415.5567827798786,3063.48306112405,-971.10498936926103,509.37432913721892,40.93844468175196,10796.305017384708,1536.2178106687581,-3302.9164357321988,3302.9164357321988,-1536.2178106687581,20472.035325365949,0.0
653296.95196600363,3605566.251970998,-2500.0,11345.311802649221,-5698.1209490235688,-665.74569251109642,-713.14606603905156,196.35614075448291,25.294607747879084,8299.5479710993532,3485.0895908641796,-4919.4499239177367,4919.4499239177367,-3485.0895908641796,15345.685395459095,0.0
658296.95196600363,3605566.251970998,-2500.0,8915.1424074762745,-2841.0223437052255,-2617.0179440220172,-491.08637565969804,4.9195802427731214,14.107840100405594,6441.7139565353318,4291.1197949594807,-5228.120449082604,5228.120449082604,-4291.1197949594807,11597.791806256193,0.0
663296.95196600363,3605566.251970998,-2500.0,6606.266847781917,-836.78446602467784,-3442.7475311269895,-316.23000325174212,-100.87418401545537,6.6380833422803169,5103.0361003195922,4356.1968155443064,-4842.2376736266779,4842.2376736266779,-4356.1968155443064,8980.4889199995687,0.0
668296.95196600363,3605566.251970998,-2500.0,4615.8121406763676,465.68955627823567,-3619.5331414440525,-186.76735075842657,-151.24626489448073,1.9489493088234813,4150.7192694546566,4010.8442775337303,-4162.2005708432334,4162.2005708432334,-4010.8442775337303,7206.6470508387547,0.0
673296.95196600363,3605566.251970998,-2500.0,3003.3090258369307,1247.3900447970327,-3456.9820306739894,-95.268940737549613,-168.20800202941774,-0.80989614266360221,3467.9869584350681,3481.5956603296086,-3416.0892641478335,3416.0892641478335,-3481.5956603296086,6011.0452093205058,0.0
678296.95196600363,3605566.251970998,-2500.0,1752.3758130632577,1667.9982235282789,-3140.5369227949677,-33.092743065757702,-166.42627713462915,-2.3012218207249884,2965.4548523444746,2905.4344098863862,-2717.4604243444551,2717.4604243444551,-2905.4344098863862,5183.3423245378135,0.0
683296.95196600363,3605566.251970998,-2500.0,813.31354191165076,1850.8458487285357,-2773.9790733601913,7.559214990410676,-155.07670412603309,-2.9976088688902069,2581.2419317617732,2356.0931586549023,-2112.5583360651099,2112.5583360651099,-2356.0931586549023,4577.7608155584103,0.0
688296.95196600363,3605566.251970998,-2500.0,127.63205002901425,1884.3140032456599,-2411.3060369185919,32.960183202204114,-139.60943613396591,-3.2170343895309346,2275.4512527570459,1867.5068112787189,-1611.8517788300701,1611.8517788300701,-1867.5068112787189,4104.236794053194,0.0
693296.95196600363,3605566.251970998,-2500.0,-359.87567929738486,1828.7378465493896,-2077.7996412388597,47.842426779394458,-123.09825374146908,-3.1647786060090084,2023.4189864489038,1450.6741048199822,-1208.8373253396351,1208.8373253396351,-1450.6741048199822,3711.6681124930215,0.0
698296.95196600363,3605566.251970998,-2500.0,-696.35414072534297,1723.8650368665931,-1782.9744977208147,55.635771629943321,-107.16692737072437,-2.9690194219995876,1810.0926986477318,1104.4906756283594,-890.3590526727578,890.3590526727578,-1104.4906756283594,3372.5132140499909,0.0
703296.95196600363,3605566.251970998,-2500.0,-919.8873044560529,1595.0980495831182,-1528.1605665606692,58.76044703113871,-92.586841173966775,-2.7073774809765743,1626.1476551324417,822.20402403083165,-641.84298080565839,641.84298080565839,-822.20402403083165,3072.1653779034436,0.0
708296.95196600363,3605566.251970998,-2500.0,-1060.2114690301464,1458.1768255108093,-1310.7768231717464,58.891703193292379,-79.646898199366873,-2.4252617988429024,1465.5766875206539,595.02256166221287,-449.69232459816453,449.69232459816453,-595.02256166221287,2802.6797496663098,0.0
523296.95196600363,3610566.251970998,-2500.0,-4107.6917010218131,-2409.1934712902371,-1814.0090485421258,-193.88322083832264,-126.39817496277672,-6.7314700973150279,2820.7035270104766,-3750.7197427640899,-217.76303014114637,217.76303014114637,3750.7197427640899,5499.6267816936579,0.0
528296.95196600363,3610566.251970998,-2500.0,-4391.2393140638142,-2808.37823418071,-2204.3988508859688,-219.94631759454953,-155.38032059281048,-8.1179412695611202,3163.2251069979839,-4103.5641549011016,-453.25028131308181,453.25028131308181,4103.5641549011016,6187.678094859516,0.0
533296.95196600363,3610566.251970998,-2500.0,-4638.9053783656454,-3265.6668084866919,-2694.760004419461,-248.0447455123084,-191.3435833934227,-9.7841183486807282,3546.0711745932554,-4449.7774281211769,-780.66542066983629,780.66542066983629,4449.7774281211769,6963.9740803711202,0.0
538296.95196600363,3610566.251970998,-2500.0,-4815.5984075699107,-3778.6239604183706,-3310.3562102119349,-277.09597754277183,-235.6952495677678,-11.760201780496317,3968.8311021041136,-4760.1050691211458,-1230.1135675379746,1230.1135675379746,4760.1050691211458,7832.1565357528179,0.0
543296.95196600363,3610566.251970998,-2500.0,-4869.97829863061,-4334.7449835521538,-4079.8153077161101,-305.01969680779109,-289.78140388623746,-14.054092858559631,4427.0777434426136,-4987.7231132774878,-1838.5344057487264,1838.5344057487264,4987.7231132774878,8790.247943036391,0.0
548296.95196600363,3610566.251970998,-2500.0,-4729.599951546159,-4903.7291118062058,-5031.909060602733,-328.18074173199147,-354.49622560749015,-16.62549477319908,4920.6216408507289,-5060.8259666829254,-2648.1222815100864,2648.1222815100864,5060.8259666829254,9826.9060371112919,0.0
553296.95196600363,3610566.251970998,-2500.0,-4296.7701760610971,-5425.6990688920669,-6187.6626792946863,-340.63523022757124,-429.51644768495345,-19.342209372249783,5521.8890813677999,-4874.0374460223666,-3700.629290901461,3700.629290901461,4874.0374460223666,10916.785347325076,0.0
558296.95196600363,3610566.251970998,-2500.0,-3447.9675216101969,-5794.626422435992,-7543.8117181190973,-333.2249152342149,-511.92069786731014,-21.912446157698188,6162.2841462928118,-4280.8367853525187,-5023.5839139326954,5023.5839139326954,4280.8367853525187,12016.604009524262,0.0
563296.95196600363,3610566.251970998,-2500.0,-2042.3618401855108,-5837.9395158632396,-9041.4995119053219,-292.73369724126945,-593.88835230677387,-23.789355048050489,6824.7562275276387,-3092.4848238666746,-6602.1793491456683,6602.1793491456683,3092.4848238666746,13067.158539614324,0.0
568296.95196600363,3610566.251970998,-2500.0,51.364731619032995,-5298.0156883333393,-10512.625212550254,-201.67013987838024,-659.22504694778388,-24.056927832455024,7500.690899956764,-1094.6815560793184,-8328.7783748685324,8328.7783748685324,1094.6815560793184,14015.686730952921,0.0
573296.95196600363,3610566.251970998,-2500.0,2898.0938739617172,-3830.8801844066656,-11598.562699833768,-39.802148329333832,-678.83694603034655,-21.337853546251505,8218.2178545400675,1899.3575216877284,-9923.8557929111685,9923.8557929111685,-1899.3575216877284,14891.886202848307,0.0
578296.95196600363,3610566.251970998,-2500.0,6401.2796991444247,-1052.5718733496335,-11649.217970488513,210.77216345514296,-606.33202988272171,-13.815580329333828,9106.0858174109217,5936.113119577868,-10834.882626909315,10834.882626909315,-5936.113119577868,15991.815535619598,0.0
583296.95196600363,3610566.251970998,-2500.0,10182.539857465425,3322.4140206097836,-9644.717708287104,555.06736077296591,-376.96654352241143,0.47187883198891867,10477.038900074898,10737.394626855379,-10153.351437746171,10153.351437746171,-10737.394626855379,18148.776321247176,0.0
588296.95196600363,3610566.251970998,-2500.0,13494.990076009064,9215.592228501504,-4241.0908019117387,968.80046420008273,84.155880320050471,22.893633388771352,12819.503280710876,15481.141959684799,-6648.1961726281597,6648.1961726281597,-15481.141959684799,22687.929508592886,0.0
593296.95196600363,3610566.251970998,-2500.0,15290.036923068796,15827.144767717313,5903.0694279504287,1380.6588134468282,837.44350408687797,53.017542452591982,16558.021393690411,18680.971179759912,932.53421787178013,-932.53421787178013,-18680.971179759912,30603.441609584577,0.0
598296.95196600363,3610566.251970998,-2500.0,14573.839887123953,21372.255878745163,21394.261871322276,1665.9955266210293,1885.0788987317285,87.348526133477549,21722.575270968944,18400.23223724627,13174.458444268679,-13174.458444268679,-18400.23223724627,41767.065097204948,0.0
603296.95196600363,3610566.251970998,-2500.0,11072.322644782014,23260.528136495152,41069.684927465743,1671.3461605548791,3120.7057727436859,119.18056370735363,27793.489359132203,13019.674928315519,29032.049328943616,-29032.049328943616,-13019.674928315519,54855.551693496287,0.0
608296.95196600363,3610566.251970998,-2500.0,5929.0117784420263,19067.301731889282,61202.814951370703,1281.7919173034256,4308.6372959825121,141.14263074090053,33810.482954458705,2494.3027988325812,45115.571313917389,-45115.571313917389,-2494.3027988325812,67527.167200607364,0.0
613296.95196600363,3610566.251970998,-2500.0,1777.1966902379168,8240.1789556730837,75929.247208048546,508.82603429701027,5138.2399409789878,150.15100147605574,38689.345483675657,-10570.970614835722,56165.95294561777,-56165.95294561777,10570.970614835722,76847.287110960548,0.0
618296.95196600363,3610566.251970998,-2500.0,1468.3749452322099,-6477.3437162037117,79698.694230228357,-468.27254489689108,5357.4100133421134,149.74231509704606,40400.67179843707,-21329.818046244178,57440.78713275191,-57440.78713275191,21329.818046244178,80234.095044790069,0.0
623296.95196600363,3610566.251970998,-2500.0,5827.7011361579498,-19737.102362594316,70868.666260287995,-1366.1465390677761,4907.3371837576806,144.81699806131587,38461.159805543801,-25365.167714438998,48036.78613967709,-48036.78613967709,25365.167714438998,76672.988452611011,0.0
628296.95196600363,3610566.251970998,-2500.0,12619.571477956806,-26839.656586541361,53252.993368394549,-1938.463444012707,3955.6834404882329,135.0191001305046,33807.990659032483,-21833.130752346908,32022.245230933426,-32022.245230933426,21833.130752346908,67331.610849201315,0.0
633296.95196600363,3610566.251970998,-2500.0,18290.574093633444,-26711.844247895719,33520.712942507613,-2092.8792031092098,2802.4224124059265,117.11786921135155,27889.902686759975,-13751.829301022726,15613.884033192893,-15613.884033192893,13751.829301022726,54920.714814534804,0.0
638296.95196600363,3610566.251970998,-2500.0,20635.887286599824,-21662.835366509109,16982.573081007606,-1903.1138993204761,1729.2536242991966,91.812699650004475,21821.139035051907,-5222.3586006872829,3208.0237100964773,-3208.0237100964773,5222.3586006872829,42285.02732613447,0.0
643296.95196600363,3610566.251970998,-2500.0,19654.275176162311,-14915.147479588431,5666.2131856969963,-1526.5856356161023,896.56326045358981,64.33256851713594,16527.714426103583,1169.949486829167,-4053.8950792273408,4053.8950792273408,-1169.949486829167,31339.97669425984,0.0
648296.95196600363,3610566.251970998,-2500.0,16594.333219566732,-8720.8509629756663,-888.07194619737925,-1109.173156346287,335.96098459591821,40.061394587418121,12381.864514884894,4823.0743928061502,-7174.5074460997012,7174.5074460997012,-4823.0743928061502,22857.363101282008,0.0
653296.95196600363,3610566.251970998,-2500.0,12792.406167020696,-4008.9561006692215,-4075.4894900027844,-739.35515863360968,2.4417556329605827,21.669374270210422,9359.8432090874812,6274.2494617908051,-7730.1764060404639,7730.1764060404639,-6274.2494617908051,16794.561903547863,0.0
658296.95196600363,3610566.251970998,-2500.0,9137.7411296879127,-840.14624697626527,-5234.1281132470958,-450.76332929182325,-171.53474317371658,9.2564143918955413,7249.096511236663,6341.3856446699092,-7010.5903775653578,7010.5903775653578,-6341.3856446699092,12708.337515561328,0.0
663296.95196600363,3610566.251970998,-2500.0,6048.8543272852758,1087.7262632530824,-5315.4569113080097,-243.51376195946068,-245.87077030985063,1.6438741432542641,5795.5944705964594,5700.2861183568612,-5823.4269581357903,5823.4269581357903,-5700.2861183568612,10045.030707399956,0.0
668296.95196600363,3610566.251970998,-2500.0,3632.3872741689715,2139.8846334689906,-4898.4108790381833,-103.47105217930157,-263.62448682718571,-2.5993255661895969,4780.2286108757271,4789.3064949392656,-4590.6872897657568,4590.6872897657568,-4789.3064949392656,8303.9893339777009,0.0
673296.95196600363,3610566.251970998,-2500.0,1837.5856424432395,2623.1943074636174,-4300.2675725140325,-13.604007866465299,-252.25126300302944,-4.6794738506468958,4044.1447943474604,3850.8217094990114,-3495.362166738214,3495.362166738214,-3850.8217094990114,7112.9826662592868,0.0
678296.95196600363,3610566.251970998,-2500.0,555.61804919946928,2759.9017770346172,-3679.6824665059371,41.057165721414947,-227.8814543870707,-5.463523012504842,3484.6969485782647,2999.2489610211765,-2593.4472517871368,2593.4472517871368,-2999.2489610211765,6236.0447655414209,0.0
683296.95196600363,3610566.251970998,-2500.0,-329.33013406975539,2698.3756828562246,-3107.3877425504256,72.041925204084436,-199.36726037400589,-5.5204341834304493,3040.1179816391923,2276.0405303412317,-1881.946114247984,1881.946114247984,-2276.0405303412317,5540.8054293779978,0.0
688296.95196600363,3610566.251970998,-2500.0,-918.78770944791518,2532.5644057343734,-2608.63017800017,87.620182264457767,-171.22067604228212,-5.2017034950224206,2674.3284990755128,1685.4023176737107,-1335.1172319811492,1335.1172319811492,-1685.4023176737107,4958.4929410700352,0.0
693296.95196600363,3610566.251970998,-2500.0,-1294.0942048004304,2319.562955459181,-2186.7350465053637,93.473118337123452,-145.50174809231959,-4.7144386758714738,2366.0448912538823,1214.8968500130068,-921.88099873573037,921.88099873573037,-1214.8968500130068,4454.3351640784958,0.0
698296.95196600363,3610566.251970998,-2500.0,-1517.2489874345874,2092.7191162223075,-1835.5075810232288,93.392926340048618,-122.95183685085735,-4.1752486551146104,2102.1559367565865,846.36064695400978,-613.23227579234117,613.23227579234117,-846.36064695400978,4010.2577807804169,0.0
703296.95196600363,3610566.251970998,-2500.0,-1634.1113109038859,1870.5814064742322,-1545.4412398940556,89.857463980083807,-103.64295809884028,-3.6460699596226456,1874.0355495291174,561.20948999635789,-384.75959260774562,384.75959260774562,-561.20948999635789,3615.9893375475144,0.0
708296.95196600363,3610566.251970998,-2500.0,-1677.9543308700368,1662.7147865774498,-1306.6395842651721,84.456134598871074,-87.336296460078984,-3.1570372414934393,1675.5805587456719,342.71345992770409,-216.96851152404966,216.96851152404966,-342.71345992770409,3264.8256415397809,0.0
518296.95196600363,3615566.251970998,-2500.0,-4506.390717106834,-2062.9064392665282,-1367.8716539430084,-198.74382133466045,-101.14032351917689,-6.3781091950188378,2770.34370105372,-3872.1141869212779,282.05212290488384,-282.05212290488384,3872.1141869212779,5375.2185418810604,0.0
523296.95196600363,3615566.251970998,-2500.0,-4958.2632248088321,-2448.9988117763296,-1663.7909435425759,-230.28384425323048,-125.86132767620261,-7.7937913626123763,3138.3370785030406,-4342.9069714826601,174.01415458310521,-174.01415458310521,4342.9069714826601,6103.3524889361897,0.0
528296.95196600363,3615566.251970998,-2500.0,-5433.2184055975531,-2912.9934364909104,-2042.1839962475335,-266.7295014605802,-157.37483243014373,-9.5518335148163374,3562.8276904194036,-4860.9664851659745,4.5646188442542552,-4.5646188442542552,4860.9664851659745,6947.5002812063503,0.0
533296.95196600363,3615566.251970998,-2500.0,-5914.4374507436569,-3467.6406684312542,-2529.1299063193774,-308.30756834708535,-197.59703148400831,-11.728202824195824,4050.9881369053246,-5418.3086277973907,-252.5195468315851,252.5195468315851,5418.3086277973907,7924.3729930521558,0.0
538296.95196600363,3615566.251970998,-2500.0,-6372.302179340094,-4124.0892948193214,-3158.7777286224359,-354.76262723587723,-248.87929098187573,-14.403792580051029,4609.0411458816779,-5996.0661830935569,-633.52208290309864,633.52208290309864,5996.0661830935569,9050.197742321061,0.0
543296.95196600363,3615566.251970998,-2500.0,-6757.7838207778541,-4887.7924727600885,-3974.8135839828456,-404.91638010801631,-313.9645427994937,-17.651583777815077,5240.5030583188282,-6557.3199799361118,-1187.6409044210736,1187.6409044210736,6557.3199799361118,10338.078027411873,0.0
548296.95196600363,3615566.251970998,-2500.0,-6993.4180142085288,-5750.7730597896762,-5030.7153400130383,-455.94684710493129,-395.75226232771087,-21.509113612926512,5943.1600593024932,-7036.2903122481575,-1979.3636508202553,1979.3636508202553,7036.2903122481575,11793.372111454271,0.0
553296.95196600363,3615566.251970998,-2500.0,-6962.09107996087,-6677.8856879963087,-6386.5088494511001,-502.26996061004536,-496.66246998998525,-25.925828573813174,6708.7682304374403,-7322.9852107713741,-3088.3505527446832,3088.3505527446832,7322.9852107713741,13406.292096816735,0.0
558296.95196600363,3615566.251970998,-2500.0,-6495.5140245408838,-7583.8871850162222,-8097.2373025841025,-533.92422272102613,-617.22535564829752,-30.670222510775304,7648.7472869408812,-7243.4543153109098,-4602.3243290020982,4602.3243290020982,7243.4543153109098,15141.293696433195,0.0
563296.95196600363,3615566.251970998,-2500.0,-5368.156323700262,-8298.2548589331454,-10184.016832393634,-534.50996612525489,-753.30168306915425,-35.182141581557019,8666.8601472572791,-6539.2965653666906,-6593.9807509319435,6593.9807509319435,6539.2965653666906,16925.087294431083,0.0
568296.95196600363,3615566.251970998,-2500.0,-3309.7021333959074,-8518.1382668521146,-12572.189848989317,-479.17653098219961,-891.13920587046823,-38.37061919500352,9725.2074984376031,-4858.3397188813879,-9066.1801522632195,9066.1801522632195,4858.3397188813879,18642.510904304814,0.0
573296.95196600363,3615566.251970998,-2500.0,-59.97945374696819,-7761.714262787109,-14975.191055169093,-334.13110695888298,-999.59896757802619,-38.407776711650399,10795.083260454121,-1784.3950418614795,-11842.979849120038,11842.979849120038,1784.3950418614795,20170.545321070196,0.0
578296.95196600363,3615566.251970998,-2500.0,4500.8162349380491,-5361.9173214650591,-16707.45682521311,-60.797378290841216,-1020.0627865548855,-32.687742712072833,11913.516174807934,3043.236677494966,-14387.574427032985,14387.574427032985,-3043.236677494966,21530.881532066036,0.0
583296.95196600363,3615566.251970998,-2500.0,10126.282392600995,-586.11426957540743,-16449.72106786109,370.48470965133163,-857.90187059966979,-18.294850491311223,13330.283962832676,9656.5728131895339,-15566.811369532163,15566.811369532163,-9656.5728131895339,23307.6047865113,0.0
588296.95196600363,3615566.251970998,-2500.0,15932.161007125202,6996.4373481648881,-12100.725791846196,952.75403733755945,-385.6113819390003,6.548021430901203,15698.398825230994,17313.017420748482,-13490.881867252578,13490.881867252578,-17313.017420748482,27258.88297606643,0.0
593296.95196600363,3615566.251970998,-2500.0,20276.706032075777,16838.789649836333,-1027.5135199451449,1603.273552625019,525.61410295800863,39.818144406677916,19976.362878458825,24030.848714801934,-5730.8804108949462,5730.8804108949462,-24030.848714801934,35936.681523394625,0.0
598296.95196600363,3615566.251970998,-2500.0,21130.543759023589,26644.761283721367,18876.4505358559,2132.918406351112,1930.7144537127372,72.593088506523856,26757.502741793302,26549.850051473404,9694.4934837281689,-9694.4934837281689,-26549.850051473404,50554.055703669546,0.0
603296.95196600363,3615566.251970998,-2500.0,17179.490905513045,32149.462687665822,47206.775302871312,2267.9762150971992,3702.2534339123467,88.553540452599407,35622.102311458271,21323.754031119875,32464.646583016074,-32464.646583016074,-21323.754031119875,69744.156947336407,0.0
608296.95196600363,3615566.251970998,-2500.0,9425.8027473530128,28355.798888225261,78859.620674079037,1772.3927723401284,5460.3869191424383,72.381907453409809,45039.871895172219,6831.6154511695204,57943.850171628939,-57943.850171628939,-6831.6154511695204,89827.673180299171,0.0
613296.95196600363,3615566.251970998,-2500.0,2192.9831461873296,12783.734650430737,103564.37259610044,642.70354477349895,6669.2149236908099,29.968320585520097,53002.152540169038,-13543.316777262153,76853.767331963623,-76853.767331963623,13543.316777262153,105475.35803156174,0.0
618296.95196600363,3615566.251970998,-2500.0,1374.7407467251765,-10524.59757354781,109926.17194100228,-801.57402816950616,6922.4404131092479,-1.5117354633744995,55916.387257286035,-30876.547243975085,79271.730094788931,-79271.730094788931,30876.547243975085,111412.25709359489,0.0
623296.95196600363,3615566.251970998,-2500.0,9136.454187348716,-31094.447630726354,93968.525108076996,-2077.253059150753,6177.0573875714172,11.271639012779147,52797.892786078824,-36002.088690144898,62685.314324121064,-62685.314324121064,36002.088690144898,105270.43469772609,0.0
628296.95196600363,3615566.251970998,-2500.0,20594.609383389376,-39646.955253724278,63933.808954676577,-2801.0393183417304,4733.8232297557643,52.926331201799179,45354.857678557804,-27707.913788753849,35808.762516413524,-35808.762516413524,27707.913788753849,89425.471522369684,0.0
633296.95196600363,3615566.251970998,-2500.0,28419.120215738232,-35590.791634538567,33513.809533212137,-2858.3619352541559,3070.1156616244039,81.259587561381167,35813.481547129457,-13276.199146710698,11241.43394203875,-11241.43394203875,13276.199146710698,69471.315497487099,0.0
638296.95196600363,3615566.251970998,-2500.0,29476.900664088549,-25058.797711467396,11434.445265677863,-2416.2729469063097,1620.0221226226236,78.634268026048005,26723.133949804116,-682.97081181764406,-4212.2106047017405,4212.2106047017405,682.97081181764406,50681.258091960226,0.0
643296.95196600363,3615566.251970998,-2500.0,25386.351157824978,-14180.355789320802,-1092.6826975392771,-1766.8835055089019,596.98095341813325,56.557012299363009,19456.533203473802,6764.603095735587,-10871.406346254851,10871.406346254851,-6764.603095735587,35856.819300057439,0.0
648296.95196600363,3615566.251970998,-2500.0,19188.800643073973,-5893.3297211440431,-6686.1932250842065,-1142.7511399638443,-6.8901120076362758,31.519943419644964,14250.78882949318,9619.98407904552,-12003.812766466144,12003.812766466144,-9619.98407904552,25474.182604735066,0.0
653296.95196600363,3615566.251970998,-2500.0,13078.297954767908,-600.80569419596088,-8327.5198541214049,-651.74035540252078,-304.42676225526327,12.122977972232865,10741.756215737367,9661.7862879797503,-10583.597456123949,10583.597456123949,-9661.7862879797503,18758.385577098441,0.0
658296.95196600363,3615566.251970998,-2500.0,8042.3864360534144,2345.1034419885091,-8087.5296718081163,-309.57363764790313,-415.2072401887699,-0.090177545784497215,8414.944368441742,8402.4064809234933,-8395.4602559964023,8395.4602559964023,-8402.4064809234933,14575.128808326921,0.0
663296.95196600363,3615566.251970998,-2500.0,4283.3273799522813,3742.8618223644035,-7122.176622531334,-90.615747884656855,-426.77881314468539,-6.6043092137668804,6834.2501530783056,6756.1310358290129,-6270.8881564394878,6270.8881564394878,-6756.1310358290129,11923.01557360791,0.0
668296.95196600363,3615566.251970998,-2500.0,1650.3736912620559,4220.7396023758292,-5991.4169929836826,39.654295490702708,-392.68301610142055,-9.4064485408185927,5704.3998371837079,5169.6867075535192,-4502.8609727720886,4502.8609727720886,-5169.6867075535192,10118.27001913441,0.0
673296.95196600363,3615566.251970998,-2500.0,-107.08260681699311,4196.3299384550855,-4931.840598061508,111.03176981282709,-342.10399282057648,-10.071073627555323,4849.942422014652,3815.3399582833067,-3135.8456676152623,3135.8456676152623,-3815.3399582833067,8773.3347437679677,0.0
678296.95196600363,3615566.251970998,-2500.0,-1228.1621715778738,3923.2737172402867,-4023.051080588225,145.36490677683253,-289.47998794675715,-9.631746326617165,4173.025821389384,2728.9099105399328,-2120.5113292274073,2120.5113292274073,-2728.9099105399328,7693.6919889995197,0.0
683296.95196600363,3615566.251970998,-2500.0,-1905.1308875547147,3546.6008669524117,-3275.4729722711709,157.40038696604836,-241.15278372656283,-8.7003341201406972,3619.2815214844431,1888.2247232389414,-1384.1840033412991,1384.1840033412991,-1888.2247232389414,6786.5283201656102,0.0
688296.95196600363,3615566.251970998,-2500.0,-2280.6775160550833,3144.9125166562762,-2672.8259645688931,156.6156420149334,-199.32770160539198,-7.6127383368505184,3157.0514819714604,1252.2487390293422,-858.41928438243622,858.41928438243622,-1252.2487390293422,6006.3455531167783,0.0
693296.95196600363,3615566.251970998,-2500.0,-2456.1859956668732,2758.1185984563244,-2191.3000388650662,148.90377483932375,-164.24877545710294,-6.5398009151616874,2766.4005154561437,778.54294613465436,-487.31336481614903,487.31336481614903,-778.54294613465436,5328.3354592314599,0.0
698296.95196600363,3615566.251970998,-2500.0,-2501.8530969414214,2404.3831259031385,-1807.4661679728663,137.83217299147864,-135.32600096895487,-5.5593620185882555,2433.6395266040631,429.90653164263335,-228.08152576953353,228.08152576953353,-429.90653164263335,4736.5988883874797,0.0
703296.95196600363,3615566.251970998,-2500.0,-2465.4787934861779,2090.0771378127065,-1501.0534998013882,125.50229334812012,-111.69127902063815,-4.6993742011387249,2148.6572937449528,176.07509557726843,-49.066482449971417,49.066482449971417,-176.07509557726843,4219.2722372104799,0.0
708296.95196600363,3615566.251970998,-2500.0,-2379.2189190477652,1815.4642970977955,-1255.5142004721581,113.10960254024762,-92.455329344227721,-3.9625115664273491,1903.6036281645095,-6.6224821007990755,72.732264546691766,-72.732264546691766,6.6224821007990755,3766.5933700573196,0.0
713296.95196600363,3615566.251970998,-2500.0,-2264.4773417064039,1577.8774204307911,-1057.72894296918,101.29867496758382,-76.814095327765287,-3.3397324806388036,1692.3232482002916,-136.29356552343344,153.86352687579543,-153.86352687579543,136.29356552343344,3370.1539636256925,0.0
518296.95196600363,3620566.251970998,-2500.0,-5200.3196384930643,-1969.0588454931265,-1200.8956192311011,-226.92814378150143,-95.052161652795718,-7.1544644552594772,3010.0167109992785,-4281.8699887270868,648.11547404470002,-648.11547404470002,4281.8699887270868,5831.625809010402,0.0
523296.95196600363,3620566.251970998,-2500.0,-5825.3061292331458,-2376.2067805304978,-1465.8526039103926,-267.07823814114931,-119.99261973211289,-8.8539519451340709,3443.1033186271497,-4881.8279204423106,618.6904763934067,-618.6904763934067,4881.8279204423106,6683.9854170047065,0.0
528296.95196600363,3620566.251970998,-2500.0,-6520.6221634273134,-2880.166171591884,-1810.030364127754,-315.04934748024658,-152.49454484777965,-11.01028885048412,3952.9865152131447,-5571.821978193082,544.05225937704017,-544.05225937704017,5571.821978193082,7691.1768348458972,0.0
533296.95196600363,3620566.251970998,-2500.0,-7281.9563602913649,-3504.2804919825735,-2261.8943933529918,-372.0946827270181,-195.05312499958865,-13.748071457814408,4553.7610812438961,-6358.1463217931687,399.26817596377623,-399.26817596377623,6358.1463217931687,8883.1561793169349,0.0
538296.95196600363,3620566.251970998,-2500.0,-8094.1836040250355,-4275.5619569870596,-2861.0609729238208,-439.31111604799457,-250.96555187175787,-17.216522693569967,5260.9374109072696,-7240.2384337627318,147.17108657411927,-147.17108657411927,7240.2384337627318,10293.902783682899,0.0
543296.95196600363,3620566.251970998,-2500.0,-8923.449726233197,-5222.7768792969009,-3662.3956558040295,-517.23839766248784,-324.49610910809378,-21.582499485500577,6090.2947964370678,-8203.5399021644371,-267.10532593742846,267.10532593742846,8203.5399021644371,11959.908866467425,0.0
548296.95196600363,3620566.251970998,-2500.0,-9704.7472693378222,-6371.2016278526144,-4740.7990307520558,-605.0985694093423,-420.9416302899927,-27.006456566501065,7055.3239139146553,-9207.1840006852944,-923.24835815584902,923.24835815584902,9207.1840006852944,13916.403409149418,0.0
553296.95196600363,3620566.251970998,-2500.0,-10323.258219830392,-7730.7630893418263,-6195.3947982080563,-699.43213205128529,-546.38383659024009,-33.585625680915079,8162.1299945087312,-10163.552100158015,-1933.8209140999679,1933.8209140999679,10163.552100158015,16189.489523878987,0.0
558296.95196600363,3620566.251970998,-2500.0,-10588.4211714715,-9271.8456956290993,-8149.2507570994485,-791.79901251333672,-706.67211836733634,-41.235973553409281,9400.8548273906399,-10906.14471186413,-3450.1295604895004,3450.1295604895004,10906.14471186413,18781.550710945528,0.0
563296.95196600363,3620566.251970998,-2500.0,-10202.900179730357,-10879.856302820537,-10734.927436998214,-865.21156117266707,-904.74816656448957,-49.476395574910811,10919.965683102824,-11143.436600289648,-5657.0643779397269,5657.0643779397269,11143.436600289648,21646.992080481512,0.0
568296.95196600363,3620566.251970998,-2500.0,-8737.9782041851522,-12277.623448245886,-14044.32316204657,-889.317511923285,-1134.7818445325531,-57.086657260065152,12604.539016906296,-10403.567893352487,-8736.0107207976471,8736.0107207976471,10403.567893352487,24658.364483008561,0.0
573296.95196600363,3620566.251970998,-2500.0,-5647.811940272325,-12910.962023988488,-18001.170567994937,-815.62546053400001,-1371.0004687645458,-61.693976330595888,14361.308228892616,-7996.4694245604842,-12753.793022887763,12753.793022887763,7996.4694245604842,27577.726239192147,0.0
578296.95196600363,3620566.251970998,-2500.0,-390.253760126977,-11825.254815673106,-22091.783071657486,-577.12489376085739,-1549.6687531238174,-59.596347228929758,16099.977792976155,-3068.6811313124608,-17410.566063260809,17410.566063260809,3068.6811313124608,30099.087591670035,0.0
583296.95196600363,3620566.251970998,-2500.0,7247.3330842651158,-7649.3594972941355,-24899.77626079624,-101.74671243659451,-1547.0894077447394,-46.654958670000653,17848.127538309884,5098.5512067493073,-21586.335190743448,21586.335190743448,-5098.5512067493073,32169.984238101184,0.0
588296.95196600363,3620566.251970998,-2500.0,16571.683298196291,1046.4125763977161,-23532.226118625818,646.87531800046361,-1168.318686205723,-21.667674796315513,20120.425586719135,16363.021242671883,-22764.191528403138,22764.191528403138,-16363.021242671883,35026.272842139711,0.0
593296.95196600363,3620566.251970998,-2500.0,25386.483438513569,14677.900882784817,-13426.468128362763,1594.5710376250524,-179.59129812519777,6.6612446027874102,24379.475130853425,28596.544363969359,-16804.414860127541,16804.414860127541,-28596.544363969359,42656.322237140557,0.0
598296.95196600363,3620566.251970998,-2500.0,30073.447056244509,30909.262170837144,10452.897168727744,2470.9463141244569,1571.7089751965407,10.409963216959788,32511.0643487665,36858.382281758968,958.4046315945634,-958.4046315945634,-36858.382281758968,59923.066145666366,0.0
603296.95196600363,3620566.251970998,-2500.0,27133.914523151681,43329.781219224307,50199.14462113387,2797.1594828004249,3932.6378072489524,-62.586357086475886,44979.707423927081,34256.08845053085,32541.198004933074,-32541.198004933074,-34256.08845053085,87185.016463080086,0.0
608296.95196600363,3620566.251970998,-2500.0,16191.917429884645,42406.667174473856,100054.06043739652,2110.3152273830774,6237.8919059343971,-267.04104807637304,59915.414777796846,15559.994069466251,72795.73666392242,-72795.73666392242,-15559.994069466251,119201.97277533637,0.0
613296.95196600363,3620566.251970998,-2500.0,3439.7068077678532,20600.649391600386,142855.03661983117,464.51636455823939,7541.079289501673,-570.82511423396818,73705.612869000557,-16463.390332948125,106194.60898916869,-106194.60898916869,16463.390332948125,146479.55286151328,0.0
618296.95196600363,3620566.251970998,-2500.0,1175.997264734129,-17547.416034651262,154584.00910266594,-1419.6266474342456,7461.082441956908,-765.81473751964984,79246.021105376873,-45707.412708551827,111431.27963572842,-111431.27963572842,45707.412708551827,157900.16766963448,0.0
623296.95196600363,3620566.251970998,-2500.0,15705.062111991274,-50583.052333055013,124506.91232298099,-2880.2421410868114,6405.4834098612664,-648.99751757289653,74470.804500011014,-51645.158843295932,80827.049800219,-80827.049800219,51645.158843295932,147338.26186487029,0.0
628296.95196600363,3620566.251970998,-2500.0,35547.553353554962,-58706.489137011748,71684.080684244036,-3644.337115077376,4729.4907632859922,-330.72133090710787,61579.107527865337,-32684.508756878502,34415.553660391197,-34415.553660391197,32684.508756878502,119732.69763776161,0.0
633296.95196600363,3620566.251970998,-2500.0,44823.614318274784,-44881.815652197853,25686.414958897247,-3545.3123594357312,2755.2809033694793,-75.95213603883785,46014.53677133545,-7383.4242774321192,-1037.0710078618686,1037.0710078618686,7383.4242774321192,87330.212865771668,0.0
638296.95196600363,3620566.251970998,-2500.0,40895.391630074417,-24898.387378003074,-908.85668804617649,-2762.7585158315301,1051.516923787432,25.020615237883383,32593.312160434478,9348.6837207691224,-17110.287592974142,17110.287592974142,-9348.6837207691224,59961.920541492582,0.0
643296.95196600363,3620566.251970998,-2500.0,30415.837378880206,-9111.7690921757312,-11712.735811398003,-1774.5575675867562,-37.276827575995057,32.439953257814025,23002.60211494406,15651.408682368854,-19822.08715121495,19822.08715121495,-15651.408682368854,40944.873626528017,0.0
648296.95196600363,3620566.251970998,-2500.0,19481.404013336585,354.09042238985433,-14002.302222917206,-937.55343953368731,-561.43379530255322,12.661227370084628,16779.260463068007,15577.000401306443,-16804.804937150704,16804.804937150704,-15577.000401306443,29193.554903514694,0.0
653296.95196600363,3620566.251970998,-2500.0,10762.608808590341,4995.9849763156308,-12809.707277635578,-361.56631856841773,-727.17533457273839,-5.1801469941346188,12826.697581178694,12918.74008507213,-12494.584630313688,12494.584630313688,-12918.74008507213,22240.408719505562,0.0
658296.95196600363,3620566.251970998,-2500.0,4669.2965112018228,6741.7370920199155,-10630.395325251066,-15.199975736074801,-712.95535238985599,-15.087515559813989,10218.121060936908,9768.3548156042525,-8655.202077753569,8655.202077753569,-9768.3548156042525,17950.851181005044,0.0
663296.95196600363,3620566.251970998,-2500.0,740.79358568678879,6975.0187718129646,-8470.006658510003,170.43320423119974,-626.99029783866604,-18.722581211620071,8377.0380391215785,6977.8870729786668,-5721.2538527798861,5721.2538527798861,-6977.8870729786668,15021.288486152946,0.0
668296.95196600363,3620566.251970998,-2500.0,-1636.1822070033688,6511.8239063784358,-6645.2386747620076,256.09496060485003,-523.62022902423894,-18.742503626574752,6993.0791816980418,4773.8149451478212,-3631.0030163007491,3631.0030163007491,-4773.8149451478212,12807.788442232351,0.0
673296.95196600363,3620566.251970998,-2500.0,-2977.4272095327988,5786.077237628675,-5199.0923343364293,284.20979048395151,-426.22246056810422,-17.06619522133861,5905.5053145355787,3129.6549016037802,-2195.6647447377131,2195.6647447377131,-3129.6549016037802,11022.69730402958,0.0
678296.95196600363,3620566.251970998,-2500.0,-3656.122342457727,5011.2802430092297,-4083.4954043628645,281.38823213663522,-342.79671002299892,-14.798451529939992,5027.3342835740468,1942.0818651602449,-1231.3275600070597,1231.3275600070597,-1942.0818651602449,9535.5622246422499,0.0
683296.95196600363,3620566.251970998,-2500.0,-3924.150184988714,4283.2746966071745,-3231.1582281147239,263.32865162040105,-274.49928359771661,-12.495355090793884,4306.7897111757438,1101.6375708529611,-593.4768286320143,593.4768286320143,-1101.6375708529611,8279.1266394188442,0.0
688296.95196600363,3620566.251970998,-2500.0,-3945.3869292792906,3638.3392006080057,-2580.3775304729979,238.89545438998431,-219.83191093307198,-10.400137535025667,3709.6584498247721,515.85164045690055,-177.74150351663241,177.74150351663241,-515.85164045690055,7211.4357442011897,0.0
693296.95196600363,3620566.251970998,-2500.0,-3824.1236979728387,3084.1149341629853,-2081.360167263183,212.88607205646548,-176.53681279641887,-8.594201508489725,3211.3506527827903,113.30536598318031,88.362622155819992,-88.362622155819992,-113.30536598318031,6301.6407676732333,0.0
698296.95196600363,3620566.251970998,-2500.0,-3625.7014345098719,2615.5039832333446,-1696.0319766735529,187.75550733334521,-142.38155893424477,-7.0819812099625379,2793.2310297270437,-158.82343273519805,254.23269877040812,-254.23269877040812,158.82343273519805,5524.8935465985014,0.0
703296.95196600363,3620566.251970998,-2500.0,-3390.459041273552,2222.5631773283199,-1395.9713855342563,164.64326066198191,-115.43432264323702,-5.8356420924395209,2440.8785601768486,-338.73994087356948,353.24177094043819,-353.24177094043819,338.73994087356948,4860.4244325173313,0.0
708296.95196600363,3620566.251970998,-2500.0,-3142.856198083703,1894.2689226888908,-1160.1659942406507,143.97008984923295,-94.120778976929898,-4.8169045005962463,2150.2388133733225,-453.75927542864838,407.8623183252721,-407.8623183252721,453.75927542864838,4290.7008592581951,0.0
713296.95196600363,3620566.251970998,-2500.0,-2897.3397505143062,1620.1903897693285,-973.11074888498172,125.77883750842315,-77.196236287749983,-3.9872810644034926,1913.6980788399007,-523.30025813953705,433.21738542812091,-433.21738542812091,523.30025813953705,3800.9291563275006,0.0
518296.95196600363,3625566.251970998,-2500.0,-5854.2740921276845,-1773.1252461486147,-1015.4459356461127,-253.33838457100222,-84.470957144400359,-7.875293835839754,3224.3672598288849,-4603.3962327907739,1025.4630360243214,-1025.4630360243214,4603.3962327907739,6241.0563346371973,0.0
523296.95196600363,3625566.251970998,-2500.0,-6658.8085367967515,-2172.8525320105646,-1236.7593781789853,-302.19779156526437,-108.11353759606946,-9.8546916415771335,3720.0023898378372,-5320.6050996752347,1089.2417230059268,-1089.2417230059268,5320.6050996752347,7213.1234715599512,0.0
528296.95196600363,3625566.251970998,-2500.0,-7589.7943026700596,-2680.3914676045565,-1527.09686573657,-362.13601426529272,-139.54917234932492,-12.412488209305575,4313.7277679049339,-6172.5155415043755,1132.9553120531236,-1132.9553120531236,6172.5155415043755,8380.8702841971426,0.0
533296.95196600363,3625566.251970998,-2500.0,-8661.6919193351096,-3328.1763159081597,-1913.691069873892,-435.73286273435303,-181.67769446592862,-15.729992414409136,5027.8320521433761,-7183.4428293100154,1137.8913502556411,-1137.8913502556411,7183.4428293100154,9789.9998562378314,0.0
538296.95196600363,3625566.251970998,-2500.0,-9884.0105006504073,-4158.2148244796663,-2436.2724303818936,-525.95881971444044,-238.54267092032629,-20.039910665758352,5889.4090545271711,-8378.106677511214,1073.4373290966955,-1073.4373290966955,8378.106677511214,11496.751989740162,0.0
543296.95196600363,3625566.251970998,-2500.0,-11254.244757040407,-5223.6865885281768,-3153.2332437260839,-635.96383614254205,-315.74730337820398,-25.629343332669944,6930.5851750796837,-9776.8784451450374,889.99993871655442,-889.99993871655442,9776.8784451450374,13569.015907931722,0.0
548296.95196600363,3625566.251970998,-2500.0,-12744.96968127231,-6588.9507887859572,-4150.6386640677874,-768.5062221831879,-420.93302512278245,-32.826442867661306,8187.712392306461,-11385.681915177307,508.04123993454596,-508.04123993454596,11385.681915177307,16085.860909030704,0.0
553296.95196600363,3625566.251970998,-2500.0,-14281.126402546835,-8324.9230109538021,-5554.7127618102622,-924.66896269481151,-564.17875119050075,-41.946047267104241,9698.2018686158062,-13175.917915354206,-198.2312073617577,198.2312073617577,13175.917915354206,19133.231170158342,0.0
558296.95196600363,3625566.251970998,-2500.0,-15701.797490196217,-10493.161514628504,-7547.1120387620258,-1101.2537414685173,-757.90327672828039,-53.14638923609499,11492.436242291966,-15046.605089541163,-1423.2037345462832,1423.2037345462832,15046.605089541163,22791.450060933133,0.0
563296.95196600363,3625566.251970998,-2500.0,-16700.108212357041,-13105.066449840086,-10377.591046270656,-1285.9228103217204,-1015.2371532005149,-66.113776703453837,13576.095974464291,-16756.997480230679,-3454.9121784794843,3454.9121784794843,16756.997480230679,27106.760976904119,0.0
568296.95196600363,3625566.251970998,-2500.0,-16739.926824493308,-16031.190446793378,-14355.212015214727,-1449.043602552292,-1344.6226985097344,-79.468909981207389,16137.172231176324,-17816.594644079058,-6686.6697514771204,6686.6697514771204,17816.594644079058,32035.100999359063,0.0
573296.95196600363,3625566.251970998,-2500.0,-14970.864914653041,-18822.878515296245,-19766.068509636698,-1532.201362938649,-1736.5118906611563,-89.87706482050146,19048.632535176264,-17332.784675163904,-11565.653289605874,11565.653289605874,17332.784675163904,37346.843960801205,0.0
578296.95196600363,3625566.251970998,-2500.0,-10227.533757955278,-20415.898213159133,-26597.845615916754,-1437.7229906295147,-2136.6218499574065,-91.365792981431383,22077.50624530865,-13876.845476146678,-18358.23081556175,18358.23081556175,13876.845476146678,42508.64079813772,0.0
583296.95196600363,3625566.251970998,-2500.0,-1325.4558655421499,-18784.435468361302,-33859.22289976586,-1034.3994980805885,-2404.3356152692331,-76.900473596407721,24929.619415895944,-5594.1034610259085,-26512.183289577846,26512.183289577846,5594.1034610259085,46687.713395146275,0.0
588296.95196600363,3625566.251970998,-2500.0,12024.357959982653,-10939.825285295308,-38311.135682954424,-209.76267599807002,-2275.4303462048374,-46.97763605123437,27508.298763606497,8938.7284561168417,-33416.004499507988,33416.004499507988,-8938.7284561168417,49461.76816425677,0.0
593296.95196600363,3625566.251970998,-2500.0,27660.620961964069,5786.8529285053592,-33045.494943135142,1002.1945793720663,-1389.8041261758397,-30.694953857303027,30945.574268147277,28573.827377942751,-32970.782230251243,32970.782230251243,-28573.827377942751,53668.241081511311,0.0
598296.95196600363,3625566.251970998,-2500.0,40006.640238093212,30371.212772461422,-7990.3218992334268,2234.7482381930063,525.17922132673198,-116.96914659509935,38759.634991604318,46875.447314123245,-16005.075473003906,16005.075473003906,-46875.447314123245,69071.285484892185,0.0
603296.95196600363,3625566.251970998,-2500.0,41943.738507693553,54308.94947989397,44683.692142121436,2641.6718685143178,3222.3845786621173,-484.48961953656999,54420.069626427678,52011.246990728003,24705.909004477086,-24705.909004477086,-52011.246990728003,104040.30865258322,0.0
608296.95196600363,3625566.251970998,-2500.0,29404.14309700346,61538.852159851522,121070.1464557039,1214.7722347328481,5243.0143647891327,-1390.5668272778641,77472.465526938278,31715.046989791168,85905.251859554483,-85905.251859554483,-31715.046989791168,153693.79917068369,1.0
613296.95196600363,3625566.251970998,-2500.0,7984.9443299312907,33827.885129788599,195979.50475187495,-1502.0510048391893,4342.7926743924709,-2846.7777880017925,102865.94731347739,-16868.221562287617,145195.29079597702,-145195.29079597702,16868.221562287617,202464.59256822575,0.0
618296.95196600363,3625566.251970998,-2500.0,1579.2413167855022,-29865.156139272254,219868.80184887053,-2692.1176759729597,1553.7516123665796,-3870.6213831524005,114811.4073496601,-68308.5814199671,157988.71708131692,-157988.71708131692,68308.5814199671,227100.08576198411,0.0
623296.95196600363,3625566.251970998,-2500.0,30289.688920541405,-84727.607281161545,160479.05313027275,-2373.5447398246088,1197.7265401147658,-3217.2003384522304,107007.16252302074,-73174.5207081072,98679.715596631009,-98679.715596631009,73174.5207081072,209742.05560088696,0.0
628296.95196600363,3625566.251970998,-2500.0,64698.506111944946,-84224.472657277365,65506.502608011702,-2985.8809836624641,2117.5970036224753,-1588.5891601393632,84279.616787872146,-29902.918202283043,17304.599756503703,-17304.599756503703,29902.918202283043,160529.3620768697,0.0
633296.95196600363,3625566.251970998,-2500.0,69447.06134673825,-48167.612950736599,1561.9145470997428,-3348.076942364522,1339.5475696168571,-460.08653636258236,58996.010359345579,11289.688381480866,-27412.116020646543,27412.116020646543,-11289.688381480866,108393.33151811307,0.0
638296.95196600363,3625566.251970998,-2500.0,51675.633513537585,-14997.855205854841,-22319.158800374807,-2492.5803054819912,-135.20547877158612,-61.231648621927363,39982.60740677928,27455.614294128325,-35404.806952410923,35404.806952410923,-27455.614294128325,70832.016824097853,0.0
643296.95196600363,3625566.251970998,-2500.0,30356.021361265477,3472.9803100335821,-25181.152740195666,-1255.73287061833,-1037.8130220171972,2.3874794755930377,28031.344835833013,26958.889129210591,-28341.435254105978,28341.435254105978,-26958.889129210591,48622.137827696148,0.0
648296.95196600363,3625566.251970998,-2500.0,14108.998761652725,10915.338798745055,-21178.720751994457,-311.79476590849885,-1297.6592581042737,-13.514921197953322,20787.560173574246,20806.773373265027,-19131.309980884693,19131.309980884693,-20806.773373265027,36181.411102675389,0.0
653296.95196600363,3625566.251970998,-2500.0,3818.4270784003975,12609.211915924367,-16216.702918413614,229.49102422901706,-1216.5656281118927,-30.037249004808793,16141.386944863589,14369.231104124501,-11840.91159784071,11840.91159784071,-14369.231104124501,28647.642104998198,0.0
658296.95196600363,3625566.251970998,-2500.0,-2032.3439832594183,11858.159158452503,-12039.030367562897,478.33042243101357,-1018.9285016396026,-35.919751156213216,12903.916582055755,9271.673285630055,-6884.4743094542528,6884.4743094542528,-9271.673285630055,23446.661489943875,0.0
663296.95196600363,3625566.251970998,-2500.0,-5051.6301745660967,10292.808954372182,-8894.3064924029495,557.32505241260924,-811.32739508231089,-34.732247834625923,10499.261484985931,5640.6002565095059,-3727.3825859416338,3727.3825859416338,-5640.6002565095059,19492.205609544249,0.0
668296.95196600363,3625566.251970998,-2500.0,-6396.0763958311281,8619.35741517315,-6617.2161626917232,550.01042396646653,-631.83190976061906,-30.48409023419137,8643.8013310869392,3181.4373433237356,-1782.7696175279502,1782.7696175279502,-3181.4373433237356,16338.986799475757,0.0
673296.95196600363,3625566.251970998,-2500.0,-6796.6420629652912,7104.3408227046393,-4984.7053952269016,504.40808414451681,-488.20406731969848,-25.487862139860546,7181.1233346926292,1562.6193399764979,-612.078784246547,612.078784246547,-1562.6193399764979,13775.196146530929,0.0
678296.95196600363,3625566.251970998,-2500.0,-6689.4278264746436,5822.1845658997909,-3810.5544051273673,445.70755083583532,-377.16266242156865,-20.790365430210827,6012.9375144232263,518.50195427621043,76.229584025976806,-76.229584025976806,-518.50195427621043,11673.760947628645,0.0
683296.95196600363,3625566.251970998,-2500.0,-6326.7258935250065,4770.1986211101721,-2957.9855804699778,386.17004761605313,-292.5488458120023,-16.759059164842053,5071.2229500229778,-141.3440523445266,467.20710486917471,-467.20710486917471,141.3440523445266,9943.6398844531468,0.0
688296.95196600363,3625566.251970998,-2500.0,-5851.3138770059013,3919.1386027329263,-2331.1255610117769,331.19949221839266,-228.3434987042672,-13.448889864720114,4306.2066561790389,-547.15177356145011,676.14841401809156,-676.14841401809156,547.15177356145011,8513.8976387726125,0.0
693296.95196600363,3625566.251970998,-2500.0,-5342.1095793882414,3234.267416907875,-1863.8337505605612,282.72991714647856,-179.55606072414236,-10.790656911302307,3680.5274851468744,-786.13090489828278,774.43257965878388,-774.43257965878388,786.13090489828278,7327.7249796875913,0.0
698296.95196600363,3625566.251970998,-2500.0,-4841.2255205272832,2683.3645423170792,-1510.558685619493,241.02716692510174,-142.31614591091704,-8.6787173573989556,3176.1178409559329,-916.16509905282885,806.20633700143105,-806.20633700143105,916.16509905282885,6339.3711476113185,0.0
703296.95196600363,3625566.251970998,-2500.0,-4369.761694966166,2239.1699219852503,-1239.7582648812072,205.61836953264157,-113.7123811037907,-7.0076670963432033,2774.9927804137692,-975.56083368263228,798.79381877167395,-798.79381877167395,975.56083368263228,5512.0216967348206,0.0
708296.95196600363,3625566.251970998,-2500.0,-3936.9640400201392,1879.5817521803549,-1029.3914832387172,175.75718166054449,-91.584168196194597,-5.6857743578434601,2435.0241605428278,-989.66212455491768,769.11011401477663,-769.11011401477663,989.66212455491768,4816.094642591931,0.0
713296.95196600363,3625566.251970998,-2500.0,-3545.5205702089734,1587.0529134388166,-863.88629426448585,150.6474080340156,-74.335359750122834,-4.637795173129164,2145.4902534802404,-975.24547401879079,727.60470075806995,-727.60470075806995,975.24547401879079,4227.8283564688209,0.0
513296.95196600363,3630566.251970998,-2500.0,-5602.3853705597076,-1193.8973524921266,-697.55439209294605,-230.49224600432129,-53.974269698522491,-6.780078398130426,2944.9193503354636,-4135.1519234206244,1237.8396399468252,-1237.8396399468252,4135.1519234206244,5689.1967525620985,0.0
518296.95196600363,3630566.251970998,-2500.0,-6423.8594398549421,-1472.7547910436956,-829.77641626891716,-276.2453151237915,-69.376056370714394,-8.4957301610398872,3401.6490701906109,-4803.2557315184822,1386.0144756937752,-1386.0144756937752,4803.2557315184822,6581.2592063757111,0.0
523296.95196600363,3630566.251970998,-2500.0,-7399.2200859173272,-1831.5786522760955,-1000.2756227820995,-333.22139958259879,-90.020742980293235,-10.730399812512406,3952.9281673554024,-5611.7736760932266,1548.9895241237398,-1548.9895241237398,5611.7736760932266,7660.2347679737713,0.0
528296.95196600363,3630566.251970998,-2500.0,-8560.7424190552138,-2297.4464840575897,-1224.0495912793638,-404.5858270590395,-117.98199641485603,-13.661833043435163,4622.8182181929542,-6595.3869703059263,1723.6189678937685,-1723.6189678937685,6595.3869703059263,8974.405424830833,0.0
533296.95196600363,3630566.251970998,-2500.0,-9946.3915171811568,-2907.7631010097916,-1523.3898636103529,-494.42914808350776,-156.25523864647576,-17.531240490071141,5442.3387652508081,-7797.5085710431676,1902.1765483687041,-1902.1765483687041,7797.5085710431676,10586.326233518757,0.0
538296.95196600363,3630566.251970998,-2500.0,-11599.024097862508,-3714.3774542825354,-1932.0271519993817,-607.9726991531885,-209.1957407642941,-22.662365520552754,6451.4759162346099,-9271.5667824362918,2068.5894563840538,-2068.5894563840538,9271.5667824362918,12577.134331788695,0.0
543296.95196600363,3630566.251970998,-2500.0,-13563.189464911698,-4789.1031361550849,-2501.8886817319667,-751.7160319855459,-283.15727027817661,-29.479169299313703,7701.5318660168787,-11081.124750694167,2191.7914497983766,-2191.7914497983766,11081.124750694167,15051.762047445171,0.0
548296.95196600363,3630566.251970998,-2500.0,-15876.832156464838,-6230.5931277346954,-3314.1732761272001,-933.35750232865018,-387.38854211396398,-38.508653007288927,9257.4926909704864,-13296.731283328443,2214.0399272801715,-2214.0399272801715,13296.731283328443,18144.585545908703,0.0
553296.95196600363,3630566.251970998,-2500.0,-18552.660103921578,-8171.4348723159255,-4497.4290493958561,-1161.1026493747497,-535.18954076741829,-50.335160500333402,11199.444119895172,-15984.873745030096,2030.5868981201256,-2030.5868981201256,15984.873745030096,22023.893875076912,0.0
558296.95196600363,3630566.251970998,-2500.0,-21539.411866988336,-10781.252392503384,-6256.411354587377,-1441.5439086396602,-745.10834800086343,-65.423712092369385,13620.596205765145,-19179.290855593954,1455.1039397133609,-1455.1039397133609,19179.290855593954,26890.913247583543,0.0
563296.95196600363,3630566.251970998,-2500.0,-24645.967816192184,-14253.630182194314,-8915.4313415217548,-1774.5175106356351,-1041.2905449164048,-83.637257817701055,16616.27693264612,-22815.096643580087,163.73139450790222,-163.73139450790222,22815.096643580087,32963.263472904357,0.0
568296.95196600363,3630566.251970998,-2500.0,-27402.644387769447,-18745.861758767751,-12973.674465558801,-2142.2464844908236,-1450.3733168367696,-103.11956681130808,20252.404561718937,-26589.770510516057,-2385.6348770535242,2385.6348770535242,26589.770510516057,40420.979867464011,0.0
573296.95196600363,3630566.251970998,-2500.0,-28835.218627290098,-24201.236171988356,-19141.382558822024,-2489.6052084603193,-1988.5811580181673,-118.12543206286246,24787.236512408355,-29696.333495102281,-7036.4907038796628,7036.4907038796628,29696.333495102281,49272.917202184981,0.0
578296.95196600363,3630566.251970998,-2500.0,-27180.976861483734,-29921.190712017942,-28230.999597998074,-2696.6467790271849,-2626.9375261118244,-116.05467154342526,30050.033360125792,-30387.842773874636,-14902.393628836926,14902.393628836926,30387.842773874636,59079.458522245986,0.0
583296.95196600363,3630566.251970998,-2500.0,-19794.609063091608,-33734.295267122827,-40530.687723207891,-2564.4770534808199,-3222.5649245495497,-77.783378065343413,35422.865379973802,-25511.214165353438,-26847.148409728256,26847.148409728256,25511.214165353438,68501.680671975701,0.0
588296.95196600363,3630566.251970998,-2500.0,-4013.321301225802,-30955.784863511832,-53872.092503492902,-1880.5437116284704,-3442.1545284394369,3.1771077614473313,39859.263819021122,-10797.222040811859,-41659.40763006753,41659.40763006753,10797.222040811859,74988.155513870777,0.0
593296.95196600363,3630566.251970998,-2500.0,19859.84110485977,-14792.437875710471,-59758.277604967552,-644.93004958283996,-2821.5452648624914,53.330208914324231,42535.714663975763,16132.981035996851,-52246.169858134264,52246.169858134264,-16132.981035996851,76393.49041177734,0.0
598296.95196600363,3630566.251970998,-2500.0,44535.339208944519,18055.021731711477,-40402.502777035988,625.78771916604001,-1145.2347880952334,-195.00957512859429,46166.747982673565,48886.784643369181,-42713.986292110152,42713.986292110152,-48886.784643369181,79993.766974349404,0.0
603296.95196600363,3630566.251970998,-2500.0,57873.078711441864,57277.727869327828,23393.635762281308,555.04321992863993,968.87209778304805,-1295.5658927182194,59826.653329808585,68735.898089566414,4016.3673710339717,-4016.3673710339717,-68735.898089566414,111783.77911102051,0.0
608296.95196600363,3630566.251970998,-2500.0,52208.78847043671,78882.33026588161,132072.23768482666,-3814.5211467858371,93.224295874598738,-4280.7165794240082,93028.027284105396,54947.579870524045,88231.42063549145,-88231.42063549145,-54947.579870524045,181084.58048786488,0.0
613296.95196600363,3630566.251970998,-2500.0,25158.595763176007,52343.668166987809,256260.02034810089,-11578.001493425019,-13164.820164713983,-10170.013081854062,141029.6368519777,-7496.4577424088347,185796.74901323637,-185796.74901323637,7496.4577424088347,268257.59541525965,0.0
618296.95196600363,3630566.251970998,-2500.0,8295.1582744961597,-50673.61855603804,309576.54582996678,-6060.7545595468828,-32823.577784006397,-15069.445117197807,172106.97596650876,-98073.692586154153,219471.64942699845,-219471.64942699845,98073.692586154153,330758.98502435791,0.0
623296.95196600363,3630566.251970998,-2500.0,67902.884189101867,-143982.3067935904,186535.74606273253,7892.9277063095833,-24258.359941711311,-11664.776320319443,158102.12652988845,-94639.730171418269,98771.300485277563,-98771.300485277563,94639.730171418269,306576.451814909,0.0
628296.95196600363,3630566.251970998,-2500.0,121155.09314514782,-104476.45026244859,17621.613116542088,4624.2936912571849,-4939.301007412053,-4526.255433204462,116746.36578697833,2839.8902155157193,-39087.653392203865,39087.653392203865,-2839.8902155157193,215374.28772344676,0.0
633296.95196600363,3630566.251970998,-2500.0,95991.183125391632,-26710.038854749724,-47448.05070357948,-925.27704768828562,-431.92314936550616,-846.88164425856121,76538.683066972517,53110.085462090341,-70047.986745054877,70047.986745054877,-53110.085462090341,134927.58571273281,0.0
638296.95196600363,3630566.251970998,-2500.0,49397.817975900427,13691.112557829738,-49010.279871391118,-1156.614788109511,-1530.6707517695988,-7.8423426510295133,51109.351757127399,50988.564454237938,-51154.934703779749,51154.934703779749,-50988.564454237938,88524.221318037162,0.0
643296.95196600363,3630566.251970998,-2500.0,16313.277732354887,25083.387512688307,-36304.88422133353,68.812994154827209,-2168.4884422227178,23.849810920130032,36405.506124800741,34949.482751871481,-29458.178062749088,29458.178062749088,-34949.482751871481,63863.502035833699,0.0
648296.95196600363,3630566.251970998,-2500.0,-1502.8655039071725,24563.715842455396,-24808.706897268094,882.27856165377523,-2037.9280693270357,-32.302274442525444,27251.373512105765,20869.941075500192,-15074.426915260283,15074.426915260283,-20869.941075500192,49035.911528635435,0.0
653296.95196600363,3630566.251970998,-2500.0,-9658.2308746227536,20634.945293227098,-16769.404757024266,1176.9784128787744,-1644.4261139144378,-58.6518095029016,21000.079182746493,11362.296135003604,-6848.926447412874,6848.926447412874,-11362.296135003604,38738.30321777286,0.0
658296.95196600363,3630566.251970998,-2500.0,-12662.359847220519,16416.912857021671,-11493.216178943407,1179.99781762209,-1248.6239062959569,-61.115742161065491,16479.625823949518,5508.9044645366093,-2417.4714112747342,2417.4714112747342,-5508.9044645366093,31029.422133622698,0.0
663296.95196600363,3630566.251970998,-2500.0,-13144.152702809484,12818.694760324946,-8058.2380838844356,1061.1212918035335,-927.33615056600001,-53.697314248085689,13110.737024123166,2057.6072329341996,-120.12011260267559,120.12011260267559,-2057.6072329341996,25091.118142346375,0.0
668296.95196600363,3630566.251970998,-2500.0,-12484.550031478248,9975.8781969785086,-5794.2875908270862,908.10067000024674,-685.79390724333621,-43.930119207049543,10554.921921954819,82.999741133344173,1014.6433847709965,-1014.6433847709965,-82.999741133344173,20463.062843131673,0.0
673296.95196600363,3630566.251970998,-2500.0,-11375.318515027169,7793.4617937598832,-4271.8183247672487,759.19290332636956,-509.3770652066172,-34.81488630913978,8590.3172489324988,-1007.1989641220489,1524.7852728798898,-1524.7852728798898,1007.1989641220489,16829.471904703129,0.0
678296.95196600363,3630566.251970998,-2500.0,-10150.770021618358,6132.6930431934679,-3224.4296263574588,628.24078367178765,-381.567328263994,-27.232264049564467,7062.8628061378549,-1573.7726960739858,1703.4544299943525,-1703.4544299943525,1573.7726960739858,13956.781566595078,0.0
683296.95196600363,3630566.251970998,-2500.0,-8964.5680558290842,4868.1838813398817,-2487.0970520762939,518.23663156595831,-288.80183379416673,-21.22768074275406,5862.7193810304962,-1832.8259965893049,1710.0121005025176,-1710.0121005025176,1832.8259965893049,11668.946385038609,0.0
688296.95196600363,3630566.251970998,-2500.0,-7880.489823152694,3900.3827141878296,-1956.373142337002,427.83244791398084,-221.01332157021113,-16.575866862368663,4924.3576245174581,-1913.2976663038273,1631.1464252074654,-1631.1464252074654,1913.2976663038273,9832.8111820426002,0.0
693296.95196600363,3630566.251970998,-2500.0,-6918.5007059142999,3154.1207992009154,-1566.2860003797873,354.26958316952613,-171.01906331233204,-13.002743211570108,4201.5416530998236,-1892.1750513803977,1513.9168994494712,-1513.9168994494712,1892.1750513803977,8347.5801309479375,0.0
698296.95196600363,3630566.251970998,-2500.0,-6077.9931849749664,2573.765844395497,-1273.9387740792915,294.61248691501498,-133.76750318886454,-10.262124377807881,3607.7293310300856,-1815.4767459516083,1383.6247207633969,-1383.6247207633969,1815.4767459516083,7136.7689813520519,0.0
703296.95196600363,3630566.251970998,-2500.0,-5349.4507913674952,2118.4042407264251,-1050.8802464543814,246.21478185587208,-105.71477642883228,-8.154778680937568,3116.4906674277172,-1710.674805147901,1253.553720035108,-1253.553720035108,1710.674805147901,6142.1100358591721,0.0
708296.95196600363,3630566.251970998,-2500.0,-4720.2154337015145,1757.9256888430309,-877.86836322426075,206.85089027621353,-84.365580721521724,-6.5267203197982795,2707.5598366395743,-1594.067772541172,1130.3333116185054,-1130.3333116185054,1594.067772541172,5318.9742419193717,0.0
713296.95196600363,3630566.251970998,-2500.0,-4177.2564138213993,1470.0717361343495,-741.64242339888142,174.71153602900293,-67.950773158700798,-5.2614273834548468,2365.0417525970888,-1475.1889754695844,1016.9217831346429,-1016.9217831346429,1475.1889754695844,4632.966471710979,0.0
513296.95196600363,3635566.251970998,-2500.0,-5936.7037587056147,-859.81191388400748,-569.60758982519872,-243.40704729975897,-38.470061526439132,-7.1144429800509128,3041.9816889111403,-4152.5777990602264,1480.5987313876976,-1480.5987313876976,4152.5777990602264,5877.1664116656102,0.0
518296.95196600363,3635566.251970998,-2500.0,-6863.5643164924832,-1076.2080553372266,-664.57044858609402,-293.89455725431947,-50.183137288009711,-8.9708906806945272,3530.670659130119,-4853.76995147257,1698.3716924665773,-1698.3716924665773,4853.76995147257,6831.0132340084147,0.0
523296.95196600363,3635566.251970998,-2500.0,-7983.2524614257745,-1359.7084947368596,-784.78301522159541,-357.60955056306062,-66.141576238240319,-11.413427244326666,4126.1137616580354,-5714.1808841466209,1955.0049722141362,-1955.0049722141362,5714.1808841466209,7995.3949061621315,0.0
528296.95196600363,3635566.251970998,-2500.0,-9344.7336336127755,-1735.3604695939316,-939.99518151455845,-438.68596613268664,-88.148924495085311,-14.65527474440821,4857.7966601749704,-6778.7747460171668,2257.0387348211957,-2257.0387348211957,6778.7747460171668,9429.1143271536312,0.0
533296.95196600363,3635566.251970998,-2500.0,-11010.777738487517,-2239.1490452538187,-1144.9372211176997,-542.70602333559566,-118.88629383899779,-18.993219415850049,5764.9329848214793,-8107.2478526826508,2610.7929791290749,-2610.7929791290749,8107.2478526826508,11210.633329026959,0.0
538296.95196600363,3635566.251970998,-2500.0,-13061.494848263454,-2923.3982984092031,-1422.4501927386273,-677.2113745714546,-162.38595530268941,-24.838059289986091,6900.0695357711957,-9779.0999113855032,3020.6634472329606,-3020.6634472329606,9779.0999113855032,13445.492790061173,0.0
543296.95196600363,3635566.251970998,-2500.0,-15597.854149554452,-3865.036632167597,-1808.9191642376472,-852.33711346227619,-224.7730857460667,-32.748423496099051,8334.0363641956919,-11900.06620615278,3485.4057778690831,-3485.4057778690831,11900.06620615278,16276.594926017004,0.0
548296.95196600363,3635566.251970998,-2500.0,-18743.660381754416,-5178.1789192794595,-2363.912399291959,-1081.4916748254511,-315.41407725766601,-43.452745231739122,10162.582479601147,-14609.486199159346,3990.337216019775,-3990.337216019775,14609.486199159346,19898.169838476104,0.0
553296.95196600363,3635566.251970998,-2500.0,-22642.035324875589,-7032.8803532070224,-3187.6245423688056,-1381.7920584850131,-448.63494233541826,-57.812284847917653,12514.785916877398,-18086.549397769228,4491.2795931745313,-4491.2795931745313,18086.549397769228,24573.859342652835,0.0
558296.95196600363,3635566.251970998,-2500.0,-27436.949980614234,-9681.5651550744478,-4452.8857458215271,-1773.4245862451626,-646.08038776574926,-76.590039136694131,15562.359447406763,-22548.972205548329,4881.9303993731428,-4881.9303993731428,22548.972205548329,30657.620748222394,0.0
563296.95196600363,3635566.251970998,-2500.0,-33218.259120661998,-13491.125297220109,-6464.0854925029053,-2275.8417531860387,-939.23772830900009,-99.674280360969973,19526.060445351675,-28226.519042312706,4928.5594807628222,-4928.5594807628222,28226.519042312706,38610.650786498256,0.0
568296.95196600363,3635566.251970998,-2500.0,-39883.841090447931,-18964.434443203249,-9763.4347115343426,-2896.0805051164302,-1369.6426589732832,-123.90470067113353,24667.713522806764,-35265.010116029116,4143.1959310953171,-4143.1959310953171,35265.010116029116,48992.294411039882,0.0
573296.95196600363,3635566.251970998,-2500.0,-46828.520782059779,-26688.682260878897,-15308.481151301934,-3600.2754048877928,-1978.2419971136942,-137.68664638763181,31243.725382402299,-43457.604684220372,1554.1976845421523,-1554.1976845421523,43457.604684220372,62364.521195122485,0.0
578296.95196600363,3635566.251970998,-2500.0,-52323.090328661616,-37017.790524091979,-24702.134948867308,-4258.2466407593101,-2760.715471333096,-109.75939301318829,39690.355944691757,-51594.854378088887,-4636.9161697749078,4636.9161697749078,51594.854378088887,78963.156651962665,0.0
583296.95196600363,3635566.251970998,-2500.0,-52545.016394555292,-49005.126353292901,-40196.497521521393,-4579.3122953409375,-3545.4456353044538,25.644271940337571,49591.529271361062,-56152.98305895552,-17267.537965737836,17267.537965737836,56152.98305895552,97837.204427157951,0.0
588296.95196600363,3635566.251970998,-2500.0,-41050.8637649007,-57805.983374719675,-63205.741800600335,-4191.3984495159848,-3801.3526608295701,350.88913544938589,59050.916204088047,-49584.50514966526,-39014.16396795075,39014.16396795075,49584.50514966526,115077.55645984461,0.0
593296.95196600363,3635566.251970998,-2500.0,-12094.674579967981,-51228.902177470263,-87836.555318599378,-3229.75906631725,-2813.6971895579718,776.96214318217801,63876.090887851125,-21576.171652681311,-66142.742109845334,66142.742109845334,21576.171652681311,121678.59082346017,0.0
598296.95196600363,3635566.251970998,-2500.0,27712.825531667459,-14564.343677024342,-87285.640782408431,-3012.3476139722916,-1370.230308349187,559.82032896081284,59467.916067718397,27403.137232347723,-75111.529166336724,75111.529166336724,-27403.137232347723,107278.11808547849,0.0
603296.95196600363,3635566.251970998,-2500.0,55511.249003029741,40745.272008178712,-16630.50847451813,-4320.4723384046201,-2689.2394174486494,-1854.2953868216914,54591.94927112016,65370.376268299806,-26438.569949296016,26438.569949296016,-65370.376268299806,97030.998690255903,0.0
608296.95196600363,3635566.251970998,-2500.0,70909.927253208181,67994.38037333198,126179.99422715876,-12836.799104863949,-9282.5500788229292,-8978.5349168956982,92084.514860928248,60786.332735674761,76431.748616638666,-76431.748616638666,-60786.332735674761,168745.19867104411,0.0
613296.95196600363,3635566.251970998,-2500.0,83116.737404653628,51000.208086225772,288861.22819047526,-47288.765668022344,-58453.715215604454,-26585.498505442229,181528.3637957529,20517.998640749691,190177.17177748709,-190177.17177748709,-20517.998640749691,318901.65088163392,0.0
618296.95196600363,3635566.251970998,-2500.0,64229.174055992269,-78922.136609059293,405182.13239418133,-18421.624182390548,-172577.7553324975,-40504.221530436625,293177.17908983672,-103294.19361868747,267958.60344936501,-267958.60344936501,103294.19361868747,521517.58318660903,0.0
623296.95196600363,3635566.251970998,-2500.0,187633.77309054378,-234767.1945139509,141033.50375342162,71707.869543629815,-96639.225314555748,-25675.9688711198,259392.94819465588,-69417.6660162677,15208.497506346659,-15208.497506346659,69417.6660162677,496510.54552940035,0.0
628296.95196600363,3635566.251970998,-2500.0,204543.776418347,-53853.436063919245,-116700.49796530665,25305.01322235521,-430.6764253391699,-5636.035047676186,170880.32738319191,118708.26238888735,-160403.5161789821,160403.5161789821,-118708.26238888735,300793.18676534225,0.0
633296.95196600363,3635566.251970998,-2500.0,80801.852940742028,50570.035639447655,-103397.02051004537,756.20071917978976,2987.2084958986961,725.53011161435836,105112.59923512794,107241.61533946966,-97699.687958219321,97699.687958219321,-107241.61533946966,182460.80477535166,0.0
638296.95196600363,3635566.251970998,-2500.0,6629.7418830948818,61176.833555979676,-61617.298264275836,433.0345411289502,-1838.9188908702145,717.4236148579414,70070.414795253106,58427.23411255797,-40901.272719527478,40901.272719527478,-58427.23411255797,124609.94378690858,0.0
643296.95196600363,3635566.251970998,-2500.0,-22291.450485750061,49025.767925042543,-35557.087044021609,2105.0897996599306,-2872.7267263541639,204.35578518447721,49554.652056702049,26438.835810946475,-13339.578560271721,13339.578560271721,-26438.835810946475,90714.327704052819,0.0
648296.95196600363,3635566.251970998,-2500.0,-30106.505157657459,35819.972815399022,-21243.790064672994,2597.5264801161902,-2451.5781964118873,-22.453435705778574,36196.553224592237,9605.0954748728436,-1622.1611687731925,1622.1611687731925,-9605.0954748728436,67856.134604515159,0.0
653296.95196600363,3635566.251970998,-2500.0,-29680.734172108889,25665.81932841141,-13323.96437018036,2414.6562500902887,-1818.9887358842971,-84.954288773024018,27031.634460632216,1382.2856878572011,2956.5048186116537,-2956.5048186116537,-1382.2856878572011,51604.103000381387,0.0
658296.95196600363,3635566.251970998,-2500.0,-26519.345852646566,18473.984197728107,-8771.7075740260334,2025.9269412480414,-1296.5650003436435,-87.612682980915054,20570.477067957079,-2414.437195289684,4461.4473639834996,-4461.4473639834996,2414.437195289684,39821.288303830806,0.0
663296.95196600363,3635566.251970998,-2500.0,-22794.206526159935,13474.043229676525,-6036.1128116532773,1631.4606203777726,-918.64478315522126,-73.632637158761682,15924.731165093948,-4001.907025478672,4679.1072632374699,-4679.1072632374699,4001.907025478672,31168.428179111863,0.0
668296.95196600363,3635566.251970998,-2500.0,-19295.07110714378,9986.0278284301348,-4319.0063688539776,1294.1552882383257,-655.69784342307116,-57.756229167749566,12524.962641199154,-4502.9848884425364,4387.8878888811769,-4387.8878888811769,4502.9848884425364,24733.259264455795,0.0
673296.95196600363,3635566.251970998,-2500.0,-16258.944876386984,7523.6677138024988,-3196.8353453975828,1023.5848475082382,-474.00607106085994,-44.176786366403917,9995.3159906736109,-4482.4384488229371,3926.0593621116022,-3926.0593621116022,4482.4384488229371,19883.970516241679,0.0
678296.95196600363,3635566.251970998,-2500.0,-13710.788352562997,5759.1164828203109,-2436.2289049611882,812.03436356723739,-347.69774864766265,-33.558515774188322,8098.3045793550527,-4224.93169833717,3438.0151588886347,-3438.0151588886347,4224.93169833717,16180.874959551102,0.0
683296.95196600363,3635566.251970998,-2500.0,-11601.73030964232,4474.5115815129357,-1903.6061202895739,648.05668474529898,-258.87234965908294,-25.534805430586399,6699.1322343125112,-3873.8386998005512,2981.9115240756269,-2981.9115240756269,3873.8386998005512,13316.12827601296,0.0
688296.95196600363,3635566.251970998,-2500.0,-9864.0355691531131,3524.6724930856844,-1519.6661308299558,520.99960831742192,-195.54516481651879,-19.542876670782739,5594.8040667697896,-3500.5132438706005,2577.5466617177408,-2577.5466617177408,3500.5132438706005,11072.282411373404,0.0
693296.95196600363,3635566.251970998,-2500.0,-8431.8668058345629,2811.8781793683702,-1235.7093747850217,422.16602983631134,-149.74729166948302,-15.0743068890031,4713.9616463120337,-3139.2655418321278,2228.0076220964952,-2228.0076220964952,3139.2655418321278,9294.1075831421731,0.0
698296.95196600363,3635566.251970998,-2500.0,-7248.0397203978337,2269.4759236546483,-1020.8773903801857,344.8172586249716,-116.15608679483061,-11.728803173637216,4004.4058631483126,-2805.2855687038646,1929.5423681591228,-1929.5423681591228,2805.2855687038646,7869.4853746782355,0.0
703296.95196600363,3635566.251970998,-2500.0,-6265.2340799026179,1851.347460496414,-855.04772488741423,283.8477799915961,-91.181722619855805,-9.2076793503194594,3427.4537030487495,-2503.9566455965341,1676.0472279482592,-1676.0472279482592,2503.9566455965341,6716.4594330804202,0.0
708296.95196600363,3635566.251970998,-2500.0,-5445.1710554394786,1525.1172275500737,-724.74954851401048,235.42200342459918,-72.373695918927822,-7.2927369795899297,2954.1741246260153,-2235.7454229573627,1461.0564005078372,-1461.0564005078372,2235.7454229573627,5774.4050889161881,0.0
713296.95196600363,3635566.251970998,-2500.0,-4757.2012219343833,1267.733125403742,-620.7457579642878,196.66180424758284,-58.037347134390707,-5.8258800286422048,2562.7216753959792,-1998.7812396886341,1278.5657416447868,-1278.5657416447868,1998.7812396886341,4997.9549196800426,0.0
718296.95196600363,3635566.251970998,-2500.0,-4176.8735275297176,1062.5573583396326,-536.56179971690926,165.40162506836887,-46.985206159963916,-4.6925589797371465,2236.4426278877945,-1790.2132222789439,1123.3180016292974,-1123.3180016292974,1790.2132222789439,4352.7812419666543,0.0
513296.95196600363,3640566.251970998,-2500.0,-6134.5113586848829,-470.29019297844718,-474.69635331991515,-251.08787959355385,-20.713383305081095,-7.3128859364540828,3093.2821159245977,-4040.570263933163,1659.2521973396053,-1659.2521973396053,4040.570263933163,5979.230574405844,0.0
518296.95196600363,3640566.251970998,-2500.0,-7132.4075566327829,-603.34920725411337,-539.90286983258102,-304.71855847624226,-27.774848165336724,-9.2610828234710745,3601.9750436675158,-4737.8912641394199,1931.8421318190719,-1931.8421318190719,4737.8912641394199,6972.3685031247705,0.0
523296.95196600363,3640566.251970998,-2500.0,-8352.1199574069324,-781.45686287558487,-618.92880712668591,-373.02662952018511,-37.609921084992884,-11.842401971160864,4225.8917580637763,-5600.5812239276356,2263.8366229421017,-2263.8366229421017,5600.5812239276356,8192.6326104002183,0.0
528296.95196600363,3640566.251970998,-2500.0,-9856.3300598246551,-1022.9657566095846,-716.29712321514967,-460.90679272029382,-51.486409681546242,-15.296556264481993,4998.6242078999339,-6678.9430107285216,2670.9557033352294,-2670.9557033352294,6678.9430107285216,9706.8741998206115,0.0
533296.95196600363,3640566.251970998,-2500.0,-11729.013270492766,-1355.1060253772177,-838.73769852575936,-575.15212615040275,-71.339372321521594,-19.963012053971788,5965.7868657118461,-8041.9616721597476,3173.4787767582229,-3173.4787767582229,8041.9616721597476,11606.109633741766,0.0
538296.95196600363,3640566.251970998,-2500.0,-14083.62553339988,-1818.9951029118665,-996.65728854848294,-725.25939552657883,-100.16701788969064,-26.32097640753776,7190.0877516797864,-9785.4008721458194,3797.3664184123527,-3797.3664184123527,9785.4008721458194,14015.826209121329,0.0
543296.95196600363,3640566.251970998,-2500.0,-17074.493981825897,-2477.8776994598434,-1206.8347778214113,-924.56170162916419,-142.68218899362452,-35.037210840971071,8758.8032184466301,-12043.759550237599,4575.204761009064,-4575.204761009064,12043.759550237599,17111.240572305211,0.0
548296.95196600363,3640566.251970998,-2500.0,-20912.274522113472,-3430.9024927223263,-1497.5497369200784,-1191.7495145838679,-206.38506897267106,-47.004566092276704,10794.838740880241,-15007.878758322229,5546.1222971883426,-5546.1222971883426,15007.878758322229,21139.995645880572,0.0
553296.95196600363,3640566.251970998,-2500.0,-25883.688388726503,-4836.4758639697839,-1918.711920278593,-1552.6913709796704,-303.30414623589303,-63.30601107131622,13473.027418294851,-18950.419489359294,6752.4212710575694,-6752.4212710575694,18950.419489359294,26455.820063248069,0.0
558296.95196600363,3640566.251970998,-2500.0,-32372.982258180906,-6952.1311864146819,-2562.6207489249646,-2041.923086598867,-452.68482956726615,-84.89882556738128,17043.656156170899,-24260.92411078174,8227.1686651724704,-8227.1686651724704,24260.92411078174,33567.514801301382,0.0
563296.95196600363,3640566.251970998,-2500.0,-40873.657613364157,-10202.105305596109,-3608.0229901437156,-2701.5149967340226,-684.56730906993823,-111.39650586244409,21864.576898028783,-31487.828041172066,9958.3617573646879,-9958.3617573646879,31487.828041172066,43206.564670812892,0.0
568296.95196600363,3640566.251970998,-2500.0,-51953.000749314604,-15287.323022439117,-5416.429204349608,-3570.369861797692,-1042.1994205222404,-137.13608287480156,28438.814511638488,-41367.158845466431,11794.179431852361,-11794.179431852361,41367.158845466431,56407.548487770262,0.0
573296.95196600363,3640566.251970998,-2500.0,-66061.328169427288,-23341.991774151116,-8746.2074217323279,-4645.2576537095638,-1572.9043877967142,-139.4552669826609,37439.552535645933,-54758.314470294645,13204.365486802311,-13204.365486802311,54758.314470294645,74559.368080558546,0.0
578296.95196600363,3640566.251970998,-2500.0,-82903.041254110009,-36056.958390908068,-15221.169195644632,-5771.5487441647674,-2267.2308806747565,-46.308702530190871,49739.452089643448,-72226.421058325417,12710.859400221991,-12710.859400221991,72226.421058325417,99266.51620890449,0.0
583296.95196600363,3640566.251970998,-2500.0,-99745.874747961177,-55307.831811746444,-28253.226762599395,-6412.4959115357842,-2819.0491543212538,340.21684131371921,66165.400111485986,-92531.20803564231,6681.7450470095937,-6681.7450470095937,92531.20803564231,131518.34448605258,0.0
588296.95196600363,3640566.251970998,-2500.0,-107918.99496579218,-80493.591447942745,-54133.810682057774,-5488.6290629884361,-1955.7472864568927,1447.6298066789391,85388.980279299649,-108433.54186230982,-12357.822987523403,12357.822987523403,108433.54186230982,168852.31824456551,0.0
593296.95196600363,3640566.251970998,-2500.0,-90096.99904027782,-99095.22916241303,-98863.949649798509,-2848.1117158739721,3127.6244273128186,3667.8921182860977,101057.61333392208,-99478.748807404612,-53277.388737706598,53277.388737706598,99478.748807404612,198000.05318087165,0.0
598296.95196600363,3640566.251970998,-2500.0,-37602.276461109395,-73065.369258955398,-140775.32609743124,-4692.6400095058734,10548.713596304789,5517.556444214948,95683.895481070605,-40008.560987724813,-98905.771287602431,98905.771287602431,40008.560987724813,182670.0196061809,0.0
603296.95196600363,3640566.251970998,-2500.0,-1751.9517864168506,10561.774640484626,-75715.657115818525,-11784.998101714838,-4605.1642777363822,2887.7887067822066,45537.454648204206,22950.555994130023,-53970.360097969162,53970.360097969162,-22950.555994130023,81549.148996533942,0.0
608296.95196600363,3640566.251970998,-2500.0,8187.7100287606027,14533.037308573957,143405.9253872596,15907.817058540708,-33407.357690016892,-6955.3217820492546,88041.715843245242,-17623.21134561098,104345.18372020265,-104345.18372020265,17623.21134561098,159065.54940703756,0.0
613296.95196600363,3640566.251970998,-2500.0,184746.26605988009,-97331.182891156699,260348.17785058409,-37675.564718203052,-68574.809775740156,-39871.88000012697,199806.28791685309,-7402.3850419361552,118927.05668349269,-118927.05668349269,7402.3850419361552,346318.43366717163,0.0
618296.95196600363,3640566.251970998,-2500.0,413759.52479700331,-183795.6284855392,257965.1142166568,-30538.082855945227,-548773.18329063663,112512.92359969884,586708.69592114829,79304.755528032445,30867.438288810958,-30867.438288810958,-79304.755528032445,1037152.4088530516,1.0
623296.95196600363,3640566.251970998,-2500.0,755258.22592229268,-314255.80874759966,-228673.97075033016,252557.22795192755,45774.360451624227,-25290.702813840377,634682.93535717868,316529.85442310985,-456045.19729209325,456045.19729209325,-316529.85442310985,1141614.4060626193,0.0
628296.95196600363,3640566.251970998,-2500.0,78177.916157179279,212159.2494244682,-222984.26319088382,-23654.736912306769,72698.292475753566,10483.389323405487,268557.12529328396,239239.49335982697,-167214.20295972994,167214.20295972994,-239239.49335982697,476930.37465926993,0.0
633296.95196600363,3640566.251970998,-2500.0,-75548.240344846548,147419.69269804287,-81062.447476777554,-15530.796697192682,12269.677520433683,7704.1510217982386,148316.99216376813,68342.11200841135,-18227.232672268721,18227.232672268721,-68342.11200841135,271649.3831427822,0.0
638296.95196600363,3640566.251970998,-2500.0,-94932.036215277141,90838.225437617861,-35927.650994666838,-37.141817427988627,-1110.2165208931769,2485.8608427312874,95525.472180998986,8687.6283231034286,15329.467194599132,-15329.467194599132,-8687.6283231034286,178835.49004533316,0.0
643296.95196600363,3640566.251970998,-2500.0,-83204.362958364029,56347.387626021533,-18675.857969264955,4275.3291776908927,-2713.4486732002047,555.81425079630367,65042.102929326378,-10635.861869749693,20330.028407572405,-20330.028407572405,10635.861869749693,124003.16220153208,0.0
648296.95196600363,3640566.251970998,-2500.0,-66800.422349255503,36015.560344389698,-10937.85748666709,4485.0912290954357,-2219.8670010735732,14.442159083223309,45724.925363767092,-15541.980684924978,18302.095511161191,-18302.095511161191,15541.980684924978,88424.520859209864,0.0
653296.95196600363,3640566.251970998,-2500.0,-52377.540109179936,23820.020608735631,-7010.0336691263319,3707.5809780853479,-1573.7014391889859,-105.94207013611961,33022.265602989472,-15456.94508400739,15021.726104854783,-15021.726104854783,15456.94508400739,64575.124975980732,0.0
658296.95196600363,3640566.251970998,-2500.0,-41010.561251454019,16278.403165518796,-4812.7827389077465,2866.5156490640661,-1084.4028590697276,-111.82638660770235,24441.75304143926,-13820.887608939489,12000.77834229723,-12000.77834229723,13820.887608939489,48225.305495621971,0.0
663296.95196600363,3640566.251970998,-2500.0,-32341.135977570983,11459.882260597389,-3483.969808806673,2176.1516724825256,-750.00433761972931,-91.843766973197631,18498.746643993374,-11878.692820014439,9543.0523827755605,-9543.0523827755605,11878.692820014439,36769.699962530241,0.0
668296.95196600363,3640566.251970998,-2500.0,-25770.63823817467,8283.692231418845,-2627.8335207764708,1651.7944944820802,-526.2152599494151,-70.19725750711261,14286.733941725166,-10058.622467527484,7621.0791977479257,-7621.0791977479257,10058.622467527484,28569.1519585692,0.0
673296.95196600363,3640566.251970998,-2500.0,-20768.867044120903,6129.3766628950261,-2046.9574852429614,1262.8796982122019,-375.77487246420543,-52.4712355059713,11349.03423105245,-8483.1414648529226,6134.5427165843757,-6134.5427165843757,8483.1414648529226,22577.521002158763,0.0
678296.95196600363,3640566.251970998,-2500.0,-16927.212503737381,4630.0236303898491,-1635.7706735355678,975.43228828646625,-273.25223375413577,-39.089456724787247,9146.6455637013205,-7162.6835527102521,4983.9788126299936,-4983.9788126299936,7162.6835527102521,18115.819146634105,0.0
683296.95196600363,3640566.251970998,-2500.0,-13944.987668355467,3562.1077155092994,-1334.3673328954708,761.88615744105937,-202.20105483757371,-29.259972155560753,7467.8957864229606,-6070.2355032753403,4088.170883546607,-4088.170883546607,6070.2355032753403,14734.964043817181,0.0
688296.95196600363,3640566.251970998,-2500.0,-11604.062474018416,2785.5581626875,-1106.9682868600707,601.81907726168652,-152.09315111990179,-22.086995022846516,6168.9963803297405,-5169.8911435821437,3384.9556443147112,-3384.9556443147112,5169.8911435821437,12132.106713675887,0.0
693296.95196600363,3640566.251970998,-2500.0,-9746.3121270362608,2210.2753968366414,-931.23257653760584,480.57423526060251,-116.14761411294825,-16.838584572910676,5150.1056334918876,-4427.2593596703782,2827.8700268503426,-2827.8700268503426,4427.2593596703782,10099.082988816002,0.0
698296.95196600363,3640566.251970998,-2500.0,-8256.4785785776821,1776.8964273279487,-792.65913082646125,387.7267667280741,-89.941094593198059,-12.971400149370931,4340.7620746567836,-3812.7038986821412,2382.4217762619323,-2382.4217762619323,3812.7038986821412,8490.1889986120477,0.0
703296.95196600363,3640566.251970998,-2500.0,-7049.8040050438922,1445.4374787913341,-681.5091981490159,315.85077460544989,-70.543274424050153,-10.096058025396454,3690.4376394149235,-3301.7995479198103,2022.9651890855016,-2022.9651890855016,3301.7995479198103,7201.6535515966771,0.0
708296.95196600363,3640566.251970998,-2500.0,-6063.3738964433733,1188.4277826858927,-591.04785518637823,259.62483689806061,-55.981655314631887,-7.9370652213724471,3162.3698834316156,-2874.8464259099674,1730.3408020381776,-1730.3408020381776,2874.8464259099674,6158.412266569524,0.0
713296.95196600363,3640566.251970998,-2500.0,-5249.9840894991694,986.64171713175813,-516.49351661643811,215.20144652751523,-44.906930989329673,-6.2995563612001089,2729.4245241218869,-2516.0880738965957,1490.1244738028358,-1490.1244738028358,2516.0880738965957,5305.3369073914464,0.0
718296.95196600363,3640566.251970998,-2500.0,-4573.8570648947371,826.39767841378705,-454.37365720587439,179.7717464196173,-36.3817809621439,-5.0452347154898654,2371.312961059652,-2212.9604006071468,1291.3690643950608,-1291.3690643950608,2212.9604006071468,4601.3872333881036,0.0
513296.95196600363,3645566.251970998,-2500.0,-6174.9547504469183,-48.557373664722746,-423.80184225196746,-252.7686518542086,-1.6599653003487094,-7.35682992552674,3094.3458766528374,-3798.9410649290685,1756.1903853677347,-1756.1903853677347,3798.9410649290685,5986.9009396867305,0.0
518296.95196600363,3645566.251970998,-2500.0,-7200.0235986835387,-84.66491073055235,-471.71817064873005,-307.5615871442339,-3.4549030333578328,-9.3372953135659245,3609.0067377116793,-4453.1559000701754,2061.1800107220724,-2061.1800107220724,4453.1559000701754,6992.8715418050888,0.0
523296.95196600363,3645566.251970998,-2500.0,-8460.9219166174753,-137.12356608357419,-526.22726194548818,-377.70089560366739,-6.2201992984049319,-11.971247138118411,4242.510852296914,-5264.1902350482624,2438.7205598054024,-2438.7205598054024,5264.1902350482624,8233.3955056741088,0.0
528296.95196600363,3645566.251970998,-2500.0,-10028.034759768001,-213.8364265610048,-588.215552709956,-468.48563422565093,-10.484498015450489,-15.511458598691126,5030.5554418730817,-6281.0874251490704,2910.9318095679346,-2910.9318095679346,6281.0874251490704,9779.5881274930161,0.0
533296.95196600363,3645566.251970998,-2500.0,-11997.812107133712,-327.0774812413668,-658.60938995979984,-587.38114757434585,-17.092176642886184,-20.319114512690312,6022.198075937451,-7572.0709396664415,3508.1798389858677,-3508.1798389858677,7572.0709396664415,11729.428837922182,0.0
538296.95196600363,3645566.251970998,-2500.0,-14504.329784037091,-496.29377502594747,-738.33784712372244,-745.01957930390552,-27.412554034762081,-26.909320624632844,7285.8880586806836,-9233.6339626722965,4272.6810005914613,-4272.6810005914613,9233.6339626722965,14220.00433591143,0.0
543296.95196600363,3645566.251970998,-2500.0,-17736.766422670535,-752.98499926420186,-828.31316651529096,-956.68040765152978,-43.700110786779511,-36.006683585241973,8918.6801638596862,-11404.696924024161,5263.8531170155275,-5263.8531170155275,11404.696924024161,17446.278077091498,0.0
548296.95196600363,3645566.251970998,-2500.0,-21966.125333517532,-1149.4309455138455,-929.54233527704946,-1244.4329252197774,-69.718393015861409,-48.591198688416654,11060.528421480803,-14289.05831850002,6566.2553441671862,-6566.2553441671862,14289.05831850002,21690.322662970226,0.0
553296.95196600363,3645566.251970998,-2500.0,-27586.36513671821,-1774.7441270273814,-1043.7396609722723,-1640.0498135135883,-111.81199116429181,-65.852438873008737,13916.757764010534,-18191.580926945349,8301.1998093769871,-8301.1998093769871,18191.580926945349,27367.478344639934,0.0
558296.95196600363,3645566.251970998,-2500.0,-35177.519551774312,-2785.2761074931318,-1175.6087140674224,-2188.3092054433023,-180.67514863115775,-88.772431489080986,17793.698337908518,-23577.231367848828,10642.955392128164,-10642.955392128164,23577.231367848828,35099.899930693624,0.0
563296.95196600363,3645566.251970998,-2500.0,-45600.274706243101,-4463.8747413209903,-1340.4047340496584,-2948.3351006942589,-293.89303797379091,-116.41571225247328,23155.142330665974,-31167.651370326137,13838.487561946036,-13838.487561946036,31167.651370326137,45833.650586691932,0.0
568296.95196600363,3645566.251970998,-2500.0,-60127.216398739773,-7338.2830744936246,-1588.1421291711129,-3983.7006765593451,-477.77850112706727,-139.91484429376385,30709.939209834403,-42095.954598642194,18220.825098162706,-18220.825098162706,42095.954598642194,61020.84962346284,0.0
573296.95196600363,3645566.251970998,-2500.0,-80583.530732625921,-12420.846225489249,-2081.1655079823063,-5308.9490707824143,-758.78773618423781,-122.24590449942235,41542.024277690631,-58135.483432131165,24173.131720085876,-24173.131720085876,58135.483432131165,82881.55943332969,0.0
578296.95196600363,3645566.251970998,-2500.0,-109329.87340424996,-21684.694650131813,-3347.9446034075863,-6687.3263355157078,-1095.9678967901416,68.527776854759168,57500.555136700801,-81946.210623855091,31884.381784179481,-31884.381784179481,81946.210623855091,114692.49422730647,0.0
583296.95196600363,3645566.251970998,-2500.0,-148407.90169217414,-38901.971061576987,-7135.0531744362734,-6975.0677220333764,-1032.5146545220621,870.10724966068847,80932.343916625032,-116901.49137926861,40344.359455894126,-40344.359455894126,116901.49137926861,160755.26480905208,0.0
588296.95196600363,3645566.251970998,-2500.0,-195544.3972526259,-70353.624102882342,-19271.407257235907,-2444.989964667237,1846.1070921977312,3579.7385061547507,113686.0187475633,-164411.2979127377,43817.34923807194,-43817.34923807194,164411.2979127377,224720.79829945968,0.0
593296.95196600363,3645566.251970998,-2500.0,-231129.53813009721,-119947.12068176456,-58083.019770819737,14265.411838206888,17116.490719075158,10793.317822936639,155700.40189008132,-210656.52572890813,21810.278350519613,-21810.278350519613,210656.52572890813,302091.41295710736,0.0
598296.95196600363,3645566.251970998,-2500.0,-198100.66214152396,-148415.65708529358,-158943.88008938931,33561.598376516435,62221.057325708061,21090.599294962929,191014.18912311154,-186045.66520848911,-66587.95192390267,66587.95192390267,186045.66520848911,349385.72180917888,0.0
603296.95196600363,3645566.251970998,-2500.0,-121517.97597672135,-4511.2635043129121,-204903.12242102125,-8982.2847435870262,50884.575739588123,32244.603185244236,129353.35063854021,-32781.632958570735,-110449.63475823859,110449.63475823859,32781.632958570735,226910.43946148717,0.0
608296.95196600363,3645566.251970998,-2500.0,-147855.10274157827,16557.707897918124,75493.107193075775,152757.53609641819,-179217.58554238378,93928.52569763182,271132.92150678165,-98577.377667123888,106990.85575270499,-106990.85575270499,98577.377667123888,470665.16945383791,0.0
613296.95196600363,3645566.251970998,-2500.0,316515.77560781367,-150828.15073401158,633516.80822717061,737042.36450707063,-219266.50074232562,-208459.10845449663,870366.86497060838,-44446.49530246947,343422.20022959256,-343422.20022959256,44446.49530246947,1544241.2354824466,1.0
618296.95196600363,3645566.251970998,-2500.0,6073455.8754289979,1310459.0382016939,-5797682.8896332504,1997328.7716699222,-1018053.4019373647,444602.43619267177,6480283.974984739,5971453.3234270895,-6162240.5869885748,6162240.5869885748,-5971453.3234270895,11225693.73717355,1.0
623296.95196600363,3645566.251970998,-2500.0,-186227.91988487568,394731.02272935433,-563706.19557890762,-625382.27933329134,50944.926673988441,-235245.24855302469,765766.46048855525,271209.99818924197,-309250.64001239045,309250.64001239045,-271209.99818924197,1332262.1566022832,0.0
628296.95196600363,3645566.251970998,-2500.0,-426528.76878675277,140673.20152153986,-26471.671259231865,-195141.19563359948,11692.201309514341,34569.60665099325,326458.28978642001,-167961.44051349294,139048.54492455683,-139048.54492455683,167961.44051349294,601837.97292499873,0.0
633296.95196600363,3645566.251970998,-2500.0,-289176.71210852062,87323.766877057686,5545.1318584579221,-38183.92174064053,541.58294718852949,15150.866684004308,176194.39179153042,-124485.36677682553,110680.06838099756,-110680.06838099756,124485.36677682553,342104.50405223522,0.0
638296.95196600363,3645566.251970998,-2500.0,-197930.42646241936,52388.209478008219,2929.4464365543154,-581.90399696351255,-1798.6995940811239,3973.4031378546952,113419.70611445024,-89883.091015956437,74315.515979856442,-74315.515979856442,89883.091015956437,220906.6831748886,0.0
643296.95196600363,3645566.251970998,-2500.0,-137273.64390418414,32385.00964995024,219.46198170081328,6147.59594567568,-1721.917611987084,811.30327556338534,76141.099528922001,-64535.911078796642,49777.908208855886,-49777.908208855886,64535.911078796642,149180.15584705744,0.0
648296.95196600363,3645566.251970998,-2500.0,-97152.950706335716,20809.669284211275,-1021.30319808553,6009.0018331613019,-1274.7192231194447,33.989601901271897,52562.495976832928,-46801.854001397107,34133.972081875996,-34133.972081875996,46801.854001397107,103712.00689674947,0.0
653296.95196600363,3645566.251970998,-2500.0,-70402.817548752006,13883.108320644606,-1456.3146778922101,4712.2802093748733,-889.94446572222819,-124.52634073315086,37320.925044531694,-34543.9728681251,24078.252874487054,-24078.252874487054,34543.9728681251,74124.428594136509,0.0
658296.95196600363,3645566.251970998,-2500.0,-52239.615874591094,9582.1269367842615,-1528.5782364048785,3505.4300682504772,-616.78301343361466,-130.70687845701346,27224.973363368605,-26005.791810633666,17458.401968325175,-17458.401968325175,26005.791810633666,54386.650415026081,0.0
663296.95196600363,3645566.251970998,-2500.0,-39628.125490081584,6815.3252800057107,-1451.0384031232702,2584.8995515242473,-431.78990150185479,-105.57047758121632,20519.769493423089,-19961.229556724022,12979.825444043485,-12979.825444043485,19961.229556724022,40873.178604047556,0.0
668296.95196600363,3645566.251970998,-2500.0,-30668.321470647017,4977.0351992190826,-1319.7320516773045,1918.270114360254,-307.20566856266316,-79.441055291623627,15824.742292117038,-15599.984466063032,9867.9767279715179,-9867.9767279715179,15599.984466063032,31383.337276938484,0.0
673296.95196600363,3645566.251970998,-2500.0,-24162.023486994778,3719.7437177244647,-1176.8509734623335,1440.5505529639752,-222.5061507955653,-58.594829944399443,12430.979583913284,-12392.484228569701,7651.6810378824593,-7651.6810378824593,12392.484228569701,24559.224891625785,0.0
678296.95196600363,3645566.251970998,-2500.0,-19340.879718414155,2837.307319486933,-1040.1504265167441,1096.611093033853,-164.0433687649427,-43.163690025373555,9925.8860919300514,-9990.2023151817648,6037.4519864884678,-6037.4519864884678,9990.2023151817648,19544.707630569406,0.0
683296.95196600363,3645566.251970998,-2500.0,-15702.069580498457,2203.5332580587428,-916.29974271881667,846.34140241754551,-122.99838617397826,-32.004247304279204,8041.3447231452628,-8160.4239319061262,4837.8180966993505,-4837.8180966993505,8160.4239319061262,15787.238563417135,0.0
688296.95196600363,3645566.251970998,-2500.0,-12909.513239538335,1738.8941927522428,-806.98570225204378,661.87510112241409,-93.683408260772595,-23.964165722815856,6599.163728988101,-6745.0489737094231,3930.0387772511076,-3930.0387772511076,6745.0489737094231,12921.790122028171,0.0
693296.95196600363,3645566.251970998,-2500.0,-10733.923261173288,1391.9245415301955,-711.73561441963795,524.0770692647468,-72.396858091062924,-18.143665428104043,5478.3586559899295,-5634.7385635052888,3231.8737305768755,-3231.8737305768755,5634.7385635052888,10701.807310367349,0.0
698296.95196600363,3645566.251970998,-2500.0,-9015.7832603547122,1128.5032413001375,-629.22989488411258,419.77648184919082,-56.696602623802868,-13.893396342142919,4595.1106975372531,-4752.5369825127227,2687.0202297310161,-2687.0202297310161,4752.5369825127227,8957.2488988713121,0.0
703296.95196600363,3645566.251970998,-2500.0,-7642.0991260570599,925.50740317210591,-557.90900147234026,339.83123512022382,-44.946463207798544,-10.757572344493092,3890.2622942405656,-4043.3821056606153,2256.1696810483659,-2256.1696810483659,4043.3821056606153,7568.58357800678,0.0
708296.95196600363,3645566.251970998,-2500.0,-6531.4612653766926,766.94954395951299,-496.24249209121547,277.82347674449773,-36.032651247135441,-8.418659578559641,3321.3283927992902,-3467.2510872157682,1911.3736574673173,-1911.3736574673173,3467.2510872157682,6450.2750951040252,0.0
713296.95196600363,3645566.251970998,-2500.0,-5624.3062132427985,641.57302936361623,-442.83933651850134,229.19252304381178,-29.185120879872095,-6.6550091933614812,2857.3128423771004,-2994.6314381186203,1632.4312124950357,-1632.4312124950357,2994.6314381186203,5540.1192418482242,0.0
718296.95196600363,3645566.251970998,-2500.0,-4876.4295314069768,541.31888732841594,-396.48216024066687,190.65687091378751,-23.863436893923495,-5.3109685641422635,2475.2700794391685,-2603.4677212451811,1404.5186729625607,-1404.5186729625607,2603.4677212451811,4792.2026911349758,0.0
513296.95196600363,3650566.251970998,-2500.0,-6048.5917736256652,377.31635278314587,-422.62594221781728,-248.1017210764727,17.550637322120291,-7.2378605729281436,3043.4545576731739,-3439.0286175662732,1760.9918752485582,-1760.9918752485582,3439.0286175662732,5896.9219348314828,0.0
518296.95196600363,3650566.251970998,-2500.0,-7051.9188852164116,441.8866257646502,-468.63142848467015,-301.87209933913425,21.180069648545313,-9.185752947670327,3549.056512667335,-4013.6131700479255,2071.0479732661743,-2071.0479732661743,4013.6131700479255,6887.3757316384008,0.0
523296.95196600363,3650566.251970998,-2500.0,-8287.099168405306,521.25529752706359,-519.91759859263561,-370.74464745825367,25.757552616291392,-11.7771148042122,4171.6614813882516,-4722.2628071753124,2456.6764574517583,-2456.6764574517583,4722.2628071753124,8109.476067001282,0.0
528296.95196600363,3650566.251970998,-2500.0,-9824.1548362232479,619.64661936097161,-576.48272325791436,-459.96995569290829,31.578932229894001,-15.261519551367865,4946.6479536359229,-5605.988443770103,2941.8490236172665,-2941.8490236172665,5605.988443770103,9634.001919715789,0.0
533296.95196600363,3650566.251970998,-2500.0,-11759.638868149656,742.69537394170902,-637.70594177654266,-576.97244810004281,39.04416072922001,-19.995993991465461,5922.80915661989,-6721.6045438250721,3560.0543849909764,-3560.0543849909764,6721.6045438250721,11558.855497757473,0.0
538296.95196600363,3650566.251970998,-2500.0,-14228.87756734773,897.95013722238605,-701.75651872348465,-732.37608024133294,48.694966805208978,-26.489871222663478,7168.5434381287323,-8149.187871674887,4358.8982457296315,-4358.8982457296315,8149.187871674887,14021.718286469782,0.0
543296.95196600363,3650566.251970998,-2500.0,-17424.92684185391,1095.52905403511,-764.49156541765171,-941.54158701170229,61.263668352472287,-35.459436393018464,8781.4350612054131,-10003.750372384236,5407.3504331636359,-5407.3504331636359,10003.750372384236,17219.724073330337,0.0
548296.95196600363,3650566.251970998,-2500.0,-21628.517014113197,1348.8929693013613,-817.3704455882995,-1226.829259534185,77.73187242698566,-47.868712899773143,10903.377249461468,-12453.929683384951,6807.4177788195238,-6807.4177788195238,12453.929683384951,21440.666065049434,0.0
553296.95196600363,3650566.251970998,-2500.0,-27256.307219948743,1675.5401788910276,-843.44145640899706,-1620.7489967363499,99.392973376156945,-64.864690738991371,13744.912615715244,-15752.618806710898,8713.374402791198,-8713.374402791198,15752.618806710898,27113.511884575841,0.0
558296.95196600363,3650566.251970998,-2500.0,-34940.168845588494,2096.8990621902935,-809.45740873753425,-2169.6650746620453,127.9099235261527,-87.283668697649489,17625.151844232449,-20288.407007618025,11364.171125916208,-11364.171125916208,20288.407007618025,34891.799625560183,0.0
563296.95196600363,3650566.251970998,-2500.0,-45659.5724075498,2635.1788427424194,-650.03738600180918,-2935.5147376711993,165.41407833407294,-113.6291700136583,23038.263834675061,-26674.038777127607,15139.195734444011,-15139.195734444011,26674.038777127607,45793.621710784137,0.0
568296.95196600363,3650566.251970998,-2500.0,-60964.570757187212,3300.4868144516731,-235.24980952903567,-3984.4575604463485,215.1283872970663,-132.74412141272597,30765.205064259244,-35901.705168175584,20655.589962264239,-20655.589962264239,35901.705168175584,61438.849415264202,0.0
573296.95196600363,3650566.251970998,-2500.0,-83348.011580273189,4048.1812740508553,696.05473283819481,-5319.2621752511313,285.66988594621557,-97.819119155650455,42386.598982686774,-49619.050765172004,28937.630988027573,-28937.630988027573,49619.050765172004,84448.84083559367,0.0
578296.95196600363,3650566.251970998,-2500.0,-116836.21727947867,4645.2743212198811,2667.3962278878234,-6590.5863523048765,417.66057673697549,166.95757684573761,60123.099723056352,-70616.414458401719,41697.009470555662,-41697.009470555662,70616.414458401719,119097.10704985433,0.0
583296.95196600363,3650566.251970998,-2500.0,-167781.85581938768,4251.592944297432,6663.6652826028449,-5957.4268740224625,842.36358254433969,1303.5470710227323,87477.144092710121,-103644.14119008835,61699.860598902393,-61699.860598902393,103644.14119008835,172301.33994541454,0.0
588296.95196600363,3650566.251970998,-2500.0,-245346.41089519515,63.423561855545969,13931.90786144246,4218.0299834700854,2938.200592228407,5531.0796579291527,130140.84114215436,-156564.83221108129,92634.520391187776,-92634.520391187776,156564.83221108129,255336.94277490006,0.0
593296.95196600363,3650566.251970998,-2500.0,-358941.35760916979,-17274.73929127623,20657.787064055181,51283.295498898922,15006.655242016017,18237.992681607451,201385.13913096322,-240581.21353594394,133836.03097072669,-133836.03097072669,240581.21353594394,390696.2916546815,0.0
598296.95196600363,3650566.251970998,-2500.0,-487317.78850808908,-74517.281113175399,-31857.934689922993,194435.37900655231,81111.337630266076,24180.557649158138,340877.0680572812,-346826.83997522318,132068.7641952612,-132068.7641952612,346826.83997522318,621223.18634362705,0.0
603296.95196600363,3650566.251970998,-2500.0,-292923.54034464183,-4926.85883085973,-493021.2663900347,234974.83712857155,232529.59492954367,-104877.41205326299,378593.66810826643,-75299.129834248757,-264929.35664480081,264929.35664480081,75299.129834248757,664040.98564438545,0.0
608296.95196600363,3650566.251970998,-2500.0,-329183.54426471388,344582.77401158097,268419.06298345793,449158.13098337787,-78370.70358567014,-21706.045518071976,613602.68209146033,-38961.250244636874,345531.47611862828,-345531.47611862828,38961.250244636874,1117044.6631033591,1.0
613296.95196600363,3650566.251970998,-2500.0,71293.045525891037,176738.05746656039,1728564.685541098,-499706.61707864224,-269428.77201362269,-68259.836029085534,1156239.7829321744,-228530.91212231963,1267109.6135245494,-1267109.6135245494,228530.91212231963,2014424.49605997,1.0
618296.95196600363,3650566.251970998,-2500.0,-527755.09310290159,149483.35690036722,-75575.259245812776,-250932.07678835187,397089.39177556813,149224.51661319123,601130.39293119591,-214389.86939729686,137866.89009594562,-137866.89009594562,214389.86939729686,1041934.7221918197,0.0
623296.95196600363,3650566.251970998,-2500.0,-310491.94431178953,19373.504341202573,-207564.5142751768,-131304.74768035408,-158204.73901940684,40004.981641710328,258007.25674400738,-134617.99619867539,-46357.923262144635,46357.923262144635,134617.99619867539,474659.27756533364,0.0
628296.95196600363,3650566.251970998,-2500.0,-353989.75938939594,-88416.360580550521,-72360.595538610025,-93986.245648012584,-68513.971686538411,34041.796864647469,240188.80468166585,-263471.58734062011,55989.444011047162,-55989.444011047162,263471.58734062011,429694.73625054921,0.0
633296.95196600363,3650566.251970998,-2500.0,-296838.66257410089,-51333.288238434885,-8345.9577211588676,-21944.071629669885,-13312.25456103933,12828.843542712568,163381.46046874035,-217678.80547730782,87936.924926332096,-87936.924926332096,217678.80547730782,315700.46452442469,0.0
638296.95196600363,3650566.251970998,-2500.0,-215362.23853170231,-22173.738310039909,2083.0549006155475,2877.70501462431,-1815.7965373391701,3471.2851712499059,111840.13256965017,-149817.36006582616,71428.29266544414,-71428.29266544414,149817.36006582616,221576.18527106164,0.0
643296.95196600363,3650566.251970998,-2500.0,-151344.24513576386,-8784.8350280527902,1866.1717982057544,7417.6283764828831,-26.39627729529137,700.44720203686802,77356.144330528638,-100886.40330019698,51231.759314009716,-51231.759314009716,100886.40330019698,153924.57672964738,0.0
648296.95196600363,3650566.251970998,-2500.0,-107053.26810303613,-3100.6903878718026,631.55473205939961,6693.1886705730203,116.51430219593108,-2.821519245455832,54148.776937336414,-69151.49448130891,36071.133143412873,-36071.133143412873,69151.49448130891,108126.73444228966,0.0
653296.95196600363,3650566.251970998,-2500.0,-77190.222186823274,-726.45770033447923,-206.21592837484883,5137.6601085541988,53.147881886308504,-142.84940307138319,38868.22566371123,-48715.807510098755,25686.446665289805,-25686.446665289805,48715.807510098755,77538.363372811553,0.0
658296.95196600363,3650566.251970998,-2500.0,-56917.438396656609,239.56367033712553,-645.04413991977003,3783.0909532569053,0.78769790133267759,-141.73623075989326,28639.50647044944,-35298.44423584699,18661.987508610568,-18661.987508610568,35298.44423584699,56905.75999785537,0.0
663296.95196600363,3650566.251970998,-2500.0,-42903.090767209782,600.02296491220193,-835.1162090569095,2770.7201230979285,-25.216069343823431,-112.65108089151298,21578.247338068486,-26251.60624450698,13855.948836997402,-13855.948836997402,26251.60624450698,42716.99596349179,0.0
668296.95196600363,3650566.251970998,-2500.0,-33004.922101750017,699.09400775321819,-888.19510063605844,2045.1361796006618,-34.731746369450434,-84.105070838804025,16594.604121485841,-19982.897891030098,10504.288726519539,-10504.288726519539,19982.897891030098,32740.999009932446,0.0
673296.95196600363,3650566.251970998,-2500.0,-25861.563572415802,687.6864207547361,-870.78507782786903,1528.8137798744153,-35.968360596004644,-61.719340500181907,12999.656803291644,-15526.159655817228,8117.4143294130918,-8117.4143294130918,15526.159655817228,25570.436317969958,0.0
678296.95196600363,3650566.251970998,-2500.0,-20600.092295113827,633.06506822582116,-819.84268033530043,1159.1442768757588,-33.562032461804435,-45.289440730799583,10352.6801195065,-12282.637138324251,6382.3663895293212,-6382.3663895293212,12282.637138324251,20308.018212001232,0.0
683296.95196600363,3650566.251970998,-2500.0,-16651.243483176822,565.28543492756557,-755.27051752831051,891.4211714602319,-29.843253151223159,-33.473201153829692,8366.6030655021914,-9871.9242977251815,5096.6380686932062,-5096.6380686932062,9871.9242977251815,16371.372219859963,0.0
688296.95196600363,3650566.251970998,-2500.0,-13636.422913094902,497.48225186661676,-687.5070219402146,694.90961817535356,-25.90496277286973,-24.994987768173463,6850.6418123204548,-8046.184478945318,4126.8629862079024,-4126.8629862079024,8046.184478945318,13374.802229018047,0.0
693296.95196600363,3650566.251970998,-2500.0,-11298.751098877079,434.99423388623984,-621.81323186500731,548.65815445567057,-22.218514917633513,-18.877981706745089,5675.4091914946102,-6640.0280040877606,3383.5020765362478,-3383.5020765362478,6640.0280040877606,11057.588054580488,0.0
698296.95196600363,3650566.251970998,-2500.0,-9460.5294345702987,379.57302452773342,-560.64189226081612,438.3296554987333,-18.954942719300341,-14.42417195003619,4751.4318642062663,-5540.5943592741633,2805.2776236660093,-2805.2776236660093,5540.5943592741633,9239.9854935598432,0.0
703296.95196600363,3650566.251970998,-2500.0,-7996.551777017301,331.35830036382885,-504.93850099430955,354.02026521385335,-16.146126341292302,-11.146549831823528,4015.6847828470395,-4669.2612598242868,2349.4701717190101,-2349.4701717190101,4669.2612598242868,7795.7402734976158,0.0
708296.95196600363,3650566.251970998,-2500.0,-6817.0984050902798,289.81355209745209,-454.85863462237842,288.80820593407498,-13.763901330042907,-8.7074413406331725,3423.0163048480536,-3970.2278065064193,1985.7827028596384,-1985.7827028596384,3970.2278065064193,6634.639493525714,0.0
713296.95196600363,3650566.251970998,-2500.0,-5856.8338691824765,254.16705345879731,-410.16019070596877,237.79312148808268,-11.758097945154576,-6.8720648775990707,2940.5529973324769,-3403.19049883354,1692.3724094590368,-1692.3724094590368,3403.19049883354,5691.1623092044465,0.0
718296.95196600363,3650566.251970998,-2500.0,-5067.4905195829197,223.61513893030843,-370.41978183580568,197.46144305125711,-10.074208727711479,-5.475966976820839,2544.0135741459171,-2938.5837676010169,1453.25704447723,-1453.25704447723,2938.5837676010169,4917.0227924727551,0.0
513296.95196600363,3655566.251970998,-2500.0,-5759.2906716590487,777.74893340108702,-470.37417264162184,-237.22484590316714,35.722160826703707,-6.9592995632200445,2941.9652308787086,-2982.9600358494504,1672.3194886878769,-1672.3194886878769,2982.9600358494504,5711.8901387690194,0.0
518296.95196600363,3655566.251970998,-2500.0,-6692.5991090015505,935.79868627053963,-529.92700061491109,-287.81652232465569,44.434788305156772,-8.8106484860184455,3423.7891228136382,-3448.9829658393501,1959.0755256589166,-1959.0755256589166,3448.9829658393501,6659.0656193577952,0.0
523296.95196600363,3655566.251970998,-2500.0,-7835.6838082681224,1137.2946591379873,-599.60065610612764,-352.35125191094954,55.879624461645037,-11.265192951240948,4015.3616725842789,-4015.2586992076394,2313.5490783311343,-2313.5490783311343,4015.2586992076394,7824.7314057118738,0.0
528296.95196600363,3655566.251970998,-2500.0,-9249.8343801092888,1397.5594782327714,-681.51574080443595,-435.56695474252211,71.115409192104494,-14.552892879215488,4749.2898257422521,-4709.5307818893616,2756.4265263146212,-2756.4265263146212,4709.5307818893616,9274.6708487596807,0.0
533296.95196600363,3655566.251970998,-2500.0,-11018.646600219008,1738.6270757665454,-778.29531567262904,-544.10647683128082,91.692715515294992,-19.00004311964285,5670.3051216691529,-5568.9516199316486,3316.2446830233102,-3316.2446830233102,5568.9516199316486,11099.487583841901,0.0
538296.95196600363,3655566.251970998,-2500.0,-13257.812178025395,2192.8129615483122,-893.17930573545652,-687.37958710144505,119.92016232041377,-25.067886522264029,6840.7378390384229,-6643.8233278352636,4032.9823035920472,-4032.9823035920472,6643.8233278352636,13426.002501593004,0.0
543296.95196600363,3655566.251970998,-2500.0,-16129.930893365485,2808.5594615458017,-1030.1492292581622,-878.82336043647877,159.29270362944271,-33.396293396577612,8348.9144046799192,-8002.9759555371684,4963.5779679304096,-4963.5779679304096,8002.9759555371684,16434.865596145835,0.0
548296.95196600363,3655566.251970998,-2500.0,-19867.255593398942,3660.2612028230774,-1194.043020387368,-1137.6894493797404,215.18546340019768,-44.828556964752188,10322.278210162005,-9741.4824522786184,6190.5520951798799,-6190.5520951798799,9741.4824522786184,20388.31896127361,0.0
553296.95196600363,3655566.251970998,-2500.0,-24807.056247418637,4865.2918940195477,-1390.6206619996881,-1491.3704424823277,295.97304739999015,-60.325332042117644,12948.267816330108,-11991.524108376536,7835.6860894029014,-7835.6860894029014,11991.524108376536,25674.860647353955,0.0
558296.95196600363,3655566.251970998,-2500.0,-31447.015569638977,6614.4903394722232,-1626.5175833383121,-1977.6817215351671,414.77704706693999,-80.458418810899062,16508.106718508407,-14936.926113951129,10081.975099587147,-10081.975099587147,14936.926113951129,32882.531770196634,0.0
563296.95196600363,3655566.251970998,-2500.0,-40531.707683797438,9228.7550895841905,-1909.0789990458347,-2644.2108645777666,591.89661448062111,-103.45312302821628,21489.415163082645,-18829.927105144656,13208.947145204447,-13208.947145204447,18829.927105144656,42921.347703487598,0.0
568296.95196600363,3655566.251970998,-2500.0,-53183.799759180409,13268.344804432156,-2246.6457280213954,-3533.5213334370906,856.7981253125879,-118.31011653923331,28834.472380903957,-24001.028013010724,17648.404101328942,-17648.404101328942,24001.028013010724,57230.598300326041,0.0
573296.95196600363,3655566.251970998,-2500.0,-71085.068252520228,19753.157965771024,-2653.2387609051807,-4613.1009619636725,1242.4759448499115,-80.943244593934807,39657.433262143932,-30825.746051116988,24065.73396071378,-24065.73396071378,30825.746051116988,78131.901101313822,0.0
578296.95196600363,3655566.251970998,-2500.0,-96651.91025090024,30627.324066134006,-3179.8922052688622,-5499.7406688411011,1735.9520488981368,169.74450194398645,56034.622068271572,-39520.635795613831,33446.365551028292,-33446.365551028292,39520.635795613831,109431.33232997645,0.0
583296.95196600363,3655566.251970998,-2500.0,-132893.62691225598,49788.318989112922,-4096.8867693915872,-4425.5721349413952,2006.6864292056412,1207.0335628981531,81487.234243570114,-49334.188412203192,47026.143255389456,-47026.143255389456,49334.188412203192,157503.4191750178,0.0
588296.95196600363,3655566.251970998,-2500.0,-181755.47906544307,85513.99219441913,-6968.159216902377,5493.8461653632639,5.2660198947060408,4933.7302769798835,122423.50868680542,-55665.941715721543,65208.712402750672,-65208.712402750672,55665.941715721543,234096.21360131033,0.0
593296.95196600363,3655566.251970998,-2500.0,-236972.87482778865,156956.49080581203,-21497.660216345637,47477.113832894182,-15299.943013356995,15205.044565065968,194797.56118972116,-39765.961323704585,80835.964698307696,-80835.964698307696,39765.961323704585,370210.3370251556,0.0
598296.95196600363,3655566.251970998,-2500.0,-248712.47607749383,316892.02274849499,-113333.88323840738,163225.79266082676,-98458.242354309128,8080.131407295361,358945.18451171787,79180.42425308752,34620.121539542946,-34620.121539542946,-79180.42425308752,678068.80305896699,0.0
603296.95196600363,3655566.251970998,-2500.0,203900.36791399363,813278.78508342814,-851055.42929326021,49714.317121357795,-408446.07919602748,-163562.8871719981,1043519.2944332855,856335.7533670821,-606092.87312123331,606092.87312123331,-856335.7533670821,1830975.0878421734,1.0
608296.95196600363,3655566.251970998,-2500.0,1320579.3146597608,-248183.43414248378,-116786.29956066688,-149174.03544937627,-241700.86469221528,125753.12988877781,844453.51388777629,688526.20850744215,-556341.04841228039,556341.04841228039,-688526.20850744215,1484260.4560122096,1.0
613296.95196600363,3655566.251970998,-2500.0,146149.12602395803,-139386.44110173904,263073.18391458964,-188798.50553311119,102392.77704647733,-171391.10350736568,340736.1717335654,-59921.968242316892,129312.87006567119,-129312.87006567119,59921.968242316892,590173.13917378976,1.0
618296.95196600363,3655566.251970998,-2500.0,-158692.47322979424,-71936.712182729039,44439.055985574334,-95987.294297747707,66363.358986362378,-8280.603448996766,172868.61523140687,-156772.28257911582,78147.165957425022,-78147.165957425022,156772.28257911582,299516.93698063464,0.0
623296.95196600363,3655566.251970998,-2500.0,-159740.93771441418,-54697.11022244722,-103257.57140168422,-11684.540829559637,-24453.538115585263,16263.95851007803,108294.63077078846,-112741.42652933105,-28292.99637015874,28292.99637015874,112741.42652933105,188163.7021348539,0.0
628296.95196600363,3655566.251970998,-2500.0,-172000.84428236718,-109601.1697918117,-113381.90401873182,-11970.318152633621,-26076.054246489224,13362.236984484385,138953.56481040383,-154371.44586339654,-37602.950659738504,37602.950659738504,154371.44586339654,255806.2964255026,0.0
633296.95196600363,3655566.251970998,-2500.0,-182334.37017710722,-98556.831510309901,-60326.301407124258,-996.67017077018249,-6151.9839872041402,6000.7814411521658,122581.18378531358,-165508.48681278958,6105.0851616092114,-6105.0851616092114,165508.48681278958,237980.16290625391,0.0
638296.95196600363,3655566.251970998,-2500.0,-159075.73104681651,-65228.296507638981,-27009.832980545532,6156.5951051831698,932.4465889884608,1859.0559618548327,94416.683402067458,-136471.53873700893,26437.060761417051,-26437.060761417051,136471.53873700893,186997.11570189981,0.0
643296.95196600363,3655566.251970998,-2500.0,-125202.54211588227,-39336.199965666354,-12388.663102771661,7406.022542749437,1892.8137338567929,355.23941014064587,69468.232141290995,-101488.4065770969,28640.306381275928,-28640.306381275928,101488.4065770969,138363.19254018011,0.0
648296.95196600363,3655566.251970998,-2500.0,-94897.36558606691,-23394.611132911228,-6344.2746549514486,6346.9278942327574,1466.0027321540749,-73.044556880927075,50738.318878266589,-73371.733448399304,24647.818426709971,-24647.818426709971,73371.733448399304,101022.45548796548,0.0
653296.95196600363,3655566.251970998,-2500.0,-71459.160224434032,-14124.341683495086,-3741.0942918395176,4897.2345202995539,963.27158277938713,-155.32176273662634,37400.520638452777,-53178.38827889871,19702.787013718756,-19702.787013718756,53178.38827889871,74260.617268307979,0.0
658296.95196600363,3655566.251970998,-2500.0,-54195.556117518528,-8739.3272175545535,-2515.9298695923544,3651.6106314945991,606.4255991940496,-142.84508702841745,27991.136938809967,-39101.349924843205,15394.065339429291,-15394.065339429291,39101.349924843205,55401.164179183099,0.0
663296.95196600363,3655566.251970998,-2500.0,-41626.707305063595,-5551.4323788243382,-1868.9012760951211,2705.3842038366938,379.97826533618439,-112.06558074745809,21313.470196373062,-29280.936299184497,11997.084034800479,-11997.084034800479,29280.936299184497,42053.099892699967,0.0
668296.95196600363,3655566.251970998,-2500.0,-32438.056447996238,-3615.4847852571847,-1482.5604811250362,2015.2963629985718,240.27121779419903,-83.617785387847363,16510.795336583855,-22342.524931156142,9406.932952980027,-9406.932952980027,22342.524931156142,32481.954620380209,0.0
673296.95196600363,3655566.251970998,-2500.0,-25647.298997143371,-2408.1177572190122,-1224.8812366357668,1517.1023625623432,154.04692908531848,-61.506938126660515,13000.24658931528,-17355.957028438021,7447.9121091332681,-7447.9121091332681,17355.957028438021,25506.732947590019,0.0
678296.95196600363,3655566.251970998,-2500.0,-20560.646068654951,-1635.6999517567669,-1037.5466497568511,1156.3693849799174,100.22364113509005,-45.261649652848263,10390.779431234414,-13706.577565619091,5961.9501109877692,-5961.9501109877692,13706.577565619091,20336.58690501771,0.0
683296.95196600363,3655566.251970998,-2500.0,-16696.19387652466,-1129.7967473466442,-892.8877936148815,892.84060923725212,66.105055711625297,-33.539417974674599,8419.2484438257998,-10988.002760018328,4825.9384227704368,-4825.9384227704368,10988.002760018328,16440.724830723488,0.0
688296.95196600363,3655566.251970998,-2500.0,-13719.183096715296,-791.33663432918172,-776.65379284734865,698.1120494571195,44.120802997538597,-25.098858757945056,6906.6601254540628,-8928.65187663283,3948.7496666299103,-3948.7496666299103,8928.65187663283,13459.104115854449,0.0
693296.95196600363,3655566.251970998,-2500.0,-11395.26470728917,-560.5552629804863,-680.82018134142663,552.43908022455912,29.728371251492799,-18.989751483528508,5729.5342321007265,-7344.2953956960364,3264.1096613080235,-3264.1096613080235,7344.2953956960364,11144.028499273032,0.0
698296.95196600363,3655566.251970998,-2500.0,-9558.5457766979107,-400.51647530696727,-600.44919189518441,442.10753811883257,20.166005860597465,-14.529719349876535,4801.3841992513253,-6107.897101041016,2723.9726188752365,-2723.9726188752365,6107.897101041016,9322.4651700651739,0.0
703296.95196600363,3655566.251970998,-2500.0,-8090.069801237818,-287.86770650106479,-532.24766719632908,357.53320862347175,13.727679621348559,-11.240312121829128,4060.6829645457265,-5130.3759063666985,2293.3632026923092,-2293.3632026923092,5130.3759063666985,7871.6239605774736,0.0
708296.95196600363,3655566.251970998,-2500.0,-6903.4486252496936,-207.53101505866769,-473.87278722835214,291.95691095152108,9.3417984032736907,-8.7880802391051986,3463.0177016253137,-4348.270459441248,1946.6411152607689,-1946.6411152607689,4348.270459441248,6703.0763328502817,0.0
713296.95196600363,3655566.251970998,-2500.0,-5935.1133088191173,-149.58031467925898,-423.5722882024541,240.55904791997904,6.3240544583509832,-6.9401503375578422,2975.8605821007795,-3715.6606882876695,1664.8324252648542,-1664.8324252648542,3715.6606882876695,5752.1996347321938,0.0
513296.95196600363,3660566.251970998,-2500.0,-5324.1847022011552,1125.4317379120801,-559.70258455538203,-220.75974499737171,51.744979712901007,-6.5361423311884232,2794.2776597839579,-2461.1358903303662,1498.3562135643876,-1498.3562135643876,2461.1358903303662,5440.2078635046664,0.0
518296.95196600363,3660566.251970998,-2500.0,-6145.6463452732205,1359.7431074420494,-645.38934942963976,-266.28213922432167,64.739243103134768,-8.2342102078045514,3239.2205686784973,-2800.9614830457426,1736.6328954240475,-1736.6328954240475,2800.9614830457426,6319.4387963027593,0.0
523296.95196600363,3660566.251970998,-2500.0,-7139.6740809428447,1659.1109180395206,-750.82031139104993,-323.80898785363138,81.886012909576408,-10.469021740870325,3781.9687557491443,-3201.328874943983,2025.4056417662655,-2025.4056417662655,3201.328874943983,7395.146280008651,0.0
528296.95196600363,3660566.251970998,-2500.0,-8352.0979425718215,2046.4367298423156,-882.46607086812958,-397.18264268521943,104.80973108673859,-13.436957121718372,4450.2962242305148,-3674.3274819098579,2377.7947009979343,-2377.7947009979343,3674.3274819098579,8724.2115246407684,0.0
533296.95196600363,3660566.251970998,-2500.0,-9843.2205265326611,2554.5145152655627,-1049.6719553505477,-491.66191619581747,135.88892242210514,-17.411861638033212,5281.717850175799,-4233.920699038883,2810.7414610437636,-2810.7414610437636,4233.920699038883,10383.954525627274,0.0
538296.95196600363,3660566.251970998,-2500.0,-11692.848223715746,3231.1473845776241,-1266.3138002488054,-614.47663746262674,178.65839124104858,-22.772043506647019,6327.5575678208725,-4895.3418031293268,3346.0365168518301,-3346.0365168518301,4895.3418031293268,12480.95703289722,0.0
543296.95196600363,3660566.251970998,-2500.0,-14006.919588092327,4147.3708075975246,-1553.6458876719983,-775.56392457281231,238.44705889644527,-30.026807614014931,7658.9606579923047,-5673.1693054908055,4011.3450457617701,-4011.3450457617701,5673.1693054908055,15164.320275830483,0.0
548296.95196600363,3660566.251970998,-2500.0,-16925.76606675288,5410.9440937184454,-1945.3844953905425,-988.45389356611656,323.38792362706289,-39.817914627103576,9375.8662182365297,-6576.4414159539238,4840.7089342047193,-4840.7089342047193,6576.4414159539238,18645.882682496096,0.0
553296.95196600363,3660566.251970998,-2500.0,-20632.96968388114,7188.9478590897534,-2497.1609969137248,-1271.0477449087311,445.9858379547764,-52.816995347627611,11620.636097116152,-7597.1473101648135,5873.0257475109156,-5873.0257475109156,7597.1473101648135,23231.419256696925,0.0
558296.95196600363,3660566.251970998,-2500.0,-25360.551273557852,9746.3597435613592,-3304.9132205990272,-1645.3293471998606,625.39322085181027,-69.273057246520409,14770.748462562769,-8683.8596208862364,7144.4587617897987,-7144.4587617897987,8683.8596208862364,29369.268058285321,0.0
563296.95196600363,3660566.251970998,-2500.0,-31376.672339814028,13512.814643320524,-4542.4988731574158,-2132.9478300046235,890.04495594305342,-87.466335463477364,19114.508052071556,-9681.4887201428173,8663.9013796585168,-8663.9013796585168,9681.4887201428173,37726.392812302925,0.0
568296.95196600363,3660566.251970998,-2500.0,-38914.605259321797,19198.162551878915,-6542.9645188581562,-2737.4771459439421,1277.7877915864608,-98.804768312344564,25205.968246686767,-10192.242323693999,10341.914430100596,-10341.914430100596,10192.242323693999,49306.655208387456,0.0
573296.95196600363,3660566.251970998,-2500.0,-47922.915242689349,27985.574196929596,-9984.9489065066882,-3386.8784139926711,1819.876235885853,-72.716227778740191,33926.009318384611,-9249.8517366269407,11790.722778818927,-11790.722778818927,9249.8517366269407,65631.679623452088,0.0
578296.95196600363,3660566.251970998,-2500.0,-57289.560658110837,41809.262234857117,-16347.833296780116,-3765.8794058683502,2451.2262647795992,88.391269564143201,46672.7705298449,-4548.2706156864024,11759.054680159994,-11759.054680159994,4548.2706156864024,89016.381874017592,0.0
583296.95196600363,3660566.251970998,-2500.0,-62550.596683188698,63503.995717352409,-29089.442689750682,-2902.0219916853362,2616.1382910839166,668.4132558901216,65740.860738588235,9355.8150215802307,6512.5937306762244,-6512.5937306762244,-9355.8150215802307,123064.94694741131,0.0
588296.95196600363,3660566.251970998,-2500.0,-49437.260848070742,95310.276022229082,-56767.687462694659,1294.7532515624446,-246.94450787688763,2302.1312841198951,95391.816516309103,44796.451108542286,-14792.152140892755,14792.152140892755,-44796.451108542286,174262.24467362117,0.0
593296.95196600363,3660566.251970998,-2500.0,22221.015560563636,127181.77765612135,-119992.38269031381,7517.0967839321474,-14616.132617005991,4869.2391656484479,146385.01087744423,124916.04517092848,-81900.345019338143,81900.345019338143,-124916.04517092848,259603.75119176455,0.0
598296.95196600363,3660566.251970998,-2500.0,235605.09711516293,71670.303442187054,-238887.44940577613,-30577.870844123176,-41170.477872756535,127.53682732512105,253086.09058937171,248554.29026120802,-247067.24558041431,247067.24558041431,-248554.29026120802,438361.09699755762,1.0
603296.95196600363,3660566.251970998,-2500.0,419362.19760350912,-318934.87613497546,-45265.966844037684,-202734.01342172391,127907.38498317226,17475.289993667389,439886.7206440086,61977.781176768825,-208830.74428945815,208830.74428945815,-61977.781176768825,817439.26083071914,1.0
608296.95196600363,3660566.251970998,-2500.0,172790.4310138445,-15409.747303026206,523003.40564437048,66512.004623404384,348407.1089090766,43713.418450700206,429853.90154286247,-20030.657905845583,325110.66402792616,-325110.66402792616,20030.657905845583,750107.26508012996,1.0
613296.95196600363,3660566.251970998,-2500.0,214288.23121825387,59609.78819815618,179974.23318599496,82146.754975293094,41210.753184641922,-31319.065642797763,171800.7503910696,132804.14175418651,66958.041011771391,-66958.041011771391,-132804.14175418651,298449.08036596107,0.0
618296.95196600363,3660566.251970998,-2500.0,74236.421427540947,-508.53427616212377,21253.60755574374,-3367.7519513840393,-9722.2832269269838,-6191.3536725070826,41899.512757727032,41306.667160255587,-9343.3402712852658,9343.3402712852658,-41306.667160255587,73026.606038147496,0.0
623296.95196600363,3660566.251970998,-2500.0,-156.72227776768787,-33336.058041593671,-78176.306528670277,-2291.6987593189319,-6443.1962422352244,3300.1405343744191,51561.705268963327,-4475.5423730779403,-61095.454462609749,61095.454462609749,4475.5423730779403,99211.323481330241,0.0
628296.95196600363,3660566.251970998,-2500.0,-44348.130832945171,-70841.897607729232,-105276.3733584615,1215.5585976818161,-3339.04863595596,3617.303600100387,78929.629511696781,-50765.442293644366,-70280.081358957948,70280.081358957948,50765.442293644366,155012.86112791501,0.0
633296.95196600363,3660566.251970998,-2500.0,-77626.336247776373,-80723.63727976731,-80028.5395586495,3984.871062339349,1491.0842795520387,1954.4851642401397,81710.532523361806,-83797.895662003459,-41606.141827151565,41606.141827151565,83797.895662003459,161657.88402116028,0.0
638296.95196600363,3660566.251970998,-2500.0,-88636.986306924227,-67072.641439433588,-48854.490710459693,5849.7509159010424,3397.2097029600873,656.37563379309017,70455.421065344286,-88703.351576012705,-13486.511322242783,13486.511322242783,88703.351576012705,140132.57370068884,0.0
643296.95196600363,3660566.251970998,-2500.0,-82819.016779231679,-48325.969563213002,-27879.382618064119,6003.9429042997835,3155.9678775065081,64.584571870218639,56010.587996942391,-77418.683587284802,2033.5672561031679,-2033.5672561031679,77418.683587284802,111708.01418027862,0.0
648296.95196600363,3660566.251970998,-2500.0,-70342.921629141347,-32919.923931480924,-16009.713982725172,5189.0820982901951,2336.6621833242643,-124.70581527059585,43249.137339560177,-62121.315998196325,8255.0369021065853,-8255.0369021065853,62121.315998196325,86115.261419592745,0.0
653296.95196600363,3660566.251970998,-2500.0,-57244.675536250623,-22103.32133194292,-9577.4008169624558,4138.5345026671575,1594.1616250136444,-153.78712261981875,33179.396686820459,-48238.333133302978,9767.3942975380087,-9767.3942975380087,48238.333133302978,65839.566038208548,0.0
658296.95196600363,3660566.251970998,-2500.0,-45837.432819648093,-14915.815714792401,-6053.002226396834,3187.629826907656,1059.2745284915302,-133.48298454843936,25559.186941722932,-37153.053498532689,9312.9077324342998,-9312.9077324342998,37153.053498532689,50543.448069357364,0.0
663296.95196600363,3660566.251970998,-2500.0,-36604.161729280386,-10204.598200539916,-4052.0397529177644,2426.4213341974996,702.40221878523846,-104.26277699928116,19878.337609062644,-28718.762333794686,8197.88257393807,-8197.88257393807,28718.762333794686,39182.626855260169,0.0
668296.95196600363,3660566.251970998,-2500.0,-29349.77180806125,-7101.8008570687343,-2862.2717847323979,1846.9832831362864,469.94879562621492,-78.357644920116314,15644.229604971439,-22401.126685841969,6975.3357273120055,-6975.3357273120055,22401.126685841969,30745.407541019653,0.0
673296.95196600363,3660566.251970998,-2500.0,-23706.27167877783,-5031.5777474771512,-2118.8416854387769,1414.3444878668702,318.77422502384212,-58.180753853987383,12466.226628671824,-17672.10300098345,5852.8481371678718,-5852.8481371678718,17672.10300098345,24433.667688054735,0.0
678296.95196600363,3660566.251970998,-2500.0,-19316.243925728941,-3627.4653095622862,-1631.0481003795435,1092.7063365125941,219.6026461004783,-43.199517065763899,10056.048554285202,-14109.211276795544,4890.619947772363,-4890.619947772363,14109.211276795544,19661.409886824382,0.0
683296.95196600363,3660566.251970998,-2500.0,-15884.484613812403,-2658.416224823417,-1296.0729735877815,852.80436628794143,153.67600490491094,-32.264115679266887,8206.6615154942465,-11398.462227012891,4090.336725058407,-4090.336725058407,11398.462227012891,16009.688821018475,0.0
688296.95196600363,3660566.251970998,-2500.0,-13181.950762022143,-1978.002086631843,-1056.4538935665926,672.58155137184872,109.18284460005465,-24.306563724653572,6770.4544185091017,-9312.8831151990689,3433.3150985867001,-3433.3150985867001,9312.8831151990689,13180.995368627151,0.0
693296.95196600363,3660566.251970998,-2500.0,-11035.514001354963,-1492.3099447540956,-878.84212623471603,535.96000798848706,78.685529126845807,-18.493974782585727,5641.9395167864086,-7689.7059280651047,2896.1864381648707,-2896.1864381648707,7689.7059280651047,10963.473762217798,0.0
698296.95196600363,3660566.251970998,-2500.0,-9315.5331832820284,-1140.2020107627443,-743.13823763213759,431.36477661897345,57.461518378153471,-14.217163907736627,4745.18792479901,-6412.0125556445964,2456.866882751629,-2456.866882751629,6412.0125556445964,9205.1178390036948,0.0
703296.95196600363,3660566.251970998,-2500.0,-7925.0204184368185,-881.23332633051973,-636.77353101105871,350.47897526797533,42.475217260162594,-11.041985611991944,4025.0213619720721,-5395.2716121252106,2096.442599153977,-2096.442599153977,5395.2716121252106,7795.7811758644693,0.0
708296.95196600363,3660566.251970998,-2500.0,-6791.1511611188998,-688.21124822125671,-551.60665550329804,287.30514964956313,31.747806799036301,-8.661660122867838,3440.9108439775,-4577.8159935485301,1799.4125972085922,-1799.4125972085922,4577.8159935485301,6654.7723516010528,0.0
713296.95196600363,3660566.251970998,-2500.0,-5858.9170979726459,-542.56300771570841,-482.18748220151014,237.49013024114564,23.970404970468653,-6.8594413515139774,2962.7615804168181,-3914.2061713079447,1553.339323371757,-1553.339323371757,3914.2061713079447,5722.3177769874965,0.0
513296.95196600363,3665566.251970998,-2500.0,-4771.6081261286508,1398.7947742152669,-677.89140911764412,-199.73979280838753,64.727840027820477,-5.9933832580483637,2607.442914829101,-1908.38696615558,1255.6259221388204,-1255.6259221388204,1908.38696615558,5095.3568267895398,0.0
518296.95196600363,3665566.251970998,-2500.0,-5450.5777469381856,1684.8161107600633,-797.09930475184967,-238.76327764583777,80.854606279082731,-7.4939650529229382,3005.1262422470381,-2117.3882667839598,1427.025796948936,-1427.025796948936,2117.3882667839598,5887.2066145205381,0.0
523296.95196600363,3665566.251970998,-2500.0,-6255.1569106340585,2047.4413049786738,-947.87273765552141,-287.31824841946093,102.02941983644341,-9.445884125336466,3485.2691263076222,-2347.2711989700497,1625.7151709842672,-1625.7151709842672,2347.2711989700497,6847.1411016988031,0.0
528296.95196600363,3665566.251970998,-2500.0,-7212.1004693439891,2512.1505079145181,-1141.7201086300915,-348.12149560422625,130.15858489656529,-12.002935139086297,4069.4796988014946,-2595.3553110819871,1854.9837626167696,-1854.9837626167696,2595.3553110819871,8020.6409707055245,0.0
533296.95196600363,3665566.251970998,-2500.0,-8353.3295721574032,3114.5342494911733,-1395.5598400561357,-424.70880598104497,167.98593359677153,-15.372797427929546,4786.1227879786738,-2854.2974234679509,2116.9761388975953,-2116.9761388975953,2854.2974234679509,9468.1181262420578,0.0
538296.95196600363,3665566.251970998,-2500.0,-9715.6221727622797,3904.8904555815038,-1734.8501369456444,-521.62970833901556,219.50233870855268,-19.830626990773553,5672.6945481176472,-3108.157584052793,2410.7855181304158,-2410.7855181304158,3108.157584052793,11270.605079203246,0.0
543296.95196600363,3665566.251970998,-2500.0,-11338.374136747514,4955.0795890479421,-2198.874272490209,-644.58838663642496,290.56069475861477,-25.725992807388923,6779.3963523967295,-3325.281416905857,2728.5596510622968,-2728.5596510622968,3325.281416905857,13537.825524780334,0.0
548296.95196600363,3665566.251970998,-2500.0,-13256.847967507229,6368.682507778527,-2849.9002710707505,-800.34532950551136,389.77706163573669,-33.460472049356795,8248.7139117172355,-3445.3060089802739,3047.6005702736093,-3047.6005702736093,3445.3060089802739,16419.659626308407,0.0
553296.95196600363,3665566.251970998,-2500.0,-15485.190472638151,8295.6744915641357,-3789.4798218437727,-995.90418010177677,529.76694861465808,-43.375292960254825,10181.920399891718,-3355.1750010939877,3314.2680911460311,-3314.2680911460311,3355.1750010939877,20122.335393368474,0.0
558296.95196600363,3665566.251970998,-2500.0,-17976.593537026056,10952.187133672438,-5188.1836242320333,-1235.8258965699358,728.5483261568703,-55.388084535534418,12724.602260676105,-2844.4679408442362,3410.8768564058091,-3410.8768564058091,2844.4679408442362,24930.998084185318,0.0
563296.95196600363,3665566.251970998,-2500.0,-20532.576603306723,14642.047931144498,-7340.9855017895643,-1514.9687399005811,1010.0820176143368,-67.969979072184969,16114.417956402012,-1521.94767414842,3086.8328092480856,-3086.8328092480856,1521.94767414842,31240.556464047484,0.0
568296.95196600363,3665566.251970998,-2500.0,-22599.501019854975,19761.467446123002,-10771.326352481901,-1800.8008445248611,1399.9763586012846,-75.490269751433672,20697.317635735963,1338.2815816260247,1814.2555544138147,-1814.2555544138147,-1338.2815816260247,39597.652483474849,0.0
573296.95196600363,3665566.251970998,-2500.0,-22819.603425152603,26714.607712210945,-16422.390200743132,-1994.9079898792568,1903.1738537043243,-61.998559333295155,26987.51051612091,7065.0009234769987,-1512.690706112342,1512.690706112342,-7065.0009234769987,50764.787470571529,0.0
578296.95196600363,3665566.251970998,-2500.0,-18081.105119257016,35489.932248112826,-25970.091349551036,-1868.7133381220078,2425.1933061641803,9.7960486727604721,35790.834516499759,17974.947054419557,-9173.1353945351366,9173.1353945351366,-17974.947054419557,65870.801636847566,0.0
583296.95196600363,3665566.251970998,-2500.0,-1753.3145390488198,44094.498421238735,-42095.343398526245,-1062.3817733659259,2555.1294479681123,195.53788512850821,48546.092900518219,37504.569803874801,-25582.859176992904,25582.859176992904,-37504.569803874801,86981.862342995315,0.0
588296.95196600363,3665566.251970998,-2500.0,38179.86090834377,43617.493529866566,-67197.134955442234,208.97974571268659,1271.153791824453,394.27586095725667,68411.302013876528,67828.553673444563,-57511.537251338297,57511.537251338297,-67828.553673444563,119426.82275926998,1.0
593296.95196600363,3665566.251970998,-2500.0,113038.91606340729,6658.0152047751908,-92196.255966292214,-2661.7428946053146,-1290.6839911679242,-694.82287361850558,102873.27568845285,95892.026458335153,-105063.07848519382,105063.07848519382,-95892.026458335153,178532.67335404371,0.0
598296.95196600363,3665566.251970998,-2500.0,186424.7828198424,-111490.77006538119,-48488.242110256033,-23839.323843809667,11063.306558873554,-7726.8728447370258,163383.43170451125,53943.849760700861,-110407.00086396205,110407.00086396205,-53943.849760700861,294334.75452468247,0.0
603296.95196600363,3665566.251970998,-2500.0,111420.1830769042,-218323.49213384304,211688.37192980558,-42021.362773133798,80541.068254123602,-21581.485850907797,237944.02671244321,-122167.25615097207,94572.933283441496,-94572.933283441496,122167.25615097207,456981.84598324931,0.0
608296.95196600363,3665566.251970998,-2500.0,2106.3555326603114,-33336.935035105831,422917.39319737931,19330.375578121402,114000.55907585965,-27564.185280000449,258651.61339136114,-116058.87988527841,306828.46109811263,-306828.46109811263,116058.87988527841,483623.1878864232,0.0
613296.95196600363,3665566.251970998,-2500.0,75607.8413224838,109722.59244675255,251650.72114117906,38045.980176833815,34903.081091348628,-17692.655475739382,171316.38436060087,62977.368041921385,171713.35474348901,-171713.35474348901,-62977.368041921385,316599.54721081519,1.0
618296.95196600363,3665566.251970998,-2500.0,95800.222293760758,77137.01353601439,62232.363671888772,9477.0146818296016,-2620.4786983787635,-4884.4646245921949,84527.516011730782,96811.13941606009,22019.957814808193,-22019.957814808193,-96811.13941606009,161322.15190689915,0.0
623296.95196600363,3665566.251970998,-2500.0,62109.111384131582,20315.845198122915,-39268.950167619805,-209.78405768289431,-2783.0106770452139,-41.322913543122453,54696.501073513726,61116.083143020063,-47534.375938351848,47534.375938351848,-61116.083143020063,95399.504534158987,0.0
628296.95196600363,3665566.251970998,-2500.0,21361.127567938227,-23609.156124522899,-75882.088202613144,377.44705144907169,1108.8275374397535,748.62183959724405,54059.011989245424,14887.728205279189,-65573.319570348831,65573.319570348831,-14887.728205279189,97739.371374977098,0.0
633296.95196600363,3665566.251970998,-2500.0,-13572.069549379989,-45946.034255372622,-71869.342451909295,2338.7298746387037,3388.58604203819,477.90499687824877,54505.775930836404,-22613.504438076467,-53323.553072084927,53323.553072084927,22613.504438076467,103918.3319861293,0.0
638296.95196600363,3665566.251970998,-2500.0,-35520.08533282928,-48823.657438835202,-53339.875807367178,3643.2750797504609,3904.9544222096074,126.34658480743627,49789.618969620424,-42420.159745534074,-32634.394082843348,32634.394082843348,42420.159745534074,97263.764748776244,0.0
643296.95196600363,3665566.251970998,-2500.0,-44285.846091239255,-41774.457314213854,-35597.440479976627,3992.7158323127251,3393.7399246150462,-69.314711083729094,42173.015729286068,-47250.678469579034,-15869.645047137077,15869.645047137077,47250.678469579034,83451.258126381697,0.0
648296.95196600363,3665566.251970998,-2500.0,-44378.508907593197,-32351.931233394556,-22891.222136995388,3697.6291872058755,2587.3782100018739,-135.12259525801221,34246.219837088393,-43953.728982664063,-5464.0216989539549,5464.0216989539549,43953.728982664063,68334.132921716577,0.0
653296.95196600363,3665566.251970998,-2500.0,-40290.89688081327,-23950.789743805297,-14723.097517924116,3135.5623501464083,1853.7252979511754,-136.63269052949695,27502.532189813493,-37692.906908137244,87.90397826685512,-87.90397826685512,37692.906908137244,54773.590906513615,0.0
658296.95196600363,3665566.251970998,-2500.0,-34844.298846933641,-17434.667995736127,-9658.8930584013542,2540.5536839821762,1293.84050934742,-115.64738122348581,22006.86354054818,-31126.470786483886,2694.5866664792266,-2694.5866664792266,31126.470786483886,43612.11954177991,0.0
663296.95196600363,3665566.251970998,-2500.0,-29432.837685151186,-12666.081352264229,-6524.7266183060538,2014.1166600143956,897.0009443870473,-91.051718549686072,17620.869445837798,-25300.404185004631,3702.775854856427,-3702.775854856427,25300.404185004631,34776.85645437098,0.0
668296.95196600363,3665566.251970998,-2500.0,-24612.779605396307,-9255.0932069482933,-4554.6067062609054,1583.6113017376795,624.16730602191308,-69.490864150218215,14183.102101658491,-20477.973619741751,3905.278517511304,-3905.278517511304,20477.973619741751,27893.946883742814,0.0
673296.95196600363,3665566.251970998,-2500.0,-20528.993045598323,-6828.4119376114095,-3285.8909756455105,1244.410277131429,438.28836817594942,-52.426723083252185,11502.487598453485,-16607.696708418036,3731.7676524071849,-3731.7676524071849,16607.696708418036,22553.013188431203,0.0
678296.95196600363,3665566.251970998,-2500.0,-17150.438335310511,-5095.8747701743432,-2445.6417880598669,981.56113767749991,311.3951363756666,-39.495743827137282,9408.6597029230907,-13540.157747543148,3404.2268143457432,-3404.2268143457432,13540.157747543148,18398.031822436762,0.0
683296.95196600363,3665566.251970998,-2500.0,-14384.456979037293,-3848.7812580694786,-1872.6956271078757,779.01455128534849,224.08729586110661,-29.871864584782809,7764.2938321128895,-11115.969515126089,3032.843199389667,-3032.843199389667,11115.969515126089,15146.211755978798,0.0
688296.95196600363,3665566.251970998,-2500.0,-12127.169743002611,-2941.6900802511118,-1470.6449876854181,622.84442937191568,163.36358732447854,-22.747637507371415,6463.4249365795959,-9195.8834880796039,2669.5049217322899,-2669.5049217322899,9195.8834880796039,12581.413699263059,0.0
693296.95196600363,3665566.251970998,-2500.0,-10283.261558666722,-2274.3334257609454,-1180.7078204603504,501.93887432844417,120.613380687709,-17.466422774260618,5425.8249660224137,-7667.3443231015535,2336.3744241023064,-2336.3744241023064,7667.3443231015535,10541.125684539542,0.0
698296.95196600363,3665566.251970998,-2500.0,-8772.0162183056746,-1777.6039062460482,-966.2445326234365,407.76751586552473,90.135745618019172,-13.531509932733735,4591.1514394990818,-6442.5054196758974,2040.8319898255727,-2040.8319898255727,6442.5054196758974,8903.7754571364912,0.0
703296.95196600363,3665566.251970998,-2500.0,-7527.6357735772453,-1403.6172934932681,-803.88104672489487,333.89804835226187,68.134405340550572,-10.57874057883841,3914.0170004169877,-5453.8704805039688,1783.1961100183985,-1783.1961100183985,5453.8704805039688,7578.3237881481573,0.0
708296.95196600363,3665566.251970998,-2500.0,-6497.4768051848332,-1118.9162974741519,-678.35252934232506,275.51416240417416,52.058353972069405,-8.344877054991434,3360.1519421523735,-4649.8665770343268,1560.6649524705253,-1560.6649524705253,4649.8665770343268,6496.2874633300453,0.0
713296.95196600363,3665566.251970998,-2500.0,-5639.780728630175,-899.89313993160795,-579.45896989779192,229.0129527198693,40.174935573054334,-6.6403298224631042,2903.5285167437864,-3991.0892237200583,1369.2925832898168,-1369.2925832898168,3991.0892237200583,5605.8210806510797,0.0
513296.95196600363,3670566.251970998,-2500.0,-4137.4186094545166,1584.4446876065997,-808.97862123526272,-175.48052952681923,74.092459525908581,-5.3630610157917253,2390.4761384077001,-1359.5833614787362,966.45421816549151,-966.45421816549151,1359.5833614787362,4694.6076641453965,0.0
518296.95196600363,3670566.251970998,-2500.0,-4657.1749250793291,1894.11759337424,-962.74655261332362,-207.15492702448341,92.0170116626782,-6.6378025789119492,2733.9911721854792,-1445.5894023002904,1061.5439504507797,-1061.5439504507797,1445.5894023002904,5386.3165047861175,0.0
523296.95196600363,3670566.251970998,-2500.0,-5252.3577804817187,2280.9901264151226,-1159.0686273990782,-245.65476530015641,115.29776691532901,-8.2685717973060964,3142.8397719599452,-1518.2161764309349,1159.0537226477409,-1159.0537226477409,1518.2161764309349,6214.4655144589442,0.0
528296.95196600363,3670566.251970998,-2500.0,-5930.650405193478,2768.0458122690488,-1413.4726409662067,-292.52335825319511,145.82145072805218,-10.363345300727353,3632.0588125615254,-1563.5956082937091,1252.6406932539758,-1252.6406932539758,1563.5956082937091,7212.3809555986436,0.0
533296.95196600363,3670566.251970998,-2500.0,-6696.4629035622256,3385.871027728836,-1748.4789617993329,-349.54204404946006,186.21935492356678,-13.059890301364788,4220.8637621006119,-1559.2164609153392,1330.5458999781404,-1330.5458999781404,1559.2164609153392,8422.825526806495,0.0
538296.95196600363,3670566.251970998,-2500.0,-7546.4478559769368,4175.0805481343523,-2197.3018266571662,-418.60986748178902,240.16968821007296,-16.526844707218292,4970.7213557219056,-1468.6834690673029,1371.6293896769077,-1371.6293896769077,1468.6834690673029,9900.8619044766674,0.0
543296.95196600363,3670566.251970998,-2500.0,-8460.9317479431102,5189.0747785462781,-2809.7482675546498,-501.39646952901751,312.79698965192659,-20.953088544816115,5923.9251215867889,-1233.2072770681591,1338.4532371583643,-1338.4532371583643,1233.2072770681591,11717.527846201212,0.0
548296.95196600363,3670566.251970998,-2500.0,-9387.7100883127441,6496.3513408460813,-3661.679709154776,-598.50763126348465,411.1422193514461,-26.506989536265987,7118.8481517219307,-757.80863254343751,1165.1308286222904,-1165.1308286222904,757.80863254343751,13964.472929162048,0.0
553296.95196600363,3670566.251970998,-2500.0,-10211.585373520185,8179.9626163096818,-4870.1381324650965,-707.63876314874312,544.54761622609715,-33.222427588911465,8629.8634689402097,110.7886218520141,735.91072307075842,-735.91072307075842,-110.7886218520141,16759.778089255717,0.0
558296.95196600363,3670566.251970998,-2500.0,-10697.497230352968,10327.468468353318,-6616.9539484566676,-819.70121624552849,724.42393396531895,-40.72387923626291,10558.605460145678,1618.4208613449628,-152.38138495026953,152.38138495026953,-1618.4208613449628,20255.669381248637,0.0
563296.95196600363,3670566.251970998,-2500.0,-10385.932562789694,12994.016094381906,-9182.9619239156837,-911.12515627295409,961.86312616598684,-47.626568060437187,13046.980879222801,4152.2492504929005,-1854.6536284168631,1854.6536284168631,-4152.2492504929005,24651.376890268755,0.0
568296.95196600363,3670566.251970998,-2500.0,-8407.6650797450329,16094.812361976152,-12987.099634563434,-929.86818072879873,1259.0960086482326,-50.422024472362708,16303.334522595964,8294.4740966532027,-4980.2239736016481,4980.2239736016481,-8294.4740966532027,30225.238917770967,0.0
573296.95196600363,3670566.251970998,-2500.0,-3185.5592699478739,19121.787764088516,-18588.337667788994,-774.86703076450908,1585.6784278390121,-42.204311803163463,20665.919117907899,14822.250704904111,-10525.208215541001,10525.208215541001,-14822.250704904111,37440.824636646685,0.0
578296.95196600363,3670566.251970998,-2500.0,7922.1857351938188,20455.635792409295,-26471.004193643432,-285.85756093104516,1824.5791860985576,-15.29667811037465,26774.859859305521,24428.27978485058,-19909.251017622613,19909.251017622613,-24428.27978485058,47312.063140541177,0.0
583296.95196600363,3670566.251970998,-2500.0,28536.881623508354,15907.545083704948,-35979.873301657091,669.47441499093827,1696.033809441411,11.383004210442978,36012.366219828771,36464.737916140934,-34322.174668484688,34322.174668484688,-36464.737916140934,62488.937307411812,0.0
588296.95196600363,3670566.251970998,-2500.0,60713.28121586117,-3368.1676879246761,-41586.517182003809,1756.2793795064417,867.95712366794726,-133.47692680949444,51295.416355312205,45130.793402604169,-51349.298628580167,51349.298628580167,-45130.793402604169,89378.481184017466,0.0
593296.95196600363,3670566.251970998,-2500.0,95222.678511449223,-49117.420154415318,-23611.225425270273,1266.7997618778406,162.47131758985537,-1116.0703918336465,77100.05716841665,32462.044366306647,-54691.244035044954,54691.244035044954,-32462.044366306647,138552.51010396038,0.0
598296.95196600363,3670566.251970998,-2500.0,96990.341515603679,-112937.56375434023,58214.218297459287,-2586.7174704726103,4383.0252217582229,-4204.1855112875983,114691.62411725102,-27014.549742145984,-2028.9288174135363,2028.9288174135363,27014.549742145984,214854.31006946354,0.0
603296.95196600363,3670566.251970998,-2500.0,37415.249121842382,-122089.87503550743,209980.95763245397,-3362.9086433975931,16760.454824828845,-8939.3434854153693,150623.92524900488,-104544.70880151098,128641.15747582645,-128641.15747582645,104544.70880151098,292440.35953599255,0.0
608296.95196600363,3670566.251970998,-2500.0,-8386.6493722246432,-21195.548979922289,297285.22954161261,5672.1586056194956,19688.842929124534,-10500.113415882575,158887.80299884127,-86276.773457950811,219238.46541924798,-219238.46541924798,86276.773457950811,310955.00713335862,0.0
613296.95196600363,3670566.251970998,-2500.0,23050.204982408348,73637.909255135688,222560.39151455139,8112.269887917605,5424.1606754199292,-6777.7954877333323,128901.41207309689,12841.340432172743,164028.12350507634,-164028.12350507634,-12841.340432172743,251392.78120805384,0.0
618296.95196600363,3670566.251970998,-2500.0,59027.110657201687,81850.292002452596,94276.433990307007,1632.9273901501142,-3382.5838071571256,-2474.3846692058105,84636.534167310703,69694.821082881972,58456.649289931142,-58456.649289931142,-69694.821082881972,165328.67475104876,0.0
623296.95196600363,3670566.251970998,-2500.0,60044.253698808847,46702.952008490465,2947.4470148449664,-1881.0712528853287,-2420.7481747924558,-438.11292324471469,54814.472084349196,67723.805933254465,-12907.323693371683,12907.323693371683,-67723.805933254465,100182.35644152656,0.0
628296.95196600363,3670566.251970998,-2500.0,40245.191572009302,9125.269415079023,-40967.991527132952,-1398.7217168400487,657.98075570081051,79.974617825379312,41648.125854096957,40435.897573028124,-42661.754810782833,42661.754810782833,-40435.897573028124,72137.787271276786,0.0
633296.95196600363,3670566.251970998,-2500.0,15713.755924883621,-16150.377043924336,-51690.276153293984,216.98047355431243,2568.0382692589337,74.022567525403758,37433.877749494073,10823.796459157144,-45065.823281723213,45065.823281723213,-10823.796459157144,67350.972154745774,0.0
638296.95196600363,3670566.251970998,-2500.0,-4523.1255459929571,-27512.114806625239,-45808.154682987501,1513.3317011172992,3133.1434648019085,-25.708696285101787,34496.638248812131,-10661.240169858986,-35180.224138485777,35180.224138485777,10661.240169858986,64941.712640402518,0.0
643296.95196600363,3670566.251970998,-2500.0,-17300.909376983669,-29158.951349688679,-35081.774434508283,2166.1509109710923,2897.9923076441614,-92.591418341096883,30599.399331983001,-22159.768096692558,-23177.240100289939,23177.240100289939,22159.768096692558,59230.643991455705,0.0
648296.95196600363,3670566.251970998,-2500.0,-23373.955833254706,-26009.03630309748,-25112.115453576916,2302.3076283876831,2358.2673409734957,-114.69854993925281,26131.448630318439,-26127.279602000537,-13459.981878574963,13459.981878574963,26127.279602000537,51443.54764297419,0.0
653296.95196600363,3670566.251970998,-2500.0,-24910.184796968224,-21362.812967001271,-17503.60872623881,2143.0879425979665,1796.0852002325692,-109.53023879805373,21772.461970421456,-25736.772641411866,-6840.3362084918535,6840.3362084918535,25736.772641411866,43345.212867559712,0.0
658296.95196600363,3670566.251970998,-2500.0,-23914.756743773876,-16839.893846082763,-12158.527253795277,1861.1403438961092,1323.0969368207657,-93.255078813703079,18035.003773153756,-23333.69392513905,-2749.4732038158636,2749.4732038158636,23333.69392513905,35944.557222468,0.0
663296.95196600363,3670566.251970998,-2500.0,-21754.863152983751,-13023.382649900395,-8528.1223312585953,1556.726240236703,960.75746868095473,-74.980066563142401,14948.79635276185,-20281.902295197382,-388.08146634630612,388.08146634630612,20281.902295197382,29615.44614243976,0.0
668296.95196600363,3670566.251970998,-2500.0,-19222.44695773585,-10004.304229604304,-6083.4381807102554,1276.7628400964447,695.38132232337955,-58.581662313046564,12367.193136060559,-17256.131375003988,889.01441422191783,-889.01441422191783,17256.131375003988,24386.316559514838,0.0
673296.95196600363,3670566.251970998,-2500.0,-16723.720963010848,-7687.8723044292392,-4428.7517233461922,1037.664541642373,504.93961040831664,-45.178230456818184,10252.462064764457,-14537.133128128417,1519.6794424042673,-1519.6794424042673,14537.133128128417,20139.095393482799,0.0
678296.95196600363,3670566.251970998,-2500.0,-14440.176787519071,-5933.8217073516389,-3294.4875332199126,841.03976599233101,369.20669885480663,-34.702595644905351,8536.1126369554095,-12206.626411105448,1778.4635944914553,-1778.4635944914553,12206.626411105448,16713.67228738164,0.0
683296.95196600363,3670566.251970998,-2500.0,-12433.644419251414,-4610.4179420452483,-2503.876733433407,682.44148102004169,272.38346581615025,-26.690472675430065,7146.6198159539163,-10256.184590487788,1830.5275569683254,-1830.5275569683254,10256.184590487788,13954.291108187099,0.0
688296.95196600363,3670566.251970998,-2500.0,-10707.18369074749,-3610.1166827337611,-1942.4551684020889,555.66445836753758,202.95028218210871,-20.618597367433352,6020.1719087441388,-8642.5391254851584,1772.8247115826575,-1772.8247115826575,8642.5391254851584,11726.337045150331,0.0
693296.95196600363,3670566.251970998,-2500.0,-9237.9503873833382,-2850.2970512771258,-1536.0440366989646,454.62092646114843,152.77017768806968,-16.026557650156938,5103.5939817501994,-7313.5869383568588,1661.257307274127,-1661.257307274127,7313.5869383568588,9919.6513764256088,0.0
698296.95196600363,3670566.251970998,-2500.0,-7994.0179099131028,-2269.2813268593177,-1236.1829138076655,374.0272387661538,116.17295939628234,-12.546403411637769,4354.0432212164787,-6219.5697667507284,1527.4755715576825,-1527.4755715576825,6219.5697667507284,8446.5285528095519,0.0
703296.95196600363,3670566.251970998,-2500.0,-6942.4703703562654,-1821.6093045697719,-1010.8255612328566,309.55198754696534,89.221569116980987,-9.8966983452752739,3737.5723824226011,-5317.1149544345517,1388.9551385736434,-1388.9551385736434,5317.1149544345517,7238.0628184388179,0.0
708296.95196600363,3670566.251970998,-2500.0,-6052.9479764977559,-1473.9107583029802,-838.47431805332201,257.74664301721253,69.176632662578825,-7.867099081557047,3227.4817688537937,-4570.0510550470917,1254.9524655526111,-1254.9524655526111,4570.0510550470917,6240.4101096373697,0.0
713296.95196600363,3670566.251970998,-2500.0,-5298.9238073934121,-1201.6689690729891,-704.48413979940699,215.90706413843719,54.121852854061522,-6.3017888954005628,2802.821090871671,-3948.9033801997857,1130.0052009631443,-1130.0052009631443,3948.9033801997857,5411.5387074366436,0.0
513296.95196600363,3675566.251970998,-2500.0,-3460.4808034952248,1678.1405289853274,-936.34078061480739,-149.41938827276516,79.614859813474553,-4.6804610106262778,2153.504778918923,-845.58331762324065,655.65936535888295,-655.65936535888295,845.58331762324065,4257.3907326234967,0.0
518296.95196600363,3675566.251970998,-2500.0,-3818.5938098067577,1983.9671843969418,-1119.5820384637705,-173.49969639544381,97.992547832993679,-5.7178759871409692,2439.7532475300122,-826.37365952043365,674.37203568849441,-674.37203568849441,826.37365952043365,4843.4679537529137,0.0
523296.95196600363,3675566.251970998,-2500.0,-4204.9228226594896,2357.8646287481697,-1352.9073928622756,-201.76216555942713,121.48517597669732,-7.0152801748051434,2774.5365615216779,-768.58268681325944,673.11935879073735,-673.11935879073735,768.58268681325944,5534.3382028773749,0.0
528296.95196600363,3675566.251970998,-2500.0,-4611.1675286117143,2816.4330091161378,-1653.580702971497,-234.69273907542637,151.70618999211186,-8.6370322303690372,3187.9965670587703,-652.1670120184549,638.21962094434593,-638.21962094434593,652.1670120184549,6352.1173064343693,0.0
533296.95196600363,3675566.251970998,-2500.0,-5019.8926415518135,3379.7295777787344,-2045.8399959915923,-272.55156923838916,190.7939907760275,-10.656288824983339,3700.4237019592993,-447.51441249784915,548.16902899238085,-548.16902899238085,447.51441249784915,7323.8979730843448,0.0
538296.95196600363,3675566.251970998,-2500.0,-5398.0261761570346,4070.9121462507892,-2563.9554174621921,-315.04730977647557,241.54424896646231,-13.146335540352691,4320.2908287696146,-110.92277141073583,369.1699729897619,-369.1699729897619,110.92277141073583,8482.7784286804927,0.0
543296.95196600363,3675566.251970998,-2500.0,-5686.022041696232,4914.2775535129094,-3256.5438497265332,-360.71441098800756,307.50756191267783,-16.158327000633498,5074.272342407904,421.85682791806732,48.104213773809846,-48.104213773809846,-421.85682791806732,9869.108752154425,0.0
548296.95196600363,3675566.251970998,-2500.0,-5779.9220882513637,5929.5852826987812,-4192.3296851797477,-405.75249028270622,392.92866684372632,-19.670391542816546,5997.385992172045,1244.3922072532644,-498.34644374023833,498.34644374023833,-1244.3922072532644,11532.261111787144,0.0
553296.95196600363,3675566.251970998,-2500.0,-5502.1428748936987,7118.1930923305972,-5466.8535054930053,-441.9215973301587,502.220166334027,-23.481090577785231,7136.4590472260625,2490.2034458221779,-1399.9540794287204,1399.9540794287204,-2490.2034458221779,13534.1131902713,0.0
558296.95196600363,3675566.251970998,-2500.0,-4555.5001003520974,8431.70999854412,-7207.2295615836047,-452.87368670835593,638.25645861401961,-27.006799625415638,8557.3059069890078,4341.9000979008488,-2855.2943592009906,2855.2943592009906,-4341.9000979008488,15958.253599898966,0.0
563296.95196600363,3675566.251970998,-2500.0,-2456.0679167365392,9704.5556866550996,-9564.811787362265,-408.20607815960108,797.93652664440913,-28.944187863534797,10360.809793388358,7027.003712899912,-5156.2356138656905,5156.2356138656905,-7027.003712899912,18937.375158106337,0.0
568296.95196600363,3675566.251970998,-2500.0,1548.0718709510943,10515.841778804952,-12665.421496273864,-255.25528566007881,961.98118568152324,-26.888205161739101,12721.359843130569,10766.368682000868,-8693.6357015852136,8693.6357015852136,-10766.368682000868,22734.086356922075,1.0
573296.95196600363,3675566.251970998,-2500.0,8519.8239762642952,9927.3941420502451,-16434.500564371814,87.505552531057219,1074.3219777451309,-17.613881300769805,15976.998885112615,15588.704203488032,-13871.653468374778,13871.653468374778,-15588.704203488032,27958.989637746148,0.0
578296.95196600363,3675566.251970998,-2500.0,19649.745041612448,6062.0394665203867,-20095.27878504607,719.15618007890293,1009.1921483229238,-0.94928058816729555,20813.463985174196,20824.342165564824,-20722.875901977783,20722.875901977783,-20824.342165564824,36050.677149974181,0.0
583296.95196600363,3675566.251970998,-2500.0,35350.405314415817,-4292.7017472036923,-20942.741359210635,1684.0472828586235,548.9823858150188,4.0373044816151644,28520.274533509139,24000.663928111109,-27745.323795263223,27745.323795263223,-24000.663928111109,49932.152674932528,0.0
588296.95196600363,3675566.251970998,-2500.0,52802.066197644664,-24973.987814242413,-12047.02032104532,2784.7971651781145,-520.51479095835953,-84.766412417926546,40995.312557551602,19258.13535420315,-29311.279602156384,29311.279602156384,-19258.13535420315,73945.497475762866,0.0
593296.95196600363,3675566.251970998,-2500.0,62315.276427632452,-55610.895235873679,19458.609096143653,3411.2450687092796,-2007.2489226133609,-468.62353656439223,59675.709831170563,-2120.6557313209487,-12660.24821778801,12660.24821778801,2120.6557313209487,111411.4681943085,1.0
598296.95196600363,3675566.251970998,-2500.0,49548.555914997371,-80693.850238640211,84783.931830578367,3047.450318251143,-2927.2142992170088,-1357.7764705727429,82663.090067868383,-41395.676329331538,36959.219901246768,-36959.219901246768,41395.676329331538,158791.52735882063,0.0
603296.95196600363,3675566.251970998,-2500.0,16182.90715281747,-68678.391818325443,166207.85111548935,2408.1158009463616,-2841.098054671711,-2445.9470090217746,101825.44022547435,-72695.461887557336,109378.43082418556,-109378.43082418556,72695.461887557336,199602.3244052034,0.0
608296.95196600363,3675566.251970998,-2500.0,-4562.8349183382243,-12068.413267869886,205781.37557625544,2030.9979577488443,-3616.9969569453401,-2738.4732738996345,106380.45785754404,-57225.33060953323,151623.51294543166,-151623.51294543166,57225.33060953323,210601.12518629292,0.0
613296.95196600363,3675566.251970998,-2500.0,8352.4907762850089,44151.251673142411,170315.61255833344,480.15648530116488,-5461.7467246657516,-1891.0602222164971,93024.274446751573,-4036.1374776952289,127313.33911159004,-127313.33911159004,4036.1374776952289,184212.49525430214,0.0
618296.95196600363,3675566.251970998,-2500.0,32039.766764921274,61820.158322913347,95425.904318986155,-1838.6538675142187,-5440.4588018431778,-799.44427115990538,69747.320674885181,39332.203714231866,66182.979845800292,-66182.979845800292,-39332.203714231866,136901.06138617982,0.0
623296.95196600363,3675566.251970998,-2500.0,42336.522306124731,47771.582225968938,28354.914846808031,-2839.4707814205212,-3146.3350253888625,-174.99724681848565,48396.539766535498,51623.538084935368,11848.289170728298,-11848.289170728298,-51623.538084935368,91151.486676342742,0.0
628296.95196600363,3675566.251970998,-2500.0,37155.123503219314,23452.22032102814,-12858.177982949554,-2241.9332925286053,-511.1687685746453,13.880613169287088,34341.494948247069,41622.014200673439,-19382.472800047319,19382.472800047319,-41622.014200673439,60738.197700339224,1.0
633296.95196600363,3675566.251970998,-2500.0,23995.219178934352,2415.4136967558029,-30613.528928394622,-1001.6937346535199,1249.9626598402756,9.9892460245935126,27456.719804700078,23507.060884104016,-30317.793423771407,30317.793423771407,-23507.060884104016,47673.9268995975,0.0
638296.95196600363,3675566.251970998,-2500.0,9805.4156273800108,-10794.445100166733,-33535.927320676274,125.8153608865338,2021.3487925748016,-36.277231949989684,24270.129142043166,6569.9184946338391,-29141.749722015749,29141.749722015749,-6569.9184946338391,43710.913029507072,0.0
643296.95196600363,3675566.251970998,-2500.0,-1571.1135043123318,-16782.673597955523,-29499.090560114957,863.52592005511428,2121.4056448881106,-70.019961148302357,21903.344691221355,-5409.540556427768,-23003.771597054794,23003.771597054794,5409.540556427768,41047.048692295917,0.0
648296.95196600363,3675566.251970998,-2500.0,-9045.0443394641861,-17962.69360851909,-23455.028441134611,1222.4793707248994,1887.0042137311455,-82.555392912422704,19424.990001391172,-12226.446759442886,-16175.83377625277,16175.83377625277,12226.446759442886,37420.10128691158,0.0
653296.95196600363,3675566.251970998,-2500.0,-13089.001872604913,-16626.224936330178,-17742.072381657799,1314.9676174315891,1543.3560805640036,-80.136279474208919,16852.104131899192,-15161.987587143358,-10469.188678658866,10469.188678658866,15161.987587143358,33061.157699167969,0.0
658296.95196600363,3675566.251970998,-2500.0,-14686.215980665615,-14308.25062297958,-13126.801567539911,1254.809895080466,1206.1332899998165,-70.402230634613787,14383.265529628296,-15671.617280252973,-6284.8352006511886,6284.8352006511886,15671.617280252973,28574.948785504395,0.0
663296.95196600363,3675566.251970998,-2500.0,-14762.430980625868,-11841.8526626942,-9655.5991174054088,1123.8906315971083,920.21045396005184,-58.518906372669022,12219.298586051786,-14873.88492754254,-3436.7691579924594,3436.7691579924594,14873.88492754254,24376.47495067252,0.0
668296.95196600363,3675566.251970998,-2500.0,-14000.837501016391,-9600.2968957438025,-7130.2849776119911,971.33861517636092,694.27456143406846,-47.157203823680021,10426.082606919917,-13487.227316562146,-1590.427443079283,1590.427443079283,13487.227316562146,20659.47340838371,0.0
673296.95196600363,3675566.251970998,-2500.0,-12844.434535499859,-7706.5656063495144,-5316.7270067695572,822.74233062435769,522.11623485839107,-37.378047441861725,8863.6619747807617,-11922.725177546936,-438.19353962323839,438.19353962323839,11922.725177546936,17472.873038833732,0.0
678296.95196600363,3675566.251970998,-2500.0,-11556.250037981794,-6165.7102542782795,-4016.0076562462955,689.38186410266042,393.29664042769332,-29.401318105397841,7533.824811153775,-10393.094643707711,254.05167839133719,-254.05167839133719,10393.094643707711,14790.06426509648,0.0
683296.95196600363,3675566.251970998,-2500.0,-10280.735932709338,-4936.1799826554252,-3077.9068438209797,574.76341465617872,297.63743937375779,-23.079267890837237,6416.0334961219387,-8995.1365500724023,649.85835197812867,-649.85835197812867,8995.1365500724023,12552.71129580317,0.0
688296.95196600363,3675566.251970998,-2500.0,-9089.9446592387867,-3964.1389069326115,-2394.8180258845778,478.58640473835965,226.69233469818883,-18.143076922012821,5482.0218762950508,-7762.6462495025007,858.45206539373567,-858.45206539373567,7762.6462495025007,10694.388206153015,0.0
693296.95196600363,3675566.251970998,-2500.0,-8014.100729185232,-3198.1199974453821,-1891.4835043653507,398.93559998466264,173.93801731550042,-14.314941629528219,4702.9981346906079,-6697.524591464834,950.95550500929312,-950.95550500929312,6697.524591464834,9151.8039077151298,0.0
698296.95196600363,3675566.251970998,-2500.0,-7060.4850459494846,-2594.1421500771003,-1515.7351313335987,333.40479424177244,134.51385505294007,-11.351258506354927,4052.7598702459873,-5787.0561236050744,972.98454859377807,-972.98454859377807,5787.0561236050744,7869.2651174908078,0.0
703296.95196600363,3675566.251970998,-2500.0,-6224.5786192367905,-2116.5798633501204,-1231.4202752706433,279.62576813191089,104.86224118009306,-9.0534942897060144,3508.7317440119868,-5013.0488517074018,953.49995992071763,-953.49995992071763,5013.0488517074018,6799.7479821174429,0.0
708296.95196600363,3675566.251970998,-2500.0,-5496.413003722314,-1737.369628908363,-1013.3664317556839,235.48593131459793,82.399696729478748,-7.265902931402529,3052.0276692031662,-4356.4180628164195,910.73082910080325,-910.73082910080325,4356.4180628164195,5904.4415528723794,0.0
513296.95196600363,3680566.251970998,-2500.0,-2778.2177069090212,1684.2577182761675,-1045.1332819566815,-122.95585687998494,81.410812869362843,-3.9804246706954651,1907.3195114650541,-390.2541566328826,347.20482894107687,-347.20482894107687,390.2541566328826,3803.6030906894171,0.0
518296.95196600363,3680566.251970998,-2500.0,-2984.7699034621105,1962.7437679832606,-1248.0257473954352,-139.74200352446778,99.041409058040671,-4.7845955696749733,2150.4707630829953,-289.85996963077758,297.59465853445994,-297.59465853445994,289.85996963077758,4285.5829254936698,0.0
523296.95196600363,3680566.251970998,-2500.0,-3180.0062326403608,2293.2052809995585,-1503.4765799222575,-158.36818356218075,121.11236410549698,-5.7597524048390412,2446.1277202280635,-136.22439203944117,211.17326522267251,-211.17326522267251,136.22439203944117,4843.6031511576784,0.0
528296.95196600363,3680566.251970998,-2500.0,-3344.5870254325187,2683.8743264034333,-1827.7370616047581,-178.49100339751064,148.80028689461221,-6.9330369944401991,2794.285546919461,91.848658224648133,70.386381587781003,-70.386381587781003,-91.848658224648133,5490.8645510950973,0.0
533296.95196600363,3680566.251970998,-2500.0,-3447.3873737524577,3142.0371392046318,-2242.4318207181764,-199.24596239515222,183.53286117256508,-8.3245044549001932,3205.6272729349239,423.51429297130517,-150.33370644698348,150.33370644698348,-423.51429297130517,6242.7954754726443,0.0
538296.95196600363,3680566.251970998,-2500.0,-3439.1404544883412,3671.3470772904548,-2776.0484176628215,-218.84301390030291,226.94892943819278,-9.9329410695917897,3693.912584015452,898.42485259605769,-488.0909728634324,488.0909728634324,-898.42485259605769,7117.5724340764227,0.0
543296.95196600363,3680566.251970998,-2500.0,-3242.9387894214556,4266.4139429926227,-3465.2585659439014,-233.88867314423024,280.72050842359448,-11.708284631530962,4277.0026569879101,1569.3975236015699,-996.27607795351469,996.27607795351469,-1569.3975236015699,8137.3233096974309,0.0
548296.95196600363,3680566.251970998,-2500.0,-2740.4771594926528,4902.3144301364664,-4355.0074237722847,-238.27519995391643,346.06586839486209,-13.499759337742061,4979.2184181490366,2504.1149829137585,-1750.3930908840505,1750.3930908840505,-2504.1149829137585,9331.3220682871543,0.0
553296.95196600363,3680566.251970998,-2500.0,-1753.3143946812488,5514.8665356952579,-5494.6128886289416,-221.42674079219159,422.61158851296068,-14.965225354507993,5836.29673443517,3782.944899324048,-2853.6284951449329,2853.6284951449329,-3782.944899324048,10744.626804729696,0.0
558296.95196600363,3680566.251970998,-2500.0,-20.55467234238456,5964.7622150442803,-6923.2144303891273,-165.71362679381346,505.95226011116119,-15.425742634742214,6906.1359969254263,5485.9414775566602,-4437.543518012395,4437.543518012395,-5485.9414775566602,12460.644133867358,0.0
563296.95196600363,3680566.251970998,-2500.0,2818.8559893273009,5975.5096837047995,-8629.3446099712237,-43.151955211924296,582.77329377301828,-13.674773928777752,8291.7709638803863,7653.8354071592848,-6645.0286941149816,6645.0286941149816,-7653.8354071592848,14656.116656700098,1.0
568296.95196600363,3680566.251970998,-2500.0,7213.1883990253082,5035.4290076635034,-10452.07171676655,187.35385109038242,621.90650739677767,-7.8615352167584911,10186.888301756218,10192.949516023331,-9563.8930562274363,9563.8930562274363,-10192.949516023331,17719.353687308565,0.0
573296.95196600363,3680566.251970998,-2500.0,13588.850977974364,2271.8298622019329,-11861.526628583504,577.89411213388178,560.12466887734911,4.0887330467979091,12951.188204817458,12674.416869023116,-13042.458623494196,13042.458623494196,-12674.416869023116,22448.984236615783,0.0
578296.95196600363,3680566.251970998,-2500.0,22013.290000361609,-3618.9148609459271,-11527.403230292617,1174.0865122961218,285.98770883628015,22.251933934781025,17192.214038582406,13979.857766189634,-16266.509645260056,16266.509645260056,-13979.857766189634,30243.340335657966,0.0
583296.95196600363,3680566.251970998,-2500.0,31459.122052230836,-14090.756172494641,-6643.4567164876507,1965.6627476803239,-359.92492442708027,38.385360521652231,23753.503625233454,11874.008555227218,-16984.663385917713,16984.663385917713,-11874.008555227218,43005.656195594995,0.0
588296.95196600363,3680566.251970998,-2500.0,38759.640692694651,-29459.24976886034,7579.7387365392906,2802.5386666598292,-1523.3900152090891,24.996288242386996,33420.687427060358,3087.7403884682744,-10644.165623814024,10644.165623814024,-3087.7403884682744,62441.040666211244,0.0
593296.95196600363,3680566.251970998,-2500.0,38494.788270888843,-46016.880448129865,36557.182372652009,3348.4668616510316,-3175.8210817296244,-66.994946751678555,46154.339602084612,-14542.825084886666,8962.5710826526483,-8962.5710826526483,14542.825084886666,88501.988514749115,0.0
598296.95196600363,3680566.251970998,-2500.0,26721.820590513737,-53487.462713715293,80247.506366567672,3232.020648960754,-4974.4790622903074,-263.81173158767615,59965.377482513592,-36690.817091756791,44247.659977131581,-44247.659977131581,36690.817091756791,117157.79131864889,0.0
603296.95196600363,3680566.251970998,-2500.0,8585.8392194418029,-39971.858190968931,124308.34390991853,2346.0092846288712,-6436.0324759034584,-476.26353525016987,70512.521849495737,-49048.583668979598,84226.502045719375,-84226.502045719375,49048.583668979598,139486.68821507518,0.0
608296.95196600363,3680566.251970998,-2500.0,-1580.6929719099783,-6839.5486579478711,143518.64208327275,865.97548590539702,-7226.9287063087795,-520.45286321031381,73164.507431523612,-37867.740779993321,105381.16232879099,-105381.16232879099,37867.740779993321,145603.48389208,0.0
613296.95196600363,3680566.251970998,-2500.0,4092.6972528119604,26607.281230348839,125178.60807665483,-867.21320068008197,-7014.9633060725082,-345.16400715476652,66480.686707177738,-8103.6181175233651,93623.708587615023,-93623.708587615023,8103.6181175233651,132259.52682340451,0.0
618296.95196600363,3680566.251970998,-2500.0,17677.048112421806,42440.829833614436,82374.811208586922,-2232.1808133042887,-5591.3222090873733,-112.13119867521777,53575.953710558977,20498.230934176783,59293.15618337912,-59293.15618337912,-20498.230934176783,105667.32804201703,0.0
623296.95196600363,3680566.251970998,-2500.0,27278.482201305836,39254.557665092048,37625.993729718131,-2685.9041028566021,-3407.7828155320235,25.173729136396346,39727.641222897364,34491.577637682516,22798.199161082015,-22798.199161082015,-34491.577637682516,76230.307799862945,0.0
628296.95196600363,3680566.251970998,-2500.0,28338.061842058603,25959.102524881502,4624.4591204124681,-2271.2475184233654,-1291.4812501271103,52.463397407311412,28614.987018250831,33819.416973367261,-3286.1577543310705,3286.1577543310705,-33819.416973367261,52285.381017753913,0.0
633296.95196600363,3680566.251970998,-2500.0,22765.962821287172,11253.034461755371,-14000.802399594653,-1430.3220300357752,225.65864176972454,24.451685262324741,21598.084018902031,24826.015900467835,-16719.980517834607,16719.980517834607,-24826.015900467835,37669.910212795701,0.0
638296.95196600363,3680566.251970998,-2500.0,14342.597500120704,-220.53411223719283,-21421.89737654736,-575.9709228830045,1059.5732545657361,-12.828070796468207,17921.420475418952,13656.469527028212,-20600.994593366071,20600.994593366071,-13656.469527028212,31245.351856928679,0.0
643296.95196600363,3680566.251970998,-2500.0,6062.7109520331105,-7296.9695936295584,-22095.000027610738,80.010700701056138,1370.746004379346,-39.327795700214693,15899.533365135589,3957.7069388654481,-19086.587262637935,19086.587262637935,-3957.7069388654481,28699.572396815263,0.0
648296.95196600363,3680566.251970998,-2500.0,-530.89214192027441,-10656.747284985897,-19592.646678226676,492.85936493224096,1367.4328144142437,-51.875295962327563,14341.44833074489,-2948.8336715725818,-15397.372878215541,15397.372878215541,2948.8336715725818,26828.119228382246,0.0
653296.95196600363,3680566.251970998,-2500.0,-5052.9561542853462,-11523.500433056104,-16107.109306189468,702.3044680076016,1213.7308500457304,-53.946832736638946,12823.040326809649,-7135.5806151254765,-11408.900242839609,11408.900242839609,7135.5806151254765,24631.616265872981,0.0
658296.95196600363,3680566.251970998,-2500.0,-7746.3866187106105,-10989.041373272554,-12724.03700176215,771.38234371920521,1011.519136552454,-50.015052034842007,11305.32561796982,-9230.4058035233702,-7957.2498383387156,7957.2498383387156,9230.4058035233702,22123.577501550863,0.0
663296.95196600363,3680566.251970998,-2500.0,-9068.1111911709213,-9810.3993649051663,-9856.0050948073458,756.37606058455697,813.38178560976712,-43.481089851684651,9850.7381204014418,-9925.8287336212488,-5274.9758827478954,5274.9758827478954,9925.8287336212488,19534.791205123867,0.0
668296.95196600363,3680566.251970998,-2500.0,-9465.0557241853185,-8436.5799090283144,-7578.6520926497697,697.80456936322469,641.12762464087302,-36.397892263649588,8541.5601789955763,-9780.7537013760757,-3316.5529907753207,3316.5529907753207,9780.7537013760757,17055.597967425572,0.0
673296.95196600363,3680566.251970998,-2500.0,-9290.5482481529343,-7100.8019238118959,-5829.6514251139006,621.32093690777106,500.23165706773449,-29.799774081456849,7462.3779991807532,-9184.2010460147503,-1942.8809635132257,1942.8809635132257,9184.2010460147503,14793.976892053446,0.0
678296.95196600363,3680566.251970998,-2500.0,-8794.2030043411669,-5905.7376530184765,-4507.6026103004951,541.619375780052,388.76331243195517,-24.096688586653375,6489.128811303387,-8382.9497332793544,-1006.7211470401953,1006.7211470401953,8382.9497332793544,12793.062323060723,0.0
683296.95196600363,3680566.251970998,-2500.0,-8139.9225995336556,-4883.0052418993491,-3513.8331793316734,466.28096704412718,302.15989345538634,-19.366702453458057,5632.834190989066,-7522.6448388336248,-383.88497057262657,383.88497057262657,7522.6448388336248,11055.997914310512,0.0
688296.95196600363,3680566.251970998,-2500.0,-7429.3509649043845,-4029.3339780178908,-2766.2447027170797,398.64544598519126,235.47946785576181,-15.535003392125427,4890.7622663803459,-6683.2193231780557,20.516037561560552,-20.516037561560552,6683.2193231780557,9564.9108056573114,0.0
693296.95196600363,3680566.251970998,-2500.0,-6722.1121477553761,-3326.6606082622066,-2201.1789788606907,339.69737214555556,184.31012787864606,-12.471439454476823,4253.1915952984327,-5904.3990560067541,275.30469667265288,-275.30469667265288,5904.3990560067541,8292.9116668339939,0.0
698296.95196600363,3680566.251970998,-2500.0,-6050.8198255392726,-2752.480141582917,-1770.9882349508616,289.21239374995361,145.03230711769683,-10.038163707648881,3707.8150776684975,-5202.472245791887,428.93862363693233,-428.93862363693233,5202.472245791887,7210.8909759758553,0.0
703296.95196600363,3680566.251970998,-2500.0,-5431.3620591999961,-2284.7343740812403,-1440.6270286633548,246.41473234765868,114.80297685524211,-8.1102454496682981,3242.0654974249287,-4580.7182462981655,514.93876042784723,-514.93876042784723,4580.7182462981655,6290.9934540187842,0.0
708296.95196600363,3680566.251970998,-2500.0,-4869.6416043309155,-1903.8208652902092,-1184.5090168369068,210.33608741361627,91.441295876790051,-6.5822626628822771,2844.2388715048196,-4035.6586629396838,556.24643638800853,-556.24643638800853,4035.6586629396838,5508.1702856048596,0.0
518296.95196600363,3685566.251970998,-2500.0,-2197.3464887855116,1847.9387650382366,-1334.1684641033889,-107.5340739584128,95.81129584446046,-3.8817568967117846,1900.7477712156021,146.31390055064026,-42.668037360457568,42.668037360457568,-146.31390055064026,3737.6297917618922,0.0
523296.95196600363,3685566.251970998,-2500.0,-2231.1448673340647,2114.1657253146459,-1593.8648955791205,-117.69944203867429,115.23737195679888,-4.5638908993151786,2141.626006598427,359.48292999385194,-193.41034413876093,193.41034413876093,-359.48292999385194,4175.562443454709,0.0
528296.95196600363,3685566.251970998,-2500.0,-2199.4072750273708,2412.5514940154726,-1916.0250562042734,-126.91734605926125,138.83176639992163,-5.3390533937295235,2420.9100979843743,648.96009357083551,-408.61406333003958,408.61406333003958,-648.96009357083551,4673.311660090536,0.0
533296.95196600363,3685566.251970998,-2500.0,-2065.5649896694254,2738.4462510836252,-2316.2175149081204,-133.64289309123907,167.26342250044573,-6.188758733998176,2746.2457447778615,1038.0604736951311,-712.51836519834364,712.51836519834364,-1038.0604736951311,5239.7348251618423,0.0
538296.95196600363,3685566.251970998,-2500.0,-1776.7037543562262,3078.7774345646367,-2812.3673148612793,-135.3038821304487,201.0226783274455,-7.061520730135193,3127.7991836692349,1555.2945268649967,-1137.501326152463,1137.501326152463,-1555.2945268649967,5886.4038147247611,0.0
543296.95196600363,3685566.251970998,-2500.0,-1257.3999505448314,3405.3031010624486,-3422.941448905075,-127.72598401299719,240.06413990225192,-7.8454832018979355,3580.0283560241637,2233.3606564520992,-1725.5489219510096,1725.5489219510096,-2233.3606564520992,6630.7631677329091,0.0
548296.95196600363,3685566.251970998,-2500.0,-402.52534624231902,3663.3633827341928,-4161.9250122348394,-104.29764681846619,283.09939634461426,-8.3231146080037473,4125.2362310418112,3105.0873364106546,-2528.1991546585768,2528.1991546585768,-3105.0873364106546,7503.613037059582,0.0
553296.95196600363,3685566.251970998,-2500.0,929.2571389822333,3753.7768677855024,-5027.0041316426687,-54.841321215093409,326.26136712539721,-8.1008482815660745,4800.5993003949507,4192.8857826601898,-3602.0022881192299,3602.0022881192299,-4192.8857826601898,8565.8288398684072,0.0
558296.95196600363,3685566.251970998,-2500.0,2916.4056778678851,3505.3706300128592,-5974.0536844284015,35.699965632580692,360.70333162505068,-6.5114344507108601,5671.3837415391845,5485.4333769940731,-4993.0468505081662,4993.0468505081662,-5485.4333769940731,9942.5675866922138,0.0
563296.95196600363,3685566.251970998,-2500.0,5758.3368946475957,2637.7104552588844,-6865.5247096270114,188.24645037934053,368.55688544668288,-2.5089258799584688,6853.2620411881007,6891.3217234965123,-6697.6159621159386,6697.6159621159386,-6891.3217234965123,11883.243162490717,0.0
568296.95196600363,3685566.251970998,-2500.0,9618.9801348156907,722.54448196455053,-7373.2255450438479,428.78615781916113,316.81940731896714,5.3576428352390808,8542.8832768244592,8156.3737982311541,-8575.9031522611222,8575.9031522611222,-8156.3737982311541,14839.779259676798,0.0
573296.95196600363,3685566.251970998,-2500.0,14491.665235742679,-2821.9020981162157,-6813.6876627368492,782.63162450861694,149.91308136124405,18.660714617415703,11043.689365895931,8738.2389256005954,-10186.137468757875,10186.137468757875,-8738.2389256005954,19514.809917147275,0.0
578296.95196600363,3685566.251970998,-2500.0,19945.249437297392,-8613.5048096750234,-3921.0420597795382,1258.5390827450622,-214.67976942467467,38.058150732440808,14754.649525029841,7673.8925127562052,-10519.451947370699,10519.451947370699,-7673.8925127562052,26800.237387149784,0.0
583296.95196600363,3685566.251970998,-2500.0,24780.459456173528,-16894.041889558037,3320.8983393974063,1818.412686046287,-875.89304233896451,61.086807311757106,20073.927017168688,3598.9201003688841,-7716.0759418367224,7716.0759418367224,-3598.9201003688841,37543.849741401522,0.0
588296.95196600363,3685566.251970998,-2500.0,26871.628362031053,-26654.743143996275,17378.570279590338,2340.3203915740087,-1904.8874996931283,79.617371744923133,27166.572577467305,-4706.54836133554,862.22436708111604,-862.22436708111604,4706.54836133554,52080.082297999412,0.0
593296.95196600363,3685566.251970998,-2500.0,23880.152930810116,-34567.377333015618,39655.349856449626,2611.1889690189705,-3261.0263039879605,81.283998334263273,35585.333738448498,-16824.67779349404,17395.535728208648,-17395.535728208648,16824.67779349404,69481.964370159418,0.0
598296.95196600363,3685566.251970998,-2500.0,15421.830055679715,-35151.811492340334,67503.76802036399,2402.5192440104433,-4716.1494957980085,60.965421893763349,43910.804372470862,-28781.109203451208,40661.567556087852,-40661.567556087852,28781.109203451208,86830.294663373279,0.0
603296.95196600363,3685566.251970998,-2500.0,5303.4226400435564,-24186.068058717086,92097.821002014767,1620.264306246818,-5883.3031389931284,35.688082411152315,49876.371727517879,-33417.301029826958,63347.997232176924,-63347.997232176924,33417.301029826958,99422.530983732999,0.0
608296.95196600363,3685566.251970998,-2500.0,-29.516912966235143,-3928.1360928101367,101944.13654448057,412.43108054819083,-6370.6277574683618,35.187333060312994,51477.128495497607,-25600.337715953192,74588.511439401627,-74588.511439401627,25600.337715953192,102764.72064619049,0.0
613296.95196600363,3685566.251970998,-2500.0,2676.4843392113294,16583.323105732696,91711.807352763237,-860.20922488768247,-5964.0813039574359,64.959935083221993,47803.498213173254,-8059.8236101761868,68384.45532520079,-68384.45532520079,8059.8236101761868,95396.945525210409,0.0
618296.95196600363,3685566.251970998,-2500.0,10371.924581394353,28577.934066462116,66738.355146830581,-1785.8780402266352,-4759.6366214288628,96.045076345209466,40313.604440278403,10303.444929212779,48732.0432069495,-48732.0432069495,-10303.444929212779,79935.025444792162,0.0
623296.95196600363,3685566.251970998,-2500.0,17367.020829273082,29715.040689754958,37799.176987796658,-2127.0109565004104,-3146.1983729752696,100.54671824299908,31545.246073976068,21955.435529582013,25214.934122764062,-25214.934122764062,-21955.435529582013,61323.849992248222,0.0
628296.95196600363,3685566.251970998,-2500.0,20169.089956756077,23274.545641088393,13441.882989241885,-1928.9376900478685,-1585.7869001625922,77.191376272704318,23593.771344049688,24949.149774758276,5651.8749595343688,-5651.8749595343688,-24949.149774758276,44244.743513131012,0.0
633296.95196600363,3685566.251970998,-2500.0,18571.88484129553,14002.856359188212,-2904.3861472319891,-1418.1595748522561,-381.05697692082504,41.609374112234363,17690.993083363916,21515.599647084178,-6848.1376272423813,6848.1376272423813,-21515.599647084178,31644.102273306169,0.0
638296.95196600363,3685566.251970998,-2500.0,14178.214417123223,5359.8085505397157,-11677.237436149539,-831.36918462953167,385.27499951174752,8.5730507992589278,14024.156384759528,15040.012388035762,-12768.570022804963,12768.570022804963,-15040.012388035762,24323.283589937655,0.0
643296.95196600363,3685566.251970998,-2500.0,8832.5337277782764,-1066.9125436821512,-14972.977791813959,-320.77866861926896,776.69662855115996,-14.905428138501136,11976.85891485415,8196.9229084761664,-14098.241562669218,14098.241562669218,-8196.9229084761664,20973.67684815302,0.0
648296.95196600363,3685566.251970998,-2500.0,3843.325291760576,-5055.9476338702179,-15010.18756406703,53.144402579905844,908.45147318378781,-28.131281061115899,10724.364200065778,2451.2173745512391,-12884.726293738173,12884.726293738173,-2451.2173745512391,19406.821259106535,0.0
653296.95196600363,3685566.251970998,-2500.0,-147.42381270378192,-7057.2310190646303,-13466.342996731542,290.31884908478116,888.34500171517539,-33.37577492333515,9730.7023536448196,-1714.2831143707044,-10626.776962305357,10626.776962305357,1714.2831143707044,18192.291399981521,0.0
658296.95196600363,3685566.251970998,-2500.0,-2992.7610968139734,-7693.0626046783345,-11382.202570139267,417.93145354560676,794.68793689515644,-33.495635331148364,8788.2225531422209,-4383.7710539976779,-8207.228923645358,8207.228923645358,4383.7710539976779,16850.364633094658,0.0
663296.95196600363,3685566.251970998,-2500.0,-4815.1716210700752,-7509.4318285995259,-9305.3704279105514,468.83751425028248,675.8440532766125,-30.846015276536129,7861.0180168115694,-5870.805257916566,-6047.3015122339611,6047.3015122339611,5870.805257916566,15353.782938298245,0.0
668296.95196600363,3685566.251970998,-2500.0,-5836.8321888903301,-6900.535213049413,-7472.6843962848934,471.37992080564959,557.78152467862571,-27.021986968985942,6968.9895806444483,-6521.176031391692,-4289.5675388822319,4289.5675388822319,6521.176031391692,13798.043858706313,0.0
673296.95196600363,3685566.251970998,-2500.0,-6283.941633014023,-6117.9991644263009,-5952.0846974325814,446.45593071986752,452.27746311576647,-22.964440994969056,6145.3163455882523,-6627.1599263869457,-2935.460340534938,2935.460340534938,6627.1599263869457,12277.360891205501,0.0
678296.95196600363,3685566.251970998,-2500.0,-6346.0260751423566,-5307.1910510740636,-4731.9807215858436,408.02203255776874,363.14611417729714,-19.158725485799401,5471.5962907429548,-6405.883003904908,-1928.6428137564671,1928.6428137564671,6405.883003904908,10854.328344531128,0.0
683296.95196600363,3685566.251970998,-2500.0,-6166.3542885796733,-4543.5714865331802,-3770.3812603498691,364.71602735976211,290.22822474676002,-15.810899665726069,4848.2526661049596,-6006.2442476514643,-1198.3310900858146,1198.3310900858146,6006.2442476514643,9561.2347963530847,0.0
688296.95196600363,3685566.251970998,-2500.0,-5846.3589160443635,-3860.3955757037911,-3018.950311815549,321.50904303028602,231.67637085094933,-12.972539340854603,4283.8113584977518,-5524.5431424131511,-678.52509461232557,678.52509461232557,5524.5431424131511,8408.8261500234166,0.0
693296.95196600363,3685566.251970998,-2500.0,-5454.4942362089187,-3267.2433154121672,-2433.2624816020675,281.01542075440426,185.14714979102379,-10.618383745822436,3781.442337090652,-5019.9403056976626,-314.59732889965426,314.59732889965426,5019.9403056976626,7394.6466491730125,0.0
698296.95196600363,3685566.251970998,-2500.0,-5035.0963595262838,-2761.4490585819981,-1976.1682236375707,244.41447235374827,148.36098540672168,-8.6911097647506672,3339.1104459091912,-4526.7857667103654,-64.038285590794203,64.038285590794203,4526.7857667103654,6509.1035936431554,0.0
703296.95196600363,3685566.251970998,-2500.0,-4615.7022309965114,-2334.7560812266338,-1618.067881417724,212.05672691546309,119.32553801507748,-7.1247580270038933,2952.1587077609925,-4063.5281894614086,105.07487463157531,-105.07487463157531,4063.5281894614086,5739.4116142075527,0.0
708296.95196600363,3685566.251970998,-2500.0,-4212.5375702232386,-1976.9734528178683,-1335.9855630281256,183.84276630928119,96.392033245075112,-5.8561890775733509,2614.8647439882279,-3638.7704959565913,216.20423504478458,-216.20423504478458,3638.7704959565913,5071.9348164031908,0.0
518296.95196600363,3690566.251970998,-2500.0,-1486.7773385309397,1662.3434832585287,-1370.828541830773,-78.118951582158004,89.193163404578399,-3.0433624338080811,1665.8196326425787,476.5250279598082,-328.42575945216845,328.42575945216845,-476.5250279598082,3221.0565049544116,0.0
523296.95196600363,3690566.251970998,-2500.0,-1394.7863384766486,1853.8765664946259,-1617.1774074727455,-81.33067082037384,105.21759482696307,-3.4733484090189783,1860.0500283006597,716.05724938664446,-519.71403635741433,519.71403635741433,-716.05724938664446,3557.8443528764656,0.0
528296.95196600363,3690566.251970998,-2500.0,-1217.9395610371921,2050.6581516744836,-1913.4629023685816,-81.927138910729198,123.87363075082821,-3.9157076368802048,2083.2119992048115,1023.3926813820397,-775.66324649509897,775.66324649509897,-1023.3926813820397,3934.9403203197662,0.0
533296.95196600363,3690566.251970998,-2500.0,-920.83889694085406,2238.9967218467241,-2267.3851351163717,-78.081848257997308,145.15648414910342,-4.327870362704326,2341.7994446494258,1413.3710154671708,-1115.3145772862922,1115.3145772862922,-1413.3710154671708,4359.8307546903743,0.0
538296.95196600363,3690566.251970998,-2500.0,-455.97704648409081,2394.583632055615,-2684.5098241569344,-67.03409970822652,168.61317172673034,-4.6306886271459664,2645.4522526187484,1900.9161580027464,-1561.3604405621161,1561.3604405621161,-1900.9161580027464,4845.2839192163692,0.0
543296.95196600363,3690566.251970998,-2500.0,238.79049272028354,2476.3047358057038,-3164.1775657880867,-44.690286529745819,192.91902016208749,-4.6849597541264103,3009.4420255225077,2497.6098310187554,-2138.6571952761042,2138.6571952761042,-2497.6098310187554,5415.240812674635,0.0
548296.95196600363,3690566.251970998,-2500.0,1241.4954996211691,2417.2147817413388,-3691.489597755346,-5.1279463997721706,215.14895640870145,-4.2563455673405626,3459.1134242195176,3204.7080801378465,-2869.7309223666339,2869.7309223666339,-3204.7080801378465,6116.2645752473563,0.0
553296.95196600363,3690566.251970998,-2500.0,2643.4821444125905,2112.2746193625994,-4222.327334476975,59.92399659331921,229.5724849209237,-2.9664355302401701,4037.2637670124732,4000.0573437584762,-3764.2259015892123,3764.2259015892123,-4000.0573437584762,7037.5431492487187,0.0
558296.95196600363,3690566.251970998,-2500.0,4538.031269920396,1403.8580625803443,-4656.6556593372707,161.39688319017876,225.76913521603461,-0.23366255382396092,4814.9128019501804,4815.3911763366386,-4797.0206235275209,4797.0206235275209,-4815.3911763366386,8339.8864151037724,0.0
563296.95196600363,3690566.251970998,-2500.0,6991.6030441502398,70.013132475466918,-4793.8254148606056,312.4325619273904,185.93589613858222,4.7767522139899894,5903.6845661563129,5500.5137439622913,-5866.9636733222223,5866.9636733222223,-5500.5137439622913,10284.969055998032,0.0
568296.95196600363,3690566.251970998,-2500.0,9985.5564530248885,-2170.4920078071827,-4264.7642131465154,526.08116877350869,81.64585646164447,13.140085008034442,7463.6672307253248,5774.8850027645185,-6726.8650527565151,6726.8650527565151,-5774.8850027645185,13243.639425735531,0.0
573296.95196600363,3690566.251970998,-2500.0,13317.990104275392,-5605.646146953587,-2446.8787100794707,809.41046320694079,-128.59166275396132,25.988421629551688,9695.9441776766107,5181.7045438347168,-6882.2090257131504,6882.2090257131504,-5181.7045438347168,17662.00963010114,0.0
578296.95196600363,3690566.251970998,-2500.0,16476.474853557549,-10378.462327577423,1597.357850036426,1152.2449483540506,-497.42746859343765,44.007122672502604,12806.331451355043,3094.6218368897025,-5486.7195811402416,5486.7195811402416,-3094.6218368897025,23974.491796157283,0.0
583296.95196600363,3690566.251970998,-2500.0,18555.636479282639,-16184.448996813337,9041.2886206874828,1511.1044111748606,-1076.0274209219235,66.567104146583418,16925.425778903613,-1116.2629211073274,-1339.9636257343529,1339.9636257343529,1116.2629211073274,32443.644162820325,0.0
588296.95196600363,3690566.251970998,-2500.0,18401.805656596771,-21858.917377687998,20861.256585525578,1796.0674006096158,-1884.1122651737303,90.914643209593606,21974.951177523573,-7623.8824098716696,6790.5619351636587,-6790.5619351636587,7623.8824098716696,42896.810891580797,0.0
593296.95196600363,3690566.251970998,-2500.0,15212.384200246228,-25163.839580239292,36872.63520502641,1878.6989449375894,-2865.8567734084304,112.58186824279811,27505.115347298466,-15411.214312528269,19282.143710976809,-19282.143710976809,15411.214312528269,54397.797880646511,0.0
598296.95196600363,3690566.251970998,-2500.0,9510.9168791055345,-23401.294690274852,54538.01896482992,1639.6450622461005,-3857.7192006477303,127.94022114686291,32608.680528200421,-21797.57509603841,34385.795400316165,-34385.795400316165,21797.57509603841,65065.670677206988,0.0
603296.95196600363,3690566.251970998,-2500.0,3647.8213449577811,-15189.436204186319,68768.850387392376,1046.5054823183389,-4610.8708586715566,136.96257669264216,36310.030305240951,-23253.068726218,47718.834155706965,-47718.834155706965,23253.068726218,72394.254721290883,0.0
608296.95196600363,3690566.251970998,-2500.0,684.57169202445857,-2285.6626242062734,74041.518879292256,208.92824200808366,-4885.2616926868832,141.75683253538705,37309.255458639207,-17777.272600301872,53997.978865840836,-53997.978865840836,17777.272600301872,74220.998706103317,0.0
613296.95196600363,3690566.251970998,-2500.0,2080.1783864692325,10753.461215997613,67944.273932294935,-646.73884803928161,-4570.2698643134663,141.49675001996664,35067.8569262206,-6921.6928395163777,50462.828115391218,-50462.828115391218,6921.6928395163777,69859.536061841514,0.0
618296.95196600363,3690566.251970998,-2500.0,6541.1132202914669,19412.881461630288,52867.100065188417,-1283.0101847998642,-3749.9211617384094,131.70572601278658,30360.073467769926,4985.0378783481028,38814.603929145,-38814.603929145,-4985.0378783481028,60512.838805788997,0.0
623296.95196600363,3690566.251970998,-2500.0,11280.773167390002,21860.175301557669,34146.364731950183,-1566.4347210393441,-2660.3191091966573,109.96280466919706,24770.087084973773,13786.861747857401,23715.717238204808,-23715.717238204808,-13786.861747857401,48633.77744011749,0.0
628296.95196600363,3690566.251970998,-2500.0,14081.075919388895,19149.434051295582,16803.858156313858,-1509.7160619294239,-1568.9328780659312,79.747757021066704,19266.233364167045,17659.78012727623,9720.4876634313914,-9720.4876634313914,-17659.78012727623,36822.522365791425,0.0
633296.95196600363,3690566.251970998,-2500.0,14237.08714451649,13678.231673653932,3649.9640986367685,-1225.6209380990119,-665.79139694798539,48.000897161796118,14709.338521451364,17111.842536510332,-605.61653923614904,605.61653923614904,-17111.842536510332,27024.323870784323,0.0
638296.95196600363,3690566.251970998,-2500.0,12246.532166219173,7675.4326532028381,-4731.420712986248,-848.87427602755486,-27.128240097653531,20.686445312155655,11470.643838350301,13794.074296989085,-6757.4534037973035,6757.4534037973035,-13794.074296989085,20225.061796623486,0.0
643296.95196600363,3690566.251970998,-2500.0,9081.1626167758368,2524.8235245554838,-9096.3902704398097,-482.38058533724399,359.41478917703671,0.66208912020314314,9452.1144185385565,9398.3067423194625,-9466.9499344799915,9466.9499344799915,-9398.3067423194625,16371.543964032244,0.0
648296.95196600363,3690566.251970998,-2500.0,5639.4047558234761,-1230.4945885365557,-10654.947431033068,-181.7098592213176,549.98519326995313,-11.971970434256637,8257.179982090136,5117.8921425887129,-9866.9039253026094,9866.9039253026094,-5117.8921425887129,14522.64806182648,0.0
653296.95196600363,3690566.251970998,-2500.0,2515.9443419198124,-3601.3896579442071,-10531.981139691354,36.281268418155562,609.04823426591247,-18.609040556064254,7469.5989477747489,1571.3002984666982,-8985.8156332988492,8985.8156332988492,-1571.3002984666982,13550.957427795678,0.0
658296.95196600363,3690566.251970998,-2500.0,-5.5779864232072089,-4856.8476020671878,-9559.1624533198283,177.70679064841622,590.85061672984864,-21.048250658682136,6829.4952504865041,-1054.0748924757654,-7560.1124381349828,7560.1124381349828,1054.0748924757654,12768.413267607697,0.0
663296.95196600363,3690566.251970998,-2500.0,-1864.4177550185277,-5324.6810881539377,-8265.0808174254344,258.32854580532205,533.94820397305091,-20.890254165189607,6228.5907017998506,-2817.4417725980802,-6034.7919716820852,6034.7919716820852,2817.4417725980802,11928.079003010094,0.0
668296.95196600363,3690566.251970998,-2500.0,-3123.8713825117793,-5292.4858420847986,-6944.8379012382366,295.34251457185053,462.59983818787248,-19.325935230384953,5641.3385044908009,-3881.700070098068,-4637.0352195903342,4637.0352195903342,3881.700070098068,11001.602082470097,0.0
673296.95196600363,3690566.251970998,-2500.0,-3897.3911997915438,-4975.9216119424973,-5740.3969397285264,303.52356170808866,390.4758487745828,-17.142099276515271,5073.4536563352176,-4428.1674769776891,-3456.6785484366369,3456.6785484366369,4428.1674769776891,10030.82778696139,0.0
678296.95196600363,3690566.251970998,-2500.0,-4304.8231969529043,-4521.1570765649867,-4704.3723208173978,294.08818795156486,324.33270641654036,-14.810286348546871,4539.4194390509265,-4616.4354315765604,-2508.1071363578794,2508.1071363578794,4616.4354315765604,9065.0727414889334,0.0
683296.95196600363,3690566.251970998,-2500.0,-4451.5905310681173,-4019.680072487909,-3842.5790816809117,274.89249241046593,266.82339186510768,-12.585154132206352,4101.0878573864456,-4571.5301306319434,-1770.1627791264791,1770.1627791264791,4571.5301306319434,8141.6229373181286,0.0
688296.95196600363,3690566.251970998,-2500.0,-4421.8781767646333,-3524.4925780977233,-3139.4327193551176,251.11261771029933,218.376512133245,-10.585469514992671,3691.3472936027852,-4384.6127519220827,-1208.8834269372596,1208.8834269372596,4384.6127519220827,7283.2210421777245,0.0
693296.95196600363,3690566.251970998,-2500.0,-4278.9199355000765,-3063.4370947623202,-2571.783894803671,225.97623538637225,178.34173636282816,-8.8509294280525133,3310.9072616986964,-4118.8365114005046,-789.0366246992844,789.0366246992844,4118.8365114005046,6500.8282306101319,0.0
698296.95196600363,3690566.251970998,-2500.0,-4068.2002595120562,-2648.857075696415,-2115.8009307778166,201.37895687564429,145.63946257064117,-7.3788845800771101,2964.2852812150959,-3816.174643542653,-479.16003309054759,479.16003309054759,3816.174643542653,5797.2763334009687,0.0
703296.95196600363,3690566.251970998,-2500.0,-3821.3292928080868,-2284.0709249714832,-1749.9693247628277,178.34642583505999,119.10212728800593,-6.1464637028936195,2652.4100847739078,-3503.4416111479295,-253.17207485076528,253.17207485076528,3503.4416111479295,5170.3436459906288,0.0
518296.95196600363,3695566.251970998,-2500.0,-871.62574083582683,1430.2878982288123,-1357.2599823964047,-52.293639912566924,80.173692852076087,-2.2924647621294669,1452.7173359877024,705.05502764751429,-550.24811565039965,550.24811565039965,-705.05502764751429,2752.8924280684273,0.0
523296.95196600363,3695566.251970998,-2500.0,-690.24039951605744,1545.8881161173197,-1575.4904948506664,-50.164242132553817,92.481397315860093,-2.5165002959063854,1610.2377295220565,944.03645161657823,-759.1295817853138,759.1295817853138,-944.03645161657823,3011.3049534993938,0.0
528296.95196600363,3695566.251970998,-2500.0,-417.8741716662866,1644.2470815017102,-1827.4367897651252,-44.462354664116653,105.99135599071752,-2.6962906207868955,1791.4568468047059,1236.1480746312716,-1025.24231388356,1025.24231388356,-1236.1480746312716,3300.7176899722976,0.0
533296.95196600363,3695566.251970998,-2500.0,-24.531322790076313,1706.3406632763179,-2112.8154781178305,-33.380374505471778,120.18646081200886,-2.7775326317895916,2003.3193845372632,1587.5297961206502,-1360.5202297278311,1360.5202297278311,-1587.5297961206502,3631.5705304771086,0.0
538296.95196600363,3695566.251970998,-2500.0,527.00558069198303,1702.6476676316261,-2425.7301120974089,-14.373428263199417,133.96559715129175,-2.6713306379758377,2256.8342744180131,2000.6433966388549,-1776.3349250573956,1776.3349250573956,-2000.6433966388549,4023.269460326112,0.0
543296.95196600363,3695566.251970998,-2500.0,1280.8627692141042,1588.631621356383,-2749.5621918115471,16.06037770470023,145.2434604637221,-2.2363690456786198,2569.8037047486459,2469.9420564636048,-2280.1235158799273,2280.1235158799273,-2469.9420564636048,4511.6012735488493,0.0
548296.95196600363,3695566.251970998,-2500.0,2285.4585739176105,1299.1812851622724,-3048.3290302093387,62.583829876879648,150.33216232947001,-1.2545740778847445,2970.8649810534007,2974.6147218339997,-2868.7567846219677,2868.7567846219677,-2974.6147218339997,5159.9099317436812,0.0
553296.95196600363,3695566.251970998,-2500.0,3586.3977429903857,742.88829368182712,-3252.6635465549275,131.09892666124523,143.03300967157904,0.59900922031807435,3504.6506787431363,3467.2023015389709,-3516.460882151187,3516.460882151187,-3467.2023015389709,6072.5447491959749,0.0
558296.95196600363,3695566.251970998,-2500.0,5211.5481025909321,-201.22743980744715,-3238.3512741909399,228.4714497450787,113.40642090437538,3.7866327057983051,4236.7930173860914,3857.2613927197804,-4154.3716138610198,4154.3716138610198,-3857.2613927197804,7404.9427217700377,0.0
563296.95196600363,3695566.251970998,-2500.0,7144.166852012042,-1678.5589997787238,-2796.4151934760366,361.48917085144694,46.336312422651645,8.9231494800534019,5256.0604621088587,3991.2142068513413,-4638.9394202448902,4638.9394202448902,-3991.2142068513413,9362.1335190607533,0.0
568296.95196600363,3695566.251970998,-2500.0,9281.2353579153078,-3833.9039679010571,-1598.2497451128231,534.43066199341399,-79.625398737936464,16.743994973086117,6669.8929687542359,3634.9336075387187,-4709.5643891967275,4709.5643891967275,-3634.9336075387187,12180.863206926295,0.0
573296.95196600363,3695566.251970998,-2500.0,11381.398318875661,-6749.0778154578047,828.87337629754768,744.56655223245969,-291.93942043307993,27.974740632709622,8589.205056082199,2476.839377910057,-3946.3027183121485,3946.3027183121485,-2476.839377910057,16094.026908226084,0.0
578296.95196600363,3695566.251970998,-2500.0,13025.66765032572,-10325.701942202317,5077.6249432384593,975.47448039427343,-620.09220172317237,43.049931015836982,11097.589624151949,186.1476449858153,-1761.7030064129794,1761.7030064129794,-186.1476449858153,21269.741461422997,0.0
583296.95196600363,3695566.251970998,-2500.0,13645.817354899373,-14119.055990782626,11719.666265507669,1189.9335520853226,-1085.141330309855,61.691483783411535,14200.247048788615,-3427.9018257748694,2504.0414312658595,-2504.0414312658595,3427.9018257748694,27710.956348786327,0.0
588296.95196600363,3695566.251970998,-2500.0,12699.688021548654,-17198.3585248499,20974.984214770906,1327.6146346794869,-1681.5795507705698,82.520397761114523,17755.464026699312,-8139.591408383305,9296.1539810700342,-9296.1539810700342,8139.591408383305,35117.028123089694,0.0
593296.95196600363,3695566.251970998,-2500.0,10026.624709045604,-18215.466242538409,32212.328280601949,1315.7389827578443,-2356.345760812851,103.05221869905223,21413.158853215205,-13017.09612769024,18350.896813222887,-18350.896813222887,13017.09612769024,42756.337613536642,0.0
598296.95196600363,3695566.251970998,-2500.0,6230.2740231608759,-15891.15277829062,43550.474459222969,1097.7167471222399,-2999.237126351713,120.31359453959588,24846.0719203441,-16414.139532857243,28220.730296453668,-28220.730296453668,16414.139532857243,49460.502938603822,0.0
603296.95196600363,3695566.251970998,-2500.0,2700.3602052579777,-9865.9875296421087,52078.454032677953,671.01496930612984,-3462.6710115143765,131.72080855086966,27152.582808678009,-16567.735893345751,36336.403751789454,-36336.403751789454,16567.735893345751,53860.586333546613,0.0
608296.95196600363,3695566.251970998,-2500.0,971.31526141897359,-1339.0305243350545,55001.681856550189,108.94696372945286,-3614.5261537951801,135.47381312546412,27687.028876689586,-12679.454346867848,39996.041144709052,-39996.041144709052,12679.454346867848,54861.179168015449,0.0
613296.95196600363,3695566.251970998,-2500.0,1742.7169339442796,7245.4073436066219,51159.5910413491,-457.65328682527212,-3399.416466160626,130.46599028985281,26260.300062980183,-5663.5872664667913,37844.751101970098,-37844.751101970098,5663.5872664667913,52125.650315491839,0.0
618296.95196600363,3695566.251970998,-2500.0,4415.8954159788218,13442.655890175512,41713.592384197516,-895.11963356825129,-2867.9725866472431,116.59983688695789,23166.781791853497,2229.6637572680829,30671.91495008007,-30671.91495008007,-2229.6637572680829,46250.951073342498,0.0
623296.95196600363,3695566.251970998,-2500.0,7570.725074179195,16007.054592743572,29424.422623629394,-1123.3367499417543,-2152.5339922416965,95.548733846858767,19458.745567247097,8667.1370168601716,20849.97498104355,-20849.97498104355,-8667.1370168601716,38512.152044544782,0.0
628296.95196600363,3695566.251970998,-2500.0,9872.4942225274317,15174.980412907751,17210.870624661726,-1137.9976247102497,-1407.2060583581292,70.763125681370951,15668.493354787704,12311.811468663554,11000.328663235754,-11000.328663235754,-12311.811468663554,30373.02070827697,1.0
633296.95196600363,3695566.251970998,-2500.0,10656.704159662562,12108.969324707936,7072.1698735300988,-992.58414005784982,-752.27335711728438,46.259666291255414,12278.368793254504,13064.645891649059,2943.60181194912,-2943.60181194912,-13064.645891649059,23063.645550404635,0.0
638296.95196600363,3695566.251970998,-2500.0,9958.786392704742,8143.5305521505616,-189.30779031735352,-761.95668112292117,-249.7489635569363,25.168312506206739,9618.7710357177984,11647.830887700282,-2596.4657940327215,2596.4657940327215,-11647.830887700282,17370.475497298678,0.0
643296.95196600363,3695566.251970998,-2500.0,8225.0522577700576,4298.5008042810459,-4681.7971603625801,-512.16985340844349,90.784570690964486,9.0365398670177122,7769.8603652325855,9038.1800957358319,-5738.3346564973735,5738.3346564973735,-9038.1800957358319,13575.338131164817,0.0
648296.95196600363,3695566.251970998,-2500.0,5999.5462703753883,1137.7995008856115,-6977.744640125793,-286.68013621044946,292.0827040333416,-2.015120672713492,6600.2382965743054,6077.3507072765196,-7024.462053784805,7024.462053784805,-6077.3507072765196,11442.511391716336,0.0
653296.95196600363,3695566.251970998,-2500.0,3729.8230715642544,-1155.6649186478403,-7757.919452892048,-106.1319153253215,389.38619802624851,-8.7350420380871086,5870.695607222463,3319.5509695248466,-7086.0870472636716,7086.0870472636716,-3319.5509695248466,10367.873120933476,0.0
658296.95196600363,3695566.251970998,-2500.0,1699.9286183308373,-2634.51464440166,-7614.7412571570567,25.355948187778871,417.3079738420206,-12.195553801043154,5362.3384976110283,1041.3071016209769,-6460.1869591080476,6460.1869591080476,-1041.3071016209769,9751.5609757100319,0.0
663296.95196600363,3695566.251970998,-2500.0,43.28298781705098,-3457.3937183140306,-6984.3511354769844,112.95009638156732,403.74246348419467,-13.436793414576528,4940.6721027436943,-680.30250132656283,-5529.7242720494633,5529.7242720494633,680.30250132656283,9240.1441389196461,0.0
668296.95196600363,3695566.251970998,-2500.0,-1213.0798794443801,-3804.4867153994933,-6151.8157798793936,165.53990402011485,368.52967782109141,-13.302398320239318,4546.0362650402394,-1883.0319284393036,-4533.1322589357351,4533.1322589357351,1883.0319284393036,8698.7339693628328,0.0
673296.95196600363,3695566.251970998,-2500.0,-2103.0949717425624,-3834.8851655222088,-5285.037753189491,192.37541866568969,324.4873019160425,-12.403499989794526,4161.297046372536,-2655.2680407398202,-3599.8725414394712,3599.8725414394712,2655.2680407398202,8105.1924691459335,0.0
678296.95196600363,3695566.251970998,-2500.0,-2687.4834860958586,-3671.92502050947,-4472.07975246764,201.46042764647837,279.19031259608738,-11.146586682635643,3787.3345794492075,-3096.5529625773606,-2787.777589332105,2787.777589332105,3096.5529625773606,7478.5322452838427,0.0
683296.95196600363,3695566.251970998,-2500.0,-3032.5036743133419,-3403.399198665717,-3751.5467180122987,199.0470451528777,236.67485570476916,-9.7825261628248832,3431.1457736700527,-3297.5817054782365,-2112.562329297155,2112.562329297155,3297.5817054782365,6845.7004834964682,0.0
688296.95196600363,3695566.251970998,-2500.0,-3198.8767371772215,-3087.8049743690462,-3133.9041837676082,189.69805142725357,198.76714385672224,-8.4540421855399224,3135.3822121664625,-3332.5920820336046,-1567.9076583263427,1567.9076583263427,3332.5920820336046,6229.4324268151731,0.0
693296.95196600363,3695566.251970998,-2500.0,-3237.3260117763798,-2761.8345640330717,-2615.0755396107947,176.57652240236806,166.00899082508198,-7.2338546586755488,2859.5427188691378,-3258.4530746063297,-1137.7779775659023,1137.7779775659023,3258.4530746063297,5645.3671147975347,0.0
698296.95196600363,3695566.251970998,-2500.0,-3187.8259653432915,-2447.0041375102369,-2184.4955014604748,161.7804942318636,138.25463464465716,-6.1519731884819437,2597.7424647434386,-3116.7550828080207,-803.32043923630818,803.32043923630818,3116.7550828080207,5102.6268267979012,0.0
523296.95196600363,3700566.251970998,-2500.0,-122.09862048649687,1220.0502958324639,-1477.5232785525734,-24.50812049996409,78.349565416644793,-1.7059093050111076,1397.3879814477086,1062.2198733128835,-913.28080723033577,913.28080723033577,-1062.2198733128835,2549.6352166894162,0.0
528296.95196600363,3700566.251970998,-2500.0,202.7782131260625,1231.8343857866253,-1673.5266989944505,-14.625429636893992,86.992300774271698,-1.6905519350943365,1550.361605296478,1317.4100360720706,-1165.2891516556481,1165.2891516556481,-1317.4100360720706,2784.6497811485865,0.0
533296.95196600363,3700566.251970998,-2500.0,637.69732913202245,1189.0965473476369,-1878.819812535728,0.80991515863302388,94.793361078989889,-1.5386039224098298,1733.4459188573542,1607.534658505605,-1467.0157331958308,1467.0157331958308,-1607.534658505605,3066.2100430104247,0.0
538296.95196600363,3700566.251970998,-2500.0,1208.243578967142,1062.1509151027501,-2078.6668342820908,23.910323305792904,100.29993792330426,-1.1637459530375986,1959.3467365199281,1925.677294747745,-1819.4407229245833,1819.4407229245833,-1925.677294747745,3421.6401995010583,0.0
543296.95196600363,3700566.251970998,-2500.0,1940.9329101143335,809.9209983704144,-2245.6849592598019,57.378497875458727,101.12653165069912,-0.43798249430720404,2247.518713930509,2255.1325263842637,-2215.7918317989561,2215.7918317989561,-2255.1325263842637,3895.816311098763,0.0
548296.95196600363,3700566.251970998,-2500.0,2858.9118595971709,377.68248866789344,-2332.2978293163542,104.51181001144467,93.501806830204714,0.82337544090759018,2626.6271344314355,2563.5241447436947,-2634.7936898223597,2634.7936898223597,-2563.5241447436947,4557.1174323785399,0.0
553296.95196600363,3700566.251970998,-2500.0,3973.9823659641374,-303.55270660634739,-2259.9737020147568,169.03319162446411,71.683504046950006,2.877632384901696,3136.5480793286865,2794.9831893499609,-3030.1390621602809,3030.1390621602809,-2794.9831893499609,5500.341224233639,0.0
558296.95196600363,3700566.251970998,-2500.0,5273.4571273285828,-1313.3432697800802,-1905.2041978371997,254.58131296172101,27.298921550947501,6.0661467426374216,3828.7387532720504,2861.2021229958186,-3315.3571046754155,3315.3571046754155,-2861.2021229958186,6843.7601147206406,0.0
563296.95196600363,3700566.251970998,-2500.0,6701.0508847505071,-2729.2263524743585,-1084.1078131863505,363.61984359852011,-51.194443016788739,10.810365586098598,4763.6454099691182,2634.3228931599906,-3344.698489523571,3344.698489523571,-2634.3228931599906,8719.7465686425385,0.0
568296.95196600363,3700566.251970998,-2500.0,8133.7341762968936,-4598.6839424837535,458.09641931282459,495.50292649998363,-178.48337956042687,17.573781808033079,6003.7704476016715,1948.5913314576678,-2894.5670719404538,2894.5670719404538,-1948.5913314576678,11259.06691379234,0.0
573296.95196600363,3700566.251970998,-2500.0,9362.7488035159349,-6889.220508134179,3038.7123248487192,643.59021658945676,-371.00966110775346,26.765790804442354,7600.6278550514317,623.32706214948234,-1657.8739195053338,1657.8739195053338,-623.32706214948234,14565.457984430534,0.0
578296.95196600363,3700566.251970998,-2500.0,10097.348850235368,-9416.961680571565,6986.1788567193571,791.85430034927151,-643.11799629540701,38.570425427760462,9573.547480223755,-1476.0133602748999,724.670930330901,-724.670930330901,1476.0133602748999,18674.132814450131,0.0
583296.95196600363,3700566.251970998,-2500.0,10019.689615011004,-11774.349160291176,12516.931668478135,912.51930537185046,-999.86212297189547,52.715969825044773,11880.056345017609,-4328.0034757190715,4563.4005937826532,-4563.4005937826532,4328.0034757190715,23491.910712801367,0.0
588296.95196600363,3700566.251970998,-2500.0,8913.7109057465022,-13312.141996265656,19531.267188476708,967.61674184569335,-1427.0801298767574,68.267051414090218,14383.643768483204,-7616.7149297541437,9928.1824695257274,-9928.1824695257274,7616.7149297541437,28730.632946751823,0.0
593296.95196600363,3700566.251970998,-2500.0,6847.1676728765096,-13258.672095691441,27384.88670688288,917.64177064929379,-1882.5073616421316,83.579554203271826,17030.642849501033,-10645.06469284452,16406.228572691081,-16406.228572691081,10645.06469284452,33867.20475892174,0.0
598296.95196600363,3700566.251970998,-2500.0,4302.8141928316682,-11024.978378211803,34793.828517255504,737.68911404419475,-2295.0935973448622,96.528666654934085,19284.308018611908,-12432.752668776859,22954.883247818096,-22954.883247818096,12432.752668776859,38180.283772648734,0.0
603296.95196600363,3700566.251970998,-2500.0,2100.7542999335533,-6602.0790953939104,40071.183848067281,435.08768395723791,-2579.3117258236739,104.97405416275086,20706.575820522554,-12080.468285827927,28058.610466615661,-28058.610466615661,12080.468285827927,40899.952176444094,0.0
608296.95196600363,3700566.251970998,-2500.0,1048.710874968086,-781.67190459438757,41735.184656240999,56.943730224343547,-2663.5289135507646,107.28044153631646,20991.220844324976,-9271.4673591787996,30269.797383355261,-30269.797383355261,9271.4673591787996,41445.202908737316,0.0
613296.95196600363,3700566.251970998,-2500.0,1501.3698842426832,5054.2201048823417,39197.835824143047,-321.44309310686697,-2519.6905732588812,102.74077361780009,20042.167712106035,-4563.6292681010582,28886.275781314966,-28886.275781314966,4563.6292681010582,39644.608759898219,0.0
618296.95196600363,3700566.251970998,-2500.0,3159.7794055893442,9518.9577020190209,33064.916814394717,-624.01128265009652,-2176.4871117613588,91.8375739648517,18015.901954880708,804.06639351135163,24303.168834131426,-24303.168834131426,-804.06639351135163,35814.631904332186,0.0
623296.95196600363,3700566.251970998,-2500.0,5268.0267585258352,11797.099225421904,24830.068851524538,-801.73301791793028,-1707.3333411388451,76.230318366270552,15382.976557932228,5483.6652344613776,17784.464519182096,-17784.464519182096,-5483.6652344613776,30649.279289041926,0.0
628296.95196600363,3700566.251970998,-2500.0,7029.8391794953068,11850.754980372458,16207.771032531606,-845.24728604324287,-1201.1934879851597,58.342597865487235,12752.662440704369,8565.4625463031534,10854.83535010927,-10854.83535010927,-8565.4625463031534,24992.26330990094,0.0
633296.95196600363,3700566.251970998,-2500.0,7940.1688789647578,10226.887943387706,8544.7583295075547,-778.66039909073243,-733.61324119002393,40.658498021823164,10262.809270499563,9790.9291993122606,4734.2731779832711,-4734.2731779832711,-9790.9291993122606,19614.916913849396,0.0
638296.95196600363,3700566.251970998,-2500.0,7878.9780659702892,7695.0543248059794,2564.7860375216251,-642.70377932327267,-350.86039470764786,25.081669668437947,8161.9487719979097,9429.788288995398,79.37019327163307,-79.37019327163307,-9429.788288995398,15081.024785349291,0.0
643296.95196600363,3700566.251970998,-2500.0,7015.8425297834456,4947.224653401051,-1578.2380028210712,-478.23928654923378,-69.018161656294708,12.638446014882767,6566.8158648636163,8010.2021388589283,-2978.2381331352162,2978.2381331352162,-8010.2021388589283,11697.970423830064,0.0
648296.95196600363,3700566.251970998,-2500.0,5650.8937526862992,2453.0013646949606,-4098.5059963364956,-316.38335517248595,117.78567267900829,3.5433098203576678,5467.1678929814161,6078.2093770746751,-4645.7927800116058,4645.7927800116058,-6078.2093770746751,9501.5076836470998,0.0
653296.95196600363,3700566.251970998,-2500.0,4084.516507142911,447.41519896969385,-5369.9674506415276,-175.72263938371125,226.94980682017589,-2.5380226791878955,4756.790231775165,4061.182240869869,-5273.6997274043233,5273.6997274043233,-4061.182240869869,8264.2595079159892,0.0
658296.95196600363,3700566.251970998,-2500.0,2547.3916624329077,-1012.3086356918845,-5780.0506483884883,-64.063474028428345,279.05134415945628,-6.2011787916562957,4292.9148626603355,2228.5555442224636,-5218.2356230805945,5218.2356230805945,-2228.5555442224636,7610.6808127803015,0.0
663296.95196600363,3700566.251970998,-2500.0,1182.2842738417621,-1974.5814682316843,-5654.4533210691961,18.112083832193658,292.86525393257131,-8.0886983162874113,3955.3606033121587,711.11689640709665,-4772.2402492650417,4772.2402492650417,-711.11689640709665,7209.3627555749727,0.0
668296.95196600363,3700566.251970998,-2500.0,55.739723298934109,-2534.2981860871773,-5234.1210934487999,74.316671441206196,283.26080498329191,-8.768640941928096,3670.474967872884,-457.81939348483297,-4145.6654717396768,4145.6654717396768,457.81939348483297,6868.1023116407996,0.0
673296.95196600363,3700566.251970998,-2500.0,-819.40584180291728,-2794.7518608801797,-4681.0156907096134,109.61753224080674,260.92061974789829,-8.6876775126078574,3403.7732775737954,-1301.8894543905431,-3473.2310606074375,3473.2310606074375,1301.8894543905431,6509.3910948894982,0.0
678296.95196600363,3700566.251970998,-2500.0,-1462.0668094183011,-2847.9273079308796,-4095.1146320156276,129.1622579764632,232.9414359337928,-8.1690723115071524,3143.8611322315473,-1871.1020747699222,-2832.1597847723706,2832.1597847723706,1871.1020747699222,6117.1762599400136,0.0
683296.95196600363,3700566.251970998,-2500.0,-1906.1777684611982,-2767.2079052975391,-3532.6853736642565,137.45353075650479,203.7043627004297,-7.4318426510500233,2890.0522327688632,-2222.4384056471313,-2260.4461246570022,2260.4461246570022,2222.4384056471313,5700.2257292293252,0.0
688296.95196600363,3700566.251970998,-2500.0,-2189.8229285035682,-2606.9816335498331,-3021.5182768069362,138.1012704940278,175.69757450818091,-6.6156324185104722,2645.8794468879109,-2409.3572205589853,-1771.6710533028017,1771.6710533028017,2409.3572205589853,5273.7803434920606,0.0
693296.95196600363,3700566.251970998,-2500.0,-2349.1326397035268,-2405.3465000450365,-2572.0968072144979,133.83405817400845,150.17318493080504,-5.8039406044878934,2440.0910754480483,-2477.2442146781154,-1365.5644302810347,1365.5644302810347,2477.2442146781154,4851.9940975077179,0.0
698296.95196600363,3700566.251970998,-2500.0,-2415.4494652975618,-2187.6990791714175,-2185.1243726932398,126.62470839374635,127.62221318047732,-5.0426324143333581,2250.3046323420531,-2462.31099258929,-1034.8851244431416,1034.8851244431416,2462.31099258929,4445.5572308245546,0.0
528296.95196600363,3705566.251970998,-2500.0,659.44584602407156,841.92812343188496,-1471.1486981523256,8.0822179910268375,68.292167558725154,-0.89043820616072211,1359.3877708093091,1300.026746771387,-1212.1658615820065,1212.1658615820065,-1300.026746771387,2389.4109227405297,0.0
533296.95196600363,3705566.251970998,-2500.0,1095.6225475645629,719.93180516119946,-1594.4610405581407,25.588761275900978,70.746142359799364,-0.58780305594435101,1527.3825061030293,1520.1291983761182,-1462.6253120449308,1462.6253120449308,-1520.1291983761182,2657.2945239275728,0.0
538296.95196600363,3705566.251970998,-2500.0,1639.5559539684111,507.71900852795727,-1685.50650517603,49.921013245140557,69.724492675656791,-0.056833351399890736,1740.4426164981599,1740.8018533022591,-1735.3459752931121,1735.3459752931121,-1740.8018533022591,3014.6230502490316,0.0
543296.95196600363,3705566.251970998,-2500.0,2303.3592379216793,171.51528428253476,-1711.5310576065447,82.983390821395204,62.87807580342988,0.80983863068502737,2017.3647730902921,1939.9394629763135,-2013.9728303931263,2013.9728303931263,-1939.9394629763135,3506.7601497748201,0.0
548296.95196600363,3705566.251970998,-2500.0,3091.9025023169161,-329.62528423770686,-1621.7099041241006,126.8702283941427,46.779858367275672,2.1583341986211666,2383.1199738627733,2082.097009874843,-2267.2039624211411,2267.2039624211411,-2082.097009874843,4193.0437885903129,0.0
553296.95196600363,3705566.251970998,-2500.0,3996.0411256657067,-1041.3966444064222,-1340.2168687876156,183.60202972741831,16.608716249591161,4.1800096001707718,2868.7334023912008,2114.2909482827308,-2441.1538265881336,2441.1538265881336,-2114.2909482827308,5144.3640362284114,0.0
558296.95196600363,3705566.251970998,-2500.0,4983.2640369187457,-2007.5804537026545,-758.97970484963639,254.60193353521842,-34.107748381196203,7.1121258182889999,3509.7806307773744,1962.9127244660012,-2450.1578975405155,2450.1578975405155,-1962.9127244660012,6438.1882658141358,0.0
563296.95196600363,3705566.251970998,-2500.0,5986.6522208891474,-3256.4971582807334,267.14345581864865,339.8061149265987,-113.51279816654672,11.225532751068164,4342.9970538721109,1534.6787701402438,-2168.0413934373946,2168.0413934373946,-1534.6787701402438,8151.1582354980719,0.0
568296.95196600363,3705566.251970998,-2500.0,6895.3655815251168,-4777.9960486322116,1917.1317915524708,436.35198435821871,-230.89002869423277,16.789288009985224,5400.2982226913864,726.59873187047231,-1424.7983299580214,1424.7983299580214,-726.59873187047231,10347.624899613362,0.0
573296.95196600363,3705566.251970998,-2500.0,7553.5716277432221,-6490.6819835205588,4383.1737024737449,536.96416641828728,-395.14256255576413,24.00200272583724,6699.2957659014201,-548.40791883318616,-17.841166503830721,17.841166503830721,548.40791883318616,13061.178053341378,0.0
578296.95196600363,3705566.251970998,-2500.0,7778.6687114633751,-8205.6060644469526,7820.9420669243864,628.52389712711295,-611.84930357012979,32.886263113748669,8229.8538133717502,-2314.9307789848885,2249.2480953386726,-2249.2480953386726,2314.9307789848885,16267.467265121173,0.0
583296.95196600363,3705566.251970998,-2500.0,7409.8382378900797,-9604.4214814384559,12263.264756146416,691.82578725715939,-878.83936791055078,43.161600052484786,9938.241883267583,-4470.8111077866233,5489.276580855756,-5489.276580855756,4470.8111077866233,19851.069947056654,0.0
588296.95196600363,3705566.251970998,-2500.0,6387.494714154016,-10262.964245988269,17507.929514417909,703.90736772354364,-1181.1981036261984,54.140445560776172,11862.935487125711,-6727.7118075359758,9619.6488633543358,-9619.6488633543358,6727.7118075359758,23576.737446466821,0.0
593296.95196600363,3705566.251970998,-2500.0,4838.3005389939262,-9751.4437344248527,23025.009285183609,643.94974123204361,-1488.0566115267559,64.713944260296387,13696.491665575662,-8603.1819228062741,14254.728902802432,-14254.728902802432,8603.1819228062741,27083.542032593745,0.0
598296.95196600363,3705566.251970998,-2500.0,3109.2188691354318,-7810.3649666299925,27963.067077010714,501.99486285649579,-1754.5015683449733,73.48565467723742,15180.196592417051,-9516.8893666950935,18679.819606935842,-18679.819606935842,9516.8893666950935,29922.822826800264,0.0
603296.95196600363,3705566.251970998,-2500.0,1690.7378430102026,-4535.0754181957591,31324.063594850799,286.97862301154123,-1930.8733971724655,79.05350490108151,16080.686435224448,-8999.9137976044403,21985.539564306808,-21985.539564306808,8999.9137976044403,31648.439172964328,0.0
608296.95196600363,3705566.251970998,-2500.0,1027.0198751059199,-447.36547280024541,32288.699194765341,28.906741517334616,-1977.8326600420123,80.364088408035087,16228.369073522614,-6934.1310544014268,23363.145098307257,-23363.145098307257,6934.1310544014268,31939.33595403676,0.0
613296.95196600363,3705566.251970998,-2500.0,1306.5710568524453,3635.504588327547,30545.87750750612,-228.08847793780967,-1880.8253743146133,77.020791520325972,15572.73351036498,-3670.98452308583,22431.479040155471,-22431.479040155471,3670.98452308583,30705.36270323634,0.0
618296.95196600363,3705566.251970998,-2500.0,2369.9835270717022,6893.5279043199998,26431.362972869203,-439.70696191305683,-1656.1643577285797,69.428058357750317,14202.235026663953,72.778628715956074,19401.833433803833,-19401.833433803833,-72.778628715956074,28124.1519525037,0.0
623296.95196600363,3705566.251970998,-2500.0,3797.45818806633,8794.922011958286,20788.417214638146,-575.53564791664371,-1345.1687311372041,58.705047553263121,12318.410410028953,3493.3623471032397,14977.702340618442,-14977.702340618442,-3493.3623471032397,24590.040367805526,0.0
628296.95196600363,3705566.251970998,-2500.0,5109.1677003069799,9228.181870167582,14644.261071627165,-626.30161079656693,-999.79507733540675,46.382538249631423,10421.483188938291,5985.3820784010013,10063.838804063833,-10063.838804063833,-5985.3820784010013,20602.851308394514,0.0
633296.95196600363,3705566.251970998,-2500.0,5949.3272133640712,8441.0195282725563,8889.239216246262,-602.14757957829192,-667.36166880827898,34.002593267065535,8593.700200269277,7289.0426032348714,5461.7467946895031,-5461.7467946895031,-7289.0426032348714,16649.353553251851,0.0
638296.95196600363,3705566.251970998,-2500.0,6169.0073969095574,6868.5864488093193,4094.2490017361874,-524.9047440406199,-380.69255409549947,22.782310679907773,6964.5512203927992,7469.7106132743247,1688.8468257672212,-1688.8468257672212,-7469.7106132743247,13119.549076097932,0.0
643296.95196600363,3705566.251970998,-2500.0,5806.294736136475,4960.1895833695726,488.10469649524504,-419.26346229143786,-155.57367954505642,13.449395443372023,5640.3432728850557,6796.2173484336108,-1050.3821106161777,1050.3821106161777,-6796.2173484336108,10268.551368986587,0.0
648296.95196600363,3705566.251970998,-2500.0,5012.4106146087606,3069.372578227747,-1961.9467615214719,-306.37658870206786,6.3587960743299456,6.2555253283622676,4654.2191730292216,5603.927242696439,-2792.3228397222165,2792.3228397222165,-5603.927242696439,8205.6931536611537,0.0
653296.95196600363,3705566.251970998,-2500.0,3973.9543797002252,1416.4828526201184,-3437.9867107562345,-200.95384907880933,112.4585344561026,1.0986504932939913,3974.0723544565089,4196.0793681905861,-3709.6068707291583,3709.6068707291583,-4196.0793681905861,6888.558621171801,0.0
658296.95196600363,3705566.251970998,-2500.0,2858.7267341747133,101.2215924627256,-4175.2249650307385,-111.14162021721398,174.12690374913899,-2.3248766919183237,3524.1862969820913,2796.4911820818661,-4020.7780616406171,4020.7780616406171,-2796.4911820818661,6139.7352821136619,0.0
663296.95196600363,3705566.251970998,-2500.0,1790.2222636869401,-862.90788709783226,-4399.7457745950578,-39.900625345608617,203.27783929816795,-4.3918645331814119,3218.4528435452098,1542.3058325177374,-3932.1740451386595,3932.1740451386595,-1542.3058325177374,5726.2825614732892,0.0
668296.95196600363,3705566.251970998,-2500.0,843.74620234735687,-1512.3702934923192,-4298.3123644521975,13.205401892489688,210.36848504024016,-5.4677501454714168,2988.1019397239115,498.67084948717547,-3610.4615916199427,3610.4615916199427,-498.67084948717547,5458.0493147616053,0.0
673296.95196600363,3705566.251970998,-2500.0,54.282296354771937,-1905.2826187881453,-4010.3815664079393,50.436415397226348,203.63883155588672,-5.8633016866183798,2790.7825465747151,-319.44879850283291,-3176.320350387633,3176.320350387633,319.44879850283291,5225.2255033505598,0.0
678296.95196600363,3705566.251970998,-2500.0,-571.72254546214822,-2103.2090600618408,-3632.2044101843608,74.748805862911325,189.09067544133097,-5.8207638806584558,2605.7086067180076,-926.95673027815383,-2709.4347498579159,2709.4347498579159,926.95673027815383,4981.2869084167178,0.0
683296.95196600363,3705566.251970998,-2500.0,-1045.2139060189807,-2161.4733832501724,-3225.673091995131,89.108052384271446,170.82005788816517,-5.5171309578174741,2425.2406013438035,-1353.2640890541602,-2257.6903680341015,2257.6903680341015,1353.2640890541602,4714.8328497009315,0.0
688296.95196600363,3705566.251970998,-2500.0,-1385.9108125432163,-2125.3015065668969,-2827.6993720875607,96.138481833422858,151.455645929345,-5.0749068326600266,2248.2947816296314,-1632.2369960172018,-1846.5481367813172,1846.5481367813172,1632.2369960172018,4429.8531807453701,0.0
693296.95196600363,3705566.251970998,-2500.0,-1616.4891513104867,-2029.3597423806302,-2458.2190993664399,97.993306653556417,132.57307438810247,-4.5748172315825339,2076.6846211348916,-1796.4483833221966,-1486.8364339300274,1486.8364339300274,1796.4483833221966,4135.2160174709807,0.0
528296.95196600363,3710566.251970998,-2500.0,975.04231327078355,492.90072574105903,-1239.9648039857536,24.521002015088172,50.881691373103564,-0.27634114184355574,1213.5301571971725,1214.892997644032,-1186.0322058525228,1186.0322058525228,-1214.892997644032,2106.083877841515,0.0
533296.95196600363,3710566.251970998,-2500.0,1385.7215333365461,316.93460626119992,-1286.7048656547395,42.433676302104388,49.158251317202286,0.11197067405041781,1374.8173620958428,1366.1516462552252,-1377.467519982951,1377.467519982951,-1366.1516462552252,2381.7706081447714,0.0
538296.95196600363,3710566.251970998,-2500.0,1876.3204613349083,53.808773578643191,-1281.9227411886213,66.070378218930585,43.367221892642135,0.71518739295041645,1581.9208031762741,1498.2441247244601,-1567.3175084569243,1567.3175084569243,-1498.2441247244601,2756.1207970008581,0.0
543296.95196600363,3710566.251970998,-2500.0,2448.6583534418114,-321.65454992974537,-1191.9515664858729,96.650835178296276,31.400381360741129,1.6184038012729065,1850.9167636076859,1588.0954830551309,-1734.1633635661456,1734.1633635661456,-1588.0954830551309,3267.2150589200969,0.0
548296.95196600363,3710566.251970998,-2500.0,3096.2307338686351,-836.81545800217577,-968.64719273981837,135.3369117526502,10.381107346717684,2.9312991763714393,2201.1735786972185,1602.7189336117244,-1843.3773156011453,1843.3773156011453,-1602.7189336117244,3959.0278139837274,0.0
553296.95196600363,3710566.251970998,-2500.0,3799.3714209100513,-1517.5365357990022,-545.78861121637976,182.96690044500437,-23.462517882373252,4.7891127213017031,2654.4676548982848,1497.8071726664364,-1842.4492127721844,1842.4492127721844,-1497.8071726664364,4878.7331097241031,0.0
558296.95196600363,3710566.251970998,-2500.0,4519.6639751429229,-2381.2264349158545,163.25813801937238,239.62174620695316,-74.816550854981188,7.3483179193226356,3233.228914861174,1218.3021544469739,-1656.6339924985377,1656.6339924985377,-1218.3021544469739,6073.0183957990776,0.0
563296.95196600363,3710566.251970998,-2500.0,5194.9693622996247,-3425.5042899380355,1264.1695525636012,303.99579730747638,-149.06147503565651,10.772531452486163,3957.6092896254918,703.07700546854369,-1187.0563963957479,1187.0563963957479,-703.07700546854369,7582.5576973980869,0.0
568296.95196600363,3710566.251970998,-2500.0,5737.8759093372191,-4612.2210710431518,2872.6779048339977,372.60705632020984,-251.62962632806315,15.204061424569705,4840.9511098980374,-103.45881101562713,-315.06306309196157,315.06306309196157,103.45881101562713,9433.2367091659107,0.0
573296.95196600363,3710566.251970998,-2500.0,6041.9949074510296,-5848.8935832841262,5092.9533923035506,439.01159462811097,-386.73965734693803,20.71720537309686,5883.3598639515185,-1230.2904784685827,1081.7793886677262,-1081.7793886677262,1230.2904784685827,11623.148761140646,0.0
578296.95196600363,3710566.251970998,-2500.0,6001.1559148957522,-6973.8857283714533,7979.2106052182207,493.38488603294047,-555.4052485841828,27.255076402157318,7064.1375793592679,-2649.3507571678288,3096.6042929866621,-3096.6042929866621,2649.3507571678288,14105.950925906258,0.0
583296.95196600363,3710566.251970998,-2500.0,5544.012486735347,-7757.1102745415064,11481.749707236042,523.03134662201819,-752.9162118018362,34.562276478706785,8442.0407422360367,-4242.1693552040188,5741.8487251214892,-5741.8487251214892,4242.1693552040188,16773.909674425173,0.0
588296.95196600363,3710566.251970998,-2500.0,4678.5935731464169,-7931.0360082988291,15390.343159188042,514.40391524594713,-966.52122983325,42.138438350129114,9842.301908435822,-5779.7085176624814,8889.2656443162105,-8889.2656443162105,5779.7085176624814,19447.446164057383,0.0
593296.95196600363,3710566.251970998,-2500.0,3528.6576119781562,-7260.8209242096264,19303.430114841121,456.80592842180221,-1174.6226085317812,49.246938568130219,11115.361477198168,-6938.9745177609275,12227.417012602002,-12227.417012602002,6938.9745177609275,21880.595266922326,0.0
598296.95196600363,3710566.251970998,-2500.0,2333.9958024205021,-5642.242483241731,22659.970563070674,346.99808978994679,-1348.9411334318434,55.005152964967102,12113.419175713299,-7374.6590547206242,15274.347513219578,-15274.347513219578,7374.6590547206242,23790.47298936958,0.0
603296.95196600363,3710566.251970998,-2500.0,1393.6557801494989,-3187.4894896948231,24855.610086666791,192.81038151491308,-1460.261514909376,58.554857700846313,12696.921839602059,-6837.4834062161081,17472.77692976196,-17472.77692976196,6837.4834062161081,24911.016790518337,0.0
608296.95196600363,3710566.251970998,-2500.0,961.5006469442078,-243.91364977889509,25420.177886445657,13.468846180642485,-1486.4916942375048,59.2709575365256,12768.500439862426,-5291.9317038644194,18353.72128673219,-18353.72128673219,5291.9317038644194,25058.257201846303,0.0
613296.95196600363,3710566.251970998,-2500.0,1141.8341332231707,2686.1610643272761,24182.933806082969,-164.50541013673404,-1419.8787367957011,56.937803843289842,12300.83483598675,-2965.8642990855114,17701.849582592102,-17701.849582592102,2965.8642990855114,24183.511229806045,0.0
618296.95196600363,3710566.251970998,-2500.0,1844.7200587642928,5099.5076398771198,21339.929932236282,-314.60432726990098,-1269.913719459315,51.823537845492218,11346.40713703562,-291.94828773146037,15636.820614267122,-15636.820614267122,291.94828773146037,22391.527072142519,0.0
623296.95196600363,3710566.251970998,-2500.0,2827.6176942100424,6645.9848654130628,17386.283639806537,-417.66847257590024,-1060.4121347079902,44.617072290171635,10024.661011302966,2235.3127134301349,12566.23724068925,-12566.23724068925,-2235.3127134301349,19915.339063072821,0.0
628296.95196600363,3710566.251970998,-2500.0,3796.1426400677474,7210.0310722800896,12952.035269444057,-466.08020128528358,-822.25819871779038,36.251603616763234,8567.5023974787437,4213.416929076594,9039.918005576721,-9039.918005576721,-4213.416929076594,17059.483320500971,0.0
633296.95196600363,3710566.251970998,-2500.0,4506.7081302974375,6896.0868382110475,8624.8333249837742,-463.57470544988922,-585.22191511233768,27.681263472817996,7217.5333943179721,5426.4289079518676,5583.3866335446364,-5583.3866335446364,-5426.4289079518676,14135.276078436518,0.0
638296.95196600363,3710566.251970998,-2500.0,4825.9411956675476,5947.3999950251909,4829.8908340691323,-421.71514620448539,-371.98225459676883,19.693052436160684,5962.5610782683725,5855.6145523416399,2580.7599712203883,-2580.7599712203883,-5855.6145523416399,11409.748605709468,0.0
643296.95196600363,3710566.251970998,-2500.0,4736.3265340218577,4648.8865759388855,1791.2271317013181,-355.21794289570198,-195.70716483678578,12.804542338538525,4887.2970963230837,5627.5859148303316,233.76106207892417,-233.76106207892417,-5627.5859148303316,9077.6600031459202,0.0
648296.95196600363,3710566.251970998,-2500.0,4305.0550868147639,3252.7461287752258,-442.85988429643584,-278.02454455209084,-60.725889782292413,7.2534605736708775,4034.5020537703981,4939.9673396589887,-1417.1781418014396,1417.1781418014396,-4939.9673396589887,7252.0498264492617,0.0
653296.95196600363,3710566.251970998,-2500.0,3640.9475203506454,1940.8753564628132,-1943.4547708999266,-201.00382956854926,35.078513715306315,3.0510213573522758,3406.0779305126407,3996.9339881882024,-2441.0935315527158,2441.0935315527158,-3996.9339881882024,5960.7258716076485,0.0
658296.95196600363,3710566.251970998,-2500.0,2857.7322650214492,818.98993725080788,-2842.4725758921877,-131.24179005149921,97.498670371917314,0.060834047506071187,2969.9424233489199,2969.1580292789426,-2961.7189847826007,2961.7189847826007,-2969.1580292789426,5144.0969525949404,0.0
663296.95196600363,3710566.251970998,-2500.0,2051.2594918911873,-70.419095928026238,-3287.5861893827428,-72.400514040235763,133.69566765355702,-1.9260822954665797,2674.3671346310575,1977.9449208966889,-3115.2626662364164,3115.2626662364164,-1977.9449208966889,4673.4814560525374,0.0
668296.95196600363,3710566.251970998,-2500.0,1290.1870764376231,-728.38422109885437,-3414.662664365002,-25.569288076340769,150.66109564000772,-3.1351010524628524,2466.4119530063253,1096.1972930999632,-3024.8547464339158,3024.8547464339158,-1096.1972930999632,4402.8508048892127,0.0
673296.95196600363,3710566.251970998,-2500.0,616.03181693515444,-1180.7877157851835,-3335.0646139632531,9.8125895120108595,154.40374270630855,-3.7737471676214436,2305.1938467565969,357.91070937910581,-2789.1885390817065,2789.1885390817065,-357.91070937910581,4219.1230947490658,0.0
678296.95196600363,3710566.251970998,-2500.0,48.063055858096483,-1464.165837698521,-3132.8951996401311,35.185159075752999,149.66468494141961,-4.0154898774558676,2165.3096746672513,-230.01536405695583,-2480.5910914845917,2480.5910914845917,230.01536405695583,4056.8220640077416,0.0
683296.95196600363,3710566.251970998,-2500.0,-410.32160912163857,-1616.5278233178749,-2867.6252272487277,52.320461903000698,139.94890603014798,-3.9957081466776749,2033.7633825583086,-677.13634553753172,-2148.0972792858656,2148.0972792858656,677.13634553753172,3886.9478910642651,0.0
688296.95196600363,3710566.251970998,-2500.0,-765.67995987142672,-1672.3307112278735,-2578.8776985329059,62.984078084616989,127.70907514040981,-3.8146680597845313,1905.3565905664873,-1001.3655686160992,-1822.4094713645495,1822.4094713645495,1001.3655686160992,3701.410138808696,0.0
533296.95196600363,3715566.251970998,-2500.0,1544.89593995783,-13.328852168658004,-977.67030385193675,52.916329530406436,30.591898451359981,0.6032778213750063,1262.74085325802,1178.0066465943926,-1239.4917999112524,1239.4917999112524,-1178.0066465943926,2205.525044544805,0.0
538296.95196600363,3715566.251970998,-2500.0,1969.8024000944179,-299.42673503334896,-894.515407524289,74.697426829631851,21.606739403725772,1.2205116865088175,1464.8825891420663,1236.1701239441793,-1352.1224825026932,1352.1224825026932,-1236.1701239441793,2593.8573158392755,0.0
543296.95196600363,3715566.251970998,-2500.0,2445.2780386152713,-680.93926227096642,-716.5096474055116,101.74626530310169,6.634201425169298,2.0936210825704378,1723.6033061295341,1241.5883856296932,-1422.3324121828527,1422.3324121828527,-1241.5883856296932,3108.6081846408242,0.0
548296.95196600363,3715566.251970998,-2500.0,2958.9550592435862,-1173.748647436395,-401.59719502547199,134.56896348506271,-16.602239401607218,3.3014543263922693,2052.6984205878161,1166.5570852181709,-1416.7551268635652,1416.7551268635652,-1166.5570852181709,3779.5214358468734,0.0
553296.95196600363,3715566.251970998,-2500.0,3487.754339950643,-1788.8748782854141,104.02974548748125,173.26468811740884,-50.895564783617132,4.9355076503585256,2466.3365351969496,977.23155714552809,-1289.2518024402564,1289.2518024402564,-977.23155714552809,4636.0298134673012,0.0
558296.95196600363,3715566.251970998,-2500.0,3995.1776038466978,-2526.567059038995,865.30041147765144,217.20837909681683,-99.457569301419895,7.0939724618667253,2977.5378260198536,635.97579952791773,-979.82273159176168,979.82273159176168,-635.97579952791773,5704.434018085085,0.0
563296.95196600363,3715566.251970998,-2500.0,4430.095798193579,-3368.0831201815813,1954.0664929774962,264.64977421547263,-165.62982827294007,9.8693206000221529,3595.8823901798023,106.97804638818695,-416.39503189939785,416.39503189939785,-106.97804638818695,7003.4907640168003,0.0
568296.95196600363,3715566.251970998,-2500.0,4728.9509370671476,-4265.8875526115571,3439.0680781812307,312.28847148964707,-252.31040515413429,13.327305850704533,4324.2843645514677,-633.63837142720001,478.12257450731482,-478.12257450731482,633.63837142720001,8537.8712601311254,0.0
573296.95196600363,3715566.251970998,-2500.0,4823.7085301832685,-5134.6612706596834,5367.9359714251677,354.96297240482158,-361.02917011517428,17.476777203163447,5155.3943651033605,-1582.8474497789196,1770.90645468657,-1770.90645468657,1582.8474497789196,10289.557414859501,0.0
578296.95196600363,3715566.251970998,-2500.0,4657.3076453895192,-5847.7976688885246,7740.7615434268846,385.68233829488338,-490.70092360316931,22.233443922200049,6144.1002625083693,-2692.7832567616983,3494.9658402237587,-3494.9658402237587,2692.7832567616983,12208.294963872049,0.0
583296.95196600363,3715566.251970998,-2500.0,4205.8414339271703,-6245.9901121805333,10478.839849822414,396.2805360744922,-636.27801082606618,27.386131675144938,7191.3042237902291,-3855.486370110691,5617.7631237322385,-5617.7631237322385,3855.486370110691,14203.671450932188,0.0
588296.95196600363,3715566.251970998,-2500.0,3501.9317385213531,-6163.9858872492678,13398.540978904213,378.897709464493,-787.78312034386056,32.579370167634167,8207.742089205065,-4900.0522895663926,8011.2286353922045,-8011.2286353922045,4900.0522895663926,16142.824047571701,0.0
593296.95196600363,3715566.251970998,-2500.0,2648.30117691737,-5476.065914812425,16206.307162865265,328.20529268888504,-930.40252043592238,37.330147648192472,9105.8330115954232,-5613.0369541925411,10438.571531478565,-10438.571531478565,5613.0369541925411,17858.282483971081,0.0
598296.95196600363,3715566.251970998,-2500.0,1808.5947478565831,-4149.8005869075669,18530.902106846057,243.81673202674872,-1046.2393710506442,41.088425071187984,9790.6124334745564,-5786.9566792269779,12575.23697456312,-12575.23697456312,5786.9566792269779,19168.754549853467,0.0
603296.95196600363,3715566.251970998,-2500.0,1169.0231263083924,-2285.8671930589553,19997.701205511377,131.88897754778992,-1117.7937815122052,43.338574512961657,10176.388704509811,-5287.3182558449616,14072.109544533541,-14072.109544533541,5287.3182558449616,19911.242436346478,0.0
608296.95196600363,3715566.251970998,-2500.0,879.7306610199015,-118.90304581722452,20327.843819037898,4.8977307021128222,-1132.3445867793132,43.71665008836576,10205.444480581142,-4112.2158237630983,14648.058655608933,-14648.058655608933,4112.2158237630983,19976.887106745839,0.0
613296.95196600363,3715566.251970998,-2500.0,1000.4695108422353,2031.8034077166799,19424.66642658025,-120.79314404548082,-1085.6548148799518,42.10588201833292,9862.6654988033606,-2413.2519804473368,14177.140955390587,-14177.140955390587,2413.2519804473368,19338.84589095903,0.0
618296.95196600363,3715566.251970998,-2500.0,1477.9733424881942,3847.1152503051626,17407.870034800118,-228.88251295990304,-983.40782675078208,38.67373711313892,9180.5161049187955,-461.41367217922925,12730.568488160066,-12730.568488160066,461.41367217922925,18061.572681453443,0.0
623296.95196600363,3715566.251970998,-2500.0,2166.959362788597,5092.9866475129174,14578.688358797168,-307.0890460370552,-839.70404918777558,33.835382060026724,8232.3206392801458,1429.9915101210427,10553.276428887621,-10553.276428887621,-1429.9915101210427,16287.748464526905,0.0
628296.95196600363,3715566.251970998,-2500.0,2882.965576727026,5670.5352259715246,11333.0553268028,-349.60310469782979,-673.28552424491886,28.155623512998176,7117.2750017375229,2991.0211167690368,7987.7460492500604,-7987.7460492500604,-2991.0211167690368,14208.056637283024,0.0
633296.95196600363,3715566.251970998,-2500.0,3460.4849461317162,5616.7967177871778,8061.5645643800008,-357.34063761675918,-503.06500213402478,22.225874511606968,6086.185204421553,4054.5185985103253,5380.9622045900451,-5380.9622045900451,-4054.5185985103253,12024.923248135692,0.0
638296.95196600363,3715566.251970998,-2500.0,3792.6149225137124,5066.4223483233309,5072.9495367319505,-336.34677022219182,-344.53336771315151,16.556376442348586,5119.2638290067671,4572.884545157578,3010.6306487015954,-3010.6306487015954,-4572.884545157578,9921.3858275073653,0.0
643296.95196600363,3715566.251970998,-2500.0,3842.8568577410724,4197.8363885080171,2558.6955887223498,-295.32881684302782,-207.89822966729182,11.510647207526393,4255.9033184901336,4597.8936983395588,1049.3176144628915,-1049.3176144628915,-4597.8936983395588,8041.4570149920519,0.0
648296.95196600363,3715566.251970998,-2500.0,3633.949533967565,3185.5592307830407,595.73297025496993,-243.31137170525525,-97.942389384158417,7.2887595568490369,3535.907621468753,4241.6294588206583,-435.00999418451784,435.00999418451784,-4241.6294588206583,6481.866218079851,0.0
653296.95196600363,3715566.251970998,-2500.0,3225.349280668348,2170.1170212856427,-827.4505431804688,-188.0115947268765,-15.03856423433187,3.9473124214985851,2973.9964916070162,3636.6452229299293,-1455.4866441627635,1455.4866441627635,-3636.6452229299293,5289.7889311838853,0.0
658296.95196600363,3715566.251970998,-2500.0,2690.1844895861968,1246.5850699317414,-1777.1474784765162,-135.07392635245503,43.367853371940434,1.4393652236895929,2561.7269347748861,2906.3954438034657,-2075.0904850898282,2075.0904850898282,-2906.3954438034657,4460.6264612955547,0.0
663296.95196600363,3715566.251970998,-2500.0,2097.9853096553047,466.73729464054082,-2344.2726989868224,-87.993715222243424,81.335180839277243,-0.34312015656508488,2272.7864737668142,2149.0512125707855,-2378.4217221239223,2378.4217221239223,-2149.0512125707855,3938.5185242570651,0.0
668296.95196600363,3715566.251970998,-2500.0,1504.9563652392405,-151.68030666726506,-2622.6915936548739,-48.451685397687996,103.33482136590727,-1.5334470339031094,2072.2502446024255,1432.6505529014826,-2451.4818069828675,2451.4818069828675,-1432.6505529014826,3632.7437740621522,0.0
673296.95196600363,3715566.251970998,-2500.0,950.66309810469352,-613.79443611791567,-2696.5228127938244,-16.806775588678757,113.55928749897721,-2.2653461317087675,1926.8359517621345,797.52647035307837,-2370.0042929861265,2370.0042929861265,-797.52647035307837,3450.260259814444,0.0
678296.95196600363,3715566.251970998,-2500.0,458.92336008416709,-937.67283613516759,-2634.56365752173,7.4198403109670892,115.57172317308724,-2.6585464770389406,1811.3820779206262,262.16385915542583,-2194.5713954041557,2194.5713954041557,-262.16385915542583,3321.5581921158123,0.0
683296.95196600363,3715566.251970998,-2500.0,40.796811453728374,-1146.8872994220005,-2489.3998802193914,25.152429898384366,112.19662711063731,-2.8124450863900665,1710.0795663251911,-170.22189229323374,-1970.1530899229156,1970.1530899229156,170.22189229323374,3206.1145777258671,0.0
538296.95196600363,3720566.251970998,-2500.0,1963.3652719284191,-560.58827986029121,-540.73762277804553,77.857554104903443,4.3157605400396131,1.5221512169195124,1373.4964162026774,979.96187998540893,-1118.0981730588076,1118.0981730588076,-979.96187998540893,2483.4898091471136,0.0
543296.95196600363,3720566.251970998,-2500.0,2346.9778663711941,-925.7909822511333,-301.43079121724639,101.02614515313013,-12.043425405565666,2.3270206676297853,1617.9301524996706,924.86269973611206,-1110.5859412212408,1110.5859412212408,-924.86269973611206,2983.98780389884,0.0
548296.95196600363,3720566.251970998,-2500.0,2743.0890566601074,-1375.110575943098,68.858766109731917,128.10807609224099,-35.5998408696193,3.3975188027529271,1920.9200009586216,792.51529069695107,-1020.056167509249,1020.056167509249,-792.51529069695107,3613.4022255906298,0.0
553296.95196600363,3720566.251970998,-2500.0,3129.3829749945885,-1909.5664931519711,611.43376977869559,158.791651601881,-68.327584793104577,4.7930831731986485,2291.0782707347366,558.97412918455939,-808.73827624953401,808.73827624953401,-558.97412918455939,4389.140516670087,0.0
558296.95196600363,3720566.251970998,-2500.0,3474.8063656324202,-2519.5932202098202,1372.2328258718869,192.15736382689778,-112.3182185473287,6.5722332052508907,2735.1874688195935,200.77058572491524,-431.36479503420912,431.36479503420912,-200.77058572491524,5324.5577901786155,0.0
563296.95196600363,3720566.251970998,-2500.0,3740.3114540792026,-3179.6791496790051,2396.8979244674424,226.44525074064313,-169.50767789261113,8.7828370081256306,3256.5080035010169,-299.97099294233374,161.53374556448242,-161.53374556448242,299.97099294233374,6425.510804543901,0.0
568296.95196600363,3720566.251970998,-2500.0,3882.2910656838562,-3843.0443813834809,3721.9025724616235,258.85652874123156,-241.23001279414129,11.447554118830109,3853.0465600212606,-947.87056232192299,1016.5273058180815,-1016.5273058180815,947.87056232192299,7685.758350218116,0.0
573296.95196600363,3720566.251970998,-2500.0,3859.7071226147709,-4438.3055964054529,5361.1924698169087,285.48529097335251,-327.59239093812039,14.545366145259297,4569.5203348893419,-1724.6192517508098,2165.4267373291905,-2165.4267373291905,1724.6192517508098,9081.5916443858805,0.0
578296.95196600363,3720566.251970998,-2500.0,3645.1044121445489,-4871.0882352011713,7289.2706868689738,301.50959673709878,-426.73717738840293,17.991453420457617,5350.5673034910842,-2579.3401320502016,3608.9650836768724,-3608.9650836768724,2579.3401320502016,10566.704250796334,0.0
583296.95196600363,3720566.251970998,-2500.0,3237.9167730755921,-5033.8782763431454,9424.2047080045249,301.76670631314545,-534.16394514286924,21.621447887092675,6139.5844446234041,-3422.9367552106828,5298.7546718735402,-5298.7546718735402,3422.9367552106828,12068.994046612423,0.0
588296.95196600363,3720566.251970998,-2500.0,2675.9754260763007,-4826.0780266704087,11617.124943720233,281.75871043840584,-642.40000716333645,25.187505505764918,6885.7714671145195,-4131.7662040204632,7123.5131174238959,-7123.5131174238959,4131.7662040204632,13491.523524530483,0.0
593296.95196600363,3720566.251970998,-2500.0,2039.0739560702827,-4182.4384886917296,13656.64600565713,238.96093688577236,-741.35526229264178,28.374596666410014,7529.0662366261522,-4565.1755968471707,8908.0239860047404,-8908.0239860047404,4565.1755968471707,14719.675333277908,0.0
598296.95196600363,3720566.251970998,-2500.0,1438.8543151294123,-3102.4327693320865,15294.826556287686,174.07889418895329,-819.58911501951434,30.840277740438808,8007.418022853537,-4597.0730825481196,10432.435023139351,-10432.435023139351,4597.0730825481196,15635.256003523395,0.0
603296.95196600363,3720566.251970998,-2500.0,993.74181852470463,-1668.52811472023,16294.153230984142,91.740187790816179,-866.40972508810387,32.274401416372733,8266.9005580899502,-4154.2632563756197,11473.253521814764,-11473.253521814764,4154.2632563756197,16135.893543782993,0.0
608296.95196600363,3720566.251970998,-2500.0,795.27537599955429,-41.814810820497122,16484.31593206483,0.16711681436556303,-874.30584875169643,32.464408428775279,8272.3167952658496,-3247.4251881098444,11856.899992235647,-11856.899992235647,3247.4251881098444,16155.312563346375,0.0
613296.95196600363,3720566.251970998,-2500.0,878.73216244583352,1568.7051596682661,15809.134865380031,-90.281393387255946,-840.90751387604291,31.346481855522089,8015.1644421453875,-1979.7951464517901,11507.441592277941,-11507.441592277941,1979.7951464517901,15678.492688518634,0.0
618296.95196600363,3720566.251970998,-2500.0,1211.2150809960763,2954.651869420667,14344.557679449392,-169.31498694821244,-769.71985687112783,29.024425540389146,7516.2641720339006,-526.63717689023269,10469.117145344277,-10469.117145344277,526.63717689023269,14746.582286279072,0.0
623296.95196600363,3720566.251970998,-2500.0,1702.8064502063564,3956.8878620050318,12279.828304869467,-228.91609084688599,-669.32067890017277,25.748919414290985,6822.0723918249687,908.07643760258907,8894.0301884978708,-8894.0301884978708,-908.07643760258907,13449.767668302935,0.0
628296.95196600363,3720566.251970998,-2500.0,2235.3655028439916,4496.5540248964799,9869.756137533137,-264.7958411755979,-551.33361261630046,21.864107006006265,5996.002709819466,2140.9296540117543,7000.74041954721,-7000.74041954721,-2140.9296540117543,11910.56229507299,0.0
633296.95196600363,3720566.251970998,-2500.0,2696.1327568850197,4579.9646695270603,7376.939464275436,-276.71524022261798,-427.93072548725473,17.739147629655051,5156.8333961975723,3046.3425775329752,5021.0040689511616,-5021.0040689511616,-3046.3425775329752,10262.948101866054,0.0
638296.95196600363,3720566.251970998,-2500.0,3003.4805869870497,4280.6673349399689,5023.3857545550281,-267.77244627665146,-309.66964823648397,13.705854867381811,4408.5461360581121,3571.7452408687341,3153.5790572096366,-3153.5790572096366,-3571.7452408687341,8633.2474704134129,0.0
643296.95196600363,3720566.251970998,-2500.0,3118.2380738323341,3709.6651242158523,2963.0120198570357,-243.09907043926171,-204.17740433506293,10.016891280469762,3718.3319933083749,3731.2051101447646,1536.947678635896,-1536.947678635896,-3731.2051101447646,7126.7004884017342,0.0
648296.95196600363,3720566.251970998,-2500.0,3041.2317144167846,2985.660398563803,1276.219538750853,-208.47941249372565,-115.78035492025283,6.8296903532995152,3119.1865387962671,3585.4688203980349,242.9111478103348,-242.9111478103348,-3585.4688203980349,5820.6715609340399,0.0
653296.95196600363,3720566.251970998,-2500.0,2802.1923348151695,2213.1662183132157,-19.431757615396197,-169.2646203770413,-45.868396798903504,4.2120241752844372,2628.8972116444725,3218.1667442086673,-714.21498498026517,714.21498498026517,-3218.1667442086673,4762.5607688850032,0.0
658296.95196600363,3720566.251970998,-2500.0,2446.0188579940932,1471.006049472436,-950.82237122119113,-129.73304720434552,6.3480350921221635,2.1609332833056252,2250.1375265959546,2715.4796366666624,-1360.7021598967999,1360.7021598967999,-2715.4796366666624,3968.8491797597071,0.0
663296.95196600363,3720566.251970998,-2500.0,2020.7876706787611,809.80390584243344,-1570.1473355060057,-92.869014568979722,42.995326714210726,0.62637251119114157,1972.2481518164636,2152.6686357558983,-1745.5840529669183,1745.5840529669183,-2152.6686357558983,3423.5018357289491,0.0
668296.95196600363,3720566.251970998,-2500.0,1569.5704249554697,255.31581343363442,-1939.2473139977203,-60.438407511329238,66.80877816955406,-0.46686341743223614,1775.1436532506973,1587.6231191536347,-1926.0181227571945,1926.0181227571945,-1587.6231191536347,3080.2193849480896,0.0
673296.95196600363,3720566.251970998,-2500.0,1126.2273318055941,-185.56392080464065,-2118.8739841748384,-33.222145807601699,80.605149572570909,-1.2021040254525797,1635.2030435678489,1059.7736933999659,-1957.3212041598081,1957.3212041598081,-1059.7736933999659,2875.6323734629314,0.0
678296.95196600363,3720566.251970998,-2500.0,714.3274711327075,-518.42469930403615,-2162.60871929419,-11.29768691772799,86.959928964665409,-1.6594711597304519,1531.0144870795054,592.25587867494096,-1887.4382562283781,1887.4382562283781,-592.25587867494096,2749.3475419885062,0.0
543296.95196600363,3725566.251970998,-2500.0,2193.4932972250822,-1078.1228481201165,47.209277879163295,96.612198260762241,-25.518823463246555,2.3926173257806735,1523.2605407943595,649.67740276954487,-819.12135142879492,819.12135142879492,-649.67740276954487,2867.3567820618482,0.0
548296.95196600363,3725566.251970998,-2500.0,2491.5427136009012,-1474.027503588426,444.04398880138831,118.49256613243809,-48.168781555255087,3.3173978619465379,1797.3768907206088,485.26744721384591,-670.32056243720365,670.32056243720365,-485.26744721384591,3443.2878898214954,0.0
553296.95196600363,3725566.251970998,-2500.0,2766.0281423067654,-1925.3244980625764,990.47803138435449,142.37611306016612,-78.215843537417427,4.4854737835781151,2123.6752802516012,235.81617199221179,-409.56943138523548,409.56943138523548,-235.81617199221179,4132.2182917687605,0.0
558296.95196600363,3725566.251970998,-2500.0,2992.2862356438013,-2417.7939169494762,1717.2402947879582,167.28856805492561,-116.94915122771823,5.929597838129645,2505.022699621522,-111.64573508985893,-4.4299142394819029,4.4299142394819029,111.64573508985893,4939.4833932218944,0.0
563296.95196600363,3725566.251970998,-2500.0,3142.0290659441566,-2924.8621418872667,2651.0266954355457,191.66261296297915,-165.38657397369516,7.6710688745161857,2941.4948260970423,-563.29012513058592,577.1306373226455,-577.1306373226455,563.29012513058592,5863.7039190572559,0.0
568296.95196600363,3725566.251970998,-2500.0,3186.7483286320548,-3405.1630003939113,3807.5065568738405,213.26742646409343,-223.95372938857912,9.7103043721025664,3467.4171079225848,-1113.1749750321319,1360.716383324117,-1360.716383324117,1113.1749750321319,6893.722061598356,0.0
573296.95196600363,3725566.251970998,-2500.0,3103.2691136396356,-3802.1786155936397,5182.0886166584633,229.24851885766969,-292.08381046952775,12.015704283602894,4053.2780648068838,-1737.4510979051001,2356.8833830087378,-2356.8833830087378,1737.4510979051001,8005.4223014762119,0.0
578296.95196600363,3725566.251970998,-2500.0,2881.0627657865793,-4047.6479727459796,6739.6728105918255,236.34478479834291,-367.80106420560492,14.513207859418774,4660.4639532423607,-2389.7270549885429,3550.7729496170273,-3550.7729496170273,2389.7270549885429,9159.1837266371331,0.0
583296.95196600363,3725566.251970998,-2500.0,2529.8385031967341,-4070.1903516882321,8406.0387918963133,231.33032884802833,-447.40570484513677,17.079526276246789,5259.5312337300938,-3000.0713449234854,4892.2879226874948,-4892.2879226874948,3000.0713449234854,10299.00809732989,0.0
588296.95196600363,3725566.251970998,-2500.0,2084.744383566142,-3809.3794379167489,10064.861797029085,211.6700131444795,-525.42337398521602,19.543707041710935,5813.5510588666575,-3480.3771617726625,6290.6185880216499,-6290.6185880216499,3480.3771617726625,11354.497280956661,0.0
593296.95196600363,3725566.251970998,-2500.0,1605.9108975055958,-3233.2002332857601,11564.600482692849,176.28060496219658,-594.97817815741234,21.700044707103675,6280.9854286194568,-3737.7251499702056,7617.5632162697329,-7617.5632162697329,3737.7251499702056,12246.544790217855,0.0
598296.95196600363,3725566.251970998,-2500.0,1169.9438380361464,-2354.0827609284388,12737.699243881931,126.18518504585226,-648.66374366522359,23.334066697085021,6620.6027726799057,-3694.6193533232417,8722.7671214931161,-8722.7671214931161,3694.6193533232417,12896.765465562339,0.0
603296.95196600363,3725566.251970998,-2500.0,853.7090251683278,-1237.0325891314587,13430.343124609912,64.796188206746891,-679.81575161273236,24.25733564861093,6797.6925952429101,-3311.2070579586652,9460.1743495215487,-9460.1743495215487,3311.2070579586652,13239.381355067073,0.0
608296.95196600363,3725566.251970998,-2500.0,714.54711410363825,5.5233591373907558,13535.766456172825,-2.3770018789921452,-683.89149545594535,24.344154166480507,6790.242900867911,-2601.7632092259537,9719.738951312951,-9719.738951312951,2601.7632092259537,13233.008739089833,0.0
613296.95196600363,3725566.251970998,-2500.0,773.83978679095912,1233.1781270459151,13020.594830605389,-68.616817195074091,-659.5381327546221,23.559280910005235,6593.4217328374552,-1638.075985267189,9454.4406215104664,-9454.4406215104664,1638.075985267189,12869.17685160648,0.0
618296.95196600363,3725566.251970998,-2500.0,1010.520034775208,2306.2907673087516,11934.641437384204,-127.26621938139958,-608.9791360044261,21.967515940660356,6221.0075934896222,-536.73877244416053,8692.8009159715984,-8692.8009159715984,536.73877244416053,12175.008023661059,0.0
623296.95196600363,3725566.251970998,-2500.0,1367.2704466654279,3114.756278896215,10400.272959214237,-172.9943349766105,-537.57063584166224,19.722260347351018,5703.2805063907508,566.11715535534677,7532.1101005244518,-7532.1101005244518,-566.11715535534677,11209.160288580217,0.0
628296.95196600363,3725566.251970998,-2500.0,1766.7819538843362,3597.5211190708133,8585.239038932461,-202.67636427749548,-452.67957325627015,17.035866602490501,5082.0162979688566,1544.0025938634626,6115.1017976065286,-6115.1017976065286,-1544.0025938634626,10052.263482270317,0.0
633296.95196600363,3725566.251970998,-2500.0,2131.6145583885536,3747.802781036135,6668.4867010254929,-215.67025615486156,-362.25556034582775,14.141272571877799,4405.3329759540684,2303.6479866796412,4598.7004993893879,-4598.7004993893879,-2303.6479866796412,8794.5956601644048,0.0
638296.95196600363,3725566.251970998,-2500.0,2400.8014473006606,3604.8565731355252,4809.4938484053109,-213.50859551000497,-273.51926999649453,11.255504923273183,3809.2943260432335,2796.8696599460395,3124.9871345884635,-3124.9871345884635,-2796.8696599460395,7524.1995534574889,0.0
643296.95196600363,3725566.251970998,-2500.0,2538.9397917664296,3237.4670255357937,3128.23513730588,-199.20676889982272,-192.06566067949007,8.553159892583194,3257.4837630030834,3019.8758942192753,1801.6092365542918,-1801.6092365542918,-3019.8758942192753,6317.7975960200556,0.0
648296.95196600363,3725566.251970998,-2500.0,2537.1508356294107,2725.6074683247411,1697.8664789453874,-176.45436130861631,-121.48821956990412,6.1534115766681703,2762.7766897112124,3003.4098493339434,694.07947412518865,-694.07947412518865,-3003.4098493339434,5235.5147262366845,0.0
653296.95196600363,3725566.251970998,-2500.0,2408.0430065662986,2145.2643815163788,547.93553673657959,-148.91061304040102,-63.454489363977061,4.1197664164382282,2341.996698955993,2798.8569109892987,-171.82315338586454,171.82315338586454,-2798.8569109892987,4318.8391375978554,0.0
658296.95196600363,3725566.251970998,-2500.0,2177.8554437788735,1558.8198905889285,-326.10116772604943,-119.72309800917827,-18.070493143526569,2.4684578228914349,2002.2172790964307,2464.8353822938502,-801.46018231107985,801.46018231107985,-2464.8353822938502,3590.0935179385988,0.0
663296.95196600363,3725566.251970998,-2500.0,1878.5781015189284,1011.0542664010146,-951.24402306783793,-91.290413780376255,15.63771303621853,1.1811173712148186,1741.2716010460135,2057.0051055623326,-1220.5631582782564,1220.5631582782564,-2057.0051055623326,3051.5964334244281,0.0
668296.95196600363,3725566.251970998,-2500.0,1541.7458598355047,529.4173964472734,-1366.219716010213,-65.223092010924233,39.258203316980499,0.21791876035310939,1549.2312138998263,1621.9450779498272,-1465.225265778369,1465.225265778369,-1621.9450779498272,2684.7897702294499,0.0
548296.95196600363,3730566.251970998,-2500.0,2231.880577623293,-1499.0331276326947,732.18235085179424,107.44964613693907,-55.76981490490742,3.1320252503173194,1678.6363454242592,241.3644671787755,-373.85893851777598,373.85893851777598,-241.3644671787755,3264.8480329905301,0.0
553296.95196600363,3730566.251970998,-2500.0,2421.2459987697703,-1871.9700604406444,1260.3172381837874,125.76872340612201,-82.64055188632635,4.0962742036244766,1963.1466995019437,-5.4743683954381339,-89.460962403014221,89.460962403014221,5.4743683954381339,3868.4605676680826,0.0
558296.95196600363,3730566.251970998,-2500.0,2562.1540832752576,-2262.1550744933775,1933.9196107249654,144.10968839559686,-116.09502708561786,5.256706793487762,2288.3459612568895,-326.81302423856323,316.35812759352893,-316.35812759352893,326.81302423856323,4558.6012534174906,0.0
563296.95196600363,3730566.251970998,-2500.0,2634.9587749122866,-2644.9475518956128,2766.7164979708245,161.16665577479992,-156.57999729654279,6.6197413972927128,2679.736128930027,-721.76935874539799,862.97699253310384,-862.97699253310384,721.76935874539799,5330.1546652477855,0.0
568296.95196600363,3730566.251970998,-2500.0,2621.8916289281074,-2985.9029633305804,3761.7448949649424,175.22797218323069,-204.02939745366044,8.1755439852899272,3123.4018616775984,-1179.4041650970726,1562.3459136114684,-1562.3459136114684,1179.4041650970726,6170.4033974903132,0.0
573296.95196600363,3730566.251970998,-2500.0,2511.0652585372745,-3241.7723941616823,4905.2891086859518,184.25362073618103,-257.61882523828706,9.8916481546629438,3591.0373011396882,-1675.5096822929163,2413.0731381314836,-2413.0731381314836,1675.5096822929163,7057.2489058766032,0.0
578296.95196600363,3730566.251970998,-2500.0,2301.0967737969381,-3364.1285190499357,6160.9737961305846,186.06638230769656,-315.54153749563392,11.7076977144397,4065.4137801853349,-2170.7792369224585,3394.1316749182683,-3394.1316749182683,2170.7792369224585,7958.1000759454901,0.0
583296.95196600363,3730566.251970998,-2500.0,2005.2335697757005,-3306.1325598537001,7465.8321929319109,178.66933106615144,-374.88087023271385,13.533296308956459,4523.9933982396615,-2611.8070743636276,4459.8444925270578,-4459.8444925270578,2611.8070743636276,8830.0507231691463,0.0
588296.95196600363,3730566.251970998,-2500.0,1653.3524297760814,-3032.0738828960311,8730.649988842606,160.66390292908437,-431.66742140352903,15.25092759924777,4939.8909105646753,-2936.2129471946405,5538.427762540241,-5538.427762540241,2936.2129471946405,9621.9392060592309,0.0
593296.95196600363,3730566.251970998,-2500.0,1290.1591807144891,-2527.9977349960336,9846.6359209572038,131.69077458476707,-481.19317814844203,16.725712179187457,5284.0971701038197,-3082.2882934127542,6536.3462715410642,-6536.3462715410642,3082.2882934127542,10278.619387239058,0.0
598296.95196600363,3730566.251970998,-2500.0,968.68718839451981,-1810.4454107320494,10699.097876044647,92.769513244232385,-518.59674926411537,17.821795696105543,5528.7633310277379,-3001.9167086489747,7349.6071428683335,-7349.6071428683335,3001.9167086489747,10747.238342640549,0.0
603296.95196600363,3730566.251970998,-2500.0,739.79855263937793,-929.82001736738948,11186.434694257894,46.400473420503594,-539.64256941738665,18.423189624251933,5651.080759681563,-2673.6455828379808,7880.891853450501,-7880.891853450501,2673.6455828379808,10984.640737992144,0.0
608296.95196600363,3730566.251970998,-2500.0,640.293554671793,34.152810788601002,11240.133913198901,-3.6632153184753173,-541.52085034260301,18.454316808415523,5636.9696810161176,-2111.6366665937626,8058.7562722004805,-8058.7562722004805,2111.6366665937626,10964.39557426618,0.0
613296.95196600363,3730566.251970998,-2500.0,683.43295346126024,984.94709681959341,10840.010641450777,-52.966968492162415,-523.44607408376305,17.895538842704465,5483.6772313937536,-1366.764403980872,7853.3882625312735,-7853.3882625312735,1366.764403980872,10681.730153188459,0.0
618296.95196600363,3730566.251970998,-2500.0,855.29358877162281,1826.7879524987345,10019.692721361946,-97.10554126161162,-486.86599151478765,16.787928411363758,5200.5746881309997,-518.5460002857144,7283.7778504335438,-7283.7778504335438,518.5460002857144,10155.026851764205,0.0
623296.95196600363,3730566.251970998,-2500.0,1118.3539526257139,2482.191452964285,8860.3853945990104,-132.47066317705855,-435.20837416812145,15.226951851509732,4807.9089187371637,340.08626256357047,6413.8351590293823,-6413.8351590293823,-340.08626256357047,9423.4320497882582,0.0
628296.95196600363,3730566.251970998,-2500.0,1420.9731636110791,2904.4405865651288,7474.8934038693233,-156.79261861891592,-373.24094463218478,13.345670518401217,4333.8280703004975,1120.5531253593003,5338.810115768516,-5338.810115768516,-1120.5531253593003,8541.1962600426705,0.0
633296.95196600363,3730566.251970998,-2500.0,1709.3957916267711,3082.0135304277696,5986.9292007115655,-169.35231470533176,-306.23668178109585,11.293092865472072,3810.5572124989208,1753.726769887478,4166.5196688985288,-4166.5196688985288,-1753.726769887478,7570.2273022610161,0.0
638296.95196600363,3730566.251970998,-2500.0,1938.4866541413064,3034.9732668598172,4511.4833355064939,-170.85689264588373,-239.16799671030327,9.2122991640673426,3303.7767773960754,2198.6886476028144,2998.9077886705722,-2998.9077886705722,-2198.6886476028144,6572.5791276176269,0.0
643296.95196600363,3730566.251970998,-2500.0,2078.5253795262893,2805.785573376404,3140.6642675602566,-163.07116342530179,-176.10663127153401,7.2237496063012312,2861.2123480109235,2444.1112418383113,1918.3460378019995,-1918.3460378019995,-2444.1112418383113,5604.3335706064909,0.0
648296.95196600363,3730566.251970998,-2500.0,2117.2316904427635,2448.0625217840839,1936.849231206364,-148.34410776539457,-119.91067617031491,5.4157053491830407,2454.0812834423273,2503.6385028119735,980.68879337036969,-980.68879337036969,-2503.6385028119735,4711.6402654540125,0.0
653296.95196600363,3730566.251970998,-2500.0,2057.8040000754713,2016.3060844735401,932.55006283272337,-129.15861318718666,-72.18462897394005,3.8419245076156976,2096.6768190394209,2407.918562801126,214.7164994418813,-214.7164994418813,-2407.918562801126,3928.8517535773717,0.0
658296.95196600363,3730566.251970998,-2500.0,1914.6052823546831,1558.5091651208495,134.9664461848887,-107.78849794093627,-33.439462758856841,2.5249594594518121,1797.1964176298,2195.9940905630929,-373.87124583210789,373.87124583210789,-2195.9940905630929,3278.0200235931179,0.0
663296.95196600363,3730566.251970998,-2500.0,1708.1783319885865,1112.1287652454198,-467.20212281901013,-86.092964879129354,-3.3580677961652921,1.4627677108114456,1557.5873335439569,1907.9899165647078,-796.20845309525043,796.20845309525043,-1907.9899165647078,2768.6031599315634,0.0
553296.95196600363,3735566.251970998,-2500.0,2106.7506432334899,-1776.1335595825274,1441.0104495136168,109.97517429610178,-83.258677561350666,3.6792706714963876,1810.2877893382001,-179.67350196751161,159.51346624532599,-159.51346624532599,179.67350196751161,3603.7551198889578,0.0
558296.95196600363,3735566.251970998,-2500.0,2187.9119183492057,-2080.5403933513403,2052.4602942431111,123.30615138465788,-111.77799553634057,4.6059411785894095,2105.552259799465,-467.74260151681773,549.00224596498447,-549.00224596498447,467.74260151681773,4190.2841143244123,0.0
563296.95196600363,3735566.251970998,-2500.0,2211.0335729832705,-2364.9412271932256,2784.3851040553382,135.04392449893552,-145.33046848069048,5.6693386525077027,2445.2963382058433,-806.07638962482019,1048.7967685546259,-1048.7967685546259,806.07638962482019,4832.5693775305908,0.0
568296.95196600363,3735566.251970998,-2500.0,2165.6596164009206,-2601.7095506791647,3632.6769939140054,143.90728743898171,-183.61053936988625,6.8559559640795875,2807.4675812966807,-1182.0513610645016,1662.3929335207645,-1662.3929335207645,1182.0513610645016,5518.1083611744489,0.0
573296.95196600363,3735566.251970998,-2500.0,2046.7483136295436,-2758.4764096612571,4580.0293386451958,148.45961314072966,-225.75267118044334,8.1365782613319251,3181.8279523649662,-1573.5503284324891,2382.2739732475943,-2382.2739732475943,1573.5503284324891,6227.7136149374946,0.0
578296.95196600363,3735566.251970998,-2500.0,1857.483118724324,-2801.3332832513147,5592.7222303544486,147.26034354842434,-270.21829786582316,9.4640112226277928,3554.5820418476519,-1948.593637415996,3186.252843679787,-3186.252843679787,1948.593637415996,6935.1636026504966,0.0
583296.95196600363,3735566.251970998,-2500.0,1611.3824271317962,-2699.8529918830791,6619.1802628791174,139.08496742246473,-314.76001974094874,10.772727019976116,3908.5430462756194,-2267.008797550809,4035.1561225104174,-4035.1561225104174,2267.008797550809,7607.7851176156719,0.0
588296.95196600363,3735566.251970998,-2500.0,1332.7577001992047,-2433.4328296175568,7591.582031312807,123.18845076198018,-356.50943762765058,11.981947436187889,4224.0650670551868,-2484.6942396346085,4873.163832899776,-4873.163832899776,2484.6942396346085,8208.2545735072144,0.0
593296.95196600363,3735566.251970998,-2500.0,1054.6937585675464,-1997.7407407442083,8431.453651083737,99.560267460769268,-392.21906667390431,13.002462218893037,4480.6723159223548,-2560.3993986044452,5631.9012769786832,-5631.9012769786832,2560.3993986044452,8697.7101684902118,0.0
598296.95196600363,3735566.251970998,-2500.0,814.28853780005943,-1409.4598747758273,9059.2576426611286,69.099463844710414,-418.65258715574566,13.747215322481647,4659.2601538082963,-2463.9966685322925,6238.5759021922349,-6238.5759021922349,2463.9966685322925,9039.9494473042669,0.0
603296.95196600363,3735566.251970998,-2500.0,645.81039105431125,-707.44411331286301,9406.6406336207474,33.638717003500958,-433.06762099989226,14.143651068040782,4744.5544633387462,-2184.2862429387792,6627.1603434220688,-6627.1603434220688,2184.2862429387792,9206.1144567982865,0.0
608296.95196600363,3735566.251970998,-2500.0,573.39828174710783,50.904683969160097,9428.7067657327862,-4.2239008554541302,-433.6897468755833,14.145613917682832,4727.3664893377381,-1733.9383314713136,6750.2680549258348,-6750.2680549258348,1733.9383314713136,9178.9811287171051,0.0
613296.95196600363,3735566.251970998,-2500.0,605.44306876085636,797.84479621090532,9113.0724728028017,-41.473096655617525,-420.05648456289754,13.74196831080439,4606.1385919477179,-1149.6310449786747,6588.5955644055593,-6588.5955644055593,1149.6310449786747,8955.8926584577184,0.0
618296.95196600363,3735566.251970998,-2500.0,732.48624864370561,1466.304439893431,8483.0224438927125,-75.132382472683034,-393.13349220749825,12.959280208801308,4387.4013321870607,-486.80838892996098,6155.1486212765449,-6155.1486212765449,486.80838892996098,8549.6194516838041,0.0
623296.95196600363,3735566.251970998,-2500.0,929.36790470301969,2000.8673793618912,7593.7174779892966,-102.71741155458443,-355.16492312649808,11.858000319782727,4085.0052950571585,189.77049085214003,5492.9268764195449,-5492.9268764195449,-189.77049085214003,7986.8940256219767,0.0
628296.95196600363,3735566.251970998,-2500.0,1160.9180445357788,2365.8873061782256,6522.5339614237137,-122.57557658284706,-309.29869650625432,10.523050800488081,3718.30992830082,817.12638239085345,4666.788549156523,-4666.788549156523,-817.12638239085345,7304.9743048465007,0.0
633296.95196600363,3735566.251970998,-2500.0,1389.3727048297815,2548.946656787889,5356.2433094133621,-134.04078713356503,-259.087009918609,9.0510517830599078,3309.7647439429184,1343.8731963064811,3751.9041280451984,-3751.9041280451984,-1343.8731963064811,6547.0278646987972,0.0
638296.95196600363,3735566.251970998,-2500.0,1581.369601046526,2559.433688427891,4178.3022652902728,-137.39107923451155,-207.98463145159579,7.5372506462078785,2883.9110214235629,1736.520516753611,2821.9013452877721,-2821.9013452877721,-1736.520516753611,5757.3125963143093,0.0
643296.95196600363,3735566.251970998,-2500.0,1712.8639669018546,2423.4236099359905,3058.9691935220258,-133.65199198508193,-158.94970979493755,6.0649734404593456,2519.9462245984159,1981.3981041948559,1939.3853455127332,-1939.3853455127332,-1981.3981041948559,4977.0495985378129,0.0
648296.95196600363,3735566.251970998,-2500.0,1771.2428291102538,2176.7644086024538,2049.623218502034,-124.31817721222785,-114.20284580466591,4.6987665004000325,2184.9627212654086,2082.6950984520245,1150.2963320272881,-1150.2963320272881,-2082.6950984520245,4241.5028656795748,0.0
653296.95196600363,3735566.251970998,-2500.0,1754.8505729708277,1858.2412784591859,1181.3352019100992,-111.06791170631787,-75.151467440430906,3.4818500861644712,1883.1688825552812,2057.9730595947231,482.27327643323019,-482.27327643323019,-2057.9730595947231,3578.3947267579165,0.0
658296.95196600363,3735566.251970998,-2500.0,1670.7332258734511,1504.1284336478227,466.74349335990246,-95.52575618395035,-42.447123114010594,2.4369607800635325,1622.3984173862023,1932.7354445454362,-53.801736142548748,53.801736142548748,-1932.7354445454362,3007.3543106771631,0.0
563296.95196600363,3740566.251970998,-2500.0,1859.3433874677617,-2098.9645705425569,2735.1231219023443,112.99195572391994,-133.09849386070911,4.8336281087716468,2225.1787684649184,-839.36867376152463,1159.5909273852815,-1159.5909273852815,839.36867376152463,4374.7848671585471,0.0
568296.95196600363,3740566.251970998,-2500.0,1797.7277127121329,-2258.8653040887784,3454.2513337634391,118.31436405825542,-163.92955743944498,5.7400928671693539,2521.2273917495536,-1145.6325220283491,1691.9755024368812,-1691.9755024368812,1145.6325220283491,4934.9560189900294,0.0
573296.95196600363,3740566.251970998,-2500.0,1681.2865586385915,-2346.9106533067352,4237.7575468346413,120.04203519895894,-197.12253266648307,6.6996386474550071,2822.0889192842137,-1453.2725898302749,2297.9575415325808,-2297.9575415325808,1453.2725898302749,5504.9604119717351,0.0
578296.95196600363,3740566.251970998,-2500.0,1515.1733346972612,-2339.5865012044151,5056.1123963733708,117.22857598683758,-231.41706355374441,7.6761443471561703,3116.7915414980189,-1736.8837736664634,2956.6401877687958,-2956.6401877687958,1736.8837736664634,6063.9621604149024,0.0
583296.95196600363,3740566.251970998,-2500.0,1311.7439528960424,-2217.3370499471907,5867.8932419456105,109.1319890962076,-265.10241671544605,8.6223659889218194,3392.2490028746593,-1966.4868593955703,3635.5267759493859,-3635.5267759493859,1966.4868593955703,6587.1205190496667,0.0
588296.95196600363,3740566.251970998,-2500.0,1090.3318808380502,-1968.7389755561112,6621.698430570279,95.379736239657092,-296.10410254907646,9.4825451397300107,3634.0262732227238,-2110.8564350971501,4291.5503663872369,-4291.5503663872369,2110.8564350971501,7047.0525269273976,0.0
593296.95196600363,3740566.251970998,-2500.0,875.43174111287249,-1594.4045924525285,7260.5476679232515,76.11619248730797,-322.16240799176762,10.197205324601857,3827.513440477238,-2142.2259973340315,4874.4962991666671,-4874.4962991666671,2142.2259973340315,7416.0693028425057,0.0
598296.95196600363,3740566.251970998,-2500.0,693.28157813097073,-1109.5304588776157,7728.5666979436219,52.091445134334442,-341.0923653657955,10.709772063329183,3959.4095415170736,-2041.6156141784986,5332.7905752691231,-5332.7905752691231,2041.6156141784986,7669.0008695109482,0.0
603296.95196600363,3740566.251970998,-2500.0,567.36138960614323,-544.06323965956324,7978.9847139909307,24.654256872113027,-351.08706877131772,10.974110763997203,4019.307600512549,-1803.5605451767831,5620.8773668313279,-5620.8773668313279,1803.5605451767831,7786.2111680102189,0.0
608296.95196600363,3740566.251970998,-2500.0,513.82004389272686,60.072850674826611,7981.8209275182762,-4.3691680484833935,-351.00425256388331,10.961576217842303,4001.1016758948676,-1438.8747858446663,5706.7117653853056,-5706.7117653853056,1438.8747858446663,7756.2714485947154,0.0
613296.95196600363,3740566.251970998,-2500.0,538.06105922934637,654.44581822103612,7729.4001476445683,-32.898857845472534,-340.56898185510136,10.665795589458881,3903.9302915546023,-974.41963079206425,5577.5597476856128,-5577.5597476856128,974.41963079206425,7577.7495675725659,0.0
618296.95196600363,3740566.251970998,-2500.0,633.50133853871966,1191.1956525414839,7238.2061233695467,-58.884920186334696,-320.43945881164575,10.104273116606244,3732.4416938291824,-449.62437517924582,5242.5493076047042,-5242.5493076047042,449.62437517924582,7259.7100952073033,0.0
623296.95196600363,3740566.251970998,-2500.0,782.89938007582441,1630.0804221314115,6546.5080925772145,-80.588963032861656,-292.11627979137768,9.3160398769868316,3496.3090120404509,89.531130537070567,4731.2453015903293,-4731.2453015903293,-89.531130537070567,6820.7927917482584,0.0
628296.95196600363,3740566.251970998,-2500.0,961.86469777770071,1943.8484860352964,5708.3645081916775,-96.801107378387925,-257.71736777564684,8.3561863320739747,3209.099398783881,597.61023758783062,4088.6441815180096,-4088.6441815180096,-597.61023758783062,6287.0719574836912,0.0
633296.95196600363,3740566.251970998,-2500.0,1143.5358954806939,2120.8422856434181,4785.5020748572251,-106.95041401837123,-219.67227646314473,7.2882749034346173,2886.727639076631,1036.1958271762344,3367.9116938744764,-3367.9116938744764,-1036.1958271762344,5689.1256458760545,0.0
638296.95196600363,3740566.251970998,-2500.0,1303.1889205482328,2164.5911451943953,3838.9863193934357,-111.09790397940408,-180.40568757756481,6.1764422816154489,2545.911889521276,1378.382293667752,2622.6628424651449,-2622.6628424651449,-1378.382293667752,5058.9032439973025,0.0
643296.95196600363,3740566.251970998,-2500.0,1421.7417574290484,2090.9555390554069,2922.3333522385533,-109.83165729400667,-142.07099904161387,5.078615068364182,2225.8252384233924,1610.6358740934747,1900.4061835985858,-1900.4061835985858,-1610.6358740934747,4426.9141714626003,0.0
648296.95196600363,3740566.251970998,-2500.0,1487.6071613030385,1923.8697230792309,2077.0639193575748,-104.10243140685618,-106.37247145711032,4.0417279711848062,1949.5596026677038,1732.1456476134847,1238.1871237314269,-1238.1871237314269,-1732.1456476134847,3820.1053291965491,0.0
573296.95196600363,3745566.251970998,-2500.0,1392.0806063944385,-1998.9654568516132,3897.8564774424076,97.470748924940565,-171.85007701018083,5.5287039359584469,2507.0983796001569,-1327.8298008481488,2182.8556683889219,-2182.8556683889219,1327.8298008481488,4876.5269276324807,0.0
578296.95196600363,3745566.251970998,-2500.0,1248.5509157585298,-1961.0054920933806,4561.1817999666537,93.890815364107652,-198.44252139943387,6.2521422154043025,2741.5590781713549,-1542.1312388094152,2723.22668012859,-2723.22668012859,1542.1312388094152,5321.0261492495583,0.0
583296.95196600363,3745566.251970998,-2500.0,1080.7964506572259,-1831.6801725345592,5206.8870058496614,86.301095065920777,-224.11439287853281,6.9423773029147178,2957.6382372082048,-1707.2978480260699,3268.7139155729801,-3268.7139155729801,1707.2978480260699,5731.2116671706844,0.0
588296.95196600363,3745566.251970998,-2500.0,904.00844414703693,-1605.0992942556243,5795.9953233040469,74.538493830968164,-247.36016605886914,7.5607381407092591,3144.6589152601609,-1801.1496960711374,3786.1805584800286,-3786.1805584800286,1801.1496960711374,6086.8567324019741,0.0
593296.95196600363,3745566.251970998,-2500.0,736.38201582222212,-1284.2412687462379,6286.8169639502012,58.803930459033054,-266.59251721731414,8.067119726135676,3292.0842639545212,-1804.8706607585505,4238.5195857708222,-4238.5195857708222,1804.8706607585505,6368.0177826607696,0.0
598296.95196600363,3745566.251970998,-2500.0,596.68237631376496,-882.29253457550749,6639.6080988484791,39.705974947950089,-280.31602251173399,8.4242711390719531,3390.5247380408782,-1706.4655942198413,4588.7529968281096,-4588.7529968281096,1706.4655942198413,6556.9489995041322,0.0
603296.95196600363,3745566.251970998,-2500.0,501.25101129430413,-422.40330778363301,6821.8608959819403,18.243306944530328,-287.32044670233836,8.6024330286102071,3432.7759618526889,-1503.6646468010661,4804.955792009946,-4804.955792009946,1503.6646468010661,6640.0739939285249,0.0
608296.95196600363,3745566.251970998,-2500.0,461.08626967567642,64.392503296524438,6813.210192327314,-4.2816726453101621,-286.85741069050232,8.5834770655089336,3414.7144006110443,-1205.4826884634276,4865.0727675488779,-4865.0727675488779,1205.4826884634276,6609.6858188462638,0.0
613296.95196600363,3745566.251970998,-2500.0,479.72133600789465,542.88342262918479,6608.870496253292,-26.409129567434025,-278.76260053210575,8.3637598218422422,3335.8866246825314,-831.87513123465374,4760.5632829409897,-4760.5632829409897,831.87513123465374,6465.0640836620796,0.0
618296.95196600363,3745566.251970998,-2500.0,552.47525252162382,978.3329738881514,6220.740957943447,-46.702317922161498,-263.49351613870158,7.9550265158521665,3199.6633586721282,-411.38423669631288,4497.9722402642738,-4497.9722402642738,411.38423669631288,6212.7658694656557,0.0
623296.95196600363,3745566.251970998,-2500.0,667.2976382990737,1341.0998784486753,5675.8875661372331,-63.92621865701593,-242.07342502389452,7.3829245977057827,3012.9294520751491,22.781515370986199,4098.0327149001123,-4098.0327149001123,-22.781515370986199,5866.0384970103269,0.0
628296.95196600363,3745566.251970998,-2500.0,806.9857934822835,1610.2546461217075,5012.720938136692,-77.188681762691587,-215.95244125558546,6.683811956860148,2785.3562091608751,437.38361798110077,3592.5030501009578,-3592.5030501009578,-437.38361798110077,5443.4447056208774,0.0
633296.95196600363,3745566.251970998,-2500.0,952.19488423862458,1775.5092627816932,4275.7562912777748,-86.018569044536292,-186.81695308600416,5.9001356900763975,2528.399779122678,803.49192984683259,3019.5108476889814,-3019.5108476889814,-803.49192984683259,4966.9710704476174,0.0
638296.95196600363,3745566.251970998,-2500.0,1084.5102172077652,1837.2584166231784,3510.0743170230553,-90.372775355637998,-156.38676521914232,5.0755924512141135,2254.2246063483331,1099.6827002025227,2418.4504565770112,-2418.4504565770112,-1099.6827002025227,4459.9558103511354,0.0
593296.95196600363,3750566.251970998,-2500.0,626.69036593201156,-1043.2629416693276,5472.6736499375966,45.873543710110873,-222.18192233316449,6.4362575279184462,2849.6908368253103,-1530.811168625783,3702.5714187733615,-3702.5714187733615,1530.811168625783,5503.9631586039795,0.0
598296.95196600363,3750566.251970998,-2500.0,518.33174575118244,-708.08727017097658,5741.3013351429427,30.573763850178565,-232.24392052300593,6.6880733682336313,2923.8525102162253,-1437.9027519775257,3973.0884590306732,-3973.0884590306732,1437.9027519775257,5646.4385809254709,0.0
603296.95196600363,3750566.251970998,-2500.0,445.08076419095579,-330.70340220321958,5875.005034521776,13.612166898904027,-237.19813733403669,6.8092989694055621,2953.702966350274,-1264.7451697275314,4137.1414658732774,-4137.1414658732774,1264.7451697275314,5705.5568779715677,0.0
608296.95196600363,3750566.251970998,-2500.0,414.55083722249049,65.626255063043899,5859.7376036701125,-4.0696783954703815,-236.54635787667846,6.7882851504654242,2936.4175672259476,-1018.7650187692441,4179.3063522115963,-4179.3063522115963,1018.7650187692441,5676.0466095642478,0.0
613296.95196600363,3750566.251970998,-2500.0,429.08263395310797,454.90964056186999,5692.5086325302973,-21.430750031458015,-230.1902079954331,6.6229735451184153,2871.7804342695704,-714.98230717093656,4093.7673137469505,-4093.7673137469505,714.98230717093656,5557.5965432056955,0.0
618296.95196600363,3750566.251970998,-2500.0,485.28390022949844,811.54267343543688,5382.0623398058942,-37.447665075422094,-218.45359420474401,6.3213261051818552,2762.2789152947703,-374.39308222677801,3885.3095119578315,-3885.3095119578315,374.39308222677801,5355.0345726045425,0.0
598296.95196600363,3550566.251970998,-7500.0,571.64137988580444,1403.7548701215856,4630.9390694230315,180.4519334990255,566.20754803339048,50.565101714921489,2578.7076991041754,239.94881097329585,3368.1416311052708,-3368.1416311052708,-239.94881097329585,5082.8797764099454,0.0
603296.95196600363,3550566.251970998,-7500.0,442.95959674913775,1133.5495356758213,5165.9610291305708,144.91981829204272,625.12344951099874,55.1596924529142,2760.0337535015333,-139.56523662200516,3775.5779367855553,-3775.5779367855553,139.56523662200516,5420.2267195752283,0.0
608296.95196600363,3550566.251970998,-7500.0,343.35739395942284,789.51140118876447,5591.4099897089873,100.91073659849806,671.9625448998238,58.814319780353721,2904.9926816913326,-524.92096201321579,4084.5933065284307,-4084.5933065284307,524.92096201321579,5689.5915935340599,0.0
613296.95196600363,3550566.251970998,-7500.0,286.06208702238581,391.3190718757312,5879.415483998162,50.670111555818792,703.80076094432809,61.314093228793652,3006.6504139508161,-888.56907575076093,4272.3829881033635,-4272.3829881033635,888.56907575076093,5877.6108752364125,0.0
618296.95196600363,3550566.251970998,-7500.0,279.4734117379025,-35.370615346326964,6011.8553215187121,-2.9146036709006542,718.72228574618782,62.51701374681069,3060.3752647665142,-1204.2317430660285,4325.586339071383,-4325.586339071383,1204.2317430660285,5975.3170014138313,0.0
623296.95196600363,3550566.251970998,-7500.0,325.7610281311953,-461.90910235997899,5982.690838859904,-56.627751475836718,716.05630986078972,62.370828619005763,3064.2735512540376,-1450.2779778638869,4242.1507730058438,-4242.1507730058438,1450.2779778638869,5978.9730917691422,0.0
628296.95196600363,3550566.251970998,-7500.0,420.53810756976878,-860.17676515240817,5798.5890624885851,-107.29491539894043,696.44492181367707,60.91804789450957,3019.3317775746305,-1612.3922474524165,4031.5158324791987,-4031.5158324791987,1612.3922474524165,5890.3454102679098,0.0
633296.95196600363,3550566.251970998,-7500.0,553.68402312068156,-1205.9464327795231,5477.6967793379872,-152.13889494739826,661.72744827816382,58.288559167329225,2929.2305506414095,-1685.0038259754224,3713.0687988645163,-3713.0687988645163,1685.0038259754224,5716.3502907587299,0.0
638296.95196600363,3550566.251970998,-7500.0,711.10203090611219,-1481.4599534861215,5046.8847320912691,-189.05882323919136,614.67136164624765,54.681166056295609,2799.8786651858509,-1671.2668151196044,3313.2464260970351,-3313.2464260970351,1671.2668151196044,5468.1680076591174,0.0
643296.95196600363,3550566.251970998,-7500.0,876.98250411155072,-1676.7963116129399,4538.0632183900425,-216.78831233740837,558.60582036793585,50.338323457392192,2638.746296371482,-1581.7167902579774,2861.9152692698017,-2861.9152692698017,1581.7167902579774,5159.9723043729755,1.0
648296.95196600363,3550566.251970998,-7500.0,1036.0682928994709,-1789.9362028707421,3984.3210916285975,-234.92022488153836,497.03101152412887,45.518523734281928,2454.1157949570006,-1432.0257706682396,2388.7632787738257,-2388.7632787738257,1432.0257706682396,4807.5015742167343,0.0
583296.95196600363,3555566.251970998,-7500.0,1164.210436528256,1965.196713738474,2905.158375187711,273.89686897971541,400.21235992095251,40.435010853923778,2177.9658562702389,1370.40349179595,1960.5468081818196,-1960.5468081818196,-1370.40349179595,4306.0153388013705,0.0
588296.95196600363,3555566.251970998,-7500.0,1021.5783196420052,1979.524278098497,3699.5462763055534,270.58395217952989,492.74704372340335,48.090426810025399,2425.0286313528277,1111.5076943285785,2594.4740384382294,-2594.4740384382294,-1111.5076943285785,4840.4292695153617,0.0
593296.95196600363,3555566.251970998,-7500.0,852.32723569055315,1887.9311397529623,4498.6124784240155,254.23184548241636,585.10548118213933,55.666209526020836,2698.8470863509142,764.98396225436181,3229.2496039070566,-3229.2496039070566,-764.98396225436181,5361.7829997676226,0.0
598296.95196600363,3555566.251970998,-7500.0,675.03426130490152,1682.1339311867937,5257.1362619150696,224.07008094345193,672.28498538822862,62.774280494083904,2958.9417485448989,347.18154563351277,3824.4627878576639,-3824.4627878576639,-347.18154563351277,5845.6142454554838,0.0
603296.95196600363,3555566.251970998,-7500.0,511.48505346654764,1364.4748357108331,5926.3900751448864,180.53715595679941,748.95087423893506,69.005034046247914,3185.4666675094909,-115.73815243393528,4337.2021604611864,-4337.2021604611864,115.73815243393528,6267.2889037056393,0.0
608296.95196600363,3555566.251970998,-7500.0,383.59903932001828,949.28148038626091,6459.6588982217145,125.41176109616548,810.01851451221944,73.970312117201615,3366.5853611369303,-590.07179264497609,4727.2969375861958,-4727.2969375861958,590.07179264497609,6604.140847697,0.0
613296.95196600363,3555566.251970998,-7500.0,309.86266236337138,462.30092857100732,6818.3097474584174,61.738638138019923,851.28652286813087,77.349493115890965,3492.7145110745082,-1038.547455109333,4962.9186167478392,-4962.9186167478392,1038.547455109333,6837.68331732552,0.0
618296.95196600363,3555566.251970998,-7500.0,302.05313073078605,-61.966719995295399,6977.2193122959125,-6.4666215799269686,870.00100756483482,78.930590279892229,3557.4638839134436,-1425.3580989801601,5025.3841510775637,-5025.3841510775637,1425.3580989801601,6955.5271252556495,0.0
623296.95196600363,3555566.251970998,-7500.0,363.06922560772466,-584.66573486467689,6928.3728290817653,-74.694612243444894,865.23288898340161,78.637924902282563,3558.3071093654312,-1721.2328696314551,4912.0534409837646,-4912.0534409837646,1721.2328696314551,6952.6695729394032,0.0
628296.95196600363,3555566.251970998,-7500.0,486.44180449366235,-1067.8410324806716,6681.7746439892771,-138.51119637906794,837.98083962355838,76.540164222925,3496.7863700582589,-1907.4185053202416,4636.5914041274054,-4636.5914041274054,1907.4185053202416,6831.8877749129988,0.0
633296.95196600363,3555566.251970998,-7500.0,657.6497336444852,-1479.4327412006173,6263.5029501117933,-194.10368869452529,790.98257085694149,72.837678606650883,3378.2226352098569,-1977.7146759599211,4226.5511518699832,-4226.5511518699832,1977.7146759599211,6603.1900381072683,0.0
638296.95196600363,3555566.251970998,-7500.0,856.8663562710301,-1796.9632289791211,5711.380974273452,-238.69509118605734,728.27697799791497,67.831721109977607,3210.973398103592,-1938.2138579511452,3718.8654825795761,-3718.8654825795761,1938.2138579511452,6282.4029360592567,0.0
643296.95196600363,3555566.251970998,-7500.0,1062.4107961838131,-2009.2917681534784,5069.3922925899242,-270.75891901950973,654.63002080079525,61.883266371363149,3005.4287084354319,-1805.0414948789808,3154.3880740271829,-3154.3880740271829,1805.0414948789808,5889.2583698502913,1.0
648296.95196600363,3555566.251970998,-7500.0,1254.0700125631195,-2116.3329472157493,4381.9639300086974,-290.01807357793859,574.93363978948696,55.36894897600375,2772.8809789775942,-1600.8029724521691,2572.6024745445957,-2572.6024745445957,1600.8029724521691,5445.2352854739584,0.0
653296.95196600363,3555566.251970998,-7500.0,1415.6301594014292,-2127.1525597641262,3689.2331982078617,-297.26537127100465,493.69456761615572,48.642613659686276,2524.4871740491403,-1350.6759168462154,2007.4970101128447,-2007.4970101128447,1350.6759168462154,4971.5741858064293,0.0
658296.95196600363,3555566.251970998,-7500.0,1536.2708757427108,-2057.1233874076979,3023.8824093781286,-294.07249238115054,414.67624490511412,42.007145797310962,2270.4399773676996,-1078.9466914608188,1485.0773964476821,-1485.0773964476821,1078.9466914608188,4487.6799215458832,0.0
573296.95196600363,3560566.251970998,-7500.0,1559.8839069225021,1877.5320614265488,1383.9512138782875,291.66839102430396,241.20497231135315,29.768266100011683,1901.6749918951009,1903.0648134324294,698.91150879926204,-698.91150879926204,-1903.0648134324294,3620.5164843482744,0.0
578296.95196600363,3560566.251970998,-7500.0,1513.1732981436244,2119.0814786759865,2181.8488173430751,317.43975502620515,340.92763725685245,38.654963709083816,2172.99972155467,1853.3754896430687,1327.9516221751378,-1327.9516221751378,-1853.3754896430687,4210.6796929902084,0.0
583296.95196600363,3560566.251970998,-7500.0,1403.1107767288117,2281.9225274217006,3081.1907845366432,332.23764615745978,451.69841135421291,48.368126016429059,2465.3340938760916,1689.2245815020685,2044.3324324521116,-2044.3324324521116,-1689.2245815020685,4846.5862118242576,0.0
588296.95196600363,3560566.251970998,-7500.0,1236.7780146830314,2336.2989343575673,4049.1870555013807,332.6542489268478,569.52615665623671,58.567078820145518,2767.8599476045842,1402.7926012177836,2818.3111641383298,-2818.3111641383298,-1402.7926012177836,5503.759762167183,0.0
593296.95196600363,3560566.251970998,-7500.0,1030.0865931699263,2257.5302349687445,5038.322021108037,315.97096679229497,688.81915793678832,68.789788910689822,3086.9609427983946,998.45461479838059,3606.8984706908209,-3606.8984706908209,-998.45461479838059,6152.6744946597046,0.0
598296.95196600363,3560566.251970998,-7500.0,807.06751341938912,2031.0616792057913,5988.9314006664763,280.71708449994964,802.69745703137289,78.479186436795189,3413.486610647265,495.08838912669512,4356.5427159883484,-4356.5427159883484,-495.08838912669512,6760.4001610711448,0.0
603296.95196600363,3560566.251970998,-7500.0,597.22773915099083,1656.9175813432466,6834.7205026777183,227.14801009498092,903.61476566088777,87.032196130514635,3699.5125144481212,-73.88364267942552,5008.5624677349897,-5008.5624677349897,73.88364267942552,7293.1085058748822,0.0
608296.95196600363,3560566.251970998,-7500.0,431.1379942853697,1152.2744293927458,7510.75562113243,157.50708270439242,984.2339258961473,93.866759018074973,3928.4157020141924,-663.35769786632818,5506.7877949247977,-5506.7877949247977,663.35769786632818,7719.2145195341755,0.0
613296.95196600363,3560566.251970998,-7500.0,335.03961109149094,551.09570665796275,7962.6418149911615,75.962609399838811,1038.418531107392,98.496801467773594,4086.7398747080588,-1222.2327686460017,5806.083935046865,-5806.083935046865,1222.2327686460017,8012.7331081682078,0.0
618296.95196600363,3560566.251970998,-7500.0,325.73818210379386,-99.599859382701823,8154.95866707195,-11.820885541374023,1062.1404732753488,100.60041594195641,4165.5234472311877,-1700.9704380538064,5879.8662069617039,-5879.8662069617039,1700.9704380538064,8156.2638737140232,0.0
623296.95196600363,3560566.251970998,-7500.0,407.17257979599049,-746.31748973687274,8076.893633282225,-99.419878052173388,1054.0897267672995,100.06596409719684,4161.3376158205019,-2059.3545106291963,5724.6805155609181,-5724.6805155609181,2059.3545106291963,8142.9905665506085,0.0
628296.95196600363,3560566.251970998,-7500.0,569.66274740550261,-1337.0950051147363,7743.645247179873,-180.54686590166855,1015.8398678654398,97.005659197078572,4076.6074021637719,-2272.5647964671912,5360.6164512696232,-5360.6164512696232,2272.5647964671912,7977.3000376824148,0.0
633296.95196600363,3560566.251970998,-7500.0,792.05288193499609,-1829.0483236213249,7193.2247999262945,-249.9031890044601,951.5264596881309,91.733166741425421,3919.1246856966932,-2334.0964112386891,4827.4130498113536,-4827.4130498113536,2334.0964112386891,7673.860335853893,0.0
638296.95196600363,3560566.251970998,-7500.0,1046.0907734374991,-2193.7277146889569,6479.6181789799766,-303.80444362585979,867.1332905194763,84.711868781473015,3700.8917090526556,-2255.0143445803187,4177.3740375174284,-4177.3740375174284,2255.0143445803187,7255.4203048288537,0.0
643296.95196600363,3560566.251970998,-7500.0,1301.7693154004185,-2419.2867417317443,5664.0737909895661,-340.46567148985571,769.56289327472848,76.485772794633363,3436.5262818830647,-2060.0795347213812,3466.9282645908693,-3466.9282645908693,2060.0795347213812,6749.7671630925815,0.0
648296.95196600363,3560566.251970998,-7500.0,1532.2439245994278,-2509.4561163262983,4806.6181878135576,-359.93557904219222,665.70966306829962,67.608911533148557,3141.5711102352211,-1782.0823487888997,2748.8479054910326,-2748.8479054910326,1782.0823487888997,6186.4953453370117,0.0
653296.95196600363,3560566.251970998,-7500.0,1717.2908473494595,-2480.1317328770497,3959.4058109417365,-363.75611783142847,561.7075715456059,58.586174215982943,2830.9826931431849,-1455.9273637433866,2066.5657745041121,-2066.5657745041121,1455.9273637433866,5594.1084397156383,0.0
658296.95196600363,3560566.251970998,-7500.0,1844.8738941120048,-2354.79607160562,3162.7392767592924,-354.47204443034781,462.45015088648063,49.833011610440828,2518.0108771094056,-1113.7334051354019,1451.2196329377712,-1451.2196329377712,1113.7334051354019,4997.8283793741848,0.0
663296.95196600363,3560566.251970998,-7500.0,1910.9722419820173,-2159.953166931281,2443.7810107981531,-335.11784365854453,371.3974188055181,41.656638391821744,2213.9781614796611,-781.63715714511693,921.2590628208535,-921.2590628208535,781.63715714511693,4418.2719292435477,0.0
668296.95196600363,3560566.251970998,-7500.0,1918.1886038106134,-1921.4037965315638,1817.3864423250313,-308.77738118979187,290.61987109315669,34.25549418504658,1946.3144553556067,-478.39274141863444,483.93132574287637,-483.93132574287637,478.39274141863444,3870.9492760255489,0.0
568296.95196600363,3565566.251970998,-7500.0,1791.9301834593873,1691.2886477982279,451.96956181182037,294.85740491372377,142.22969949055843,23.588087446832493,1838.5765657536576,2135.4284467159332,-84.989034544380729,84.989034544380729,-2135.4284467159332,3384.6568308027959,0.0
573296.95196600363,3565566.251970998,-7500.0,1844.1571727290782,2071.6021513074638,1219.6009175562187,341.06035806855965,245.50251689818455,33.515343556271965,2120.2621112073111,2246.0540718395723,503.67018820085013,-503.67018820085013,-2246.0540718395723,3992.747681733847,0.0
578296.95196600363,3565566.251970998,-7500.0,1816.7076282523221,2405.2214185135804,2149.9476943205709,379.25583471176026,367.94315138715677,45.009701810376662,2443.3762678026064,2239.3240510160626,1233.7172181724568,-1233.7172181724568,-2239.3240510160626,4693.9625996516697,0.0
583296.95196600363,3565566.251970998,-7500.0,1704.4553814513895,2651.2518603184994,3225.993893889492,404.36830460418639,507.07372100004329,57.822999807873515,2798.8833112976699,2088.8728763125828,2089.9014624481433,-2089.9014624481433,-2088.8728763125828,5466.3711878197992,0.0
588296.95196600363,3565566.251970998,-7500.0,1512.9819094988782,2767.2595712508182,4410.1229045013915,411.30490749082475,658.01927589591776,71.512427353512862,3173.1737883338478,1778.6620488477711,3038.0524929186286,-3038.0524929186286,-1778.6620488477711,6279.0971030727505,0.0
593296.95196600363,3565566.251970998,-7500.0,1260.6591108098767,2715.7622294605785,5642.763747737501,395.73323167641723,813.41263794555027,85.437843890358806,3550.0316476522971,1308.8730537193715,4024.0913488792366,-4024.0913488792366,-1308.8730537193715,7093.2895633794833,0.0
598296.95196600363,3565566.251970998,-7500.0,978.43366291911366,2471.9681632788102,6844.9559885986009,354.97500408977459,963.74171914251838,98.794280909772823,3959.9716136537286,700.30296238606752,4976.8326260488211,-4976.8326260488211,-700.30296238606752,7864.2589974013063,0.0
603296.95196600363,3565566.251970998,-7500.0,706.53885362250207,2031.1119288664584,7925.642624168685,288.82611260058786,1098.2140885077904,110.68358553948931,4325.3169647560944,-4.4943759261700507,5815.2529148215635,-5815.2529148215635,4.4943759261700507,8544.9853650100522,0.0
608296.95196600363,3565566.251970998,-7500.0,488.16273011457673,1413.247993268654,8793.3089069205089,200.06806011403884,1206.0843861826636,120.22037584023548,4618.25445549297,-744.62901059477645,6459.7020083808584,-6459.7020083808584,744.62901059477645,9090.789824229656,0.0
613296.95196600363,3565566.251970998,-7500.0,361.18189088484883,663.52078492288604,9370.0749334624998,94.460244343748997,1278.2334763040942,126.65537487309619,4819.5697008983179,-1449.0450853413681,6845.0764899222359,-6845.0764899222359,1449.0450853413681,9464.5216998486812,0.0
618296.95196600363,3565566.251970998,-7500.0,350.04283911707773,-153.05557023376855,9605.0456612228627,-19.884456843587177,1308.653673256086,129.49064399686478,4916.4550657239242,-2048.0556685634583,6932.7997054724838,-6932.7997054724838,2048.0556685634583,9641.2716590400159,0.0
623296.95196600363,3565566.251970998,-7500.0,460.20436393347433,-961.61633594744876,9483.3806961065402,-133.65967409183497,1295.4637957084785,128.5586808004706,4904.1761525868133,-2485.4783509703757,6718.2702011467791,-6718.2702011467791,2485.4783509703757,9611.5862091246054,0.0
628296.95196600363,3565566.251970998,-7500.0,676.94419196435865,-1689.9089190171055,9028.4758975635141,-237.80345750373391,1241.1762987499033,124.0449363148695,4786.5679482306123,-2728.1008357269448,6231.510747298812,-6231.510747298812,2728.1008357269448,9382.4260620983914,0.0
633296.95196600363,3565566.251970998,-7500.0,968.92753908299812,-2279.9341104393566,8296.6624170955838,-324.85870838535652,1152.1472843746578,116.44860026688845,4575.2354389688562,-2769.9382851858918,5530.8025903158177,-5530.8025903158177,2769.9382851858918,8975.6552248876396,0.0
638296.95196600363,3565566.251970998,-7500.0,1295.3306354818883,-2695.8089157255481,7366.0679566792642,-389.92880505676862,1037.3732427402713,106.49250353188262,4287.656877088747,-2630.4562928588762,4691.2422427483052,-4691.2422427483052,2630.4562928588762,8424.4306648617985,0.0
643296.95196600363,3565566.251970998,-7500.0,1614.2546788765649,-2926.3003885899138,6322.9263629837315,-431.04599311284665,906.9776035360411,95.007023472334026,3944.6753787207203,-2347.8933846667401,3791.5677468891959,-3791.5677468891959,2347.8933846667401,7768.4148859712814,0.0
648296.95196600363,3565566.251970998,-7500.0,1890.0515401409425,-2982.2389603007114,5248.7682594036705,-448.95507467738628,770.75170000598371,82.814524964583256,3567.8844286112758,-1970.0826395718448,2902.5560130264575,-2902.5560130264575,1970.0826395718448,7048.7718776571492,0.0
653296.95196600363,3565566.251970998,-7500.0,2097.9655168997888,-2890.4650967017224,4211.1554515956532,-446.47716662893293,637.05164402850676,70.637983386569729,3177.4311373119708,-1545.4627680445315,2079.3060850933562,-2079.3060850933562,1545.4627680445315,6303.9394163163242,0.0
658296.95196600363,3565566.251970998,-7500.0,2225.6239729475928,-2686.4734409188845,3258.9505666087894,-427.68380121032777,512.17812414113041,59.045011058201794,2790.6417483370114,-1116.2230891265986,1358.0590562092598,-1358.0590562092598,1116.2230891265986,5566.6641847827814,0.0
663296.95196600363,3565566.251970998,-7500.0,2271.8996686120909,-2407.6529812273143,2421.7623539449678,-397.09654067801205,400.22340522086125,48.427994353930075,2442.5806488302787,-714.42761081151593,756.90785119023826,-756.90785119023826,714.42761081151593,4862.455397297018,0.0
668296.95196600363,3565566.251970998,-7500.0,2244.1808299525169,-2088.2731153242898,1712.3544571971036,-359.05515124079341,303.27087458341475,39.013268421481257,2132.4875562636835,-360.95588738760364,279.03195105621273,-279.03195105621273,360.95588738760364,4209.2959372308369,0.0
673296.95196600363,3565566.251970998,-7500.0,2155.1147081305949,-1756.5541261340493,1130.5661643824033,-317.31038623991748,221.79456439150766,30.888332950152861,1851.6825392296216,-66.490174426168906,-83.005575806649503,83.005575806649503,66.490174426168906,3618.2520222297762,0.0
678296.95196600363,3565566.251970998,-7500.0,2019.61884021887,-1433.5823257380487,667.53950175387911,-274.83050194782572,155.12357620866189,24.036761233351591,1602.4467062230883,166.37803992582661,-343.02635478536598,343.02635478536598,-166.37803992582661,3094.5987323658396,0.0
558296.95196600363,3570566.251970998,-7500.0,1642.1495489411379,820.35518806013226,-1017.0791413649351,203.48011408831084,-51.253371425806769,6.4438978990017439,1575.4807428076442,1798.0758115454776,-1210.3799389212729,1210.3799389212729,-1798.0758115454776,2747.4271430773815,0.0
563296.95196600363,3570566.251970998,-7500.0,1884.7470560980469,1273.5639862774628,-557.54269408828816,266.92748702035607,20.273742697890327,14.382210710052332,1780.949451335882,2145.3765288196237,-904.38667769981078,904.38667769981078,-2145.3765288196237,3158.4728260770744,0.0
568296.95196600363,3570566.251970998,-7500.0,2072.8188565496225,1763.1346979892351,89.758837779381281,332.85570502968295,116.24019337685873,24.541234319784373,2044.4546115590965,2440.233599346715,-437.97760964974088,437.97760964974088,-2440.233599346715,3710.1154691368911,0.0
573296.95196600363,3570566.251970998,-7500.0,2181.8069761697625,2258.0238087803068,947.88763962918915,396.75788603802943,238.99760174912538,37.072796623749987,2369.4864510502393,2641.5921979466571,210.68137980453275,-210.68137980453275,-2641.5921979466571,4406.3178776050736,0.0
578296.95196600363,3570566.251970998,-7500.0,2190.5063620827354,2714.3829936411476,2026.1108307842042,452.63527342284976,389.04916662111981,51.956542252134369,2753.3412776501914,2705.1526032720035,1050.7547739675688,-1050.7547739675688,-2705.1526032720035,5236.5248143839935,0.0
583296.95196600363,3570566.251970998,-7500.0,2086.3101611062802,3077.4731869337852,3312.1122401068933,493.32293863295706,564.15817158308175,68.92936150733415,3186.4150145700733,2589.6709661271502,2071.4544077837431,-2071.4544077837431,-2589.6709661271502,6175.9837392663558,0.0
588296.95196600363,3570566.251970998,-7500.0,1870.7463152254488,3287.0124947766676,4764.9255185197135,511.22134367618747,758.58212528355125,87.428835901103113,3652.0866068333871,2265.5464573837658,3235.5632014964999,-3235.5632014964999,-2265.5464573837658,7186.2000101527683,0.0
593296.95196600363,3570566.251970998,-7500.0,1563.7517419739011,3286.2204451829934,6310.9387995991838,499.44124482931562,962.6995301275349,106.57184833999085,4127.2791566488058,1724.3662344539546,4476.0450881193046,-4476.0450881193046,-1724.3662344539546,8216.0266555212675,0.0
598296.95196600363,3570566.251970998,-7500.0,1204.7455029179055,3033.6171192220822,7845.5884524335852,453.22982902211737,1163.3130201701235,125.18898354313905,4620.6522671826897,986.98386725856517,5698.2154207629574,-5698.2154207629574,-986.98386725856517,9204.3492175981937,0.0
603296.95196600363,3570566.251970998,-7500.0,848.8655972455316,2515.1567320046875,9242.6832343917213,371.38457070580961,1344.8239904321667,141.92834372300467,5093.1661167217353,107.07269880808099,6789.1857739380393,-6789.1857739380393,-107.07269880808099,10085.004290852023,0.0
608296.95196600363,3570566.251970998,-7500.0,557.924606653968,1753.0773495352892,10371.385879741112,257.24027726110967,1491.2551583430093,155.42373899853456,5473.2267448631892,-832.51876495341594,7634.3584511022127,-7634.3584511022127,832.51876495341594,10793.787096608685,0.0
613296.95196600363,3570566.251970998,-7500.0,387.58009642699847,807.77069180395461,11118.143394547787,118.82130526323904,1588.8002308127159,164.5006304822536,5732.8923226694242,-1731.5028325350013,8138.0730865994683,-8138.0730865994683,1731.5028325350013,11276.578203186969,0.0
618296.95196600363,3570566.251970998,-7500.0,374.15303085790043,-229.45689634855643,11408.29501611456,-32.063646268342978,1628.3107233412927,168.37454770929691,5853.4798401525832,-2490.049207801434,8243.1426145375844,-8243.1426145375844,2490.049207801434,11496.975524233731,0.0
623296.95196600363,3570566.251970998,-7500.0,525.38481529011506,-1251.9313506596018,11221.044095278394,-181.68210670230147,1607.0269031653761,166.78922516223116,5828.3123636655118,-3028.2058671787586,7943.2798058016306,-7943.2798058016306,3028.2058671787586,11441.58041393954,0.0
628296.95196600363,3570566.251970998,-7500.0,818.47792749087807,-2157.4631627057788,10592.987317835128,-316.74194394206501,1529.0254927408228,160.05544543212517,5663.5240395545679,-3301.0258240694939,7284.1905323394394,-7284.1905323394394,3301.0258240694939,11121.555011117525,0.0
633296.95196600363,3570566.251970998,-7500.0,1206.1764654561407,-2866.7156436627297,9609.0900392490585,-426.61068878148455,1404.2528773076333,148.98032428154931,5376.7008473664009,-3304.854296173281,6352.8924963908476,-6352.8924963908476,3304.854296173281,10570.056396674298,0.0
638296.95196600363,3570566.251970998,-7500.0,1628.6219011454164,-3334.8854902819494,8384.167739549941,-504.79660713707932,1246.4563259971437,134.7083101573418,4993.7190927614929,-3073.4477296213481,5258.8377569800032,-5258.8377569800032,3073.4477296213481,9836.217860342691,0.0
643296.95196600363,3570566.251970998,-7500.0,2026.8343104790965,-3554.2517058152894,7040.9182069489143,-549.39024234508531,1070.6644119850441,118.52190298576831,4544.6878784489245,-2666.2700771581312,4112.9457969374034,-4112.9457969374034,2666.2700771581312,8977.3995904479689,0.0
648296.95196600363,3570566.251970998,-7500.0,2353.6788513071051,-3548.441656085482,5690.4853405339236,-562.52184055447833,890.87485559873664,101.65134519971774,4059.8848028126167,-2153.4650836062265,3010.2453319544957,-3010.2453319544957,2153.4650836062265,8051.4015226761303,0.0
653296.95196600363,3570566.251970998,-7500.0,2579.8707119400551,-3361.7283006603066,4419.7129681654296,-549.17868599485269,718.44408041576548,85.133511683950587,3566.5435495495572,-1602.1605155925254,2019.6451714239947,-2019.6451714239947,1602.1605155925254,7110.2450749063819,0.0
658296.95196600363,3570566.251970998,-7500.0,2694.7368508234877,-3047.2468449465277,3286.128274194949,-515.8147614361327,561.33843413147201,69.736625604211966,3109.6032455808718,-1067.0817535639726,1181.2702947549351,-1181.2702947549351,1067.0817535639726,6196.2415815506147,0.0
663296.95196600363,3570566.251970998,-7500.0,2703.0976651407163,-2657.1422562528683,2319.3438823870256,-469.11431091344815,424.14472633741934,55.946564626321191,2702.8417951425399,-586.31445425191794,509.61306480181076,-509.61306480181076,586.31445425191794,5340.4061206086235,0.0
668296.95196600363,3570566.251970998,-7500.0,2620.2551707401067,-2236.1036367437241,1526.3871752285279,-415.11041258904578,308.58568304670729,43.997977802582824,2332.8819461768312,-181.37300836119965,-0.15902532969978722,0.15902532969978722,181.37300836119965,4562.7477228360176,0.0
673296.95196600363,3570566.251970998,-7500.0,2466.8344588793352,-1818.3445575597439,898.48035902208767,-358.70078818371542,214.26408621034537,33.929162802882516,2004.4970453368919,140.0372540066752,-365.15409623393884,365.15409623393884,-140.0372540066752,3873.7530405048924,0.0
678296.95196600363,3570566.251970998,-7500.0,2264.5696166398279,-1427.2601501332183,417.48603372301488,-303.49794148063415,139.42031755106279,25.642862332229218,1718.9142644732344,380.15701301557414,-608.56125674749649,608.56125674749649,-380.15701301557414,3276.4138332882094,0.0
683296.95196600363,3570566.251970998,-7500.0,2033.45373734135,-1076.732286086914,61.071126002472738,-251.9064524291278,81.575197996492847,18.961228195061203,1474.7805387070932,547.36419252845667,-755.03638096683562,755.03638096683562,-547.36419252845667,2768.305367552965,0.0
553296.95196600363,3575566.251970998,-7500.0,1397.3483753955259,186.13403252611587,-1785.9506017051544,132.02948613549339,-163.71346297756659,-4.1304464046227745,1615.8988070069536,1399.6589177409489,-1762.9354407716762,1762.9354407716762,-1399.6589177409489,2805.8596631694045,0.0
558296.95196600363,3575566.251970998,-7500.0,1758.4635811094188,637.41975131801064,-1527.0598293031601,202.71687507438168,-113.58634658211585,2.5305493091205817,1777.2356932562689,1865.0696273356205,-1644.5715678002737,1644.5715678002737,-1865.0696273356205,3080.5365760302539,0.0
563296.95196600363,3575566.251970998,-7500.0,2097.3035845767326,1173.6266837293999,-1084.3258061363633,283.00708852613735,-37.244413055708911,11.801661928443416,1995.3432219729127,2331.1499115604684,-1374.2192640424864,1374.2192640424864,-2331.1499115604684,3494.7716508231779,0.0
568296.95196600363,3575566.251970998,-7500.0,2382.0970874321019,1777.6664916635816,-412.2761095215605,369.71150559292045,70.82288730088824,24.135029150999085,2285.0334571855005,2756.4918008637278,-909.61470009778054,909.61470009778054,-2756.4918008637278,4084.713277575629,0.0
573296.95196600363,3575566.251970998,-7500.0,2577.3136650237689,2415.5898732900587,529.47770616671369,457.41880690153408,215.17735047950498,39.869009766779058,2655.9594788489535,3087.351802604112,-212.80807503425899,212.80807503425899,-3087.351802604112,4869.0666624374326,0.0
578296.95196600363,3575566.251970998,-7500.0,2648.8121909632432,3033.9998934636405,1766.5887679855443,538.29333352088599,398.20335692779111,59.119682931704041,3109.4986102329144,3261.3400987742834,740.72509863950859,-740.72509863950859,-3261.3400987742834,5844.7053822298703,0.0
583296.95196600363,3575566.251970998,-7500.0,2571.432602813059,3560.7422464879764,3297.9156533655346,602.32009012620495,618.64382861028275,81.658221704654622,3636.9255646845691,3215.3442898646031,1950.7374639734985,-1950.7374639734985,-3215.3442898646031,6986.3236433658903,0.0
588296.95196600363,3575566.251970998,-7500.0,2338.0106340368325,3910.7610099516987,5083.122770753278,638.20040597992283,870.17082795194597,106.79900819667095,4218.7323851586998,2897.8299254242324,3380.6974254745778,-3380.6974254745778,-2897.8299254242324,8247.0914988872737,0.0
593296.95196600363,3575566.251970998,-7500.0,1967.5411151273365,3998.2873211905394,7033.5909457876214,634.9983273690616,1140.4328725690118,133.33507235813164,4825.0039758228786,2284.0426276668813,4949.6875895762769,-4949.6875895762769,-2284.0426276668813,9559.8999185453267,0.0
598296.95196600363,3575566.251970998,-7500.0,1509.1586382547921,3754.6739745175269,9011.3373273141206,584.40656924246366,1411.1144097038477,159.56324080957597,5423.5409026646676,1390.5149427857932,6532.2151400814928,-6532.2151400814928,-1390.5149427857932,10840.666647399872,0.0
603296.95196600363,3575566.251970998,-7500.0,1038.594479291419,3148.4746821791373,10840.118181938682,483.18950937843891,1659.4531813708654,183.42937964503378,6042.9328483694426,283.60158022466476,7969.7564049057974,-7969.7564049057974,-283.60158022466476,11995.146710125939,0.0
608296.95196600363,3575566.251970998,-7500.0,645.45867400323266,2201.7395394430064,12330.084241722358,335.0792129580052,1861.3192303416922,202.79642278107261,6543.488691502841,-923.27823430072931,9094.9414256296168,-9094.9414256296168,923.27823430072931,12929.50502734644,0.0
613296.95196600363,3575566.251970998,-7500.0,413.1140765867234,995.59861563522759,13312.405067675165,151.33129033566055,1995.3968777222797,215.79315998498058,6883.7892198645914,-2086.351550891387,9764.3944438666731,-9764.3944438666731,2086.351550891387,13563.300591165775,0.0
618296.95196600363,3575566.251970998,-7500.0,396.79182947091982,-339.56832095683529,13675.016521286989,-50.571129313334552,2047.4383440914748,221.16096396623277,7035.9474829369847,-3059.7310963455093,9891.3131181751996,-9891.3131181751996,3059.7310963455093,13842.101243379997,0.0
623296.95196600363,3575566.251970998,-7500.0,607.77502715288995,-1648.7153160689729,13388.066200667736,-249.9589159629748,2013.2979677340898,218.50036227609766,6990.3171524395593,-3727.2750878811139,9466.8243405897701,-9466.8243405897701,3727.2750878811139,13746.445063655914,0.0
628296.95196600363,3575566.251970998,-7500.0,1010.0493370660525,-2784.5829393358235,12509.845107259447,-426.96245357944275,1899.7092581086038,208.33938468780167,6756.8460349241877,-4027.4432898791852,8561.9400520245181,-8561.9400520245181,4027.4432898791852,13294.465967748862,0.0
633296.95196600363,3575566.251970998,-7500.0,1530.9289692173065,-3637.4028477425618,11171.001857559841,-566.21982310990802,1722.5391422766563,192.00326149305931,6362.6917014111059,-3962.6999163737082,7309.1411032293881,-7309.1411032293881,3962.6999163737082,12537.400254537213,0.0
638296.95196600363,3575566.251970998,-7500.0,2081.2946649971523,-4152.4517808113787,9543.0568231903599,-659.20566318425699,1503.155616459773,171.32998142822939,5846.8603371912441,-3591.3426630655067,5870.5051418485109,-5870.5051418485109,3591.3426630655067,11549.381624752106,0.0
643296.95196600363,3575566.251970998,-7500.0,2577.5727043139814,-4331.5219714129671,7802.3925227373329,-704.66818641313148,1264.1390344288527,148.32190392636542,5253.4544143616122,-3006.605155887833,4403.6725294689159,-4403.6725294689159,3006.605155887833,10414.531258409454,0.0
648296.95196600363,3575566.251970998,-7500.0,2958.1499798992472,-4220.8868608360553,6100.6362736369292,-707.39353934566975,1025.5915280574434,124.83027560196066,4625.2926877564996,-2311.7661172519302,3035.8537739763697,-3035.8537739763697,2311.7661172519302,9214.7152680562231,0.0
653296.95196600363,3575566.251970998,-7500.0,3190.5616211903571,-3892.4013269132056,4547.6611861375404,-676.01167834585146,802.82489441860741,102.3388280466542,4021.1988760942259,-1599.3436159224557,1850.9666324936643,-1850.9666324936643,1599.3436159224557,8020.398252496514,0.0
658296.95196600363,3575566.251970998,-7500.0,3270.0174601369413,-3424.7673462244929,3207.7603578718022,-620.66507032817276,605.5925307531262,81.869523152998369,3481.2130787747319,-938.78671172637246,889.35555176944422,-889.35555176944422,938.78671172637246,6885.6862271318478,0.0
663296.95196600363,3575566.251970998,-7500.0,3212.435418266291,-2889.5467626667773,2105.3954214252594,-551.12898474180088,438.52830580347506,63.992525176157876,2986.4896250216952,-372.89585294747877,155.88306055961328,-155.88306055961328,372.89585294747877,5847.1677053586582,0.0
668296.95196600363,3575566.251970998,-7500.0,3045.6775199618296,-2343.4504184537195,1235.7067971290926,-475.64084795846696,302.27078172423734,48.902994997403404,2546.615674122665,79.415391636190236,-368.55518133108825,368.55518133108825,-79.415391636190236,4925.5113982525772,0.0
673296.95196600363,3575566.251970998,-7500.0,2801.7081925281959,-1826.0939729534673,575.69367781939491,-400.40817235290621,194.78286694359494,36.525640476861966,2165.0439756598812,417.17567696490852,-715.92738227090194,715.92738227090194,-417.17567696490852,4128.5224321267551,0.0
678296.95196600363,3575566.251970998,-7500.0,2510.9906307197507,-1361.3883927916709,93.619134514990193,-329.61450049849628,112.54205881349603,26.617265079032546,1840.7314906151364,650.81198473275879,-922.41564576389567,922.41564576389567,-650.81198473275879,3454.5928820114691,0.0
683296.95196600363,3575566.251970998,-7500.0,2199.3002432590406,-960.71806567010867,-244.272456617628,-265.71133386068038,51.450432172853745,18.851081398592335,1569.6661846388226,796.54361443939672,-1022.7496485787764,1022.7496485787764,-796.54361443939672,2895.8602567289854,0.0
688296.95196600363,3575566.251970998,-7500.0,1886.4956670915401,-626.53881960453339,-469.63919896975978,-209.82103597906982,7.4400319942636211,12.877242293928603,1346.1188819937308,872.3100244690354,-1047.1571656354672,1047.1571656354672,-872.3100244690354,2440.7402880091158,0.0
548296.95196600363,3580566.251970998,-7500.0,912.18272533431025,-530.16435530148328,-2365.5446311329483,34.507759655998363,-265.84460514893959,-15.506070898009382,1738.7935104352077,754.02790130072913,-2104.4596541129695,2104.4596541129695,-754.02790130072913,3101.968299302313,0.0
553296.95196600363,3580566.251970998,-7500.0,1355.9293917724685,-153.13504802085436,-2330.6010748869735,102.92130541686234,-243.99431382378719,-11.04631183520957,1866.5028111497313,1272.6059435313844,-2186.6951055392042,2186.6951055392042,-1272.6059435313844,3271.1559068603365,0.0
558296.95196600363,3580566.251970998,-7500.0,1824.3497441395573,343.67824077955612,-2147.0495095342085,187.48199190477521,-198.24381187559243,-3.9174341123898428,2033.396338704234,1852.1802929789917,-2154.8348119362577,2154.8348119362577,-1852.1802929789917,3525.8316066129,0.0
563296.95196600363,3580566.251970998,-7500.0,2288.0322149822709,964.28269358985142,-1755.7564490776645,287.59618650867333,-120.54970976496115,6.6289787770341055,2261.1336649145933,2463.6644237101382,-1955.059389362661,1955.059389362661,-2463.6644237101382,3925.9100445066151,0.0
568296.95196600363,3580566.251970998,-7500.0,2706.3662645407935,1697.4709635821187,-1090.5306234982625,400.33890356198378,-2.2942006192251885,21.354077565043468,2573.3482392821452,3059.3315103339123,-1526.2528475212425,1526.2528475212425,-3059.3315103339123,4533.8785300592363,0.0
573296.95196600363,3580566.251970998,-7500.0,3029.6758349388492,2509.7132283084457,-85.665888837338358,519.60570553703224,164.59438380966517,40.916842480116678,2989.8726166272027,3571.1576083658692,-807.04249667838485,807.04249667838485,-3571.1576083658692,5395.7626380012198,0.0
578296.95196600363,3580566.251970998,-7500.0,3205.172986869446,3339.0086949963911,1311.2544023183764,635.48256884366617,385.88383697633748,65.707119029610695,3520.5598056425888,3913.3742230600028,252.11177702781993,-252.11177702781993,-3913.3742230600028,6527.0553296405633,0.0
583296.95196600363,3580566.251970998,-7500.0,3187.3964859969901,4092.5270788439429,3121.3618262538998,734.19578220226856,662.70695927643578,95.637882930482107,4160.8321417648121,3991.4987839722871,1671.9155097129471,-1671.9155097129471,-3991.4987839722871,7908.2345794245239,0.0
588296.95196600363,3580566.251970998,-7500.0,2952.3852075356635,4651.6344964338532,5313.6044160248766,799.06606763842785,989.00023398751614,129.9329609205125,4889.5182607883989,3719.2306369163462,3424.6517521025371,-3424.6517521025371,-3719.2306369163462,9485.1998339406855,0.0
593296.95196600363,3580566.251970998,-7500.0,2512.517047795498,4887.3819561028749,7786.2887146935191,812.78175306358366,1349.407630743146,166.97279441090038,5668.6510108118109,3042.1197661067526,5417.3043841248309,-5417.3043841248309,-3042.1197661067526,11170.862223512553,0.0
598296.95196600363,3580566.251970998,-7500.0,1926.528792121177,4686.9609703530114,10359.153236397678,760.95571640564071,1718.626340601329,204.27835166508154,6445.4888008953267,1963.0861784781732,7485.2419956232188,-7485.2419956232188,-1963.0861784781732,12849.100843127962,0.0
603296.95196600363,3580566.251970998,-7500.0,1298.1638283063257,3986.878899535785,12784.661405939416,636.3508417852396,2063.1786891931761,238.70592655715234,7227.3979320292165,560.92788671307517,9404.5925129188363,-9404.5925129188363,-560.92788671307517,14384.091714092769,0.0
608296.95196600363,3580566.251970998,-7500.0,758.90504254667781,2802.9643876736386,14783.221188920337,442.51886864242795,2346.0556113976877,266.87250037290835,7897.5284301951306,-1008.6140187326346,10927.22051997055,-10927.22051997055,1008.6140187326346,15636.277915158349,0.0
613296.95196600363,3580566.251970998,-7500.0,436.15375187286156,1244.1962005450725,16098.470799764014,195.30411109796168,2533.6627080154326,285.75206998141999,8351.4953805897894,-2536.0976713905675,11833.593874717355,-11833.593874717355,2536.0976713905675,16483.424358993176,0.0
618296.95196600363,3580566.251970998,-7500.0,416.07414606619847,-499.93000660638239,16557.888597835765,-78.944536766999065,2603.2712767254247,293.29216558171805,8546.5444417430954,-3803.6288197345129,11988.477885924298,-11988.477885924298,3803.6288197345129,16842.052248224791,0.0
623296.95196600363,3580566.251970998,-7500.0,715.66001258210349,-2199.0585442071206,16117.380948431071,-348.44670993819614,2548.4865437165586,288.85969791895423,8468.3326989626676,-4638.5670553019845,11378.802696684965,-11378.802696684965,4638.5670553019845,16683.06918400219,0.0
628296.95196600363,3580566.251970998,-7500.0,1276.7376618064741,-3636.5470229323591,14871.713124228441,-582.89049110722021,2380.6494469022941,273.36322212855117,8133.2601398366351,-4955.6553587996304,10117.410221858434,-10117.410221858434,4955.6553587996304,16036.400814025244,0.0
633296.95196600363,3580566.251970998,-7500.0,1985.0749821617424,-4658.8666820710168,13026.149813046124,-759.79377255096665,2125.6059520543822,249.00972397764212,7584.1904585112716,-4771.283393598027,8410.3943100196939,-8410.3943100196939,4771.283393598027,14982.952327006678,0.0
638296.95196600363,3580566.251970998,-7500.0,2705.8754352650303,-5202.1621529564027,10841.337390451321,-868.20440558959081,1817.1492479375054,218.78684379148785,6881.055611546728,-4186.3898745142487,6501.7385225141006,-6501.7385225141006,4186.3898745142487,13636.710363415496,0.0
643296.95196600363,3580566.251970998,-7500.0,3320.2731505510637,-5289.7974327453585,8573.2197209061414,-908.88098999632359,1489.5935358516874,185.84864812137994,6089.4913924461844,-3348.4655672927329,4617.1223159390847,-4617.1223159390847,3348.4655672927329,12122.861064081917,0.0
648296.95196600363,3580566.251970998,-7500.0,3749.6521576008599,-5007.6628626033853,6427.8035855614207,-891.59006332694025,1171.8386300392917,152.98872148132301,5289.0736919378351,-2409.8400762302817,2925.162207932638,-2925.162207932638,2409.8400762302817,10558.189719135664,0.0
653296.95196600363,3580566.251970998,-7500.0,3962.7638241337313,-4470.8800630927954,4540.0349490894741,-831.04580536257174,884.18659511671183,122.31442079882812,4564.0728814641679,-1496.4869178364659,1523.1048202863456,-1523.1048202863456,1496.4869178364659,9037.8564345284958,0.0
658296.95196600363,3580566.251970998,-7500.0,3968.7261538664975,-3794.4007977728443,2974.8009907708256,-743.0260781447887,637.89162884431914,95.145559097413724,3892.3517843491036,-693.21951906584752,443.11549863703897,-443.11549863703897,693.21951906584752,7629.6708527211404,0.0
663296.95196600363,3580566.251970998,-7500.0,3802.9070784660335,-3074.094881381423,1741.6006221415548,-641.60104224154634,436.58289695168952,72.086442903774241,3292.5314348559796,-43.344850376238639,-330.1290211622499,330.1290211622499,43.344850376238639,6374.5266371162052,0.0
668296.95196600363,3580566.251970998,-7500.0,3512.2867966369822,-2378.9620864864373,813.83711488547124,-537.71610887318548,278.50963520552358,53.193608194168149,2772.9208869153331,442.97136299062123,-839.4833162780526,839.4833162780526,-442.97136299062123,5290.6774591280646,0.0
673296.95196600363,3580566.251970998,-7500.0,3144.1654511003794,-1751.5192058464202,146.37271671671201,-438.88203382825236,158.77853163956357,38.165689309686506,2333.7674688296916,777.42711353306754,-1138.6679692677715,1138.6679692677715,-777.42711353306754,4379.4742892499053,0.0
678296.95196600363,3580566.251970998,-7500.0,2739.3828709466748,-1212.6095799388254,-311.50431484446256,-349.5561911695138,71.143381788959601,26.510897124630407,1969.9434490167853,983.2439562460828,-1280.9760375786059,1280.9760375786059,-983.2439562460828,3630.9694765858703,0.0
683296.95196600363,3580566.251970998,-7500.0,2329.453236790715,-767.58435240787958,-608.05324987343567,-271.82627956571451,9.2174590013358078,17.671046258758448,1673.2091750472148,1087.4842310351451,-1313.0783936370362,1313.0783936370362,-1087.4842310351451,3028.5123002615665,0.0
688296.95196600363,3580566.251970998,-7500.0,1936.3663512207206,-412.03240863947957,-785.04495816381359,-206.13222370957629,-32.82958489217777,11.101352113574848,1433.924174860837,1116.2340680394605,-1272.6113353086544,1272.6113353086544,-1116.2340680394605,2552.1175193739391,0.0
693296.95196600363,3580566.251970998,-7500.0,1573.8374492603714,-136.27239179887312,-876.42935142942906,-151.88682852912896,-59.955986074360155,6.3139278987854421,1242.2494893441021,1092.1192834083861,-1188.1048134314553,1188.1048134314553,-1092.1192834083861,2180.7773893801977,0.0
543296.95196600363,3585566.251970998,-7500.0,204.95795741204495,-1230.4727484948567,-2693.8310297253092,-80.112013266637717,-345.48746568831189,-26.548611165911637,1922.348519577198,-76.616894997969439,-2184.7832033409632,2184.7832033409632,76.616894997969439,3564.409111903034,0.0
548296.95196600363,3585566.251970998,-7500.0,667.35079348167687,-990.35030511320247,-2865.904975722895,-24.639992454506526,-354.41975801639359,-24.994239664405576,2047.0426919515266,409.9295594863222,-2440.498794535205,2440.498794535205,-409.9295594863222,3719.9527625644678,0.0
553296.95196600363,3585566.251970998,-7500.0,1203.7576737312957,-620.91902549158351,-2948.3037564279384,51.000660240148619,-345.79845340479432,-21.124867426218689,2189.1489908818694,1007.9121941416548,-2641.0084611273674,2641.0084611273674,-1007.9121941416548,3895.8077500887257,0.0
558296.95196600363,3585566.251970998,-7500.0,1797.9600901348999,-96.944346131957971,-2882.4494367770644,149.43252769272044,-310.62502555353535,-13.995342369548215,2365.2407723995166,1710.6351513474674,-2735.0202817193567,2735.0202817193567,-1710.6351513474674,4134.4130102828522,0.0
563296.95196600363,3585566.251970998,-7500.0,2418.7107748963595,599.29780446034476,-2591.978256148629,271.70139103298959,-237.68025817961808,-2.4816781046435077,2601.1396013301191,2493.0332783062208,-2653.9278818323824,2653.9278818323824,-2493.0332783062208,4506.190100555933,0.0
568296.95196600363,3585566.251970998,-7500.0,3016.9835684976961,1469.1438519162143,-1984.4333570109857,416.00991341112621,-113.99394787649052,14.647639473412172,2930.457747550111,3304.4734438398882,-2313.0989253831649,2313.0989253831649,-3304.4734438398882,5103.4876446882836,0.0
573296.95196600363,3585566.251970998,-7500.0,3526.2114845806459,2486.1228401003041,-958.64924287305143,576.21593230113569,73.876448693317329,38.581429351769579,3387.9985735910118,4063.030021292419,-1618.6314593898601,1618.6314593898601,-4063.030021292419,6015.8849722498762,0.0
578296.95196600363,3585566.251970998,-7500.0,3867.9507748822434,3583.8938909821427,579.54474797084754,740.40812366079865,337.47229002675095,70.218243413810285,3999.2781705286543,4654.6059768522227,-482.12284878841365,482.12284878841365,-4654.6059768522227,7298.4287012435989,0.0
583296.95196600363,3585566.251970998,-7500.0,3965.1496583295184,4647.603230955212,2691.7530560564282,890.13310003518484,682.86495870986312,109.82496421562797,4770.5936704366895,4941.2933481589562,1155.1198397218016,-1155.1198397218016,-4941.2933481589562,8952.7806785139674,0.0
588296.95196600363,3585566.251970998,-7500.0,3763.4171969028084,5514.911628076693,5373.1990469602897,1001.0753559225373,1106.2327659753992,156.64830125107827,5682.9540563482051,4782.9806162019777,3290.1709300240454,-3290.1709300240454,-4782.9806162019777,10923.678399501368,0.0
593296.95196600363,3585566.251970998,-7500.0,3256.8618586454563,5993.5312339588509,8517.6913921625401,1045.9710283207098,1589.5959227297628,208.58100326028193,6690.0547753256287,4072.9918196314211,5825.9435363924804,-5825.9435363924804,-4072.9918196314211,13100.942379491469,0.0
598296.95196600363,3585566.251970998,-7500.0,2510.0111253934037,5899.1857288257952,11894.764792613067,1000.0709019639177,2098.4436161566809,262.0352917802457,7720.1031000052299,2782.011274814457,8551.143589395615,-8551.143589395615,-2782.011274814457,15324.349749278121,0.0
603296.95196600363,3585566.251970998,-7500.0,1663.4272299392744,5109.9532398032934,15156.041427876613,848.41532348981286,2583.2887183074931,312.17870456795129,8717.5721893683167,996.03575475488105,11148.980962569851,-11148.980962569851,-996.03575475488105,17396.057580348337,0.0
608296.95196600363,3585566.251970998,-7500.0,912.00512194815826,3621.568190891292,17883.822867746541,592.82333838361774,2986.5262235675182,353.60769415875995,9629.8634371266671,-1071.6507709290263,13246.228578456779,-13246.228578456779,1071.6507709290263,19104.738373652664,0.0
613296.95196600363,3585566.251970998,-7500.0,454.5870759452053,1579.2588702933544,19680.024762285251,255.55916511107671,3254.0823528684173,381.37405884036133,10247.604522474801,-3111.0311253086147,14499.040231902723,-14499.040231902723,3111.0311253086147,20260.19816665084,0.0
618296.95196600363,3585566.251970998,-7500.0,429.43137115292058,-736.42273580881192,20271.435442194106,-122.93881661407279,3348.7587367018482,392.09012867198692,10502.280614012061,-4788.8099749945814,14690.519740473233,-14690.519740473233,4788.8099749945814,20730.709043208837,0.0
623296.95196600363,3585566.251970998,-7500.0,863.16884143995969,-2974.7740333336596,19590.666286200845,-492.67876633659557,3260.4010434781303,384.74287810362438,10371.805496272542,-5841.6197579662421,13800.323893867457,-13800.323893867457,5841.6197579662421,20471.30813097526,0.0
628296.95196600363,3585566.251970998,-7500.0,1659.4726348899951,-4809.6728181834351,17795.414152785324,-806.40838204840725,3008.5230609366645,360.91129686395516,9883.7596136364809,-6149.9874442648124,12012.326060686713,-12012.326060686713,6149.9874442648124,19532.325881464716,0.0
633296.95196600363,3585566.251970998,-7500.0,2634.529847396343,-6024.3269893919532,15215.906379645794,-1030.8347409535174,2636.161239035956,324.30755416107206,9107.4724293644194,-5760.2424273453862,9654.8120391492084,-9654.8120391492084,5760.2424273453862,18044.594345237976,0.0
638296.95196600363,3585566.251970998,-7500.0,3581.1923185706792,-6551.5282571712642,12255.423791014302,-1152.546149424189,2197.7081498285252,279.82786079749405,8137.191605957124,-4848.5307515600962,7101.367555336632,-7101.367555336632,4848.5307515600962,16187.047820120535,0.0
643296.95196600363,3585566.251970998,-7500.0,4330.631617170674,-6460.0715252930877,9288.0490462132311,-1177.2191845539753,1745.8084403704431,232.4647952665859,7085.0765617241177,-3650.2264813514407,4676.4230712050849,-4676.4230712050849,3650.2264813514407,14148.707756842006,0.0
648296.95196600363,3585566.251970998,-7500.0,4787.382706956294,-5904.59788206138,6590.2409156103977,-1123.8308211755193,1321.8285651842605,186.42763362350018,6101.4727907983379,-2389.4707881226477,2598.6032458125683,-2598.6032458125683,2389.4707881226477,12097.002223136094,0.0
653296.95196600363,3585566.251970998,-7500.0,4932.2088056423954,-5067.1083622300876,4318.5718481092435,-1017.152044070172,951.82272466731786,144.6651519101037,5175.8633956772046,-1233.7504934020014,969.7525053158173,-969.7525053158173,1233.7504934020014,10159.122335807522,1.0
658296.95196600363,3585566.251970998,-7500.0,4802.7655989331643,-4112.0796576924413,2523.9726611190918,-881.38506142325105,647.30099912481398,108.79794472078919,4342.295860671049,-279.5748878984981,-203.20572448352684,203.20572448352684,279.5748878984981,8416.9330052581881,1.0
663296.95196600363,3585566.251970998,-7500.0,4466.7887187519727,-3163.189881760924,1183.6012018265487,-736.29547845488435,408.73003265742545,79.332733244003265,3619.6990812472445,438.93075617176555,-973.2850545201843,973.2850545201843,-438.93075617176555,6911.5218346741121,0.0
668296.95196600363,3585566.251970998,-7500.0,3998.9036434464492,-2298.7441710760436,234.20344161959594,-595.81847204566066,229.74559714452076,56.000046260318939,3012.1106065862446,931.01641236998159,-1420.606158307176,1420.606158307176,-931.01641236998159,5652.5771806770263,0.0
673296.95196600363,3585566.251970998,-7500.0,3465.6885229874165,-1558.2690592458162,-401.88638082896711,-468.36618588058928,100.77222318541997,38.087011371091968,2513.4413898004304,1229.7477034652879,-1628.9695814618294,1628.9695814618294,-1229.7477034652879,4628.5262590363609,0.0
678296.95196600363,3585566.251970998,-7500.0,2918.8284243309072,-953.31067819757561,-800.33050840268368,-357.97171371333764,11.554281605339135,24.699057936833892,2111.7135588942751,1376.8938176184879,-1672.6551363041849,1672.6551363041849,-1376.8938176184879,3815.1849714094978,0.0
683296.95196600363,3585566.251970998,-7500.0,2394.0020701985054,-477.98136004750472,-1026.5212926213846,-265.62642731318238,-47.373781815585588,14.933209013635672,1792.2918882099318,1413.4048095105125,-1611.1142428037713,1611.1142428037713,-1413.4048095105125,3182.1520492186778,0.0
688296.95196600363,3585566.251970998,-7500.0,1912.9004837167183,-117.25759588335488,-1132.8508056321114,-190.45718342194354,-84.019467652586513,7.9739572585475216,1540.1252423664255,1374.5807262744102,-1488.5421761738799,1488.5421761738799,-1374.5807262744102,2697.1579901928721,0.0
693296.95196600363,3585566.251970998,-7500.0,1486.4276866798714,147.35499340295598,-1159.112012119806,-130.61409421648688,-104.77406705612569,3.134006621164755,1341.182737694186,1288.4244353183956,-1335.8646237179776,1335.8646237179776,-1288.4244353183956,2328.9872361397756,0.0
698296.95196600363,3585566.251970998,-7500.0,1117.9254188462121,334.40127417620789,-1134.3223751206949,-83.868626821336065,-114.52913068631715,-0.13929377534254708,1183.2702850649416,1175.8119878525349,-1173.5345122409617,1173.5345122409617,-1175.8119878525349,2049.5012286061633,0.0
538296.95196600363,3590566.251970998,-7500.0,-659.22614771107783,-1815.4144941288798,-2756.3352753221975,-199.15127679931925,-394.1377289713148,-36.125707034379062,2122.7187032489783,-989.21668633440481,-2004.2952611625381,2004.2952611625381,989.21668633440481,4070.0168515217483,0.0
543296.95196600363,3590566.251970998,-7500.0,-256.23070891568563,-1747.3540453635815,-3082.9205644004956,-165.9026379546743,-431.18186550511189,-37.787507657839193,2275.5036791697594,-618.5660299323597,-2372.4826168270401,2372.4826168270401,618.5660299323597,4295.9780133375307,0.0
548296.95196600363,3590566.251970998,-7500.0,257.04616156185068,-1569.2485288195387,-3386.7807590815341,-112.38081062435873,-459.711714892148,-37.875452601728341,2434.0652220158631,-111.41317624267845,-2748.9973914789916,2748.9973914789916,111.41317624267845,4511.0227029756052,0.0
553296.95196600363,3590566.251970998,-7500.0,884.43665801546013,-1242.4729980239877,-3623.8773011369267,-33.196822015590726,-471.79484648866804,-35.425510980897279,2604.2448408225723,550.20603235100839,-3098.519546147525,3098.519546147525,-550.20603235100839,4725.072314600935,0.0
558296.95196600363,3590566.251970998,-7500.0,1617.136677708289,-725.29099207684419,-3727.8094414877378,76.89135801871214,-456.18551449001086,-29.146730691015566,2799.9863567726106,1373.3629989158919,-3364.6943898135305,3364.6943898135305,-1373.3629989158919,4969.8687655035446,0.0
563296.95196600363,3590566.251970998,-7500.0,2427.006743092933,20.711880159483279,-3604.7522495708718,221.8248809508346,-397.83785161996025,-17.405449573895108,3047.8423594637347,2344.6575008618061,-3464.8593136797331,3464.8593136797331,-2344.6575008618061,5313.8397544764402,0.0
568296.95196600363,3590566.251970998,-7500.0,3259.9055108972875,1019.3098076335374,-3131.3264839412304,402.4359775668741,-277.98057049196979,1.7187129043377387,3389.6942961329569,3418.0958510274104,-3287.4703757351917,3287.4703757351917,-3418.0958510274104,5871.4956447754885,0.0
573296.95196600363,3590566.251970998,-7500.0,4031.6819077332075,2262.7803515286132,-2159.3196529074212,613.99546761932186,-75.293370434348986,30.255330206913122,3878.8844041315365,4502.520945016,-2696.0653005021909,2696.0653005021909,-4502.520945016,6787.8995372936597,0.0
578296.95196600363,3590566.251970998,-7500.0,4630.9805294430862,3690.8484257185087,-532.46144746634275,843.43402308510645,231.16979747565455,69.994614307041246,4566.5522295272131,5453.2500011602733,-1544.8403920155301,1544.8403920155301,-5453.2500011602733,8189.9259472383064,0.0
583296.95196600363,3590566.251970998,-7500.0,4933.8422485608708,5170.4737123676696,1879.7674494905532,1067.0584726456991,656.80328169869699,121.94534791947356,5482.4556483754177,6075.4881138524042,289.37158817897853,-289.37158817897853,-6075.4881138524042,10133.964665237685,0.0
588296.95196600363,3590566.251970998,-7500.0,4833.5270358224097,6486.372632932148,5130.0163415406487,1250.1558203704035,1204.1130827499219,185.646607682964,6619.3691319703785,6148.4786991359451,2857.7093092079649,-2857.7093092079649,-6148.4786991359451,12582.772695133903,0.0
593296.95196600363,3590566.251970998,-7500.0,4283.4598624406317,7355.9008745239953,9130.0811689724869,1350.2001344150578,1854.5147898265009,258.49169787723469,7925.5863428728271,5476.3938408799258,6080.1431241561095,-6080.1431241561095,-5476.3938408799258,15404.941831523094,0.0
598296.95196600363,3590566.251970998,-7500.0,3341.4539596851773,7480.1748559277194,13597.555730061318,1324.9012966159962,2562.1586688004008,335.3443985421988,9305.0484955852462,3961.7738472970946,9696.9403921315006,-9696.9403921315006,-3961.7738472970946,18381.35993079135,0.0
603296.95196600363,3590566.251970998,-7500.0,2193.0342601201642,6631.5170448729614,18044.28479901225,1144.5989038071782,3253.8753883403665,408.77388701087028,10631.575829472245,1680.4463327172562,13261.858661867647,-13261.858661867647,-1680.4463327172562,21221.521551392132,0.0
608296.95196600363,3590566.251970998,-7500.0,1128.9744530521914,4755.1568352190643,21838.169704535845,805.66925463198788,3838.8182627727647,470.1161687776958,11872.408165253441,-1079.3247728134802,16206.233663035717,-16206.233663035717,1079.3247728134802,23599.591573688082,0.0
613296.95196600363,3590566.251970998,-7500.0,466.31165972989521,2040.1078768323225,24346.272457295596,339.04184901665877,4228.0919409925264,511.24846907704114,12731.743689158686,-3851.7261701644338,17978.505563541199,-17978.505563541199,3851.7261701644338,25211.955709989728,0.0
618296.95196600363,3590566.251970998,-7500.0,433.85912161477142,-1090.3487153476392,25122.15315836688,-192.09109552265866,4359.186694494555,526.57170456675885,13071.598570962125,-6113.5350431438055,18219.458026082204,-18219.458026082204,6113.5350431438055,25844.077588527594,0.0
623296.95196600363,3590566.251970998,-7500.0,1075.4020313087901,-4087.5667550979301,24058.418632136054,-707.18221350248916,4215.4595151258836,514.47725705946311,12856.325086391331,-7450.9616727531557,16895.104026937915,-16895.104026937915,7450.9616727531557,25423.623951496011,0.0
628296.95196600363,3590566.251970998,-7500.0,2226.9522614243424,-6447.831438950936,21424.550982857858,-1130.8889307489192,3831.2690500012923,477.71606206949093,12133.439676352165,-7694.826995913767,14313.615726166989,-14313.615726166989,7694.826995913767,24037.157616729055,0.0
633296.95196600363,3590566.251970998,-7500.0,3584.9662704729485,-7863.0002595136657,17765.993021051901,-1413.4475865706015,3279.9284667858337,422.53682993283229,11018.519847225558,-6954.5798968093186,11011.771128240271,-11011.771128240271,6954.5798968093186,21901.976848794442,0.0
638296.95196600363,3590566.251970998,-7500.0,4826.2291665398134,-8280.8791408751131,13718.410388124295,-1540.1488395066751,2650.4960339991885,356.96273204411733,9672.1455992475694,-5541.2816269782243,7571.4708351348045,-7571.4708351348045,5541.2816269782243,19305.367063660538,0.0
643296.95196600363,3590566.251970998,-7500.0,5713.5842325912727,-7862.6427012875874,9830.3086122222485,-1527.6736453833951,2024.2467402199741,288.88134080825773,8329.9210786824824,-3833.3625029042855,4458.3630438038217,-4458.3630438038217,3833.3625029042855,16536.757946146161,1.0
648296.95196600363,3590566.251970998,-7500.0,6143.046724683818,-6881.1288070988912,6462.5436705787642,-1411.8186353532158,1459.5703978857025,224.58741169041872,7038.4320908660329,-2157.3513185625634,1943.1611563453041,-1943.1611563453041,2157.3513185625634,13836.245965185148,1.0
653296.95196600363,3590566.251970998,-7500.0,6131.0087207535553,-5619.1394036519168,3776.2715996584825,-1233.7068046555769,987.8612598745658,168.10917397231452,5857.3225485950643,-726.02545573877387,108.14540012785585,-108.14540012785585,726.02545573877387,11370.039004381828,0.0
658296.95196600363,3590566.251970998,-7500.0,5769.0107386376039,-4304.4355324409553,1778.469596167206,-1029.67524603535,617.61829596581424,121.2708809430638,4829.092940286806,365.94596992915035,-1097.0819195001011,1097.0819195001011,-365.94596992915035,9230.0266532708429,0.0
663296.95196600363,3590566.251970998,-7500.0,5175.7442981507656,-3086.8465518985681,385.11803127665934,-826.43980834823469,342.08308870813016,84.203270599592713,3967.8929402445415,1112.8429574449169,-1790.502129700893,1790.502129700893,-1112.8429574449169,7447.6946481954801,0.0
668296.95196600363,3590566.251970998,-7500.0,4463.0033690052187,-2044.443127761828,-524.66439736790392,-640.52777337760995,146.71253947399467,55.985692571996395,3267.9377210334796,1560.314426153267,-2107.089754018461,2107.089754018461,-1560.314426153267,6012.6981330022272,1.0
673296.95196600363,3590566.251970998,-7500.0,3718.7534087097074,-1202.4525364776634,-1073.2464571652574,-480.06995312956445,14.688047754618422,35.2057030915593,2711.7452379908973,1774.324051441359,-2169.1601912655292,2169.1601912655292,-1774.324051441359,4889.7802922240699,0.0
678296.95196600363,3590566.251970998,-7500.0,3003.1484825687671,-553.44267746758169,-1366.5462596407388,-347.32998021234664,-69.819670247208705,20.349234705122843,2276.5267456265328,1821.2895380938353,-2074.0316881083509,2074.0316881083509,-1821.2895380938353,4031.4806707888038,0.0
683296.95196600363,3590566.251970998,-7500.0,2351.7493305485777,-73.392423425063356,-1488.0847939855328,-241.02762246396216,-120.15408836453318,10.02381884710379,1938.5765797125782,1758.1458699817408,-1892.4802056299814,1892.4802056299814,-1758.1458699817408,3386.7270702906358,0.0
688296.95196600363,3590566.251970998,-7500.0,1781.4478771707077,267.56092948391398,-1499.6670692239195,-158.08935159700167,-146.7998052742258,3.0570480470180152,1675.9986034060701,1629.109867228025,-1672.3998249576116,1672.3998249576116,-1629.109867228025,2906.4890045046122,0.0
693296.95196600363,3590566.251970998,-7500.0,1296.4707751358619,498.91056236249796,-1444.9024364363661,-94.799874632992214,-157.59879454273741,-1.4829221902711254,1470.1591178713079,1466.1290598667513,-1444.0847790865848,1444.0847790865848,-1466.1290598667513,2547.5171886256776,0.0
698296.95196600363,3590566.251970998,-7500.0,893.31110046277206,646.75569992157557,-1353.3796905961353,-47.472914594757491,-158.202476336084,-4.307469544625242,1306.1884632413094,1290.9114235790075,-1225.2864384551895,1225.2864384551895,-1290.9114235790075,2274.5089892748401,0.0
533296.95196600363,3595566.251970998,-7500.0,-1581.2507505899143,-2209.5695955383972,-2587.1263935148008,-309.02549511344921,-408.8336815841173,-43.34604471417731,2296.6732720038367,-1864.301713597963,-1613.1315984033276,1613.1315984033276,1864.301713597963,4512.0279451961078,0.0
538296.95196600363,3595566.251970998,-7500.0,-1309.2920127186244,-2312.2144865273567,-2996.0373235347579,-303.60916646854145,-466.88509085337051,-48.068602117906764,2495.2647279857961,-1669.740016312255,-2016.4783001070784,2016.4783001070784,1669.740016312255,4851.0457682777387,0.0
543296.95196600363,3595566.251970998,-7500.0,-915.72945694836358,-2346.1230462072926,-3439.8776099491956,-281.93736068996054,-525.98079857534901,-52.208323740045756,2701.399995304942,-1345.8622909084033,-2478.87091950578,2478.87091950578,1345.8622909084033,5184.3959523326484,0.0
548296.95196600363,3595566.251970998,-7500.0,-377.53811658289283,-2271.7219552507327,-3897.0382194817735,-237.29270006851507,-580.93131694120893,-54.981435625026435,2913.7680384720989,-857.01524141981486,-2987.8330133940362,2987.8330133940362,857.01524141981486,5503.6070940782911,0.0
553296.95196600363,3595566.251970998,-7500.0,323.43126674953436,-2037.7802740417524,-4326.6797078756426,-161.58432338365134,-623.15573902520225,-55.206460450459772,3133.8550525385549,-167.23618134359072,-3513.8330101673846,3513.8330101673846,167.23618134359072,5805.7845461126144,0.0
558296.95196600363,3595566.251970998,-7500.0,1193.3005682344756,-1582.5157033626163,-4659.6512894979087,-45.857788611008111,-639.40303952380452,-51.192519519928396,3370.0804775538277,752.49549993490382,-4001.3220410467829,4001.3220410467829,-752.49549993490382,6104.7306058373888,0.0
563296.95196600363,3595566.251970998,-7500.0,2215.9729013249612,-839.00675382677275,-4788.1069993578767,118.45512467872501,-610.4677024767833,-40.653824911220724,3644.5609178095174,1911.9692043790219,-4358.261313164041,4358.261313164041,-1911.9692043790219,6451.0316877247515,0.0
568296.95196600363,3595566.251970998,-7500.0,3340.667250565522,252.25239588539995,-4556.3770709040346,337.19527897423927,-510.3690656321337,-20.709003752561873,4001.4080408462755,3283.5994712520296,-4446.5871129045836,4446.5871129045836,-3283.5994712520296,6959.2131457875894,0.0
573296.95196600363,3595566.251970998,-7500.0,4470.0990043688807,1720.8655043778438,-3758.4441890403973,609.7910630349644,-306.83666073984216,11.94585304190954,4510.9467599331365,4779.6195326847928,-4078.8334872003056,4078.8334872003056,-4779.6195326847928,7821.8963634931779,0.0
578296.95196600363,3595566.251970998,-7500.0,5455.4495899160111,3533.2795206481587,-2150.8813419679982,924.36729382648912,35.662146299643624,60.580519255336384,5259.6339126581561,6229.8994763391111,-3029.5827439794084,3029.5827439794084,-6229.8994763391111,9270.6577765601705,0.0
583296.95196600363,3595566.251970998,-7500.0,6107.5491370640548,5553.291928046152,507.53164584729785,1252.621359875714,548.99556263676209,127.60357455572631,6321.0956799521291,7371.8039391105194,-1072.6677780337591,1072.6677780337591,-7371.8039391105194,11478.704979102349,0.0
588296.95196600363,3595566.251970998,-7500.0,6234.2473666618607,7510.1054331250716,4380.6996512084452,1546.6761882394076,1249.8071014646246,213.38217259542904,7721.0240091321739,7869.4164931920914,1947.5408657458643,-1947.5408657458643,-7869.4164931920914,14477.369298648402,0.0
593296.95196600363,3595566.251970998,-7500.0,5707.5339804364385,8998.3547195960964,9447.917359660134,1741.3002959019043,2124.4978496670387,314.93747059459906,9413.9222247132984,7379.7366985897424,6014.6585659361335,-6014.6585659361335,-7379.7366985897424,18132.538701960053,0.0
598296.95196600363,3595566.251970998,-7500.0,4547.3140637844135,9538.7152213327918,15391.885019139396,1764.9065350359917,3115.1816922106609,425.01964365266736,11276.555586993212,5670.3451248634374,10836.363310132438,-10836.363310132438,-5670.3451248634374,22152.236122109873,0.0
603296.95196600363,3595566.251970998,-7500.0,2985.0333978013718,8713.6508903816266,21539.107209236474,1560.2062142380771,4114.4611314365056,532.24100061195077,13119.425927417833,2762.2542851568651,15793.959361827354,-15793.959361827354,-2762.2542851568651,26108.454066508086,0.0
608296.95196600363,3595566.251970998,-7500.0,1454.3108337650981,6352.8877105009478,26923.739810816212,1109.7936237863146,4977.613886229984,622.7684198217321,14811.903878664842,-967.9096899279848,20012.690462483239,-20012.690462483239,967.9096899279848,29490.075925752299,0.0
613296.95196600363,3595566.251970998,-7500.0,471.15424524310447,2688.5285756453404,30514.700684478521,455.40666201162759,5555.5553378324685,683.41930322456994,16036.241428924652,-4811.648752260342,22585.943834662146,-22585.943834662146,4811.648752260342,31799.086035595392,0.0
618296.95196600363,3595566.251970998,-7500.0,427.23212949728423,-1629.0408803809335,31556.457085610622,-302.51912869698037,5740.4182205168881,705.15149619160854,16501.761883242165,-7924.2508537079366,22897.129762423025,-22897.129762423025,7924.2508537079366,32673.346188232259,0.0
623296.95196600363,3595566.251970998,-7500.0,1398.8287285885494,-5714.95829201774,29868.88021690942,-1030.9862102684399,5504.0361698786855,685.55216683650258,16146.780156628573,-9633.2454492316956,20884.436512315275,-20884.436512315275,9633.2454492316956,31990.840886939448,0.0
628296.95196600363,3595566.251970998,-7500.0,3097.9378725444831,-8768.2594726942007,25926.659869853309,-1607.0996071130578,4908.3795663160963,629.34520765595528,15055.778539729597,-9697.0753941657567,17081.020341413245,-17081.020341413245,9697.0753941657567,29904.369468875306,0.0
633296.95196600363,3595566.251970998,-7500.0,5008.7958161364149,-10350.80898594085,20657.669448790351,-1956.1619770298712,4081.217982746507,546.82898906487139,13433.764881309773,-8358.3596204306978,12390.442426121726,-12390.442426121726,8358.3596204306978,26785.959356836716,0.0
638296.95196600363,3595566.251970998,-7500.0,6620.4294915896826,-10474.432887019244,15082.613135687978,-2066.5978671916087,3170.6123329400552,450.91825350116051,11623.740299904901,-6174.6926233066206,7733.9703470819277,-7733.9703470819277,6174.6926233066206,23108.245690225085,0.0
643296.95196600363,3595566.251970998,-7500.0,7609.6751606315438,-9484.8161018234478,10002.13477096188,-1978.5747167072268,2302.0904404308194,353.90954642149751,9810.0037229287609,-3756.9634521460962,3771.5555917781144,-3771.5555917781144,3756.9634521460962,19319.872364542483,1.0
648296.95196600363,3595566.251970998,-7500.0,7893.5072381019982,-7855.0386683084971,5860.2315711273222,-1758.1388319905411,1555.5772531768912,265.0891241625294,8105.4860079777845,-1569.5277810359507,806.24637976345639,-806.24637976345639,1569.5277810359507,15762.417695320033,0.0
653296.95196600363,3595566.251970998,-7500.0,7571.8910641326656,-6012.8560276422586,2775.4394938402106,-1472.2428765348484,964.1459954185359,189.79082563354277,6605.8674647315602,141.03344204598045,-1154.876256164182,1154.876256164182,-141.03344204598045,12643.101198196335,0.0
658296.95196600363,3595566.251970998,-7500.0,6831.3733819728841,-4256.6584180516047,654.28348759963285,-1173.6039992557151,526.11271198882491,129.7678613824678,5351.6218952140935,1315.5048358486031,-2275.7069300442954,2275.7069300442954,-1315.5048358486031,10049.446842574258,0.0
663296.95196600363,3595566.251970998,-7500.0,5865.1377835969924,-2748.0504829773076,-692.67158804563451,-896.08881665056754,220.40662562048692,84.269438965138619,4342.1027326860294,2010.7596352968415,-2778.0805853695997,2778.0805853695997,-2010.7596352968415,7982.6986089240309,0.0
668296.95196600363,3595566.251970998,-7500.0,4829.2349362497944,-1543.7640533414301,-1470.1714881388461,-656.88408734475047,19.011698607716923,51.20758326282467,3552.0937718912664,2333.1278525856651,-2871.2121669901935,2871.2121669901935,-2333.1278525856651,6392.0675282766924,0.0
673296.95196600363,3595566.251970998,-7500.0,3829.6758539459111,-635.87256210920987,-1856.6607915292104,-461.30595728451328,-105.37313843681565,28.058154158226802,2945.1396447434245,2394.3922501494908,-2721.1248940434225,2721.1248940434225,-2394.3922501494908,5201.3618737733786,0.0
678296.95196600363,3595566.251970998,-7500.0,2927.2446159521746,15.351493550717946,-1990.397219358342,-307.57548791190396,-175.761440309086,12.408433935096042,2482.6526002710934,2289.9768523451335,-2445.6267684630106,2445.6267684630106,-2289.9768523451335,4326.9552962426278,0.0
683296.95196600363,3595566.251970998,-7500.0,2148.9628614577941,459.91826688308919,-1970.5694740590943,-190.44421623403554,-209.93574717655318,2.212702341274098,2129.3738719421522,2092.1649773651097,-2121.3249718977822,2121.3249718977822,-2092.1649773651097,3689.3192734211084,0.0
688296.95196600363,3595566.251970998,-7500.0,1499.8150935420249,746.30134752056176,-1864.4255220803739,-103.52251370606025,-220.84946670377937,-4.1402465269656368,1856.0588591160199,1851.2385462994487,-1794.0941535647714,1794.0941535647714,-1851.2385462994487,3220.2018947386277,0.0
693296.95196600363,3595566.251970998,-7500.0,972.11324129475179,916.18288908173349,-1715.4805566407804,-40.574126524816201,-217.53592531702043,-7.857729360676621,1640.17105204227,1599.7176095251987,-1488.8318206541501,1488.8318206541501,-1599.7176095251987,2866.1502573168236,0.0
698296.95196600363,3595566.251970998,-7500.0,552.01131629916301,1002.9983280169866,-1550.6718175261926,3.8818515623073524,-206.07718654730024,-9.8127716326499055,1465.3060241436797,1357.088030098435,-1217.0683391903654,1217.0683391903654,-1357.088030098435,2588.6386765939383,0.0
703296.95196600363,3595566.251970998,-7500.0,223.59860848367416,1032.3744084086659,-1385.8608083525332,34.377645220242371,-190.4411430864113,-10.619975496540533,1320.008480355546,1133.8917187368579,-982.34187412881204,982.34187412881204,-1133.8917187368579,2361.7773743017597,0.0
528296.95196600363,3600566.251970998,-7500.0,-2451.9416781950213,-2378.5818357277253,-2254.9696920975171,-398.29539282442147,-392.36957375297055,-47.727513072877564,2415.5389467333316,-2595.3963708093429,-1094.8027298122702,1094.8027298122702,2595.3963708093429,4822.4697853684565,0.0
533296.95196600363,3600566.251970998,-7500.0,-2357.6267579057298,-2617.4796132893334,-2674.6298168065687,-421.49055386776132,-461.88177159138365,-54.943939596608828,2660.6901068441371,-2599.473759296151,-1461.2463382888845,1461.2463382888845,2599.473759296151,5278.1968843451841,0.0
538296.95196600363,3600566.251970998,-7500.0,-2158.2860806803487,-2837.2796483526527,-3165.7041832139766,-435.48794625402985,-540.35678442141568,-62.616602046656986,2925.3283566700156,-2509.1458069315522,-1913.417720721397,1913.417720721397,2509.1458069315522,5754.4165814588805,0.0
543296.95196600363,3600566.251970998,-7500.0,-1819.8827730616485,-3008.7307659004805,-3728.3669420160363,-434.08404821821227,-626.05574449713436,-70.292499447261335,3205.630125558223,-2283.7731326836761,-2459.6886762481076,2459.6886762481076,2283.7731326836761,6240.268425433278,0.0
548296.95196600363,3600566.251970998,-7500.0,-1304.1191839079784,-3088.0608030568214,-4351.8656958865204,-408.74150372312857,-714.74336514111519,-77.155414864699566,3498.0723123695507,-1872.9292837035582,-3100.2414358847764,3100.2414358847764,1872.9292837035582,6721.295641021381,0.0
553296.95196600363,3600566.251970998,-7500.0,-572.37842362829588,-3013.1188325488602,-5005.867330375223,-348.26555612451119,-798.16554218339377,-81.853089301648254,3799.5990194333131,-1218.2710453310056,-3818.9578952219699,3818.9578952219699,1218.2710453310056,7182.1239411608985,0.0
558296.95196600363,3600566.251970998,-7500.0,406.35647835713536,-2700.8920328619142,-5627.6381447960302,-238.90300964129978,-861.98072062260565,-82.288404666945979,4111.0533859671132,-259.74360621560299,-4571.0580343800284,4571.0580343800284,259.74360621560299,7614.7287469023777,0.0
563296.95196600363,3600566.251970998,-7500.0,1642.0397866701881,-2049.2321736010458,-6104.7720473175978,-65.348519489031517,-883.25054182773329,-75.408832209990464,4444.5683798979262,1050.963847097803,-5266.0597589833342,5266.0597589833342,-1050.963847097803,8037.9870250318281,0.0
568296.95196600363,3600566.251970998,-7500.0,3103.8286245352028,-947.47125936523491,-6255.1438403116581,186.64908916863479,-827.9622914904927,-57.074863517406499,4836.4084224007511,2726.5457395730577,-5747.5590589376134,5747.5590589376134,-2726.5457395730577,8535.3998985193721,0.0
573296.95196600363,3600566.251970998,-7500.0,4695.9887210704483,697.7241738979867,-5809.9937128964939,525.29596254642365,-649.72154257824286,-22.155967884733137,5362.9973043957634,4708.1270594119087,-5775.5091253270293,5775.5091253270293,-4708.1270594119087,9307.1203842895975,0.0
578296.95196600363,3600566.251970998,-7500.0,6236.7875029399911,2915.3742726127812,-4412.9769261917172,944.9255765916231,-291.67804677618375,34.930724930387264,6147.0577934661042,6820.8339448856404,-5023.5487830448637,5023.5487830448637,-6820.8339448856404,10689.44801731917,0.0
583296.95196600363,3600566.251970998,-7500.0,7455.554982777423,5602.1381213077684,-1656.1049399717608,1416.0477732123295,305.41886764480449,119.01198801683805,7331.0943511323203,8735.1389292230979,-3111.8678182897224,3111.8678182897224,-8735.1389292230979,13055.512070299905,0.0
588296.95196600363,3600566.251970998,-7500.0,8029.7383876366666,8448.2722697746231,2822.9031586945775,1876.3008303142467,1186.2719852930643,232.19163506607214,9014.6223197120817,9963.1139232319165,300.66380126222066,-300.66380126222066,-9963.1139232319165,16619.731599781782,0.0
593296.95196600363,3600566.251970998,-7500.0,7680.5050719305291,10896.337677766516,9169.4913383538187,2228.3792932634315,2354.9618958746055,371.42270638019357,11191.157027701725,9929.5611175235936,5353.9911700372068,-5353.9911700372068,-9929.5611175235936,21313.093913629698,0.0
598296.95196600363,3600566.251970998,-7500.0,6321.3578682979014,12192.453283691269,17094.468773240016,2352.9134800872021,3745.5286808215619,526.52662113107613,13718.004310905355,8147.9211720425628,11782.308862981041,-11782.308862981041,-8147.9211720425628,26771.844529474569,0.0
603296.95196600363,3600566.251970998,-7500.0,4206.2854255237544,11582.90417273168,25701.664807820322,2141.5508916172735,5203.3482691426088,680.08171624252361,16322.664336341477,4481.5954562225224,18758.918138379737,-18758.918138379737,-4481.5954562225224,32369.071061997653,0.0
608296.95196600363,3600566.251970998,-7500.0,1973.1834224723691,8645.4521878100604,33510.23506525495,1545.1893380465069,6496.721031977223,810.34866774480952,18717.731725369933,-615.21187718280271,24934.128708072334,-24934.128708072334,615.21187718280271,37291.107573610308,0.0
613296.95196600363,3600566.251970998,-7500.0,476.94469851527975,3624.5604650781606,38799.67444302528,616.68298555935178,7371.2971310704816,896.85934316825137,20506.288078259386,-6058.4023679257079,28781.641294081957,-28781.641294081957,6058.4023679257079,40697.382489902142,0.0
618296.95196600363,3600566.251970998,-7500.0,412.80668189552404,-2464.7902473458457,40240.437228198723,-482.02108008925069,7636.3541470313694,926.27477270377346,21164.667044505346,-10443.25415334573,29200.298063642378,-29200.298063642378,10443.25415334573,41951.375505779419,0.0
623296.95196600363,3600566.251970998,-7500.0,1923.219137500507,-8145.7740729762882,37510.368461146063,-1526.0957478036742,7242.7961231375875,895.74495266942722,20574.908563383942,-12633.102554978377,26066.020210595019,-26066.020210595019,12633.102554978377,40834.885513590474,0.0
628296.95196600363,3600566.251970998,-7500.0,4484.2440171737098,-12101.503809820826,31475.513334632258,-2310.8158201878246,6305.1258393545695,812.91651471095815,18895.609919667964,-12281.636110292417,20335.290232432333,-20335.290232432333,12281.636110292417,37626.103738782091,0.0
633296.95196600363,3600566.251970998,-7500.0,7191.5449047318898,-13717.103618959767,23767.970291522684,-2724.7142753853391,5050.7702202129421,693.46483453082612,16566.208689048322,-9916.6586244442824,13579.516497452851,-13579.516497452851,9916.6586244442824,32984.810152904312,0.0
638296.95196600363,3600566.251970998,-7500.0,9230.790596575951,-13191.479135795382,16055.28871823941,-2771.963201584143,3728.6243428030575,556.97673991819272,14037.848374504711,-6554.881003518849,7277.3764914506301,-7277.3764914506301,6554.881003518849,27709.346286359261,0.0
643296.95196600363,3600566.251970998,-7500.0,10193.33679634106,-11234.836659776518,9483.1741531041862,-2541.2169103418141,2530.6753819588221,422.02655946396885,11543.829915608125,-3179.1091337357061,2331.7200593076473,-2331.7200593076473,3179.1091337357061,22500.990719472658,0.0
648296.95196600363,3600566.251970998,-7500.0,10096.652449740763,-8649.9597316499567,4527.7209270017074,-2151.5948833127204,1559.641325206683,302.15597297486306,9300.7713555980918,-415.72816945906777,-1000.4246728606364,1000.4246728606364,415.72816945906777,17833.990418652407,1.0
653296.95196600363,3600566.251970998,-7500.0,9215.0634663611308,-6054.4168767691626,1156.3042233271478,-1708.81658944738,839.12650219408556,204.30631982916162,7418.0824700922312,1506.5277358345311,-2902.4019234300513,2902.4019234300513,-1506.5277358345311,13941.387157377851,0.0
658296.95196600363,3600566.251970998,-7500.0,7889.9682316508715,-3800.928905744247,-922.43689361005192,-1285.1211654596771,343.22829800180136,129.69996396788895,5916.1772831742583,2634.0614665286766,-3741.6100430197284,3741.6100430197284,-2634.0614665286766,10869.352680153243,0.0
663296.95196600363,3600566.251970998,-7500.0,6411.1899379623292,-2022.7051219436225,-2063.6491953090585,-918.74167920358605,25.254051916009512,75.931432808853842,4760.5699615921294,3140.3081438521467,-3891.1639113806868,3891.1639113806868,-3140.3081438521467,8548.4666528463167,0.0
668296.95196600363,3600566.251970998,-7500.0,4975.4302160715133,-716.46610136426239,-2582.1078376721443,-622.67854562229365,-163.30900861714375,39.015700282752846,3891.3221698207135,3221.4530483013923,-3648.349154933514,3648.349154933514,-3221.4530483013923,6852.7801210151929,0.0
673296.95196600363,3600566.251970998,-7500.0,3691.7899184184757,186.07632228948918,-2717.0582720834659,-394.87059825747752,-263.65454554007522,14.790557844031678,3243.2202189471282,3044.7696776722796,-3218.3897738529022,3218.3897738529022,-3044.7696776722796,5639.9034962911719,0.0
678296.95196600363,3600566.251970998,-7500.0,2605.0904083398304,772.29952887106117,-2633.8234825978252,-226.11652393612738,-307.0744192664576,-0.36679999951792941,2757.4295047673386,2733.2563185316976,-2728.460133219317,2728.460133219317,-2733.2563185316976,4776.0307673958851,0.0
683296.95196600363,3600566.251970998,-7500.0,1720.1101486259447,1124.9171649310863,-2439.0921711954361,-105.05723246257513,-315.68157906527063,-9.3045844852979425,2386.6903819342365,2368.5633329439224,-2249.6569284676825,2249.6569284676825,-2368.5633329439224,4150.3307114796908,0.0
688296.95196600363,3600566.251970998,-7500.0,1020.2704522824567,1312.5782907687128,-2197.9043299572718,-20.805973867584591,-304.30859905593832,-14.121053130318991,2096.1124728900222,2000.3055643639266,-1816.7938033783255,1816.7938033783255,-2000.3055643639266,3680.4153572725031,0.0
693296.95196600363,3600566.251970998,-7500.0,479.91447499050304,1388.1599352857602,-1947.7100429812249,35.93980327073637,-282.49576213883324,-16.294130162562386,1861.4734027508093,1655.7860398791088,-1443.053889394356,1443.053889394356,-1655.7860398791088,3310.4722015509515,0.0
698296.95196600363,3600566.251970998,-7500.0,71.469450407323265,1390.4671452129073,-1708.583254744505,72.627458478823385,-256.14649471166729,-16.830855060486812,1666.6202645618446,1347.9014857853369,-1129.7243709422858,1129.7243709422858,-1347.9014857853369,3005.3384748867206,0.0
703296.95196600363,3600566.251970998,-7500.0,-230.86137314873869,1347.009463007779,-1490.1072500014054,94.978476300943669,-228.76290599141461,-16.399564794128175,1500.9884330073044,1080.8372151857761,-872.19986528882362,872.19986528882362,-1080.8372151857761,2743.9237978081396,0.0
708296.95196600363,3600566.251970998,-7500.0,-449.52257425444282,1276.7621769214225,-1295.7924132058711,107.26783120475642,-202.31077493517023,-15.433553327752547,1357.6643262133891,853.87205732336361,-663.46142419607668,663.46142419607668,-853.87205732336361,2513.8885109105977,0.0
523296.95196600363,3605566.251970998,-7500.0,-3177.8445275519798,-2332.1783407974704,-1841.3476496212706,-459.87809903561686,-351.89497760505049,-49.243467954441442,2510.9580624418381,-3112.0913240778418,-541.69712627973831,541.69712627973831,3112.0913240778418,4971.5313747329301,0.0
528296.95196600363,3605566.251970998,-7500.0,-3273.2655481448201,-2653.1451242316712,-2217.2000970975168,-507.95719956088772,-423.28853653428712,-58.130350328233412,2776.228368921265,-3298.9051639147328,-821.13808413519587,821.13808413519587,3298.9051639147328,5521.4213414861506,0.0
533296.95196600363,3605566.251970998,-7500.0,-3301.522383220336,-2998.7057393879854,-2676.9738225137353,-555.06482754461672,-508.55546100329798,-68.366066276561739,3064.9536035327114,-3441.0184694504287,-1187.5532190334643,1187.5532190334643,3441.0184694504287,6123.8045971097908,0.0
538296.95196600363,3605566.251970998,-7500.0,-3228.8365270720997,-3355.4988409604016,-3235.5132539014789,-597.01379090374303,-609.02417682695523,-79.883645219547219,3410.7902955208806,-3505.1348169843855,-1661.7512428010818,1661.7512428010818,3505.1348169843855,6774.7397505384815,0.0
543296.95196600363,3605566.251970998,-7500.0,-3011.0453884673539,-3698.5500137100453,-3905.6449221551557,-627.2116884308997,-724.90933825954755,-92.37476660548316,3789.414088886354,-3444.2512692640753,-2265.2784419305494,2265.2784419305494,3444.2512692640753,7464.8823611658008,0.0
548296.95196600363,3605566.251970998,-7500.0,-2592.9990301893222,-3985.3932268795043,-4693.1186116266799,-635.7548539185791,-854.126211669074,-105.11537016136791,4194.3720693855348,-3194.5411466142436,-3016.2591552439412,3016.2591552439412,3194.5411466142436,8177.7836563905321,0.0
553296.95196600363,3605566.251970998,-7500.0,-1910.3499449091396,-4148.6197334599883,-5587.3465456448657,-608.45458668795288,-990.35472657948503,-116.70974398502928,4619.3630536173896,-2673.6430979311322,-3921.1699390715635,3921.1699390715635,2673.6430979311322,8889.2549506724572,0.0
558296.95196600363,3605566.251970998,-7500.0,-896.11056074730516,-4087.8208731286381,-6545.6968862800823,-526.09624261608701,-1120.0813447438529,-124.74420911436499,5057.5277915232018,-1782.9858169366037,-4960.2044765227929,4960.2044765227929,1782.9858169366037,9570.5616025713116,0.0
563296.95196600363,3605566.251970998,-7500.0,504.66004617490302,-3663.7998030554354,-7468.9488041977465,-364.56641308650723,-1218.448456835639,-125.37574590662771,5507.1447119943241,-418.68851530514985,-6063.653101649109,6063.653101649109,418.68851530514985,10201.695307908729,0.0
568296.95196600363,3605566.251970998,-7500.0,2308.32592356132,-2701.2994563896805,-8166.8553598809749,-96.978344350191975,-1244.1459709219221,-112.95409663206433,5985.3410777230829,1502.2778033895729,-7077.9546435352431,7077.9546435352431,-1502.2778033895729,10807.018134325526,0.0
573296.95196600363,3605566.251970998,-7500.0,4452.5694037345347,-1011.218760396718,-8317.6286346350917,300.54586521766305,-1134.5519761695773,-79.905902851990959,6553.8385925181301,3993.2025321227429,-7724.8403611720714,7724.8403611720714,-3993.2025321227429,11530.003522557574,0.0
578296.95196600363,3605566.251970998,-7500.0,6748.0322987293466,1552.7408126785003,-7436.0729879439214,837.6605717114893,-804.07099371210461,-17.27573146508206,7351.7601329746867,6922.8060372600357,-7567.8178097268701,7567.8178097268701,-6922.8060372600357,12738.760630958235,0.0
583296.95196600363,3605566.251970998,-7500.0,8841.5058691907689,4990.6214675846877,-4883.1670731673312,1492.5540215989395,-150.95149275019637,83.567399458694879,8602.5820466902805,9926.0814492279515,-6018.1243499591146,6018.1243499591146,-9926.0814492279515,15044.5575524093,0.0
588296.95196600363,3605566.251970998,-7500.0,10230.07214360841,9012.7664956306999,30.975931526284697,2191.7446647068732,920.52447577194459,227.69262966282162,10542.577795634583,12341.665501760792,-2430.8452710066604,2430.8452710066604,-12341.665501760792,19044.60916226438,0.0
593296.95196600363,3605566.251970998,-7500.0,10376.482583729659,12907.236549426452,7798.8627720482145,2796.5333052737346,2457.6859182991884,412.16243131035412,13282.961755755536,13252.464396687334,3659.2640982494595,-3659.2640982494595,-13252.464396687334,24932.314228501829,0.0
598296.95196600363,3605566.251970998,-7500.0,8951.3019265020466,15527.863392892281,18322.313464567182,3112.6668381251307,4401.8757732712083,622.0635585612273,16703.832891116199,11717.921351525794,12165.797381055181,-12165.797381055181,-11717.921351525794,32338.594558765129,0.0
603296.95196600363,3605566.251970998,-7500.0,6143.558249929396,15540.997237878149,30499.586739940376,2939.793618589485,6538.8485744222289,830.18080556643076,20433.730065183547,7224.3221598871105,22069.480641701204,-22069.480641701204,-7224.3221598871105,40368.6195345612,0.0
608296.95196600363,3605566.251970998,-7500.0,2855.1525403045766,11991.881565711965,42079.38884549529,2160.4268101298089,8498.5990459628829,1003.2255398618141,23971.888422629858,213.20836725670233,31307.143227782948,-31307.143227782948,-213.20836725670233,47714.854388563719,0.0
613296.95196600363,3605566.251970998,-7500.0,517.65179402537512,5016.1844113837415,50128.197969425382,832.71158372676575,9842.1337266522423,1113.2409994101649,26669.07711278235,-7668.8907889060047,37254.531349196855,-37254.531349196855,7668.8907889060047,52916.753918959483,0.0
618296.95196600363,3605566.251970998,-7500.0,413.03244928129322,-3789.3304573445475,52202.015832310732,-779.535637086419,10226.01619740989,1146.5868257772515,27639.385009573605,-14014.873970836426,37856.854082014441,-37856.854082014441,14014.873970836426,54802.018134722879,0.0
623296.95196600363,3605566.251970998,-7500.0,2830.0365981335149,-11862.635528909712,47676.295385092948,-2288.8279423017593,9563.1973930906042,1103.9215531493214,26644.472134199688,-16811.992503247558,32836.569255212671,-32836.569255212671,16811.992503247558,52951.137859352661,0.0
628296.95196600363,3605566.251970998,-7500.0,6776.4209410701078,-16951.499429984571,38197.512635638668,-3348.9428979253057,8069.8427892162335,995.24486824509086,24023.483798914069,-15565.391219940633,23983.433630642277,-23983.433630642277,15565.391219940633,47889.781852219443,0.0
633296.95196600363,3605566.251970998,-7500.0,10610.497997631563,-18231.047719043381,26749.701120077028,-3797.8339261961783,6157.2054765415087,838.12069475363728,20624.589457407477,-11430.326530719512,14133.986807956584,-14133.986807956584,11430.326530719512,40838.818372888163,0.0
638296.95196600363,3605566.251970998,-7500.0,13039.1589419664,-16390.919375774851,16094.338505131196,-3687.0714021099952,4244.8338198930642,657.26422311565341,16970.965698879794,-6293.624590461417,5679.1018501187173,-5679.1018501187173,6293.624590461417,33185.846285546577,0.0
643296.95196600363,3605566.251970998,-7500.0,13643.096494740903,-12852.560162663089,7784.8036971975262,-3201.9072690536773,2618.3552495237459,479.25303231803264,13537.169220288572,-1706.21180430036,-252.27287673955925,252.27287673955925,1706.21180430036,26026.479039290462,0.0
648296.95196600363,3605566.251970998,-7500.0,12730.090822392842,-8930.2975688343449,2145.1188952112493,-2550.6019592721727,1393.0359160169321,324.43581192355566,10616.270463464984,1583.7184388977128,-3668.1624102195046,3668.1624102195046,-1583.7184388977128,19980.425400164579,0.0
653296.95196600363,3605566.251970998,-7500.0,10904.94458176944,-5440.2603484846059,-1230.2261986238375,-1891.822929535304,556.81096140488864,202.60052038540812,8300.8181094781958,3507.155288816602,-5158.8416012207108,5158.8416012207108,-3507.155288816602,15244.151686806974,0.0
658296.95196600363,3605566.251970998,-7500.0,8733.0426212254952,-2713.6793543844783,-2979.4328937199821,-1315.0888786040284,35.004409003514077,114.20001289833948,6551.9325937086269,4343.0060187161207,-5419.7652548610049,5419.7652548610049,-4343.0060187161207,11738.942315864033,0.0
663296.95196600363,3605566.251970998,-7500.0,6602.0051259074189,-771.29298694979229,-3688.8833438335723,-853.81520413996384,-260.59714324292401,54.275561199140185,5268.5052586005741,4452.2692292577249,-5014.7733549115401,5014.7733549115401,-4452.2692292577249,9250.3300322517698,0.0
668296.95196600363,3605566.251970998,-7500.0,4719.2679163524626,509.65147565861304,-3795.1910545406763,-507.33757640399102,-406.6112038207803,16.080297803252048,4335.4555802861614,4144.1887780218894,-4321.3924626136322,4321.3924626136322,-4144.1887780218894,7524.5128396583004,0.0
673296.95196600363,3605566.251970998,-7500.0,3162.2587869956187,1289.6581269267747,-3586.3962563415403,-259.19537340129909,-460.35585749713204,-6.7474673458035266,3650.5400637163375,3638.1055552901084,-3560.0739489988541,3560.0739489988541,-3638.1055552901084,6326.721032075412,0.0
678296.95196600363,3605566.251970998,-7500.0,1931.9336086099775,1716.0868511916544,-3237.1079357075505,-88.495762613638774,-460.96555898599144,-19.306112563520955,3134.9179030400164,3071.2708313332164,-2843.5660939626437,2843.5660939626437,-3071.2708313332164,5471.3903385621797,0.0
683296.95196600363,3605566.251970998,-7500.0,992.25333191187929,1905.8938590412536,-2845.8336249957674,24.404740411853133,-433.50071661791543,-25.315737416532052,2733.4057927334329,2520.5635510837228,-2219.5135138200258,2219.5135138200258,-2520.5635510837228,4829.4605620792036,0.0
688296.95196600363,3605566.251970998,-7500.0,294.31869063727567,1944.7138843482946,-2463.9552004588495,95.750726488090834,-393.20222802305443,-27.330015777744652,2409.7964445301859,2023.5149323879893,-1699.9796918341824,1699.9796918341824,-2023.5149323879893,4319.8845328085572,0.0
693296.95196600363,3605566.251970998,-7500.0,-210.86210625788303,1892.0822297009165,-2115.3437029137222,138.05898817957822,-348.89068545850296,-27.027304817605163,2141.15392893544,1594.1652005810745,-1279.5970944698049,1279.5970944698049,-1594.1652005810745,3895.2837968612553,0.0
698296.95196600363,3605566.251970998,-7500.0,-566.67103405913122,1787.8593230173253,-1808.6389937748847,160.56063338207707,-305.37742712499363,-25.473375652492837,1913.053812505872,1233.6406455231772,-945.81721447275811,945.81721447275811,-1233.6406455231772,3529.0165225892733,0.0
703296.95196600363,3605566.251970998,-7500.0,-809.07490111232903,1657.9055400249856,-1544.5445761022281,169.86711725406391,-265.06197721987087,-23.324158057014635,1716.2584804050448,936.67407049434155,-684.26615509132102,684.26615509132102,-936.67407049434155,3206.1668895227594,0.0
708296.95196600363,3605566.251970998,-7500.0,-966.73434953751973,1518.4835672332822,-1319.9852849265305,170.61507010865549,-228.94440912264383,-20.969972030392587,1544.6179385402249,695.38036993600133,-481.28781395531604,481.28781395531604,-695.38036993600133,2918.0988327761102,0.0
523296.95196600363,3610566.251970998,-7500.0,-3964.1457711128364,-2459.8075676155649,-1721.5393507886599,-557.99386881433963,-362.2182150876871,-57.918568423760696,2823.6344381931444,-3715.1960004819239,-203.43464204656743,203.43464204656743,3715.1960004819239,5568.429015398815,0.0
528296.95196600363,3610566.251970998,-7500.0,-4208.7091116892007,-2858.6771016612338,-2100.9496443055141,-630.74693630710601,-443.3306227282585,-69.555222568918708,3161.4894479289546,-4045.9234390546735,-443.89860393439699,443.89860393439699,4045.9234390546735,6257.008840031227,0.0
533296.95196600363,3610566.251970998,-7500.0,-4408.7559459954446,-3312.1715138591571,-2578.3044762707796,-708.54815161733336,-543.24826345809231,-83.435842371286796,3537.7668995562412,-4362.7790066530069,-777.31972634766453,777.31972634766453,4362.7790066530069,7031.6837193886831,0.0
538296.95196600363,3610566.251970998,-7500.0,-4528.5384554994662,-3816.0888950987173,-3178.0420730670626,-788.18510569154944,-665.4266557855492,-99.75470787945693,3951.8257000592362,-4635.1175626714576,-1233.2238145207064,1233.2238145207064,4635.1175626714576,7895.3529423002383,0.0
543296.95196600363,3610566.251970998,-7500.0,-4517.1134930651133,-4355.7232641710198,-3927.5330307489985,-863.71598422604529,-812.92898615530044,-118.50012157567795,4447.2584622031118,-4815.1937983657108,-1847.2525968542875,1847.2525968542875,4815.1937983657108,8845.3162851430588,0.0
548296.95196600363,3610566.251970998,-7500.0,-4304.5133750702753,-4898.3786635345687,-4853.7422178164225,-925.04732922585117,-987.28490332874469,-139.24028538243172,5002.0923138120961,-4831.5780465397138,-2659.1784101620115,2659.1784101620115,4831.5780465397138,9869.7777619970439,0.0
553296.95196600363,3610566.251970998,-7500.0,-3799.1857909316705,-5382.2992689916427,-5975.3766524990715,-956.08214113286692,-1186.3518486488679,-160.77599618335208,5602.47408623927,-4582.0179165793761,-3706.7813574139291,3706.7813574139291,4582.0179165793761,10943.660914775268,0.0
558296.95196600363,3610566.251970998,-7500.0,-2889.5864371048801,-5701.674469843726,-7286.8839800374044,-932.62409593928624,-1400.5999655334267,-180.6189846531536,6236.785241388664,-3928.1441129160621,-5011.9088573868094,5011.9088573868094,3928.1441129160621,12025.329327948291,0.0
563296.95196600363,3610566.251970998,-7500.0,-1455.1382078330053,-5689.2080960803096,-8728.9403101025218,-820.67543488356796,-1607.1391665163858,-194.28761169229358,6889.6316989832958,-2697.4737523444692,-6553.1845444993523,6553.1845444993523,2697.4737523444692,13059.081080116588,0.0
568296.95196600363,3610566.251970998,-7500.0,605.37454122662916,-5102.3054905910112,-10139.181905961956,-576.6377711925461,-1761.0479821477766,-194.51996599736077,7551.2305366640394,-703.16274801761892,-8218.721312553047,8218.721312553047,703.16274801761892,13996.170193541089,0.0
573296.95196600363,3610566.251970998,-7500.0,3318.6772083456235,-3627.5943092128018,-11179.803350572942,-152.21677750169175,-1784.6387123574982,-170.73341880620305,8243.9726645824412,2202.1997214188314,-9734.833282439602,9734.833282439602,-2202.1997214188314,14862.483310741458,0.0
578296.95196600363,3610566.251970998,-7500.0,6551.1433584325923,-931.14834408115075,-11251.452225618716,491.84824366373681,-1557.9978569745215,-109.43099926951278,9077.4809247036501,6020.3126014873951,-10579.322086870012,10579.322086870012,-6020.3126014873951,15916.314787774889,0.0
583296.95196600363,3610566.251970998,-7500.0,9908.5668795284419,3208.4620065481395,-9433.6221079889674,1359.260157988678,-918.98636661276385,3.3671184765349831,10320.563368648825,10443.196318943228,-9918.4530378056916,9918.4530378056916,-10443.196318943228,17877.473789591721,0.0
588296.95196600363,3610566.251970998,-7500.0,12679.158946294197,8660.1297153708056,-4541.7276947869659,2379.3736546976597,313.26779620549473,176.63364522326575,12399.669111431218,14671.947314344967,-6655.9418953762561,6655.9418953762561,-14671.947314344967,21905.243934625945,0.0
593296.95196600363,3610566.251970998,-7500.0,13925.255814339434,14635.44944053371,4566.7441864109996,3368.6027660493442,2275.6422976674198,405.97219948387442,15698.94881666378,17341.953664702429,277.82173581740426,-277.82173581740426,-17341.953664702429,28913.658274325084,0.0
598296.95196600363,3610566.251970998,-7500.0,12830.185064702282,19491.79804834196,18343.437124109256,4022.6421579981984,4955.7307454317006,665.65820956883374,20261.057281967405,16756.172283001728,11310.514959435048,-11310.514959435048,-16756.172283001728,38825.907452952088,0.0
603296.95196600363,3610566.251970998,-7500.0,9286.3276850505899,20943.415878898726,35670.35700079766,3981.784103389135,8076.498522999048,908.82180243766311,25647.093405275504,11590.472530809075,25406.853747279853,-25406.853747279853,-11590.472530809075,50462.513549075855,0.0
608296.95196600363,3610566.251970998,-7500.0,4450.6406835397447,16947.751603206369,53232.02049971927,2989.8466449702823,11054.132543174452,1084.7436597788769,31091.516971146284,1967.8136179498688,39516.618632359867,-39516.618632359867,-1967.8136179498688,61727.006420388148,0.0
613296.95196600363,3610566.251970998,-7500.0,707.51311089920387,7159.4769847508687,65952.557691529437,1090.7922520110762,13128.939400259856,1169.353429512953,35364.69918244212,-9703.7009279483027,49067.022666980891,-49067.022666980891,9703.7009279483027,70010.337174270171,0.0
618296.95196600363,3610566.251970998,-7500.0,510.84995817552067,-5937.4899558356892,69116.123154503148,-1282.927786427379,13679.924080467945,1178.6350706489625,36882.487928239461,-19185.967486625304,50034.841839621397,-50034.841839621397,19185.967486625304,73030.376610052612,0.0
623296.95196600363,3610566.251970998,-7500.0,4505.07275760231,-17698.965251578345,61380.432946515924,-3458.0076791013125,12555.700822028432,1139.0779150477215,35160.031668803633,-22707.387600879214,41721.709556702546,-41721.709556702546,22707.387600879214,69900.995133229968,0.0
628296.95196600363,3610566.251970998,-7500.0,10720.992119867549,-24079.859085078726,46035.988529616618,-4849.749017178653,10169.826795939152,1051.5374142001224,30996.50635517983,-19571.381253823078,27650.189460381866,-27650.189460381866,19571.381253823078,61664.24614295752,0.0
633296.95196600363,3610566.251970998,-7500.0,16061.335279856825,-24120.073476815429,28798.156073621434,-5238.2659579697156,7267.9086245784583,903.86238168517548,25801.33095074091,-12370.336356674248,13169.868150924434,-13169.868150924434,12370.336356674248,50706.540172126734,0.0
638296.95196600363,3610566.251970998,-7500.0,18537.971191517088,-19752.595476962768,14257.600887718854,-4793.8248470330391,4548.0227849500707,707.10305834567589,20467.307918373761,-4659.0921246478365,2115.4582334645447,-2115.4582334645447,4659.0921246478365,39514.928797240362,0.0
643296.95196600363,3610566.251970998,-7500.0,18033.650062293695,-13750.589761338735,4230.8474162344291,-3883.8461818427318,2410.919868153986,497.97255480613063,15775.211022120548,1248.696334593061,-4439.0567401805074,4439.0567401805074,-1248.696334593061,29764.112523480326,0.0
648296.95196600363,3610566.251970998,-7500.0,15555.632517495394,-8119.023307179611,-1610.716964621326,-2854.8906759235879,945.58420342726458,313.12567140085218,12055.914190055348,4733.6142209868794,-7291.9277628474647,7291.9277628474647,-4733.6142209868794,22141.557739940279,0.0
653296.95196600363,3610566.251970998,-7500.0,12262.052445327678,-3743.7648198417191,-4444.3072417325375,-1925.2984167545851,52.480883044207367,171.39524409031387,9301.8098406999379,6200.7449779868202,-7794.5957962685461,7794.5957962685461,-6200.7449779868202,16627.431770517953,0.0
658296.95196600363,3610566.251970998,-7500.0,8972.7259380435589,-739.52165855634087,-5437.092521865342,-1185.7378397093248,-428.86203904180132,74.119082949230176,7338.971131588587,6350.3637650762093,-7093.5631767913956,7093.5631767913956,-6350.3637650762093,12845.665811884701,0.0
663296.95196600363,3610566.251970998,-7500.0,6109.9840263333699,1126.5527275884072,-5439.9570741607376,-644.7074056523951,-646.02769918985337,13.308332236012664,5953.6651860006514,5792.2291398175385,-5931.3268604729183,5931.3268604729183,-5792.2291398175385,10317.979947326094,0.0
668296.95196600363,3610566.251970998,-7500.0,3813.5017833283164,2167.7149672233704,-4981.9891497321805,-272.71434626510654,-708.52760800191891,-21.313115724597214,4959.6584635067602,4939.8133874129026,-4709.9615869716936,4709.9615869716936,-4939.8133874129026,8611.823522588822,0.0
673296.95196600363,3610566.251970998,-7500.0,2068.4021270863127,2659.9698504032558,-4358.6405288355636,-30.084043798045855,-688.36362051721107,-38.734215237112757,4220.8500043444265,4032.6385805550294,-3611.8054549805197,3611.8054549805197,-4032.6385805550294,7406.403519834379,0.0
678296.95196600363,3610566.251970998,-7500.0,794.34344495147468,2810.0358335414785,-3719.9326933766233,119.81897753053322,-629.16144297939184,-45.613947839809377,3648.191807929119,3190.744662314637,-2697.7577681652747,2697.7577681652747,-3190.744662314637,6497.070427722002,0.0
683296.95196600363,3610566.251970998,-7500.0,-104.97715461195423,2759.7559259154582,-3133.4564641484358,206.17089019978874,-555.66395781699134,-46.439256933743003,3187.0372386172839,2462.7723398502221,-1969.7724695881661,1969.7724695881661,-2462.7723398502221,5766.7113112693323,0.0
688296.95196600363,3610566.251970998,-7500.0,-718.92415688523852,2601.1371100128172,-2623.3435403483732,250.45250698843577,-480.98825255207873,-44.049383297433891,2804.6087197234519,1859.0032820881879,-1405.5832344801788,1405.5832344801788,-1859.0032820881879,5152.4251586678465,0.0
693296.95196600363,3610566.251970998,-7500.0,-1121.8062736184365,2391.3608352552878,-2192.4439643819996,267.74377706178524,-411.47489049339197,-40.155870813983654,2480.9527650450727,1371.3477114286086,-976.11204579843502,976.11204579843502,-1371.3477114286086,4620.9418118395306,0.0
698296.95196600363,3610566.251970998,-7500.0,-1371.8713084918311,2164.5791553346262,-1834.2438483897131,268.30075226369036,-349.6970621408903,-35.744698012439137,2203.3658110330261,984.44773246539626,-653.29102905819036,653.29102905819036,-984.44773246539626,4154.0148874707284,0.0
703296.95196600363,3610566.251970998,-7500.0,-1513.1945077749122,1940.2627057757813,-1538.9394861016522,258.93779179250203,-296.2384124683752,-31.354277577597962,1963.2341041191614,681.37674589683047,-412.98867925215427,412.98867925215427,-681.37674589683047,3740.7137353376761,0.0
708296.95196600363,3610566.251970998,-7500.0,-1578.3827183246606,1728.7808926089465,-1296.3423130857775,244.09420409993538,-250.7047108367928,-27.25602875843401,1754.3154082973342,446.28678401279166,-235.63176577549615,235.63176577549615,-446.28678401279166,3373.6352823996945,0.0
518296.95196600363,3615566.251970998,-7500.0,-4388.3708414913826,-2108.281325845664,-1262.719583504793,-572.91117017400006,-290.53597979258944,-54.998348281401036,2772.8931941975643,-3851.9583730831469,314.85263602967689,-314.85263602967689,3851.9583730831469,5438.3515247597788,0.0
523296.95196600363,3615566.251970998,-7500.0,-4803.9291573689616,-2496.026831723645,-1544.182781926042,-661.46887286024207,-360.04588390951272,-66.935287185368779,3135.8663684059165,-4304.3877082329691,205.07809284323639,-205.07809284323639,4304.3877082329691,6165.681707519986,0.0
528296.95196600363,3615566.251970998,-7500.0,-5232.5175768834397,-2959.181246594952,-1905.3478404162488,-763.11505752897472,-448.06886107186523,-81.660109830667821,3552.980605085233,-4796.7749692036259,32.827642736819143,-32.827642736819143,4796.7749692036259,7005.9407545588874,0.0
533296.95196600363,3615566.251970998,-7500.0,-5655.1234731549903,-3508.7869764543934,-2371.3415104395594,-878.17501602012055,-559.56085680285821,-99.748080812397674,4030.5456198359325,-5318.851082732308,-227.97173553081575,227.97173553081575,5318.851082732308,7974.3611337275524,0.0
538296.95196600363,3615566.251970998,-7500.0,-6040.0250490603521,-4153.510000417692,-2974.8345190666118,-1005.5587866014496,-700.45330094571057,-121.78490939055627,4573.6791092830763,-5849.1273754046597,-612.95210041964583,612.95210041964583,5849.1273754046597,9085.1918844170796,0.0
543296.95196600363,3615566.251970998,-7500.0,-6336.818911290683,-4895.3730838854581,-3757.1995172766769,-1141.5789008735135,-877.41566769472627,-148.25002025669448,5184.5788715921317,-6348.0819944665527,-1169.6972957415201,1169.6972957415201,6348.0819944665527,10349.003991609125,0.0
548296.95196600363,3615566.251970998,-7500.0,-6468.6479436490272,-5722.0197420538025,-4768.3362207523915,-1278.0777253251895,-1097.0571679428583,-179.28147032859781,5908.5632619460803,-6748.2309648032488,-1959.3816511631203,1959.3816511631203,6748.2309648032488,11768.130188651427,0.0
553296.95196600363,3615566.251970998,-7500.0,-6323.224094883416,-6593.4782353795263,-6062.9435423592959,-1399.6252558134543,-1364.0184230351383,-214.2459364605497,6743.1977394663218,-6940.6159161706719,-3055.6003779577395,3055.6003779577395,6940.6159161706719,13329.578724108971,0.0
558296.95196600363,3615566.251970998,-7500.0,-5744.9295824642122,-7420.9006886420302,-7688.7619366856497,-1479.6510034224843,-1677.0207291311876,-251.01436441454607,7659.1892662971804,-6758.4795493038164,-4536.0562475468851,4536.0562475468851,6758.4795493038164,14995.180450474334,0.0
563296.95196600363,3615566.251970998,-7500.0,-4533.8926924258476,-8035.3542314571569,-9658.5676494252657,-1475.8300493262227,-2021.4696637108941,-284.86215629180589,8634.2035967908541,-5962.4006569450676,-6458.8668104194649,6458.8668104194649,5962.4006569450676,16690.879215138153,0.0
568296.95196600363,3615566.251970998,-7500.0,-2464.1312330124715,-8148.572940696552,-11892.57867878624,-1326.1997427641563,-2356.8932465117591,-307.0499959303105,9632.8327445058167,-4238.7212729832881,-8809.824456662087,8809.824456662087,4238.7212729832881,18303.70250223219,0.0
573296.95196600363,3615566.251970998,-7500.0,658.90482079403444,-7318.8796871477189,-14114.015649567382,-949.81777176148807,-2598.1098167413284,-303.53733408434573,10621.312367747338,-1236.594745015499,-11402.524041300821,11402.524041300821,1236.594745015499,19713.000218049132,0.0
578296.95196600363,3615566.251970998,-7500.0,4876.653097830409,-4959.6260508933401,-15687.012420274967,-259.33652613671495,-2592.2126186992559,-255.08341670102678,11621.350067766807,3313.7796228991529,-13719.16794672453,13719.16794672453,-3313.7796228991529,20924.289301200082,0.0
583296.95196600363,3615566.251970998,-7500.0,9883.2169746311156,-463.92987327777058,-15423.482732562677,804.00519085451947,-2101.5680625332766,-141.06543216256097,12837.613500907282,9353.7734193658398,-14716.834852663458,14716.834852663458,-9353.7734193658398,22429.188883673498,1.0
588296.95196600363,3615566.251970998,-7500.0,14815.375032791369,6457.9273505760984,-11480.934309155818,2205.181018789694,-816.88335458916447,50.227792909563441,14830.023523810745,16119.205865130063,-12718.521087770872,12718.521087770872,-16119.205865130063,25747.648842977895,0.0
593296.95196600363,3615566.251970998,-7500.0,18206.501901720774,15197.958967159475,-1617.3979151858402,3729.9289321005585,1562.3586811309342,304.27645909594753,18455.687791454809,21785.768659011967,-5648.4373461450768,5648.4373461450768,-21785.768659011967,33174.969929730316,0.0
598296.95196600363,3615566.251970998,-7500.0,18380.215603609075,23637.834863128552,15868.769377649543,4927.8670910133014,5150.3143030395868,562.50027851735535,24292.467885852649,23522.754236511475,8077.6565802646737,-8077.6565802646737,-23522.754236511475,45909.701078894359,0.0
603296.95196600363,3615566.251970998,-7500.0,14433.072376972874,28067.46655547015,40460.058460691034,5178.2667433348879,9630.1591129078151,723.62556593303907,32065.019011485416,18432.570167387206,27978.430418721731,-27978.430418721731,-18432.570167387206,62802.705255232802,0.0
608296.95196600363,3615566.251970998,-7500.0,7507.8079555532695,24343.922011806015,67655.092726267671,3964.0823305252943,14098.029678413179,697.43889540571899,40813.669016871849,5510.153557820362,49907.245935503699,-49907.245935503699,-5510.153557820362,80591.482084893287,1.0
613296.95196600363,3615566.251970998,-7500.0,1408.4658246377655,10615.790674961163,88693.687243904409,1280.9429994209115,17249.714605722347,514.63538625930119,48044.905267950249,-12111.79619469932,65939.926834030717,-65939.926834030717,12111.79619469932,94515.567186531815,0.0
618296.95196600363,3615566.251970998,-7500.0,975.06877125931544,-9503.2695201137685,93983.256850035381,-2152.4834837310023,17991.520217671801,367.90395450177931,50657.357142330773,-26857.140646331412,67786.980126703915,-67786.980126703915,26857.140646331412,99816.247914210588,0.0
623296.95196600363,3615566.251970998,-7500.0,7818.8584924424413,-27163.763753013453,80225.29781267159,-5188.8070391148221,16094.302657969367,423.92269205247521,47547.817843471523,-31132.295432450119,53443.937255204713,-53443.937255204713,31132.295432450119,94362.490292111688,0.0
628296.95196600363,3615566.251970998,-7500.0,17803.710556706454,-34603.858090239461,54431.042527103287,-6886.5636518192678,12342.142298192199,604.30180877542216,40528.932738041258,-23981.564090620654,30303.119047059095,-30303.119047059095,23981.564090620654,80367.221259413418,0.0
633296.95196600363,3615566.251970998,-7500.0,24830.073642581418,-31287.7929834358,28217.579042573274,-6993.1428803657855,8048.2722441425494,698.4163076388993,32321.9204261544,-11486.251755086936,9018.1964853169757,-9018.1964853169757,11486.251755086936,62875.848843614571,0.0
638296.95196600363,3615566.251970998,-7500.0,26182.277286778153,-22287.700054167002,9045.6894639266011,-5930.863685717386,4328.2050262894372,620.05607388468889,24520.753633888668,-375.77831553337364,-4561.8783683778602,4561.8783683778602,375.77831553337364,46486.457988572518,0.0
643296.95196600363,3615566.251970998,-7500.0,23037.025200700595,-12773.722202485224,-1942.0746298518497,-4377.7188595613825,1685.8581573892739,436.26491342011923,18248.902004945274,6415.2104826817995,-10554.411359779922,10554.411359779922,-6415.2104826817995,33551.850971069151,0.0
648296.95196600363,3615566.251970998,-7500.0,17856.712672855938,-5343.1176505038111,-6885.4584331693113,-2865.8162001889445,91.40803379217131,243.61970500012876,13699.367624773269,9194.9116483245125,-11643.264068241453,11643.264068241453,-9194.9116483245125,24431.954638633415,1.0
653296.95196600363,3615566.251970998,-7500.0,12528.075815704891,-467.24222507978607,-8311.6064614917013,-1652.5004788903716,-726.57536208552222,94.712615705176773,10571.123125047965,9402.2028184242463,-10372.606687275422,10372.606687275422,-9402.2028184242463,18444.633198084677,0.0
658296.95196600363,3615566.251970998,-7500.0,7983.9633737065205,2327.8491112984079,-8025.8895227405746,-787.86162459968284,-1057.7291172406015,-0.75099398186899713,8440.2147219170329,8340.5722874202456,-8332.3704070999829,8332.3704070999829,-8340.5722874202456,14618.89687296722,0.0
663296.95196600363,3615566.251970998,-7500.0,4486.2547556837872,3702.0513909167312,-7065.2263782533446,-221.96144949970216,-1119.9058110179374,-53.081293372825151,6947.7060714054933,6843.2796409686689,-6301.5640174210766,6301.5640174210766,-6843.2796409686689,12109.176464875927,0.0
668296.95196600363,3615566.251970998,-7500.0,1964.3309185223343,4203.6002526101856,-5946.7058062695123,122.20102354947655,-1051.1099012170985,-76.543993184812194,5850.0182730168908,5344.6710845733332,-4577.2440112126542,4577.2440112126542,-5344.6710845733332,10342.837941495163,0.0
673296.95196600363,3615566.251970998,-7500.0,231.80067809371343,4212.2215549246048,-4895.5502398612052,314.99409128565617,-929.67611991593401,-82.870534498752079,5001.0571872169057,4029.6197230411162,-3221.1975390526677,3221.1975390526677,-4029.6197230411162,8994.1260752183371,0.0
678296.95196600363,3615566.251970998,-7500.0,-908.06587743741898,3966.9703788407714,-3990.5639800802082,410.14842062163814,-796.27529430570189,-80.034188461156859,4317.8796386755739,2950.6512756369684,-2199.326529892116,2199.326529892116,-2950.6512756369684,7896.6592502477324,0.0
683296.95196600363,3615566.251970998,-7500.0,-1622.5022743036857,3609.189033393161,-3243.8595400269437,445.13205875911035,-670.0118533319685,-72.911725731690524,3753.2130677458317,2099.1980189964606,-1449.0052595909672,1449.0052595909672,-2099.1980189964606,6968.6714574930447,0.0
688296.95196600363,3615566.251970998,-7500.0,-2040.628026989195,3218.1187591247549,-2640.7852278695032,444.70172698688208,-558.46863810714547,-64.268733568253538,3278.6690762562507,1443.5017285382137,-907.47389115001624,907.47389115001624,-1443.5017285382137,6168.477653735009,0.0
693296.95196600363,3615566.251970998,-7500.0,-2257.1134415829233,2835.5907622349641,-2158.5721058270583,424.63285962807674,-463.46694921279112,-55.564190793203828,2875.7886769378756,946.82587331768059,-521.63959491669243,521.63959491669243,-946.82587331768059,5472.3536839903345,0.0
698296.95196600363,3615566.251970998,-7500.0,-2339.2735249642715,2481.7332525210895,-1774.3185713270286,394.69323768116669,-384.18122567854203,-47.496629791633865,2531.5236438043071,575.18777786795204,-249.85944840600251,249.85944840600251,-575.18777786795204,4864.5450388951349,0.0
703296.95196600363,3615566.251970998,-7500.0,-2334.0419343869435,2164.5184895497314,-1467.9495834232944,360.76523530847646,-318.74768583102991,-40.343618912708337,2236.0070725940391,299.96611521553257,-60.736788810909161,60.736788810909161,-299.96611521553257,4333.0461753660156,0.0
708296.95196600363,3615566.251970998,-7500.0,-2273.6922750669842,1885.3867161569522,-1222.9318241667561,326.27484455249265,-265.05183350102828,-34.161659107805626,1981.4278474565069,98.19608212429425,68.885836913584015,-68.885836913584015,-98.19608212429425,3867.8879455637989,0.0
713296.95196600363,3615566.251970998,-7500.0,-2180.1708851112112,1642.4818409803083,-1026.0765433948129,293.12287997383839,-221.08505332307791,-28.899454077360964,1761.4316362390634,-48.049221625262589,155.87875931537863,-155.87875931537863,48.049221625262589,3460.4582063742955,0.0
518296.95196600363,3620566.251970998,-7500.0,-5076.3652423165004,-2008.5349008737614,-1074.0234024591086,-653.17625206764023,-272.68040440235927,-61.603480400957707,3008.8831616237021,-4259.0060121545048,695.54639083769348,-695.54639083769348,4259.0060121545048,5890.7897362684935,0.0
523296.95196600363,3620566.251970998,-7500.0,-5659.8414997452737,-2416.7892536068921,-1319.3545884307919,-765.76996392126773,-342.69624837159671,-75.907774788578294,3434.9766425111311,-4838.1552294709327,666.50337895957091,-666.50337895957091,4838.1552294709327,6739.2355043509333,0.0
528296.95196600363,3620566.251970998,-7500.0,-6300.6253199500161,-2919.0190453111268,-1639.7584931203526,-899.37817167824187,-433.30622693086718,-93.930460933115071,3934.4834009912147,-5498.2585066898664,591.23562626908551,-591.23562626908551,5498.2585066898664,7737.5761827832275,0.0
533296.95196600363,3620566.251970998,-7500.0,-6990.6985690595993,-3536.4372678004074,-2062.2959923490612,-1057.0139957716322,-551.00220157557862,-116.62748821423108,4520.0912859505806,-6242.2017426895809,444.8313114843404,-444.8313114843404,6242.2017426895809,8913.227655724364,0.0
538296.95196600363,3620566.251970998,-7500.0,-7710.6516038564923,-4292.7453500917372,-2624.415542960684,-1241.0739523854866,-704.19062796879575,-145.11116361179614,5205.3768248058568,-7065.0456961850286,190.64016064428961,-190.64016064428961,7065.0456961850286,10296.529013333851,0.0
543296.95196600363,3620566.251970998,-7500.0,-8422.2388681365665,-5211.7279273733466,-3377.5400142159833,-1452.2169137873082,-903.45962019479157,-180.56788362869995,6003.5459759213782,-7946.9728494150504,-224.60326331970009,224.60326331970009,7946.9728494150504,11918.859957672808,0.0
548296.95196600363,3620566.251970998,-7500.0,-9057.1773446509633,-6311.5041714373838,-4391.0162530140051,-1687.3318999420671,-1161.4800506617973,-224.03674996208548,6925.160938940674,-8841.59522329018,-876.82065673597253,876.82065673597253,8841.59522329018,13808.483059442398,0.0
553296.95196600363,3620566.251970998,-7500.0,-9501.1455213420377,-7592.4680020186106,-5755.0251703894983,-1936.0487825348118,-1491.9477195647107,-275.92428573095293,8014.170213023317,-9657.3282689900789,-1870.7906588412893,1870.7906588412893,9657.3282689900789,15982.447411484403,0.0
558296.95196600363,3620566.251970998,-7500.0,-9572.9971252315354,-9014.0361800075589,-7578.6159115581686,-2175.1235667129195,-1906.3791150092945,-335.06446902187957,9305.531628185312,-10229.482728567315,-3343.1502649721156,3343.1502649721156,10229.482728567315,18432.250898593204,0.0
563296.95196600363,3620566.251970998,-7500.0,-9002.6296148646907,-10453.150215887305,-9973.7969384552871,-2360.1966550020015,-2406.5854248670689,-397.09245698267887,10747.969689843025,-10282.614182266543,-5453.6027598510773,5453.6027598510773,10282.614182266543,21100.887315842614,0.0
568296.95196600363,3620566.251970998,-7500.0,-7419.5262802924863,-11637.071611981046,-13006.564665279373,-2415.5044844728527,-2969.3214499255664,-452.03573472915588,12295.962972051006,-9390.0346159339442,-8345.4173119999959,8345.4173119999959,9390.0346159339442,23851.781107760955,0.0
573296.95196600363,3620566.251970998,-7500.0,-4381.1847158162182,-12050.652502153838,-16579.690264838529,-2225.3021105210764,-3518.6951047839311,-481.67718195882071,13864.519350688748,-6956.8119491547768,-12039.548097994706,12039.548097994706,6956.8119491547768,26442.997036643021,0.0
578296.95196600363,3620566.251970998,-7500.0,503.67901608334222,-10848.361412926846,-20196.185257533547,-1637.4844315212219,-3884.0007416134149,-458.9995205824589,15347.718663346592,-2292.0984712281479,-16209.65779896562,16209.65779896562,2292.0984712281479,28563.002345209337,0.0
583296.95196600363,3620566.251970998,-7500.0,7287.1017819971003,-6874.9744096214563,-22567.373040386548,-499.76634546127377,-3751.2435666404863,-355.12502173710953,16732.652736997014,5108.6660062212595,-19799.297557736005,19799.297557736005,-5108.6660062212595,30104.804155297628,0.0
588296.95196600363,3620566.251970998,-7500.0,15218.697832772295,986.70592398943961,-21154.955179686276,1245.7945988158258,-2642.3788471246553,-161.70539938000815,18426.44074279318,14941.226769991377,-20567.318635951364,20567.318635951364,-14941.226769991377,32073.061327228388,1.0
593296.95196600363,3620566.251970998,-7500.0,22332.52276748162,12888.578905612527,-12068.25303148565,3403.0854370304191,5.9114905027218869,67.399930317891489,21722.508075162066,25198.792910996985,-14974.502794675667,14974.502794675667,-25198.792910996985,38030.264876779562,0.0
598296.95196600363,3620566.251970998,-7500.0,25669.937094899986,26614.645923018077,8858.1209881477334,5357.9876790231374,4573.4520591180917,168.397920425819,28459.807136296644,31628.542639199677,796.00652016731692,-796.00652016731692,-31628.542639199677,52707.969928406535,0.0
603296.95196600363,3620566.251970998,-7500.0,22697.502322116543,36664.003886035891,43197.922838078572,6090.6624512386416,10778.147047350863,-140.55910537054419,39465.972555243185,28659.536983522041,28153.867806522518,-28153.867806522518,-28659.536983522041,76828.221153449209,0.0
608296.95196600363,3620566.251970998,-7500.0,13651.762481730113,35278.500178877664,85983.290122806749,4632.7912624334085,17236.750473366992,-1113.5497868621562,54259.986324331046,12438.522131448532,62519.904048528922,-62519.904048528922,-12438.522131448532,105864.46344107209,1.0
613296.95196600363,3620566.251970998,-7500.0,3784.4102301822973,16577.457880939037,122800.23561507596,945.57132952153188,21726.641577283768,-2537.2468606069842,67618.107224346808,-14381.22965828477,90885.39118175779,-90885.39118175779,14381.22965828477,131150.16883086879,1.0
618296.95196600363,3620566.251970998,-7500.0,2658.2047697944813,-15529.045281133094,133104.44036836844,-3681.199842187616,22491.664416272612,-3408.1212372440345,72883.616036819527,-38604.160252112408,95349.579367450264,-95349.579367450264,38604.160252112408,141866.42459758298,0.0
623296.95196600363,3620566.251970998,-7500.0,14892.102602024079,-43224.986250717222,107237.26095347274,-7466.1010102780565,19401.205255315828,-2834.8478528419237,66890.173060162459,-43401.934350588417,69194.771008765121,-69194.771008765121,43401.934350588417,131835.19138801331,0.0
628296.95196600363,3620566.251970998,-7500.0,31126.028081721797,-50029.300279703122,61548.086409043266,-9183.1305646336368,13836.065252640949,-1345.063915065768,53790.851396393991,-27436.309705365853,29387.137761233269,-29387.137761233269,27436.309705365853,106319.34597414684,0.0
633296.95196600363,3620566.251970998,-7500.0,38770.545357850715,-38465.764928738972,21679.483227374694,-8630.6028494079783,7865.9250803749437,-154.80346222994856,40387.706017150398,-6030.5579400617517,-1254.3378401189452,1254.3378401189452,6030.5579400617517,77394.683885782215,0.0
638296.95196600363,3620566.251970998,-7500.0,35751.515525366827,-21585.619971191532,-1545.9130341499426,-6613.2812990750299,3143.1867782759664,289.31731041827987,29102.675783519659,8461.7272194045963,-15491.255786795342,15491.255786795342,-8461.7272194045963,53709.209466502762,0.0
643296.95196600363,3620566.251970998,-7500.0,27224.464974467257,-7971.3288455029033,-11148.293972702801,-4245.7482240226009,205.82927292046026,260.93917976398859,21095.230507620447,14280.763470441008,-18211.107862303714,18211.107862303714,-14280.763470441008,37545.545122116448,0.0
648296.95196600363,3620566.251970998,-7500.0,18022.248586712649,448.1805356122926,-13267.570587347564,-2252.2282664856925,-1251.7958060893916,97.695157146780701,15848.954858802681,14560.722128541793,-15764.053111848325,15764.053111848325,-14560.722128541793,27568.234185360063,0.0
653296.95196600363,3620566.251970998,-7500.0,10418.762294225655,4749.769747638391,-12221.392028462296,-855.39221725989751,-1775.8988946498014,-40.16695278570905,12431.130814500249,12408.458832011107,-11973.082256478403,11973.082256478403,-12408.458832011107,21552.52868462418,1.0
658296.95196600363,3620566.251970998,-7500.0,4906.1646643306876,6474.2554424166274,-10218.119655843453,7.1589365265884117,-1812.1491068280075,-118.4187611332062,10095.432071132065,9646.9712093395974,-8460.5172881873514,8460.5172881873514,-9646.9712093395974,17708.668611388992,0.0
663296.95196600363,3620566.251970998,-7500.0,1216.2255203894827,6789.4237569307961,-8188.405923949249,483.28774791854522,-1636.3896965666565,-149.15132968214454,8388.753596650713,7089.2503663617963,-5693.8992292610847,5693.8992292610847,-7089.2503663617963,14983.101154349957,0.0
668296.95196600363,3620566.251970998,-7500.0,-1107.3997421601046,6418.753569601753,-6447.0887582778068,710.50906916263364,-1394.1660735694954,-151.4375125755312,7068.9649635098667,4998.4470457792659,-3672.8879967691014,3672.8879967691014,-4998.4470457792659,12863.803569954176,0.0
673296.95196600363,3620566.251970998,-7500.0,-2482.2004522470961,5766.0832931313935,-5051.3665304499109,789.43197253451831,-1152.9799391688548,-139.64119149412545,6009.7905422453632,3392.9093997608343,-2255.4274463981765,2255.4274463981765,-3392.9093997608343,11122.385912410047,0.0
678296.95196600363,3620566.251970998,-7500.0,-3227.5533224725591,5040.5345307518182,-3966.1441710854228,785.82255746122235,-939.36013262401241,-122.41766953569947,5141.4349375529737,2203.0021199981602,-1285.6961916653388,1285.6961916653388,-2203.0021199981602,9654.0932956230645,0.0
683296.95196600363,3620566.251970998,-7500.0,-3568.7051616743024,4342.0040410111587,-3132.8094777593215,739.93721316269557,-760.28817521540077,-104.34254757825852,4420.9445375369933,1340.5613667767855,-634.06583447294793,634.06583447294793,-1340.5613667767855,8403.4127294248083,0.0
688296.95196600363,3620566.251970998,-7500.0,-3657.7680944043846,3712.345925943062,-2494.789186672851,675.2992345386948,-614.34492306194386,-87.550041587378445,3818.821929054076,725.31268256854412,-203.28267005482292,203.28267005482292,-725.31268256854412,7334.2873980121658,0.0
693296.95196600363,3620566.251970998,-7500.0,-3594.8237652828734,3164.0053918870544,-2005.1293145891029,605.07959348253155,-497.09399473740274,-72.850311588876309,3313.0784054244173,292.28198276182297,76.158206438530186,-76.158206438530186,-292.28198276182297,6419.1140683192161,0.0
698296.95196600363,3620566.251970998,-7500.0,-3444.5680082317826,2695.4408962740949,-1627.2611674155733,536.27968418739999,-403.5081139195168,-60.391257972604095,2886.5193861242929,-8.2621962774198892,252.7168567459176,-252.7168567459176,8.2621962774198892,5634.9461258142264,0.0
703296.95196600363,3620566.251970998,-7500.0,-3248.2051438042645,2299.1501251714976,-1333.5364657942559,472.32425582228939,-328.95166865937057,-50.020825797657686,2525.3602188744326,-213.28066933293957,359.75366899377508,-359.75366899377508,213.28066933293957,4962.1616097614015,0.0
708296.95196600363,3620566.251970998,-7500.0,-3031.5674141466402,1965.7069989813397,-1103.3305285693496,414.62076994679052,-269.4975235480365,-41.474353320994922,2218.4252455549258,-349.80507770413175,420.09062207636697,-420.09062207636697,349.80507770413175,4383.9224650816786,0.0
713296.95196600363,3620566.251970998,-7500.0,-2810.521468848513,1685.6880859641124,-921.3301626994089,363.47761533431219,-221.95588378458467,-34.466005084123537,1956.6381884041398,-437.43404442600257,449.29598098009802,-449.29598098009802,437.43404442600257,3885.8463717271775,0.0
518296.95196600363,3625566.251970998,-7500.0,-5724.5095865999665,-1804.259191105607,-868.60372448217117,-728.20613488856463,-242.04226143603626,-67.720273688048536,3219.6788535530573,-4575.8943366250896,1086.5444330008104,-1086.5444330008104,4575.8943366250896,6296.2616104152321,0.0
523296.95196600363,3625566.251970998,-7500.0,-6482.2255521210191,-2204.257050764556,-1065.3155882476692,-865.04155144058961,-308.32217399944352,-84.352007638919929,3706.3150590193313,-5269.5444429291047,1152.6747857163937,-1152.6747857163937,5269.5444429291047,7261.2203024573482,0.0
528296.95196600363,3625566.251970998,-7500.0,-7350.0587763305721,-2708.962473417444,-1325.5631008469793,-1031.7217709387526,-395.80786563015204,-105.68601334210679,4286.5402410386741,-6086.8676266579405,1197.6318098909915,-1197.6318098909915,6086.8676266579405,8414.901459634415,0.0
533296.95196600363,3625566.251970998,-7500.0,-8336.841885177706,-3348.3205898577312,-1674.7712560782995,-1234.7306594689805,-512.06445726812831,-133.12130440320007,4980.5866695775321,-7047.4233427681993,1202.414436252735,-1202.414436252735,7047.4233427681993,9799.209776859645,0.0
538296.95196600363,3625566.251970998,-7500.0,-9444.823312788918,-4160.2483560937644,-2149.921161487222,-1481.2947930579974,-667.44945578580996,-168.40946284038591,5812.5729019572309,-8169.309206238715,1136.440520257021,-1136.440520257021,8169.309206238715,11464.6887544006,0.0
543296.95196600363,3625566.251970998,-7500.0,-10662.588446063932,-5191.325276767212,-2805.0409259463604,-1778.6882274098373,-875.99375249420086,-213.6398713244231,6810.3738464148873,-9463.9509059829506,951.05489406929428,-951.05489406929428,9463.9509059829506,13470.758492712599,0.0
548296.95196600363,3625566.251970998,-7500.0,-11952.821115601955,-6495.5260722801495,-3719.0095153433376,-2132.58603385282,-1156.2842389586001,-271.07544701718876,8004.4594943877419,-10925.850560585835,569.81640472267827,-569.81640472267827,10925.850560585835,15884.075941109899,0.0
553296.95196600363,3625566.251970998,-7500.0,-13231.894657004639,-8128.0589766185094,-5005.9163081119759,-2543.6444546778421,-1531.8850988014494,-342.6526176404484,9425.2291810682182,-12513.417144868341,-125.30587798045235,125.30587798045235,12513.417144868341,18772.828225435649,0.0
558296.95196600363,3625566.251970998,-7500.0,-14337.451627166347,-10128.30559466667,-6826.7657905923188,-3000.9915869805632,-2030.1233821549022,-428.80500418274175,11121.848657610017,-14114.785927325922,-1311.5725763600658,1311.5725763600658,14114.785927325922,22192.952810163857,0.0
563296.95196600363,3625566.251970998,-7500.0,-14980.811544834938,-12480.396473598828,-9396.7728426590893,-3470.8369131152144,-2676.5971599383247,-526.07858528111967,13178.053162859218,-15490.378517096906,-3242.5290369970926,3242.5290369970926,15490.378517096906,26159.482735719313,0.0
568296.95196600363,3625566.251970998,-7500.0,-14687.136324232402,-15031.855456470155,-12970.498711919139,-3878.6676401310738,-3480.1226742085014,-622.97713759502085,15530.342868015559,-16185.121746740551,-6248.3019821274074,6248.3019821274074,16185.121746740551,30593.142018053604,0.0
573296.95196600363,3625566.251970998,-7500.0,-12746.750579966751,-17343.753047676477,-17759.248964567305,-4086.477591746404,-4399.1222470455486,-694.35268728722917,18077.93265539499,-15417.7053374483,-10674.855575508547,10674.855575508547,15417.7053374483,35233.082412414034,0.0
578296.95196600363,3625566.251970998,-7500.0,-8251.1283994165169,-18458.348740394376,-23681.46262572175,-3876.1801366723889,-5278.4288958258821,-698.29169256478121,20605.23322899131,-12005.990771808505,-16662.95913998126,16662.95913998126,12005.990771808505,39528.154753871437,0.0
583296.95196600363,3625566.251970998,-7500.0,-374.34859916968139,-16656.358786919096,-29778.426205955424,-2970.8065919317646,-5754.8649492052718,-588.53258473850588,22778.468374080956,-4514.5832193129627,-23597.367339982717,23597.367339982717,4514.5832193129627,42620.219654974273,0.0
588296.95196600363,3625566.251970998,-7500.0,10884.254394565232,-9532.1371072516777,-33163.046222438505,-1149.1457427511632,-5169.4272334185698,-368.01343923994887,24392.463114580012,7993.9524059576779,-29092.204351592532,29092.204351592532,-7993.9524059576779,43907.421402573098,1.0
593296.95196600363,3625566.251970998,-7500.0,23552.455910253484,4880.6584814547869,-27880.815053198079,1500.1406574127504,-2602.0382671851498,-204.24786598355686,26339.500157965191,24241.286464670997,-27890.130406259577,27890.130406259577,-24241.286464670997,45677.159618737234,1.0
598296.95196600363,3625566.251970998,-7500.0,33182.899894862443,25368.000209130398,-5404.0872664942017,4234.5156181599968,2783.6017748896529,-573.00743461306081,32152.191355803894,38721.139125038055,-12355.790594857153,12355.790594857153,-38721.139125038055,57736.670175899257,0.0
603296.95196600363,3625566.251970998,-7500.0,34768.214942157763,44751.848389831866,40877.430522249007,5478.2362928510165,10912.677403365908,-2331.5507230881749,46747.750964992112,42072.213463848195,23274.206077026931,-23274.206077026931,-42072.213463848195,89976.898144636376,0.0
608296.95196600363,3625566.251970998,-7500.0,26261.120338117627,50455.909228993369,108351.63408516231,3491.7632566450234,19650.609098357152,-6483.7527624737204,73059.900270572791,25300.826637019596,76396.226291507701,-76396.226291507701,-25300.826637019596,139037.89228530772,0.0
613296.95196600363,3625566.251970998,-7500.0,11820.563284021982,27959.313930233631,177354.83550232882,-1467.3327047689045,25022.014174555883,-12668.259176491434,100953.67195896471,-14143.19367617731,129565.29884793413,-129565.29884793413,14143.19367617731,190486.14015207,0.0
618296.95196600363,3625566.251970998,-7500.0,8361.686699493679,-25625.355149395862,202943.09537461214,-6375.9886811072447,24807.344441231129,-16641.858059901315,114509.0847786934,-57450.464115286464,143719.80105632701,-143719.80105632701,57450.464115286464,217463.73491445289,0.0
623296.95196600363,3625566.251970998,-7500.0,31504.019092882289,-72734.507284523017,149830.78091581585,-9314.5658017903406,20338.713307682476,-13753.489114729222,101586.74690260307,-62096.582315190957,91743.095958727557,-91743.095958727557,62096.582315190957,196918.35323827923,0.0
628296.95196600363,3625566.251970998,-7500.0,57526.144949209352,-71726.949054387311,62005.788496046647,-10258.349379120691,13340.663916313948,-6914.7323872352863,73211.407725421435,-25349.690822186541,18497.672087188632,-18497.672087188632,25349.690822186541,144032.12432509151,0.0
633296.95196600363,3625566.251970998,-7500.0,59402.780820379863,-40798.231231352016,3236.484856338378,-8840.3413153968013,5986.5656942801079,-2015.0534415933421,50244.420151949766,9494.1743742016261,-22005.301381526126,22005.301381526126,-9494.1743742016261,93875.714304060719,0.0
638296.95196600363,3625566.251970998,-7500.0,44295.058046054924,-12744.369182213119,-19025.225090237225,-5818.9855009542607,648.69272307629217,-216.32229199987734,34491.329562564963,23583.867089508622,-30257.84721949654,30257.84721949654,-23583.867089508622,61337.990278063866,0.0
643296.95196600363,3625566.251970998,-7500.0,26768.20002679867,3142.3161456950188,-22343.82939074513,-2772.3484910232837,-2092.0355099284775,32.439689262039018,24991.9296780031,23856.58345865396,-25085.208657307707,25085.208657307707,-23856.58345865396,43353.833793660277,0.0
648296.95196600363,3625566.251970998,-7500.0,13147.930756764392,9879.9337934088908,-19240.122488449793,-576.87969951767502,-2997.5841023531707,-106.89159910963508,19196.331911819463,19084.947269732762,-17495.005373826829,17495.005373826829,-19084.947269732762,33409.169305511306,0.0
653296.95196600363,3625566.251970998,-7500.0,4178.8939270782039,11667.192093457072,-14990.286002900215,699.11969803422812,-2965.6050235656376,-231.60591268889684,15334.724602279408,13696.276297525972,-11162.150068610794,11162.150068610794,-13696.276297525972,27176.923327993736,0.0
658296.95196600363,3625566.251970998,-7500.0,-1177.1227140493504,11208.296842729726,-11264.714624382723,1306.9436027358681,-2572.9022421095988,-279.52100456680222,12518.949050235429,9203.0048315899039,-6672.6614859548145,6672.6614859548145,-9203.0048315899039,22660.127450002496,0.0
663296.95196600363,3625566.251970998,-7500.0,-4114.5658671910633,9911.5493125438643,-8385.4301530763005,1511.1942823480629,-2103.8129959884745,-274.52331635626354,10344.208134645571,5860.2982966500449,-3709.1064390410838,3709.1064390410838,-5860.2982966500449,19084.867049459684,0.0
668296.95196600363,3625566.251970998,-7500.0,-5548.1704173844691,8431.5658662582464,-6261.9703491280325,1500.0233089952526,-1673.0644275855907,-244.72432242630327,8614.7862334509246,3507.7271703963802,-1826.5304040965971,1826.5304040965971,-3507.7271703963802,16150.64093698973,0.0
673296.95196600363,3625566.251970998,-7500.0,-6089.8537860934794,7040.9601724812374,-4720.5355758107726,1387.4985374732423,-1314.7573953338378,-207.48399508913045,7220.0490688235304,1903.3063761511282,-661.92376746429022,661.92376746429022,-1903.3063761511282,13715.285221107162,0.0
678296.95196600363,3625566.251970998,-7500.0,-6124.1681166245626,5832.8661310357993,-3603.1372370738818,1236.7206609359498,-1029.8224164802916,-171.2904860187929,6086.6114163441434,832.35188989337439,40.210714296713263,-40.210714296713263,-832.35188989337439,11688.540497745558,0.0
683296.95196600363,3625566.251970998,-7500.0,-5884.6194233723563,4821.6715796923163,-2788.3051752864963,1080.1320655422605,-807.93704885722343,-139.49961349154867,5160.5325108812831,130.91099688130041,449.21367246561613,-449.21367246561613,-130.91099688130041,10000.438008283143,0.0
688296.95196600363,3625566.251970998,-7500.0,-5509.729679105164,3990.6086288569941,-2188.3071036236024,933.00643154586976,-636.63577633841953,-112.92661610505505,4400.1903726883002,-318.51538029295398,674.31929642502632,-674.31929642502632,318.51538029295398,8592.7037492300988,0.0
693296.95196600363,3625566.251970998,-7500.0,-5079.9358459097593,3313.2629772863861,-1741.3384644263626,801.47006794267304,-504.62748512613734,-91.282058941222346,3772.8646418912213,-597.61516004333521,785.13252856550412,-785.13252856550412,597.61516004333521,7416.3290641132662,0.0
698296.95196600363,3625566.251970998,-7500.0,-4640.7034697782765,2762.7099162710451,-1404.196921761448,687.00527712889698,-402.68622537104778,-73.884637389340668,3252.6717119789751,-762.34359953259354,825.77406130885811,-825.77406130885811,762.34359953259354,6430.4249792444843,0.0
703296.95196600363,3625566.251970998,-7500.0,-4216.6731694748851,2314.9611703820215,-1146.6542500958267,588.89016270640786,-323.61940289227294,-59.985643603200884,2819.114362935165,-850.76572487527756,824.14631648353361,-824.14631648353361,850.76572487527756,5601.2192505579815,0.0
708296.95196600363,3625566.251970998,-7500.0,-3820.2157097338863,1949.8900187681681,-947.43916457771672,505.48053147177245,-261.94570111354767,-48.90081206176778,2456.202667547464,-888.70273219373405,797.8622638404978,-797.8622638404978,888.70273219373405,4901.031295894194,0.0
713296.95196600363,3625566.251970998,-7500.0,-3456.5750762960506,1651.1136400932305,-791.45818730371423,434.85995305607901,-213.53116130096606,-40.051884670963744,2158.6354461491042,-893.65337151442111,758.00421325486957,-758.00421325486957,893.65337151442111,4307.2810513862914,0.0
513296.95196600363,3630566.251970998,-7500.0,-5504.9151044215805,-1213.6151999813319,-557.64975207076532,-664.32395013028008,-155.1900072602694,-58.48143641551912,2944.1850975653329,-4118.7494915202842,1305.9025607416872,-1305.9025607416872,4118.7494915202842,5745.3405377788586,0.0
518296.95196600363,3630566.251970998,-7500.0,-6288.653984296132,-1493.3808362418777,-666.08120682754725,-793.11370200408783,-198.60842780150259,-72.970271091819399,3393.8156078943075,-4769.2142044343109,1458.8127290307384,-1458.8127290307384,4769.2142044343109,6632.9403391837832,0.0
523296.95196600363,3630566.251970998,-7500.0,-7212.1129740312945,-1851.4640091176839,-807.62214859787707,-952.47347330783975,-256.4237330461487,-91.717282721252019,3934.2157216153241,-5551.308714682089,1625.7482855225076,-1625.7482855225076,5551.308714682089,7701.7960328279423,0.0
528296.95196600363,3630566.251970998,-7500.0,-8301.980093493401,-2313.4119213251688,-995.79478139645062,-1150.6200723542818,-334.13362718499133,-116.12085816097309,4587.607721497352,-6495.541948512242,1802.9396252528818,-1802.9396252528818,6495.541948512242,8996.8644744515659,0.0
533296.95196600363,3630566.251970998,-7500.0,-9588.3831904556719,-2913.9757005149263,-1250.8052355065572,-1397.9814434942343,-439.56335741154828,-148.04532545676585,5382.2514857629412,-7639.1431059294882,1981.8523330726662,-1981.8523330726662,7639.1431059294882,10575.542521491425,0.0
538296.95196600363,3630566.251970998,-7500.0,-11103.283866886217,-3700.4401050989504,-1603.3065527814927,-1707.574470437808,-583.89318996873646,-189.93721686682534,6353.9835275142377,-9026.4065690500993,2145.5167871390458,-2145.5167871390458,9026.4065690500993,12510.961389048854,0.0
543296.95196600363,3630566.251970998,-7500.0,-12876.377656634424,-4736.8268768515745,-2100.4507708528186,-2095.1471317438109,-783.09296982370404,-244.90593854269568,7547.8762265476053,-10707.537493711176,2262.24113041907,-2262.24113041907,10707.537493711176,14895.639536844423,0.0
548296.95196600363,3630566.251970998,-7500.0,-14926.136651841856,-6108.6214630650657,-2815.6272579587117,-2578.6395087293167,-1059.8147156749931,-316.65596718728824,9019.6535088832425,-12733.973222633938,2274.9241115395234,-2274.9241115395234,12733.973222633938,17844.793245175013,0.0
553296.95196600363,3630566.251970998,-7500.0,-17241.713911241466,-7926.535572698348,-3863.9642458647404,-3176.0322335052551,-1445.586227269252,-409.00238241543389,10836.036135848522,-15146.052605160074,2083.1643381140912,-2083.1643381140912,15146.052605160074,21497.468732899379,0.0
558296.95196600363,3630566.251970998,-7500.0,-19748.332141402436,-10324.980017420101,-5426.2434168350046,-3899.7759258784176,-1982.5172607341974,-524.38732708683608,13073.012662588771,-17944.965538557437,1514.2101399293115,-1514.2101399293115,17944.965538557437,26011.281290149855,0.0
563296.95196600363,3630566.251970998,-7500.0,-22244.430386629865,-13444.226712933141,-7783.0697252102791,-4744.6172138891216,-2722.0789698589165,-660.25564307895445,15821.25267914281,-21033.956987426507,278.65729185958662,-278.65729185958662,21033.956987426507,31541.655489112793,0.0
568296.95196600363,3630566.251970998,-7500.0,-24295.277068299307,-17370.71553296658,-11354.607318943385,-5664.1721234515571,-3714.7320704469989,-801.43962914681549,19203.794322321533,-24103.415041236382,-2088.0086950805835,2088.0086950805835,24103.415041236382,38187.260371931763,0.0
573296.95196600363,3630566.251970998,-7500.0,-25073.976886981818,-21981.971752956149,-16715.858883793222,-6532.3939566780973,-4976.8221764515829,-906.94038999564509,23197.827784948942,-26425.598136807428,-6273.1543109523591,6273.1543109523591,26425.598136807428,45867.81968395484,0.0
578296.95196600363,3630566.251970998,-7500.0,-23185.589193270203,-26602.194105486604,-24479.363761596924,-7096.5530286760786,-6411.1713225981703,-895.17884815752598,27582.220154298324,-26543.711674099937,-13122.25072547801,13122.25072547801,26543.711674099937,54081.399330423556,0.0
583296.95196600363,3630566.251970998,-7500.0,-16662.272079787286,-29370.70380317048,-34739.537673777682,-6962.7044478771595,-7658.4769556905112,-655.06346350854892,31781.073009280044,-21977.260551340623,-23162.917264567164,23162.917264567164,21977.260551340623,61495.480434128898,0.0
588296.95196600363,3630566.251970998,-7500.0,-3658.7515248848295,-26487.96597126799,-45428.946487110552,-5714.7111734979726,-7910.9312802975392,-164.6394955280177,34677.436007191434,-9530.0003340269086,-35079.942980508604,35079.942980508604,9530.0003340269086,65524.552979639353,0.0
593296.95196600363,3630566.251970998,-7500.0,15367.264958825031,-12606.286492508165,-48991.273114856784,-3271.9730317608119,-5870.5455069191021,165.87892652563238,35080.319546119303,12338.034036651869,-42577.836469233574,42577.836469233574,-12338.034036651869,63301.08444690171,0.0
598296.95196600363,3630566.251970998,-7500.0,34856.93358801576,14601.465874641997,-29640.706292822942,-396.15682954786024,-136.51966823293532,-984.08210584934432,35402.670710083905,38126.250409013301,-31922.279176337524,31922.279176337524,-38126.250409013301,61424.735926213703,0.0
603296.95196600363,3630566.251970998,-7500.0,46901.620104298046,46372.951638435712,29949.75765304923,832.45908471172629,9799.6220845076878,-6019.5642128313084,50387.952360165371,53196.084893721767,11336.673302425625,-11336.673302425625,-53196.084893721767,94511.551818575244,0.0
608296.95196600363,3630566.251970998,-7500.0,50084.332909737503,65806.727480326823,133333.75931511982,-2834.6831532254437,21032.518847987201,-18466.956988073831,97641.420414253153,44702.493334741346,88449.393431777877,-88449.393431777877,-44702.493334741346,177987.03572126024,0.0
613296.95196600363,3630566.251970998,-7500.0,40321.734249467161,51845.56217104791,270100.17978497804,-10241.481925220607,25037.919969515086,-40217.39814191997,163850.5865699148,-1461.6868102094013,190834.38409998023,-190834.38409998023,1461.6868102094013,296732.34680518752,0.0
618296.95196600363,3630566.251970998,-7500.0,28327.796860420061,-40288.776249118113,357087.48351765069,-10868.798250733289,19772.534301175063,-56721.852337216682,210812.32519536073,-89401.615462853588,248832.66199824557,-248832.66199824557,89401.615462853588,386877.34304220689,0.0
623296.95196600363,3630566.251970998,-7500.0,76767.739359585903,-136452.83559639554,229173.0482550587,-6136.2362644671257,15773.383810092932,-44063.154296530854,177536.40787156924,-93739.068517135005,127985.31477677384,-127985.31477677384,93739.068517135005,336095.58288806624,0.0
628296.95196600363,3630566.251970998,-7500.0,112132.58667298022,-95740.297338993099,37518.932239459427,-5894.3510595805856,10724.308093016669,-17829.77624223848,104323.29173890043,-1523.5289397715387,-20467.572133387701,20467.572133387701,1523.5289397715387,201763.03537975176,0.0
633296.95196600363,3630566.251970998,-7500.0,81389.503322883931,-23651.258390898915,-35015.61993937938,-5198.4055581811781,2771.5603405054876,-3572.8264490854626,63042.356256126746,43192.359876908558,-55665.085676860101,55665.085676860101,-43192.359876908558,112520.93451377319,0.0
638296.95196600363,3630566.251970998,-7500.0,41023.361043411445,11372.72122773722,-40658.651940994416,-2127.889120961253,-2757.5985104289134,-36.733281944434964,42537.727133175133,42336.525495220783,-42450.758449139663,42450.758449139663,-42336.525495220783,73677.843227839316,0.0
643296.95196600363,3630566.251970998,-7500.0,14138.593403119568,21545.020211773463,-31297.711777341552,828.22730767510529,-4756.7284228307508,53.928519872393409,31607.594076199006,30124.251078333746,-25429.15350100127,25429.15350100127,-30124.251078333746,55546.21000921708,0.0
648296.95196600363,3630566.251970998,-7500.0,-597.93294977336132,21734.098705640354,-21950.054467947506,2521.8956403894977,-4734.8481285148537,-284.57779969754523,24617.764990530486,18923.394455284033,-13583.041083733693,13583.041083733693,-18923.394455284033,44341.306418762906,0.0
653296.95196600363,3630566.251970998,-7500.0,-7779.6359958357034,18798.53427154271,-15105.068667767719,3133.7391082278682,-3985.1091296081204,-454.17558830994346,19567.659060883856,10949.758059599935,-6455.0563337897838,6455.0563337897838,-10949.758059599935,36031.172892573668,0.0
658296.95196600363,3630566.251970998,-7500.0,-10755.892490873448,15348.18878080711,-10464.371548424973,3123.5770538457018,-3130.653437812678,-472.7679003390781,15721.728871399469,5763.8886096486831,-2416.951819055228,2416.951819055228,-5763.8886096486831,29465.297552600252,0.0
663296.95196600363,3630566.251970998,-7500.0,-11528.376457176841,12248.730370881749,-7372.6057528964966,2833.0979734334073,-2389.8125454873725,-421.6763836348797,12734.888763750128,2537.4108733907506,-220.2212345722603,220.2212345722603,-2537.4108733907506,24202.881013795126,0.0
668296.95196600363,3630566.251970998,-7500.0,-11212.604799427398,9705.4020340961215,-5303.4668051597118,2453.15794559918,-1806.8883695020054,-350.7424028200823,10395.353574732335,589.37134995297549,919.25665221802285,-919.25665221802285,-589.37134995297549,19978.65604013031,0.0
673296.95196600363,3630566.251970998,-7500.0,-10407.836040104168,7694.442847870755,-3899.4602151848712,2074.825630103513,-1366.3352637856337,-282.17790923378072,8551.8639244145579,-551.36998851198109,1463.1306326097438,-1463.1306326097438,551.36998851198109,16586.59074173911,0.0
678296.95196600363,3630566.251970998,-7500.0,-9426.6937426761178,6127.7681058538246,-2929.6691698822169,1735.0580316671383,-1038.5656117881256,-223.5973720499799,7090.4910910281851,-1190.5811749683,1676.6760889139821,-1676.6760889139821,1190.5811749683,13857.536881706435,0.0
683296.95196600363,3630566.251970998,-7500.0,-8426.452485708227,4912.0756220622534,-2246.7720902245978,1444.46672181691,-795.57783348864064,-176.21969081377847,5924.4094228531285,-1521.4521977905151,1710.9347874521491,-1710.9347874521491,1521.4521977905151,11653.957887721708,0.0
688296.95196600363,3630566.251970998,-7500.0,-7481.4652192544763,3967.1595999481301,-1756.4386869773352,1202.0020696439904,-614.94338122134207,-138.88586132234423,4987.3845769085628,-1664.7100947575029,1651.5438544836841,-1651.5438544836841,1664.7100947575029,9865.9463646569366,0.0
693296.95196600363,3630566.251970998,-7500.0,-6622.5511977769502,3229.2484380604274,-1397.6131198520768,1002.167576153463,-479.83503773345103,-109.80697268613773,4228.9256345687709,-1695.499026470251,1546.8308100022473,-1546.8308100022473,1695.499026470251,8406.843101466673,0.0
698296.95196600363,3630566.251970998,-7500.0,-5858.2083883860951,2649.3404649010604,-1130.2040298773782,838.34603675599067,-377.977406016918,-87.244256882367011,3610.5547903091033,-1660.5232999826903,1423.811787272577,-1423.811787272577,1660.5232999826903,7208.8137957593653,0.0
703296.95196600363,3630566.251970998,-7500.0,-5185.9809340471793,2190.3437510708986,-927.46538965854563,704.21500022665373,-300.51342368082265,-69.726460978722969,3116.5104076155644,-1588.7640296459472,1297.3027249818492,-1297.3027249818492,1588.7640296459472,6218.911783344297,0.0
708296.95196600363,3630566.251970998,-7500.0,-4598.4898328826785,1824.3268264741471,-771.25990051461531,594.25812582689957,-241.06587816635638,-56.081558216520605,2713.2804791910867,-1498.134384453886,1175.1299058894538,-1175.1299058894538,1498.134384453886,5395.7939654598467,0.0
713296.95196600363,3630566.251970998,-7500.0,-4086.5834105226663,1530.2525425344961,-649.08567234507029,503.87094481293053,-195.03041897095085,-45.402690757425106,2374.1918080968667,-1399.6166856735842,1061.1286907982674,-1061.1286907982674,1399.6166856735842,4707.0977935316296,0.0
513296.95196600363,3635566.251970998,-7500.0,-5837.0545695361197,-868.46979177251728,-419.88305864606303,-700.98465719860837,-110.58042446156746,-61.316299949216102,3039.7799922380623,-4129.7257112314146,1556.3591965377377,-1556.3591965377377,4129.7257112314146,5932.1393127754509,0.0
518296.95196600363,3635566.251970998,-7500.0,-6723.6285126374587,-1084.6317612834939,-488.42392714393856,-842.96241982667334,-143.59580476900609,-76.976328096498037,3520.4026393366762,-4811.5221114018259,1780.0712844026898,-1780.0712844026898,4811.5221114018259,6880.074103373373,0.0
523296.95196600363,3635566.251970998,-7500.0,-7786.9989401203002,-1366.3462450004608,-576.34548228842527,-1020.9604174956518,-188.27072030907584,-97.438848522960186,4103.3975349287348,-5642.8088693509917,2041.7482345528015,-2041.7482345528015,5642.8088693509917,8031.8260019676281,0.0
528296.95196600363,3635566.251970998,-7500.0,-9069.2419421670165,-1737.2633305927448,-691.78261885681866,-1245.7503196374748,-249.39248515502837,-124.38089304442772,4816.016397024282,-6663.6826923113877,2346.9574060728851,-2346.9574060728851,6663.6826923113877,9442.1225029753605,0.0
533296.95196600363,3635566.251970998,-7500.0,-10623.05176049164,-2230.8784260676598,-847.27147566578606,-1531.6427781774523,-333.97465220479188,-160.09639826569733,5694.0393876001808,-7926.3887915561445,2700.5212051768885,-2700.5212051768885,7926.3887915561445,11182.961325092703,0.0
538296.95196600363,3635566.251970998,-7500.0,-12513.769169874347,-2895.0795630538728,-1062.5752506615393,-1897.604324282551,-452.38520268984843,-207.69156675731742,6784.6974818411827,-9498.9542770928274,3104.6239614882315,-3104.6239614882315,9498.9542770928274,13349.577813169308,0.0
543296.95196600363,3635566.251970998,-7500.0,-14820.775045084054,-3798.8780311593091,-1369.5679613336163,-2368.5484894498095,-620.05435349603124,-271.27232765276278,8150.5472656040929,-11469.40170867095,3554.9538162325834,-3554.9538162325834,11469.40170867095,16068.37011797052,0.0
548296.95196600363,3635566.251970998,-7500.0,-17636.692311856787,-5042.2373762243797,-1820.819559243911,-2976.5437674735085,-860.00492583899677,-355.98919157224634,9874.44931849151,-13949.80247600847,4033.0481444810684,-4033.0481444810684,13949.80247600847,19507.072223252624,0.0
553296.95196600363,3635566.251970998,-7500.0,-21060.896848196444,-6769.9540027466956,-2504.9011004022618,-3761.1872534362483,-1206.4175474911981,-467.56270369305565,12065.573738398465,-17077.929647161171,4491.3427358272775,-4491.3427358272775,17077.929647161171,23886.885915117771,0.0
558296.95196600363,3635566.251970998,-7500.0,-25179.860258670906,-9189.761464547888,-3573.9053481666906,-4767.2960624274301,-1709.0809162077817,-610.33446915638672,14865.810783769941,-21010.707721848939,4824.3522391429988,-4824.3522391429988,21010.707721848939,29494.578722817041,0.0
563296.95196600363,3635566.251970998,-7500.0,-30018.917335637321,-12591.368646841705,-5292.8265784055648,-6035.8470706465032,-2437.1868151443673,-781.57960831841672,18455.326133843279,-25895.475607007927,4814.0714480784045,-4814.0714480784045,25895.475607007927,36688.119287707923,0.0
568296.95196600363,3635566.251970998,-7500.0,-35435.33033830989,-17351.710033866566,-8125.9991605411869,-7580.3054103229433,-3476.7212361987795,-957.21443374528019,23056.815594315878,-31787.071692689664,4029.9012554699129,-4029.9012554699129,31787.071692689664,45878.722142018887,0.0
573296.95196600363,3635566.251970998,-7500.0,-40898.929137627703,-23878.402347958418,-12876.975361445013,-9336.5934167066025,-4904.9294703261139,-1060.3001566946291,28913.557987191794,-38441.75395551922,1658.2362235305009,-1658.2362235305009,38441.75395551922,57447.500015152989,0.0
578296.95196600363,3635566.251970998,-7500.0,-45083.723140040864,-32354.82842552747,-20863.679422770601,-11081.143241208589,-6703.4175911221046,-905.18098954479365,36139.082881250542,-44853.973153415238,-3735.7741438019148,3735.7741438019148,44853.973153415238,71498.498432447945,0.0
583296.95196600363,3635566.251970998,-7500.0,-45242.514156064659,-41946.167538417758,-33907.790323253015,-12362.083557540664,-8548.7041386363398,-149.07082703332597,44423.286310905933,-48343.452527268702,-14323.955258855432,14323.955258855432,48343.452527268702,87217.659561084627,1.0
588296.95196600363,3635566.251970998,-7500.0,-36772.063413100535,-48834.925275348825,-53089.599094694742,-12634.264720795072,-9483.465122949352,1544.4686446951255,52305.544456207383,-43267.152878791065,-32031.11555277904,32031.11555277904,43267.152878791065,101305.8834716469,0.0
593296.95196600363,3635566.251970998,-7500.0,-15117.810350994992,-43174.490200668421,-72903.924725000936,-11872.319409323658,-7848.8494314977388,3567.0590559306129,55459.953078776045,-21517.45600286148,-53264.029672386183,53264.029672386183,21517.45600286148,104727.57224695092,0.0
598296.95196600363,3635566.251970998,-7500.0,15511.289646778685,-12094.182232458006,-66933.239588090393,-11083.46518778527,-2217.3490276160624,2456.021592149149,45865.418330470362,16812.157539508273,-55771.393630991181,55771.393630991181,-16812.157539508273,81934.682762499942,0.0
603296.95196600363,3635566.251970998,-7500.0,37979.453426702348,32950.557870109071,11873.898651086078,-11282.327414701696,8255.5508797625644,-8069.760995736232,41669.768510422466,42830.720426115826,-428.3587189272439,428.3587189272439,-42830.720426115826,73779.690553052686,0.0
608296.95196600363,3635566.251970998,-7500.0,70249.902493771893,52735.413580233791,164266.26933221545,-16702.273408155037,24243.012678185496,-34976.850621212732,116008.34139660817,41711.815995259531,103014.44831399847,-103014.44831399847,-41711.815995259531,201861.15070830399,0.0
613296.95196600363,3635566.251970998,-7500.0,140519.60950919508,85706.017970385379,409455.64781771152,-31875.153965886417,25959.44211191955,-92329.939866092478,267207.45733834984,52140.004065837973,263410.3560072938,-263410.3560072938,-52140.004065837973,465052.10401698074,0.0
618296.95196600363,3635566.251970998,-7500.0,114092.57139395502,-39137.270345345059,800932.05990112561,-17197.650605405732,-2706.104827073701,-151210.31608311765,477753.6696468998,-135083.75268283772,546724.12630074518,-546724.12630074518,135083.75268283772,854317.87349322648,0.0
623296.95196600363,3635566.251970998,-7500.0,242615.5193819633,-319210.39795289806,384156.44291199651,17889.853184779979,4584.509538218279,-100576.0733445028,372108.25775927998,-145595.94989941016,166434.53837980048,-166434.53837980048,145595.94989941016,702210.07223044778,0.0
628296.95196600363,3635566.251970998,-7500.0,205821.06778289931,-66743.419980487452,-77849.44075116342,9044.5849457780441,13289.952452958292,-20816.266242870952,158319.32013930654,102236.94765292684,-133650.68686500253,133650.68686500253,-102236.94765292684,285801.40864172281,1.0
633296.95196600363,3635566.251970998,-7500.0,62528.784558157415,43138.399042504803,-86862.838899527706,3425.1120499750505,1387.6280055192142,2844.923117608289,86352.839760804913,87177.299875184981,-80208.253941237141,80208.253941237141,-87177.299875184981,150291.33923453843,0.0
638296.95196600363,3635566.251970998,-7500.0,1462.7540408078989,51227.735070539093,-52295.759480996239,5032.6737733048067,-5408.8378708245027,3086.4493701836586,58191.419729575719,46525.409184079224,-33391.145573687158,33391.145573687158,-46525.409184079224,104959.48803491905,0.0
643296.95196600363,3635566.251970998,-7500.0,-19547.843406102354,41565.70324920772,-30608.641822620284,6730.9217864302973,-6636.7414859269584,840.60971160433814,42590.737989973764,22114.377926218087,-11432.064990646777,11432.064990646777,-22114.377926218087,78833.500802927316,0.0
648296.95196600363,3635566.251970998,-7500.0,-25404.889277600443,31298.320651268201,-18521.595976480075,6957.7808140412553,-5708.7745704758345,-316.15781239746883,32236.119525038095,8947.1754675444772,-1690.1510318356886,1690.1510318356886,-8947.1754675444772,60711.515922445316,0.0
653296.95196600363,3635566.251970998,-7500.0,-25376.196994383492,23161.034557240684,-11686.182482943696,6274.7633327625472,-4383.4492704543591,-667.16951118653947,24832.064102397489,2051.9491680126025,2443.5430880117178,-2443.5430880117178,-2051.9491680126025,47378.771661281622,0.0
658296.95196600363,3635566.251970998,-7500.0,-23165.266179793562,17157.123326866502,-7686.7805994553537,5289.3663486017704,-3231.3298964022301,-675.52988145696543,19379.403716151679,-1430.4189442367688,3990.1681407888509,-3990.1681407888509,1430.4189442367688,37358.024653309396,0.0
663296.95196600363,3635566.251970998,-7500.0,-20334.771071296727,12817.71083669357,-5258.7227956986999,4316.7933345812326,-2355.4441459094865,-575.45979775959972,15304.951681704637,-3072.0985181288452,4353.8493700143908,-4353.8493700143908,3072.0985181288452,29753.233130090368,0.0
668296.95196600363,3635566.251970998,-7500.0,-17534.00687147829,9687.5279965487807,-3730.1703045863342,3474.2088800479364,-1720.6226249229273,-459.2051224688862,12227.069987591476,-3731.2700693635084,4197.3400766388249,-4197.3400766388249,3731.2700693635084,23938.120032880255,0.0
673296.95196600363,3635566.251970998,-7500.0,-15007.389764436803,7415.4628574483877,-2734.0512810597074,2784.7416639321241,-1267.3976838347116,-356.858723177169,9877.6079878261644,-3875.3764432627622,3834.5565737209354,-3834.5565737209354,3875.3764432627622,19455.3974035467,0.0
678296.95196600363,3635566.251970998,-7500.0,-12821.234724235564,5749.6261903428358,-2063.5244598139921,2235.1077440111276,-943.97119173697013,-274.81650714529343,8065.058680116631,-3758.8239518809132,3412.5273412255629,-3412.5273412255629,3758.8239518809132,15968.881516129757,0.0
683296.95196600363,3635566.251970998,-7500.0,-10967.161784809065,4513.9154470697049,-1598.3862742781776,1801.6867361045763,-711.66795126283614,-211.53684751779022,6651.7693741159483,-3519.7299026827168,2997.7076970120434,-2997.7076970120434,3519.7299026827168,13231.565437961919,0.0
688296.95196600363,3635566.251970998,-7500.0,-9409.0598706147466,3586.0106646716004,-1266.6612627840473,1460.8527988524822,-543.17068802118263,-163.478006668825,5538.6014944981935,-3232.4859547985766,2617.6129448873321,-2617.6129448873321,3232.4859547985766,11061.82713408087,0.0
693296.95196600363,3635566.251970998,-7500.0,-8103.9130521925981,2880.7320221209593,-1024.009658303353,1192.3691993187704,-419.57014390807677,-127.13483361936099,4674.71477033051,-2936.4150466117399,2281.150182088174,-2281.150182088174,2936.4150466117399,9325.6852199921086,0.0
698296.95196600363,3635566.251970998,-7500.0,-7010.4869661116527,2338.3280476250434,-842.37034795685827,979.98402330744784,-327.83319598418495,-99.608509728215381,3984.8899307592651,-2651.4972784021406,1988.6158425505087,-1988.6158425505087,2651.4972784021406,7923.7404959467476,0.0
703296.95196600363,3635566.251970998,-7500.0,-6092.4759850492264,1916.4802171990821,-703.52900873230465,811.03266581016589,-258.94556904443886,-78.661727541829492,3420.5758708096059,-2387.0669855352062,1736.6142451522112,-1736.6142451522112,2387.0669855352062,6781.7221209064119,0.0
708296.95196600363,3635566.251970998,-7500.0,-5319.1917487918499,1584.8947160647926,-595.37856950874618,675.78180243023701,-206.62594614842928,-62.619555256436541,2955.2580136445931,-2146.6569010009621,1520.45138944365,-1520.45138944365,2146.6569010009621,5843.6886411175155,0.0
713296.95196600363,3635566.251970998,-7500.0,-4665.2314590089291,1321.643586759659,-509.69040529833444,566.78969413830339,-166.45561658477504,-50.244225946542059,2568.7089215223978,-1930.7086378295226,1335.2651158277949,-1335.2651158277949,1930.7086378295226,5067.1450641710317,0.0
718296.95196600363,3635566.251970998,-7500.0,-4109.7913378240892,1110.6775632249385,-440.7541791975782,478.36861755841778,-135.29356828333201,-40.624552288026067,2245.3307313810574,-1738.0918581066458,1176.5245700702194,-1176.5245700702194,1738.0918581066458,4419.5321538728513,0.0
513296.95196600363,3640566.251970998,-7500.0,-6033.0819839676433,-466.87890718252635,-319.5495530434618,-722.66588653145982,-59.593494580180995,-62.987662467002664,3090.2754402076603,-4009.8600417586513,1739.7183675151593,-1739.7183675151593,4009.8600417586513,6033.8604037249561,0.0
518296.95196600363,3640566.251970998,-7500.0,-6988.8465122628486,-598.49707298252758,-356.76204933796697,-873.3593123250289,-79.52987774643023,-79.406467591081864,3590.264751831543,-4686.1891217725597,2018.9159379870243,-2018.9159379870243,4686.1891217725597,7020.1678609025057,0.0
523296.95196600363,3640566.251970998,-7500.0,-8148.9821436627653,-773.87014756838687,-401.5155548972989,-1063.9990074149609,-107.10091143162249,-101.0069315118605,4200.660685157578,-5517.5369483380382,2356.4209664470418,-2356.4209664470418,5517.5369483380382,8226.1195585161349,0.0
528296.95196600363,3640566.251970998,-7500.0,-9568.2213349724989,-1010.2911479341358,-456.67890904179069,-1307.3557696994815,-145.68306896212903,-129.67334071757244,4952.514056178843,-6548.9077724690687,2766.6169137388024,-2766.6169137388024,6548.9077724690687,9713.9042478696683,0.0
533296.95196600363,3640566.251970998,-7500.0,-11318.571868637498,-1333.072824450614,-526.8373119268424,-1620.879228160403,-200.35527661741295,-168.02661754154727,5887.4648100848508,-7841.018737644009,3267.5516613419704,-3267.5516613419704,7841.018737644009,11567.017516202715,0.0
538296.95196600363,3640566.251970998,-7500.0,-13495.301042732974,-1779.8325445893709,-619.59797702015965,-2028.5266112505569,-278.85356672844051,-219.68675258175566,7061.9368882538574,-9476.5772136666455,3881.5196244539757,-3881.5196244539757,9476.5772136666455,13898.713855439213,0.0
543296.95196600363,3640566.251970998,-7500.0,-16224.891284287023,-2407.3582978562863,-748.04506716733647,-2563.2346177422073,-393.09541764573925,-289.55211939392893,8553.1718572925765,-11569.236001755384,4635.1791921400745,-4635.1791921400745,11569.236001755384,16864.140017134683,0.0
548296.95196600363,3640566.251970998,-7500.0,-19675.247507632845,-3302.7518613914935,-935.47820805512833,-3270.0741883627279,-561.59978876451407,-383.93550156495263,10467.933432497592,-14276.265592880307,5558.2804055118504,-5558.2804055118504,14276.265592880307,20677.760613063314,0.0
553296.95196600363,3640566.251970998,-7500.0,-24067.819145981204,-4601.703868856408,-1224.8117008593792,-4209.7673956192939,-813.24152768707222,-510.05065570511493,12955.056559363917,-17816.081126404144,6678.8299239541602,-6678.8299239541602,17816.081126404144,25638.227508510976,0.0
558296.95196600363,3640566.251970998,-7500.0,-29689.411647809095,-6518.6129982680859,-1697.7481665660707,-5461.1859570354063,-1192.7268549699945,-673.39843213328561,16223.469048186993,-22491.189741343656,8009.6706696445654,-8009.6706696445654,22491.189741343656,32163.242441740291,0.0
563296.95196600363,3640566.251970998,-7500.0,-36896.470724168656,-9395.9483431218268,-2515.0069914551823,-7118.7418469042586,-1767.3366825393095,-869.10376575094972,20568.141541267993,-28714.384913313588,9514.9479366187588,-9514.9479366187588,28714.384913313588,40836.675146137532,0.0
568296.95196600363,3640566.251970998,-7500.0,-46091.9290487545,-13782.88568210234,-4003.0543375862439,-9274.4291960140254,-2630.8034524194254,-1056.9346841065176,26408.459729478735,-37026.617184048133,11029.962230830157,-11029.962230830157,37026.617184048133,52467.744003088061,0.0
573296.95196600363,3640566.251970998,-7500.0,-57623.242157616711,-20550.130946082612,-6845.359402260091,-11963.109754495017,-3887.681529581726,-1095.1854203063895,34343.458175412656,-48065.886137092202,12073.715067821489,-12073.715067821489,48065.886137092202,68154.62839706552,0.0
578296.95196600363,3640566.251970998,-7500.0,-71469.493064228096,-31011.325814878481,-12507.317047086281,-15041.011597600376,-5566.016617144247,-583.23948642045798,45210.589579303698,-62355.846727807148,11417.994282629152,-11417.994282629152,62355.846727807148,89322.651580085178,0.0
583296.95196600363,3640566.251970998,-7500.0,-86365.955192175781,-46821.727600827457,-24138.465873597561,-18018.527590203241,-7331.8720968866346,1435.8394894798198,60122.179191342584,-79487.881551163184,6140.6547465483673,-6140.6547465483673,79487.881551163184,117600.27175554891,0.0
588296.95196600363,3640566.251970998,-7500.0,-97467.694796709984,-68461.380772212418,-48001.843914142533,-20183.027271496161,-7859.3749668890423,6667.0855518920907,80071.263090801411,-95336.029495856666,-10045.373842181696,10045.373842181696,95336.029495856666,153649.15369511489,0.0
593296.95196600363,3640566.251970998,-7500.0,-91744.176315121847,-87385.990324928134,-91595.990283965672,-22088.920761505404,-4472.9329210751448,15927.969352276834,102074.80891892021,-94418.252389478585,-46102.120216629701,46102.120216629701,94418.252389478585,189763.2049870776,0.0
598296.95196600363,3640566.251970998,-7500.0,-54476.385121794439,-65094.001571674686,-130763.73756312567,-28083.239148810859,3067.0555776388042,21773.61494404414,101976.93077593581,-47558.785076869928,-85006.217917740942,85006.217917740942,47558.785076869928,180434.60271266956,0.0
603296.95196600363,3640566.251970998,-7500.0,-39531.336632335384,22140.486757445764,-9658.4101097545044,-36343.350998687463,4601.918599538074,3801.1319046516001,47099.290802224088,-7933.1144927780952,8577.0950663117546,-8577.0950663117546,7933.1144927780952,83500.184618278625,0.0
608296.95196600363,3640566.251970998,-7500.0,-81950.73607419648,-51407.087157656344,317609.33596835833,-21685.299280409134,19868.161216291264,-37938.056565121893,210223.00684136135,-156818.41900018518,255602.80062945877,-255602.80062945877,156818.41900018518,393093.76956126536,1.0
613296.95196600363,3640566.251970998,-7500.0,263925.69805557624,-150731.8599816557,460576.91049614851,-38957.779987216192,59394.248085021005,-96792.419577249821,327313.11158769752,-38279.669901948204,233848.27072244528,-233848.27072244528,38279.669901948204,568349.67383348849,0.0
618296.95196600363,3640566.251970998,-7500.0,751706.55793131853,5799.4369568552847,2235199.7367517441,-6661.7474259244809,-69215.146146388157,-133739.56698126651,1186526.050697156,-30021.646009922726,1392806.440039899,-1392806.440039899,30021.646009922726,2076758.6245545717,0.0
623296.95196600363,3640566.251970998,-7500.0,1375674.0293020704,-763027.99653365125,-129494.18620514897,151430.9328949019,-45227.973974741872,-39366.227308693306,1079139.1397498085,385983.27320099075,-640239.23955218482,640239.23955218482,-385983.27320099075,1989864.9523454753,0.0
628296.95196600363,3640566.251970998,-7500.0,-20151.724902773116,267996.57311055996,-263902.42088162422,13270.054005762315,33235.525649363131,42728.907504209536,298512.51287180494,223821.71801065269,-158226.22295254481,158226.22295254481,-223821.71801065269,545897.56065345823,1.0
633296.95196600363,3640566.251970998,-7500.0,-113214.93280444246,136915.1241463109,-81989.678052629955,11386.871019387161,3043.2786887915704,28840.767316369762,140746.69554322516,38056.055055709221,-7406.1491875467582,7406.1491875467582,-38056.055055709221,270874.7567350617,0.0
638296.95196600363,3640566.251970998,-7500.0,-92384.002500195245,76611.935771566641,-34187.912816400451,13763.586524425356,-5696.1347463143593,10411.677853362084,83226.188779653094,497.74338298883231,14205.192449219883,-14205.192449219883,-497.74338298883231,162003.83644859531,0.0
643296.95196600363,3640566.251970998,-7500.0,-72290.307314831167,47586.645618047427,-17001.059925469497,13739.846528571568,-6421.7421233701898,2419.4232595359599,56263.29923841697,-9970.0898745956329,16944.031497337575,-16944.031497337575,9970.0898745956329,109504.94477590511,0.0
648296.95196600363,3640566.251970998,-7500.0,-56993.056902663018,31349.667154942024,-9509.7027295556272,11866.63233419491,-5154.664281555979,-203.30369345693538,40496.100433632411,-12809.646422249183,15552.004418369734,-15552.004418369734,12809.646422249183,78954.065763985011,0.0
653296.95196600363,3640566.251970998,-7500.0,-45220.943456016576,21448.908859706742,-5820.781531038986,9537.008946729271,-3772.6760486791345,-845.8034824018913,30093.22848361795,-12813.920617330317,13235.704808419523,-13235.704808419523,12813.920617330317,58897.097156474651,0.0
658296.95196600363,3640566.251970998,-7500.0,-36102.82530474275,15107.169736130192,-3834.4558632899557,7429.1298804427624,-2690.3559443675858,-860.9709082783495,22849.852254126898,-11744.878634462857,10945.268260101417,-10945.268260101417,11744.878634462857,44922.249278248222,0.0
663296.95196600363,3640566.251970998,-7500.0,-29032.980848603504,10905.458778091115,-2684.2018880366682,5727.7216116937752,-1916.0923535810407,-715.64994294222129,17659.693970187018,-10355.779228188225,8960.3890782216404,-8960.3890782216404,10355.779228188225,34874.403182484886,0.0
668296.95196600363,3640566.251970998,-7500.0,-23540.453682046755,8045.0903235692203,-1975.1924647319313,4417.309456276259,-1376.8747835664465,-556.63118570469419,13865.193184253452,-8968.3184075595564,7326.486315354352,-7326.486315354352,8968.3184075595564,27496.547200656252,0.0
673296.95196600363,3640566.251970998,-7500.0,-19254.596718011217,6051.4315181098737,-1513.6301794154203,3425.9879671975041,-1002.4146992492224,-422.94806723965416,11044.065801140161,-7707.6822373152681,6010.0281800414632,-6010.0281800414632,7707.6822373152681,21985.617859110338,0.0
678296.95196600363,3640566.251970998,-7500.0,-15888.959249600119,4632.1801743809165,-1198.4355262137522,2679.0791590448639,-740.44256652528213,-319.56662943958469,8919.2394175910358,-6610.4495634476507,4957.3843952483321,-4957.3843952483321,6610.4495634476507,17805.712080423458,0.0
683296.95196600363,3640566.251970998,-7500.0,-13225.768658999399,3602.2683039313365,-974.05749201062383,2114.6383659729445,-554.98593295415014,-242.07228966095352,7318.5890004055727,-5675.1009775408202,4116.1602565072571,-4116.1602565072571,5675.1009775408202,14590.285307281163,0.0
688296.95196600363,3640566.251970998,-7500.0,-11100.976868679165,2841.7013441726785,-808.51249959889276,1685.2781165736023,-421.90079825700991,-184.56325006019597,6078.4877469308776,-4885.4497124430363,3441.7439533050861,-3441.7439533050861,4885.4497124430363,12084.138293792912,0.0
693296.95196600363,3640566.251970998,-7500.0,-9391.3627240792885,2270.9924672812435,-682.59286393821549,1355.9411026706002,-325.04940498439396,-141.89367635881052,5097.5962329469958,-4221.2245139312818,2898.2416538410239,-2898.2416538410239,4221.2245139312818,10106.867635655779,0.0
698296.95196600363,3640566.251970998,-7500.0,-8004.2411673571514,1836.4421341804618,-584.30985264734204,1101.022937137792,-253.58766621537532,-110.08527834997122,4312.5725577782023,-3662.6033879423526,2457.5082634286059,-2457.5082634286059,3662.6033879423526,8529.1393003733247,0.0
703296.95196600363,3640566.251970998,-7500.0,-6869.5704489213185,1501.1008563261246,-505.90932917798585,901.86704807606361,-200.15593466374855,-86.202644524992209,3677.7651688972674,-3191.9154780952149,2097.7092605412918,-2097.7092605412918,3191.9154780952149,7256.9551957585281,0.0
708296.95196600363,3640566.251970998,-7500.0,-5934.1320310457277,1239.1168979732038,-442.21161842284931,744.84434215265185,-159.70031982263711,-68.120486603021504,3159.5299033481338,-2794.1062609831274,1801.972658202038,-1801.972658202038,2794.1062609831274,6221.1523559229436,0.0
713296.95196600363,3640566.251970998,-7500.0,-5157.1868313545101,1032.1140035197752,-389.65144800389425,619.93749837850646,-128.7053890118396,-54.308500482765034,2732.7245267780509,-2456.6282227263905,1557.2425756554057,-1557.2425756554057,2456.6282227263905,5370.2000500698941,0.0
718296.95196600363,3640566.251970998,-7500.0,-4507.3203849742185,866.8392102763429,-345.70777503069678,519.7298845370849,-104.69434798406381,-43.663800022682686,2378.3430118288611,-2169.1488508998973,1353.3834086945858,-1353.3834086945858,2169.1488508998973,4665.2664362059904,0.0
513296.95196600363,3645566.251970998,-7500.0,-6072.2943517716831,-32.681368477602469,-268.15864445290953,-727.21722223147287,-4.9535590535342662,-63.339852157174548,3091.3286508151259,-3759.3442872149453,1837.9654582417552,-1837.9654582417552,3759.3442872149453,6042.2305985664434,0.0
518296.95196600363,3645566.251970998,-7500.0,-7054.3170273763371,-66.172271169007985,-287.73688038758189,-881.08020874914848,-10.110096266996477,-80.019059892186348,3597.067115700253,-4391.2965812199582,2149.6368262838819,-2149.6368262838819,4391.2965812199582,7041.1393120869698,0.0
523296.95196600363,3645566.251970998,-7500.0,-8253.9812257417489,-115.12864099301777,-307.5498223485497,-1076.6812987220394,-17.980733175374457,-102.04116975540997,4216.6288119086148,-5169.5408605761386,2532.5267752713735,-2532.5267752713735,5169.5408605761386,8266.7725174362968,0.0
528296.95196600363,3645566.251970998,-7500.0,-9733.1125886056197,-186.91367076361439,-326.87413366271062,-1327.8450733915647,-29.997252867184514,-131.39076327590624,4983.0036237597069,-6137.7731409083262,3007.1243686410016,-3007.1243686410016,6137.7731409083262,9785.2606556219725,0.0
533296.95196600363,3645566.251970998,-7500.0,-11575.056287996464,-292.83300051860454,-344.6384857915109,-1653.7489748670694,-48.412883777801696,-170.85238840559316,5940.9681684009283,-7355.8310251763305,3600.9708653849157,-3600.9708653849157,7355.8310251763305,11686.450189759602,0.0
538296.95196600363,3645566.251970998,-7500.0,-13893.546974824314,-450.55157566857878,-359.36199015859546,-2081.222874004518,-76.819634446437036,-224.30996195568224,7152.1142595356487,-8906.8512399560859,4351.4200614995643,-4351.4200614995643,8906.8512399560859,14094.019344079459,0.0
543296.95196600363,3645566.251970998,-7500.0,-16845.776401332234,-688.20759300908003,-369.2139457583271,-2648.0424024426111,-121.01546717731284,-297.07484130222349,8702.371639833349,-10908.145792811449,5309.5340188475784,-5309.5340188475784,10908.145792811449,17180.574142367772,0.0
548296.95196600363,3645566.251970998,-7500.0,-20651.890682247471,-1051.5899599661511,-372.46866036084225,-3407.5207979615279,-190.46066168847022,-396.05592584831692,10713.44542281294,-13528.033153811817,6545.5134035333776,-6545.5134035333776,13528.033153811817,21190.496027181398,0.0
553296.95196600363,3645566.251970998,-7500.0,-25624.47144478203,-1616.9993066095597,-369.09339636855555,-4434.5140147231878,-300.6946491331276,-529.14040135848848,13360.527455294781,-17012.410821888956,8156.0275389559511,-8156.0275389559511,17012.410821888956,26475.040009878408,0.0
558296.95196600363,3645566.251970998,-7500.0,-32213.799435926085,-2515.0117955549499,-365.4579742291927,-5832.0724211032821,-477.18681197110902,-701.83924120309462,16900.386609708832,-21727.693322381343,10273.359806262761,-10273.359806262761,21727.693322381343,33547.205572097839,0.0
563296.95196600363,3645566.251970998,-7500.0,-41078.865828348193,-3975.9723454890755,-387.61709564988507,-7735.0952082418735,-760.78367509657505,-905.4244823813649,21717.731279199048,-28232.266799049474,13074.524975816328,-13074.524975816328,28232.266799049474,43169.806069356135,0.0
568296.95196600363,3645566.251970998,-7500.0,-53202.813226184619,-6421.0070841831239,-518.68763726815212,-10299.196778824606,-1212.6181118114662,-1079.7005300629601,28408.158143954533,-37400.350192949285,16782.620548412866,-16782.620548412866,37400.350192949285,56503.938249303734,0.0
573296.95196600363,3645566.251970998,-7500.0,-70092.386384497528,-10654.80963936592,-1006.942182457134,-13642.78157235949,-1906.1554396730899,-1002.0784777160244,37947.686677750884,-50649.64321874809,21633.275151013928,-21633.275151013928,50649.64321874809,75385.58412308454,0.0
578296.95196600363,3645566.251970998,-7500.0,-94151.029030955251,-18305.728314325923,-2595.3691254437958,-17671.320675185216,-2855.8833815038302,28.653433235317362,52084.051936233685,-70390.902813545879,27709.531197708293,-27709.531197708293,70390.902813545879,102937.66304091348,0.0
583296.95196600363,3645566.251970998,-7500.0,-129374.12792280532,-32915.038356585843,-7606.7335948263371,-21693.576221325857,-3708.4155328749839,4018.0746834254082,74386.325637489761,-100937.21015115498,34258.350108996827,-34258.350108996827,100937.21015115498,145193.82610045103,0.0
588296.95196600363,3645566.251970998,-7500.0,-181883.65224615563,-62633.00949198693,-23835.843847985801,-24052.286165444017,-2720.8090371097087,15936.857917300829,112973.58572177422,-149740.45768262676,36712.840903996599,-36712.840903996599,149740.45768262676,215344.82427521917,0.0
593296.95196600363,3645566.251970998,-7500.0,-252362.81106544007,-123392.42500202793,-78537.07931658045,-23769.98639858505,5541.8745434254806,44104.619668031846,183170.58889273164,-221599.9403560386,13515.200853401271,-13515.200853401271,221599.9403560386,337696.46125027357,0.0
598296.95196600363,3645566.251970998,-7500.0,-278213.35473507928,-195539.11179389866,-239453.10067052281,-31228.285892953667,28440.580546946781,84060.491554599561,275332.32333302574,-249109.49709522267,-104054.98207077911,104054.98207077911,249109.49709522267,488632.50074667879,0.0
603296.95196600363,3645566.251970998,-7500.0,-182396.33707548276,53252.82636105032,-214591.20846125967,-91152.571495233788,377.19342398875381,65750.745155759883,180525.00185464619,-30544.053496398948,-90848.686661089814,90848.686661089814,30544.053496398948,322547.57602895593,0.0
608296.95196600363,3645566.251970998,-7500.0,-678368.49756617378,-2828.2143074991222,1219046.0767836154,-5623.44845867412,-220402.04046689396,-56252.731135998591,967248.1314158102,-701087.81588889717,1124383.2587754726,-1124383.2587754726,701087.81588889717,1718327.2726319369,0.0
613296.95196600363,3645566.251970998,-7500.0,-2179732.0873254165,-1336818.3639079593,1373592.1157756478,358785.68093119987,102654.42605560466,-126132.09863399083,2250697.4121444123,-2555669.4357109498,1596959.1720510407,-1596959.1720510407,2555669.4357109498,3914757.2804615619,0.0
618296.95196600363,3645566.251970998,-7500.0,-11005683.328016637,-8360945.3792489003,15630456.635737669,544784.80512517039,-237637.34951004066,1038115.9186702772,15736496.641672356,-15928224.328532403,14285254.499209495,-14285254.499209495,15928224.328532403,27285760.735570006,1.0
623296.95196600363,3645566.251970998,-7500.0,-3327597.6758346022,-180589.622945332,-1101264.9946268792,-234253.90472851566,-90524.333766444804,-32282.4193623805,1674718.9773287475,-1952299.4088843628,287343.41228955949,-287343.41228955949,1952299.4088843628,2960783.3883932638,1.0
628296.95196600363,3645566.251970998,-7500.0,-918916.19461035437,102244.5926532884,-62737.232104571973,-15915.713789422349,8648.145534076546,147858.9535448653,539783.69568398315,-493141.77165994165,273505.41153400193,-273505.41153400193,493141.77165994165,995011.23826060793,0.0
633296.95196600363,3645566.251970998,-7500.0,-350458.09824371821,70496.651932840337,-14562.705969964158,15731.71222292872,-730.91039090872948,56155.614251308216,211029.56761534492,-169390.98129802122,114629.37167147662,-114629.37167147662,169390.98129802122,396527.61578096525,0.0
638296.95196600363,3645566.251970998,-7500.0,-186171.82975671688,42930.504691269307,-4394.8042531690098,21169.098251257405,-3790.4113174964323,16618.228534624752,108392.67421013328,-87119.834283646167,63948.955940536391,-63948.955940536391,87119.834283646167,210287.18377531951,0.0
643296.95196600363,3645566.251970998,-7500.0,-118801.140740581,27451.293521838841,-1600.9859262440059,19551.999662165053,-3683.0220677654393,3575.5234702953439,67343.545781772875,-55827.73422230615,41699.081438525398,-41699.081438525398,55827.73422230615,133482.64612225298,0.0
648296.95196600363,3645566.251970998,-7500.0,-83099.530624327585,18329.052010005373,-857.59148141197602,15780.733794363008,-2880.2518343054749,-162.83212949871717,46614.416240906663,-39685.869562810585,29265.813473624494,-29265.813473624494,39685.869562810585,92742.666948887563,0.0
653296.95196600363,3645566.251970998,-7500.0,-61009.3475801889,12663.908002045184,-683.54521843204202,12064.77724404802,-2112.0183071637107,-997.83932355160937,33937.066274987497,-29647.433183874153,21360.157671241333,-21360.157671241333,29647.433183874153,67464.978164919215,0.0
658296.95196600363,3645566.251970998,-7500.0,-46155.53159235062,9002.7763693645011,-650.08215229608777,9056.5057289122597,-1522.6753840913468,-1005.3702280518778,25381.663206972491,-22780.734042885524,15998.908513370072,-15998.908513370072,22780.734042885524,50506.148842392977,0.0
663296.95196600363,3645566.251970998,-7500.0,-35691.602711408646,6560.0748688941721,-637.82703116565904,6788.4441181741058,-1099.6971329399696,-821.62798327488906,19389.231006160564,-17850.804701844187,12228.643775940613,-12228.643775940613,17850.804701844187,38643.741068011725,0.0
668296.95196600363,3645566.251970998,-7500.0,-28095.967847119158,4885.4590394203269,-618.44529788483737,5121.5368582076908,-801.92252281766764,-629.28096868902583,15100.37401752509,-14209.564391710244,9510.2955109940685,-9510.2955109940685,14209.564391710244,30115.434815255343,0.0
673296.95196600363,3645566.251970998,-7500.0,-22458.142876746799,3709.6250643484505,-589.12586555061159,3903.135494244219,-592.37062533759376,-471.91087795261973,11975.602929481473,-11465.914898076284,7510.9109949912281,-7510.9109949912281,11465.914898076284,23851.018515647425,0.0
678296.95196600363,3645566.251970998,-7500.0,-18196.17018030657,2866.1420023636433,-553.00499655969645,3009.0124235344165,-443.72646031697025,-352.63442322436242,9643.13031772676,-9365.000586874994,6014.6666935183684,-6014.6666935183684,9365.000586874994,19163.873667236545,0.0
683296.95196600363,3645566.251970998,-7500.0,-14922.676467612668,2249.2656342728951,-513.62237295602699,2347.2696485945371,-337.05307633166143,-264.63087776149951,7867.1628165788588,-7733.5261507192254,4877.3823612553815,-4877.3823612553815,7733.5261507192254,15598.653628111133,0.0
688296.95196600363,3645566.251970998,-7500.0,-12372.482914940427,1790.1474108910763,-473.63790789099528,1852.3322906120634,-259.49125108465353,-200.15985685749899,6493.4132536034858,-6450.4713418244337,4000.5695916378049,-4000.5695916378049,6450.4713418244337,12846.037164009795,0.0
693296.95196600363,3645566.251970998,-7500.0,-10360.108738142235,1442.9620442748901,-434.76804148320429,1477.9600807162051,-202.33453434758539,-152.83509154812066,5415.9991458118157,-5429.6814391312118,3315.6999068484429,-3315.6999068484429,5429.6814391312118,10691.70187062516,0.0
698296.95196600363,3645566.251970998,-7500.0,-8753.4364560667018,1176.5858780859119,-398.00426978575882,1191.5559751304193,-159.65590784828359,-117.8744303651803,4560.3975515515931,-4608.8389601429826,2774.2959128846273,-2774.2959128846273,4608.8389601429826,8984.5019651051898,0.0
703296.95196600363,3645566.251970998,-7500.0,-7456.8620900260357,969.48661496264879,-363.84409705713085,970.01798494340176,-127.38226434487017,-91.827693735892908,3873.1917168662694,-3942.2454790452521,2341.5475721005096,-2341.5475721005096,3942.2454790452521,7616.1348926027949,0.0
708296.95196600363,3645566.251970998,-7500.0,-6400.1856097948785,806.50954220637539,-332.46877597607613,796.83430826294591,-102.68232679872209,-72.238605876141193,3315.4794377826943,-3395.954029657617,1992.1014291826586,-1992.1014291826586,3395.954029657617,6507.8221357698521,0.0
713296.95196600363,3645566.251970998,-7500.0,-5531.1807437179095,676.81994790830117,-303.86794179936504,660.08836842383948,-83.56409937659555,-57.362627884490045,2858.5282791796499,-2944.4516887456521,1707.2501588153789,-1707.2501588153789,2944.4516887456521,5601.471141246463,0.0
718296.95196600363,3645566.251970998,-7500.0,-4810.5166302763901,572.55765181893946,-277.92152693907491,551.09069053588587,-68.608741883860176,-45.95653472236252,2480.8403137229102,-2568.3527806422439,1473.0207209931891,-1473.0207209931891,2568.3527806422439,4853.6914442744028,0.0
513296.95196600363,3650566.251970998,-7500.0,-5945.3750095393771,405.39748809483319,-271.60099500372604,-713.67211110560561,50.10179406354932,-62.303208433838336,3041.2920771853446,-3389.9852808789387,1840.5109673577495,-1840.5109673577495,3389.9852808789387,5954.1230303125985,0.0
518296.95196600363,3650566.251970998,-7500.0,-6905.8177450838175,473.65280734383833,-290.21296991085524,-864.60125359810741,60.151878503126866,-78.700858196925964,3538.2219980468412,-3941.4901867064823,2156.7244643508243,-2156.7244643508243,3941.4901867064823,6938.0650130494805,0.0
523296.95196600363,3650566.251970998,-7500.0,-8080.000695722033,557.08850744670804,-308.00046481253861,-1056.5725492780916,72.715001521365309,-100.35526554132568,4147.2047885505408,-4616.8550343630241,2546.9622821367575,-2546.9622821367575,4616.8550343630241,8145.9722894269098,0.0
528296.95196600363,3650566.251970998,-7500.0,-9529.3743212369882,659.8479405677183,-323.45285816023033,-1303.267949708792,88.525344809812694,-129.22281299250122,4900.9223823635202,-5452.1227432832484,3033.4194518301456,-3033.4194518301456,5452.1227432832484,9643.6513835070346,0.0
533296.95196600363,3650566.251970998,-7500.0,-11337.310627152019,787.37121705345055,-334.11982801470754,-1623.7335992008116,108.5478623510821,-168.05025109597068,5843.8870392232566,-6496.4040948142019,3646.4839128674039,-3646.4839128674039,6496.4040948142019,11520.842969439484,0.0
538296.95196600363,3650566.251970998,-7500.0,-13618.55549589297,946.81145659348294,-336.06398744627165,-2044.7361079243572,134.04256820002863,-220.66915533302648,7037.6091843518998,-7817.638844953548,4428.3582560369305,-4428.3582560369305,7817.638844953548,13901.680574784046,0.0
543296.95196600363,3650566.251970998,-7500.0,-16533.540213919274,1147.5454164157145,-322.98848887146949,-2604.1835193443922,166.62982401926635,-292.3108251967879,8568.4451563050188,-9511.4072739297008,5438.5624008641344,-5438.5624008641344,9511.4072739297008,16960.525450396384,0.0
548296.95196600363,3650566.251970998,-7500.0,-20310.552765621331,1401.7110450249729,-284.85110103621389,-3355.9870819508897,208.32838088384821,-389.7354959933723,10559.78342261619,-11714.756073904595,6762.4560184090142,-6762.4560184090142,11714.756073904595,20946.404843775308,0.0
553296.95196600363,3650566.251970998,-7500.0,-25281.061578095614,1724.5339764282494,-205.69161273865961,-4376.6026338910051,261.49881377794208,-520.46838376553058,13191.506591761277,-14628.567865846881,8524.7328227744601,-8524.7328227744601,14628.567865846881,26221.580203459096,0.0
558296.95196600363,3650566.251970998,-7500.0,-31938.18934186528,2133.683250772574,-60.367653595854783,-5772.6625396363361,328.54746725919074,-688.92083664412166,16732.34920611182,-18555.298171175702,10911.385148921605,-10911.385148921605,18555.298171175702,33324.258877736262,0.0
563296.95196600363,3650566.251970998,-7500.0,-41038.979605986562,2645.4059610026607,189.82078997332809,-7686.0796657695319,411.14803410578531,-882.58032140921546,21596.665144668361,-23966.481880973486,14206.839300842817,-14206.839300842817,23966.481880973486,43075.275077090802,0.0
568296.95196600363,3650566.251970998,-7500.0,-53798.72498066775,3260.5875615312116,600.91105283460615,-10283.550470574877,508.84661517090569,-1027.3682779878734,28445.243456640535,-31634.340709294847,18860.46621495649,-18860.46621495649,31634.340709294847,56774.282826066745,0.0
573296.95196600363,3650566.251970998,-7500.0,-72307.843882922971,3918.2783407237789,1240.2909194448341,-13690.498342457007,618.61031484226089,-847.6836753108081,38385.816819043393,-42921.870074491337,25617.086956348721,-25617.086956348721,42921.870074491337,76613.426500073125,0.0
578296.95196600363,3650566.251970998,-7500.0,-100578.61571484005,4333.9713784099386,2131.0474396476934,-17761.685709365524,746.98532773515183,566.50478563388742,53692.270268581342,-60531.785475980432,35809.870695293153,-35809.870695293153,60531.785475980432,106749.63874749653,0.0
583296.95196600363,3650566.251970998,-7500.0,-147644.73161374516,3366.8137260664148,2972.6633840278482,-21448.035959632136,996.28856586975928,6057.9629853328242,79850.813463063416,-90800.04856131089,52126.644726097584,-52126.644726097584,90800.04856131089,156770.07799505527,0.0
588296.95196600363,3650566.251970998,-7500.0,-237994.69341807882,-3910.3026851846794,1764.868216002772,-21392.508389419821,2020.1361982121666,23892.174658246375,132821.17111705182,-151845.82330609142,80781.510512890789,-80781.510512890789,151845.82330609142,254382.64656951843,0.0
593296.95196600363,3650566.251970998,-7500.0,-448381.47655294067,-42686.831565825763,-13743.344842220549,-8683.9652731214683,7494.2285240745214,74024.368071079516,263805.60442547128,-305544.32883358008,135788.82953614893,-135788.82953614893,305544.32883358008,490532.25443559908,0.0
598296.95196600363,3650566.251970998,-7500.0,-1008617.0620278151,-266116.7699466389,-151757.21136673391,57213.132638591305,45161.956903370599,179595.36697247083,637116.24369012029,-772346.48042974481,198023.51841148414,-198023.51841148414,772346.48042974481,1164611.2209970979,0.0
603296.95196600363,3650566.251970998,-7500.0,-1513769.6590812486,-931702.33766439324,-1512862.155176885,293581.47487479309,332709.95315137552,196130.50725196546,1393296.8266615889,-1220768.3852749127,-706272.09900808102,706272.09900808102,1220768.3852749127,2473271.7976978393,1.0
608296.95196600363,3650566.251970998,-7500.0,-1494913.6541304023,98699.673917301378,8199538.9312801957,-279083.07148342539,-3616040.8674457357,755228.33236186323,5613360.134724021,-2718941.4524317058,6545553.8467365885,-6545553.8467365885,2718941.4524317058,10803786.221322214,1.0
613296.95196600363,3650566.251970998,-7500.0,-3380652.3655948667,301026.77109702257,-899258.75034999952,587270.68912422366,45831.456714499509,-388791.47920216364,1631144.2053660601,-1713103.1606415845,506217.02780859359,-506217.02780859359,1713103.1606415845,2999562.4415983008,1.0
618296.95196600363,3650566.251970998,-7500.0,-1136907.301149162,579168.87345912412,1706765.4988872996,150995.64657540273,241351.82373087583,49611.728283882643,1558868.3376820374,-713687.02113239875,1700545.5636207606,-1700545.5636207606,713687.02113239875,2714717.5592333889,0.0
623296.95196600363,3650566.251970998,-7500.0,-661175.59477017878,-163915.62960938748,-478900.13918120507,34664.438555067078,-43322.794584865012,147175.56853932122,455266.88426111144,-413781.56581844995,-148204.61080584431,148204.61080584431,413781.56581844995,793192.17895131849,0.0
628296.95196600363,3650566.251970998,-7500.0,-538695.1424174353,-177407.31370000748,-167193.40103099484,18289.106172640062,-21771.552577834547,120269.16863991904,366804.24058363651,-416366.97908535542,38543.580585545744,-38543.580585545744,416366.97908535542,651372.90288483549,0.0
633296.95196600363,3650566.251970998,-7500.0,-321924.86369162169,-61755.683116821645,-32307.859373031177,23680.359912292621,-4041.6490563544639,49138.728885666009,193673.7141786936,-234847.08020653465,77594.998939315308,-77594.998939315308,234847.08020653465,356752.64419846574,0.0
638296.95196600363,3650566.251970998,-7500.0,-196720.77056142627,-20561.892814289833,-5010.0836391605662,25250.267620010865,307.44617348902483,14972.003871022453,109983.31864902371,-135493.48524456329,60125.906327680794,-60125.906327680794,135493.48524456329,210153.36529925943,0.0
643296.95196600363,3650566.251970998,-7500.0,-130431.14612777984,-7070.6260814279549,223.33007991131285,22054.200345400604,732.10908596466822,3076.3506867837273,70502.917674299359,-86303.101515141418,43187.899220307649,-43187.899220307649,86303.101515141418,138066.08657453369,0.0
648296.95196600363,3650566.251970998,-7500.0,-91769.763722634991,-2176.4641787502314,887.20882775448831,17399.133409621278,440.87021858482541,-387.34017373089296,48918.010568826779,-59039.141174072436,31228.287062747557,-31228.287062747557,59039.141174072436,96911.437943859302,0.0
653296.95196600363,3650566.251970998,-7500.0,-67109.749238081698,-264.91225201206106,638.62420620474177,13136.069135443717,172.33052265047186,-1128.6249065013953,35519.495585125718,-42296.266392942729,22973.689386510952,-22973.689386510952,42296.266392942729,70648.46485834317,0.0
658296.95196600363,3650566.251970998,-7500.0,-50440.058673575542,484.26885163178378,299.14099628052776,9776.8403714698361,16.408441160264161,-1089.338822369157,26555.297308953039,-31298.198106592332,17208.485847069926,-17208.485847069926,31298.198106592332,52852.701768298532,0.0
663296.95196600363,3650566.251970998,-7500.0,-38739.323196138008,746.6228768456449,36.728367540100948,7280.1635363724781,-58.506258325104355,-877.24586714834868,20296.616806004491,-23746.982700563527,13115.356076197026,-13115.356076197026,23746.982700563527,40369.074316548416,0.0
668296.95196600363,3650566.251970998,-7500.0,-30300.384616646123,799.55091083246919,-136.72389014370697,5462.5532949523285,-87.818015735352816,-666.65218777261475,15805.456839720784,-18394.344032590787,10160.055435269158,-10160.055435269158,18394.344032590787,31394.300781103644,0.0
673296.95196600363,3650566.251970998,-7500.0,-24080.402880326019,764.31190143765468,-241.39237205937698,4143.518926936139,-94.07909584511502,-497.32429120671929,12511.896187642707,-14503.384108080105,7990.7977395242542,-7990.7977395242542,14503.384108080105,24810.241381756594,0.0
678296.95196600363,3650566.251970998,-7500.0,-19410.118914220235,695.62618383912661,-298.71873232299947,3181.2296439991933,-89.689873727941219,-370.13680127973407,10050.588029814193,-11614.520758155151,6373.0550685503331,-6373.0550685503331,11614.520758155151,19892.770156114453,0.0
683296.95196600363,3650566.251970998,-7500.0,-15845.440438438516,618.30044652439722,-325.13895914698202,2472.6080631554241,-81.029032802138786,-276.84876737372167,8180.0234398449047,-9429.8904534884587,5148.3274676084329,-5148.3274676084329,9429.8904534884587,16159.81199229943,0.0
688296.95196600363,3650566.251970998,-7500.0,-13084.183801500332,543.25816521153297,-332.05357025942686,1944.9332172879792,-71.223056078081967,-208.80795388369648,6736.6628873802392,-7750.6943989374586,4207.9554456016986,-4207.9554456016986,7750.6943989374586,13283.544752791891,0.0
693296.95196600363,3650566.251970998,-7500.0,-10916.426553937094,474.8835618724512,-327.04374114309394,1547.3498855433802,-61.714554675068975,-159.04149850928263,5607.4647917294851,-6441.0216036097981,3476.3551793257038,-3476.3551793257038,6441.0216036097981,11036.898904390846,0.0
698296.95196600363,3650566.251970998,-7500.0,-9193.6912744757483,414.49380074626737,-315.04506439062948,1244.2476399040909,-53.09823336281346,-122.38894634284861,4712.8621189662663,-5406.0164308434187,2900.1861322188661,-2900.1861322188661,5406.0164308434187,9259.9314567649726,0.0
703296.95196600363,3650566.251970998,-7500.0,-7809.2301202480776,362.01026411625656,-299.22741813317521,1010.5272102194422,-45.554359145072269,-95.154165358462535,3995.9122015435464,-4578.2448250943262,2441.2660048827775,-2441.2660048827775,4578.2448250943262,7838.1919330103392,0.0
708296.95196600363,3650566.251970998,-7500.0,-6685.1667000051802,316.76947499947858,-281.602797327926,828.33877289391751,-39.070215265011477,-74.720046133882349,3415.2502459474881,-3908.979118051082,2071.8945781010761,-2071.8945781010761,3908.979118051082,6688.5918966641029,0.0
713296.95196600363,3650566.251970998,-7500.0,-5763.8835774093086,277.9128620932683,-263.42883514867555,684.85362725207619,-33.551421269682052,-59.235373671976262,2940.3929414400268,-3362.462587200298,1771.7075338672903,-1771.7075338672903,3362.462587200298,5749.9575196278392,0.0
718296.95196600363,3650566.251970998,-7500.0,-5002.2182366480811,244.56942736839576,-245.47451414712563,570.75301264883717,-28.876792020368409,-47.385463400193402,2548.5870905806328,-2912.0985073985803,1525.5520898896448,-1525.5520898896448,2912.0985073985803,4976.6786302030723,0.0
513296.95196600363,3655566.251970998,-7500.0,-5656.2643422491483,817.13309132711788,-328.90182060084226,-682.43291163592914,102.17939540240467,-59.906866944339349,2941.5197944420897,-2924.4200738852624,1746.1046492646865,-1746.1046492646865,2924.4200738852624,5772.1546017747414,0.0
518296.95196600363,3655566.251970998,-7500.0,-6547.9553134800244,979.77355328097224,-363.24028667989239,-824.41096655649062,126.47540615814606,-75.489026265833772,3415.3923164347912,-3367.0665420060327,2037.9387304994993,-2037.9387304994993,3367.0665420060327,6714.1624460845169,0.0
523296.95196600363,3655566.251970998,-7500.0,-7632.2303339337341,1185.7266309469633,-402.1545333395386,-1004.2468181534229,158.14157432653826,-95.995639864300841,3994.4102008150116,-3900.5506510197638,2395.7831682699907,-2395.7831682699907,3900.5506510197638,7867.6353229645583,0.0
528296.95196600363,3655566.251970998,-7500.0,-8962.4280230477743,1449.6311099688407,-446.39286825403957,-1234.256320121189,199.91251224788971,-123.22550181328282,4708.6787012275026,-4548.4034638583644,2838.5899595852834,-2838.5899595852834,4548.4034638583644,9293.7478259210566,0.0
533296.95196600363,3655566.251970998,-7500.0,-10610.029753956012,1792.2012642118405,-496.89285595497478,-1531.4292997551722,255.72214502786554,-159.68339077407762,5598.9740294118483,-5341.4510339417229,3391.9248567687032,-3391.9248567687032,5341.4510339417229,11075.53422128883,0.0
538296.95196600363,3655566.251970998,-7500.0,-12672.011684823507,2243.253670044051,-554.89787201483932,-1919.3842878271657,331.30340582078014,-208.82630321006812,6721.3095975767719,-6320.3887149052143,4090.6796385974658,-4090.6796385974658,6320.3887149052143,13327.248640570024,0.0
543296.95196600363,3655566.251970998,-7500.0,-15281.674999452836,2846.5212046747533,-622.20374889495372,-2431.1252160956219,435.11271318358087,-275.3034733027954,8153.8899495391097,-7539.3219705433394,4983.0510690598685,-4983.0510690598685,7539.3219705433394,16208.421864528074,0.0
548296.95196600363,3655566.251970998,-7500.0,-18624.89056133433,3667.4857479307348,-701.70350324559149,-3112.7899724369572,579.74683723397948,-364.97703025762723,10008.495167179064,-9070.6339272437108,6136.4471127221395,-6136.4471127221395,9070.6339272437108,19945.357584079811,0.0
553296.95196600363,3655566.251970998,-7500.0,-22965.031564399967,4806.477618902888,-798.63847622240746,-4028.3137492319042,784.06250655426368,-484.02879292857574,12457.532449271066,-11011.651206105485,7646.3638433356182,-7646.3638433356182,11011.651206105485,24864.726059902907,0.0
558296.95196600363,3655566.251970998,-7500.0,-28682.558851515627,6421.2827406993756,-923.57668135091205,-5263.8967841711383,1076.1298612379185,-635.0386068879393,15782.699609608666,-13493.809106099972,9649.9463811147943,-9649.9463811147943,13493.809106099972,31447.614841420702,0.0
563296.95196600363,3655566.251970998,-7500.0,-36341.489766074148,8767.7344788167829,-1099.7711769449259,-6927.9049614081168,1496.5307974618761,-803.69818709319441,20343.11449529379,-16695.77237861239,12347.311503661882,-12347.311503661882,16695.77237861239,40420.61884410178,0.0
568296.95196600363,3655566.251970998,-7500.0,-46812.211033581443,12276.634684058514,-1382.134570333078,-9132.4360242819112,2098.8477935472993,-917.1496918061689,26706.613042998124,-20865.197471068601,16037.19663131089,-16037.19663131089,20865.197471068601,52922.578205065853,0.0
573296.95196600363,3655566.251970998,-7500.0,-61535.406033510983,17711.709348962489,-1908.7480640164329,-11917.791201912894,2934.224265657283,-716.66729276964895,35820.152572743631,-26367.931294520291,21184.87360447587,-21184.87360447587,26367.931294520291,70858.192125557965,0.0
578296.95196600363,3655566.251970998,-7500.0,-83210.277681300518,26537.722568995046,-3049.8417774421632,-15022.78388083447,3971.7259545683482,625.49225071564149,49418.517624644599,-33841.893895534136,28583.687311918191,-28583.687311918191,33841.893895534136,97831.222150787566,0.0
583296.95196600363,3655566.251970998,-7500.0,-117949.59772443025,41959.607948550583,-5875.9577249083013,-17306.983927740097,4788.0404838164532,5612.0434836965751,71570.471576801516,-44753.522415508989,39847.304068299774,-39847.304068299774,44753.522415508989,142229.30161157367,0.0
588296.95196600363,3655566.251970998,-7500.0,-182911.27272753231,72688.794799632553,-13822.457462897917,-15601.739419866331,3492.5705351286506,21177.846324888127,116841.11543534428,-63309.679051255742,59157.427882038355,-59157.427882038355,63309.679051255742,228805.65606664534,0.0
593296.95196600363,3655566.251970998,-7500.0,-335053.33949416573,150966.18420350991,-40158.989302108974,-1967.7151986061438,-6786.0317577982278,62342.075828961119,231101.26024177033,-100861.8836325578,99384.919892413905,-99384.919892413905,100861.8836325578,442965.30770849972,0.0
598296.95196600363,3655566.251970998,-7500.0,-784370.52656106849,455006.57603941753,-165307.61129228797,71285.096184864058,-55660.030027851142,135559.22796297874,588919.72114496212,-152980.0217952113,191267.82703087846,-191267.82703087846,152980.0217952113,1142649.1215597664,0.0
603296.95196600363,3655566.251970998,-7500.0,-1281117.6540513721,2844219.9608559185,-2085906.5603628913,677599.9724957837,-583966.15222684981,-123076.36995361424,2964666.0954876086,1546624.7050183483,-794934.58267949079,794934.58267949079,-1546624.7050183483,5439665.4036900075,0.0
608296.95196600363,3655566.251970998,-7500.0,3091534.2116980869,-359268.0331005613,5175052.4728485206,-209633.46615479392,2014083.6968365752,689099.45666380948,3044192.1629447741,529605.35096206469,2730467.0295408135,-2730467.0295408135,-529605.35096206469,5273226.367499222,1.0
613296.95196600363,3655566.251970998,-7500.0,-1192869.3380269443,-1036730.2422803179,424197.91351260524,-495890.51624280208,-319066.0882491045,34646.61807039626,1407539.7948952245,-1526191.0720025857,599756.90201395773,-599756.90201395773,1526191.0720025857,2530669.1939513143,1.0
618296.95196600363,3655566.251970998,-7500.0,-583244.91625185229,-149798.1501171276,367773.54007109592,-11540.217430671537,-5461.5892292661511,33274.832563249474,498681.98931099346,-546643.89534273546,450113.65086002933,-450113.65086002933,546643.89534273546,875224.83922503062,0.0
623296.95196600363,3655566.251970998,-7500.0,-247332.62620315084,-46236.258694695985,-100040.64860052783,43587.712418146024,-17440.44379562209,56123.449541057555,165380.62442678382,-162670.38667520945,4404.6296921500907,-4404.6296921500907,162670.38667520945,286547.41174092802,0.0
628296.95196600363,3655566.251970998,-7500.0,-205775.23747944698,-114676.0068772722,-136322.43856421101,30235.653276213561,-9670.0181690167792,50590.333049386354,174777.56081676841,-173674.38812879124,-43694.090233262847,43694.090233262847,173674.38812879124,308571.81046271831,0.0
633296.95196600363,3655566.251970998,-7500.0,-180348.28028401115,-89929.114453176066,-64370.658235131057,25781.76528807652,2094.3733194472525,25077.090589518626,130614.05572684252,-157658.6460677631,3401.8462315115758,-3401.8462315115758,157658.6460677631,241028.29737217227,0.0
638296.95196600363,3655566.251970998,-7500.0,-141654.97173940725,-55316.824562584166,-26047.120883431424,23911.949407476135,5660.5764164265947,8399.1067803372589,89891.341416745083,-119248.91054084641,22375.254745999868,-22375.254745999868,119248.91054084641,171829.2632780126,0.0
643296.95196600363,3655566.251970998,-7500.0,-107601.13766672369,-32903.94239102539,-10751.502944755486,20504.861845513373,5072.6586516989519,1444.2417019082422,63319.964163323355,-86601.65020185629,24635.305275223582,-24635.305275223582,86601.65020185629,123678.18440361085,0.0
648296.95196600363,3655566.251970998,-7500.0,-81596.265108772015,-19863.195863094192,-4773.3966080214641,16359.351962194069,3620.6397781137653,-764.31137553071221,46015.82365831123,-63074.852828956515,21722.105604478198,-21722.105604478198,63074.852828956515,90838.688087583258,0.0
653296.95196600363,3655566.251970998,-7500.0,-62355.495222091566,-12281.938182144382,-2360.898258185704,12546.361135852769,2388.4098068039725,-1204.1587423928029,34256.553404091705,-46579.005949683211,17862.224004645046,-17862.224004645046,46579.005949683211,67911.507759808883,0.0
658296.95196600363,3655566.251970998,-7500.0,-48174.888950780311,-7782.7130941690029,-1345.2793203796416,9468.928277320425,1535.7804856934238,-1098.2955228806306,26002.215235640371,-34967.88673998302,14338.036150183509,-14338.036150183509,34967.88673998302,51598.537155002065,0.0
663296.95196600363,3655566.251970998,-7500.0,-37674.158803139479,-5046.3204689535851,-895.49401972445219,7129.4911105804513,984.61408518988924,-874.79407088965445,20074.547565310913,-26694.664883884383,11441.165661503197,-11441.165661503197,26694.664883884383,39814.887971986813,0.0
668296.95196600363,3655566.251970998,-7500.0,-29831.501301560667,-3340.876168461069,-681.76143827900626,5395.1749107855794,635.64323567473286,-664.2808993205598,15740.301518920653,-20711.41808263633,9150.8508408758971,-9150.8508408758971,20711.41808263633,31180.721888237382,0.0
673296.95196600363,3655566.251970998,-7500.0,-23911.925140426414,-2252.9492547851564,-568.98650368827816,4118.8383190154373,414.84696000131879,-496.49906606950668,12520.006205791869,-16315.948047310638,7364.7186855821028,-7364.7186855821028,16315.948047310638,24763.445454228546,0.0
678296.95196600363,3655566.251970998,-7500.0,-19392.258973060132,-1543.7619007472335,-500.47323727442608,3177.6801283243622,273.98235526275806,-370.41604762156362,10091.120721771846,-13036.167188002528,5974.8197043481787,-5974.8197043481787,13036.167188002528,19925.893960501784,0.0
683296.95196600363,3655566.251970998,-7500.0,-15900.694404860784,-1072.1989656852331,-452.05352662491623,2478.9249997510033,183.01135479511538,-277.68512087726447,8232.8739804875986,-10551.802053312374,4889.4608528650833,-4889.4608528650833,10551.802053312374,16228.653148172887,0.0
688296.95196600363,3655566.251970998,-7500.0,-13171.979258516065,-752.94597530213821,-413.35403155784331,1955.3176491779786,123.46324049418944,-209.84265261623355,6791.9972028468446,-8642.9560632575522,4036.5017356604026,-4036.5017356604026,8642.9560632575522,13365.506864487505,0.0
693296.95196600363,3655566.251970998,-7500.0,-11015.527375067204,-533.28034597986846,-379.92720074335949,1558.8804709610533,83.9542339783724,-160.08114422743051,5660.6296561999716,-7156.6154760827876,3360.9635537597724,-3360.9635537597724,7156.6154760827876,11120.573357714682,0.0
698296.95196600363,3655566.251970998,-7500.0,-9293.1718575383493,-379.93688550728564,-349.8774261355166,1255.5123989627987,57.40332037199353,-123.34365015763183,4761.8458554847512,-5984.8241455283132,2821.4718238748537,-2821.4718238748537,5984.8241455283132,9339.7894399162687,0.0
703296.95196600363,3655566.251970998,-7500.0,-7903.7084681464285,-271.51286525769927,-322.39441650886312,1020.898841247061,39.350487635537526,-95.990934247504555,4040.0390208374947,-5050.3323617084125,2386.9726175095866,-2386.9726175095866,5050.3323617084125,7911.7964843995078,0.0
708296.95196600363,3655566.251970998,-7500.0,-6772.2573006197308,-193.98510259978582,-297.11668296997766,837.59299252315623,26.94750193841514,-75.434656870597024,3454.508774576545,-4297.1267150532822,2034.1170180048075,-2034.1170180048075,4297.1267150532822,6755.1289001378836,0.0
713296.95196600363,3655566.251970998,-7500.0,-5842.8088656865657,-138.00854538452549,-273.855802181287,692.9671875947115,18.349522897948987,-59.836767833090633,2975.0849644739178,-3684.0465092539198,1745.2553782319494,-1745.2553782319494,3684.0465092539198,5809.4461085019047,0.0
513296.95196600363,3660566.251970998,-7500.0,-5222.1007383856231,1174.6372020327346,-432.18093287130398,-635.26507301245294,148.13249117446307,-56.278219591900736,2796.3340846084507,-2393.5559941386555,1563.2626566934362,-1563.2626566934362,2393.5559941386555,5504.6354063992158,0.0
518296.95196600363,3660566.251970998,-7500.0,-6004.2168638079993,1414.241601063505,-495.90537948335623,-763.01507503175128,184.43455057514663,-70.571266368408772,3234.4661881463749,-2710.2292583708922,1805.0639500004656,-1805.0639500004656,2710.2292583708922,6380.7632411114282,0.0
523296.95196600363,3660566.251970998,-7500.0,-6943.3681139263836,1718.3264352303497,-574.65001475720294,-923.31924761657456,231.97177181482573,-89.243437759566348,3766.3886705212017,-3079.1751744977664,2095.559676388003,-2095.559676388003,3079.1751744977664,7447.4514195063402,0.0
528296.95196600363,3660566.251970998,-7500.0,-8078.5895447094335,2108.6411598549766,-673.68094401443602,-1126.1197571069758,294.95766569452383,-113.82708237845966,4417.7265224980601,-3509.265047630196,2446.3494048035172,-2446.3494048035172,3509.265047630196,8757.6431889518954,0.0
533296.95196600363,3660566.251970998,-7500.0,-9460.0868879992813,2615.8211884063735,-800.78747780400079,-1384.7872030294925,379.45378049981923,-146.41603540834836,5222.6574393856918,-4009.9224925729213,2871.8942727842859,-2871.8942727842859,4009.9224925729213,10382.219911078419,0.0
538296.95196600363,3660566.251970998,-7500.0,-11152.537394288742,3283.6704193452424,-967.81865179309921,-1717.3275930601133,494.2797561030946,-189.83068015337369,6227.5239889705408,-4590.0145557214637,3389.9609918190836,-3389.9609918190836,4590.0145557214637,12417.141527345959,0.0
543296.95196600363,3660566.251970998,-7500.0,-13239.08684767024,4175.8261135056,-1193.355306344102,-2147.8925295891186,652.39394464336453,-247.73951129636913,7506.8830903156959,-5255.3495327297987,4021.7234609465982,-4021.7234609465982,5255.3495327297987,14993.806165535414,0.0
548296.95196600363,3660566.251970998,-7500.0,-15825.742288447544,5386.2977757947065,-1507.5078176337151,-2708.4354448671361,872.95516203839759,-324.53407593766843,9189.7900178930577,-6003.3855679654862,4790.8550291655065,-4790.8550291655065,6003.3855679654862,18294.233836145821,0.0
553296.95196600363,3660566.251970998,-7500.0,-19045.023489083498,7056.4031696947195,-1960.8392494457044,-3439.8629920169069,1184.266324935496,-424.36115851125436,11386.699442444249,-6812.3222891200603,5720.033004250261,-5720.033004250261,6812.3222891200603,22573.513247166597,0.0
558296.95196600363,3660566.251970998,-7500.0,-23055.82188846184,9402.4246518384789,-2641.6162586373689,-4390.7413067640864,1627.4928843197238,-547.65065151405065,14287.87218305412,-7618.8653237126391,6821.2096626434659,-6821.2096626434659,7618.8653237126391,28193.437585384538,0.0
563296.95196600363,3660566.251970998,-7500.0,-28031.912713339887,12761.504139242856,-3710.6437758980364,-5608.3989517391992,2259.6378738382618,-680.59222524006589,18172.893169630479,-8272.8880570966339,8071.1216547036393,-8071.1216547036393,8272.8880570966339,35674.196611008381,0.0
568296.95196600363,3660566.251970998,-7500.0,-34121.366201411249,17669.190676394395,-5475.2342940817562,-7109.8828600120505,3149.1189337788701,-765.3606914643359,23454.783269298336,-8444.1704824435419,9351.6808619335407,-9351.6808619335407,8444.1704824435419,45778.886985105521,0.0
573296.95196600363,3660566.251970998,-7500.0,-41335.045779111868,24993.939075737766,-8556.118769731238,-8805.8917160193359,4340.2490179186061,-619.79082899808691,30765.482196833615,-7426.2272563931383,10304.373155107662,-10304.373155107662,7426.2272563931383,59672.632875393087,0.0
578296.95196600363,3660566.251970998,-7500.0,-49252.887723712236,36180.856342922118,-14294.448698140524,-10336.358322944367,5710.3712022928476,263.39213175102861,41153.245374617138,-3699.8970325728123,9958.7202053894289,-9958.7202053894289,3699.8970325728123,79299.757911327615,0.0
583296.95196600363,3660566.251970998,-7500.0,-56131.965865888094,53711.604354849173,-25850.873796567299,-10838.391917145678,6501.8893222275301,3120.3253163854965,56671.159309638271,6176.0128971901222,5674.2176124914431,-5674.2176124914431,-6176.0128971901222,108478.56793897583,0.0
588296.95196600363,3660566.251970998,-7500.0,-55089.144566246432,81705.421226740422,-51548.448231109593,-9180.1958851602394,4066.8161761459723,10085.605413349625,82362.908684899245,31103.086166845293,-10535.510594943431,10535.510594943431,-31103.086166845293,156074.63955256477,0.0
593296.95196600363,3660566.251970998,-7500.0,-12247.757808616472,120959.97711481345,-115162.06710036684,-7172.8740216081915,-8093.5291063559353,19794.434665126875,132557.69066033131,98159.186491905362,-67450.573497426085,67450.573497426085,-98159.186491905362,243229.25699507332,0.0
598296.95196600363,3660566.251970998,-7500.0,243971.03408444108,74048.228439782484,-247914.09427877166,-24328.882944673693,-31952.713854622871,504.22541612404621,259969.65788614258,257392.51923079198,-256258.72924661703,256258.72924661703,-257392.51923079198,450285.90451320581,0.0
603296.95196600363,3660566.251970998,-7500.0,731310.41739072301,-745484.54522107448,490045.44435922272,-130331.87681890102,94319.018745707479,-138055.76130784996,773070.15477571543,-145195.45106133522,33852.549486235061,-33852.549486235061,145195.45106133522,1532692.9829375255,1.0
608296.95196600363,3660566.251970998,-7500.0,276034.21598277619,240938.03261088536,2011216.5779849028,78716.250232731938,264699.74954109499,-238856.6869248416,1175331.6310851222,-121822.47265011969,1413318.822961078,-1413318.822961078,121822.47265011969,2138303.090637438,0.0
613296.95196600363,3660566.251970998,-7500.0,335807.05401062878,84638.2604039492,279052.86320388643,49181.325114933759,-66517.358130891429,-97112.380494698155,257100.05743188242,202994.35667261298,101779.79436872716,-101779.79436872716,-202994.35667261298,456170.22387220769,0.0
618296.95196600363,3660566.251970998,-7500.0,8304.5114518330702,-51584.238849250731,60068.794545960125,14118.03669098295,-39897.140851625547,-8517.5481288890551,69353.348293732794,-42404.140421128825,35791.96853144261,-35791.96853144261,42404.140421128825,131108.38289196408,1.0
623296.95196600363,3660566.251970998,-7500.0,-42231.827659387971,-37857.017419680698,-53451.747308032165,18695.731843461268,-11274.738476576138,14386.930356552128,56690.79269969523,-39353.60978337883,-29269.272411768827,29269.272411768827,39353.60978337883,98469.487284690913,0.0
628296.95196600363,3660566.251970998,-7500.0,-58435.35450498166,-62930.355444587476,-91819.167529918821,18605.440597238434,1290.1979270247825,15697.071890277002,81913.208970840278,-57388.952089853075,-54787.619264352528,54787.619264352528,57388.952089853075,148354.60450511059,0.0
633296.95196600363,3660566.251970998,-7500.0,-74948.979947522734,-68694.29818011148,-69399.245834908957,18361.158057737484,7775.6367868281104,8960.4304924972512,78648.505919107542,-76579.069499810372,-33374.893254572293,33374.893254572293,76579.069499810372,148173.58589500358,0.0
638296.95196600363,3660566.251970998,-7500.0,-77975.066470548089,-56350.75756925653,-41493.172573990574,17823.765974097787,9085.8906921722173,3015.3835637279653,64721.896951920229,-76616.320584209869,-10482.925756814417,10482.925756814417,76616.320584209869,125150.47079274312,0.0
643296.95196600363,3660566.251970998,-7500.0,-71114.812303927887,-41024.553502299357,-23278.953124032636,15992.896349934752,7683.9952226136738,12.408474983194431,50789.278917606534,-66315.104899882062,2283.4731239439243,-2283.4731239439243,66315.104899882062,99691.578185347273,0.0
648296.95196600363,3660566.251970998,-7500.0,-60659.227268586568,-28571.208971326912,-13103.594318699295,13358.417874061994,5676.3155970539619,-1025.1481639945116,39372.622237404466,-53848.702733435217,7615.2906340963709,-7615.2906340963709,53848.702733435217,77863.796757739547,0.0
653296.95196600363,3660566.251970998,-7500.0,-50114.287936162,-19671.822919958984,-7621.1380354429721,10664.269895732918,3951.9300950450033,-1178.6468544650729,30541.573740057094,-42614.261166843222,9077.3546799985052,-9077.3546799985052,42614.261166843222,60579.784476568173,0.0
658296.95196600363,3660566.251970998,-7500.0,-40851.063598434535,-13593.372741974144,-4646.1340983872778,8316.3800607079047,2690.426251452544,-1029.2041072775673,23842.935912917357,-33478.316032070274,8817.7785389376004,-8817.7785389376004,33478.316032070274,47311.424177373767,0.0
663296.95196600363,3660566.251970998,-7500.0,-33189.438771203204,-9493.171625825602,-2989.4956718089006,6426.6022316913431,1824.9858732733871,-817.33962112740653,18782.927208341021,-26352.806284745893,7910.587686737621,-7910.587686737621,26352.806284745893,37237.213991476019,0.0
668296.95196600363,3660566.251970998,-7500.0,-27024.476400641801,-6720.8127469300416,-2033.832101444274,4963.8539498114606,1245.3487945277366,-624.80149744400171,14949.509379982588,-20881.956236461494,6845.6069941863252,-6845.6069941863252,20881.956236461494,29594.094736390281,0.0
673296.95196600363,3660566.251970998,-7500.0,-22119.592229065933,-4828.4217809148095,-1459.6479258635627,3851.2182511668566,858.94688229947383,-471.03013531605239,12026.401449439925,-16694.168273009076,5827.2316507995547,-5827.2316507995547,16694.168273009076,23767.318700571042,0.0
678296.95196600363,3660566.251970998,-7500.0,-18227.400028308079,-3520.045143366407,-1099.2350761419088,3009.4776212433508,600.05320145380006,-354.34338456269069,9778.1660444188365,-13477.148807913498,4928.0119536649918,-4928.0119536649918,13477.148807913498,19290.172048265791,0.0
683296.95196600363,3660566.251970998,-7500.0,-15131.98045589146,-2602.5667706694294,-862.58778599489176,2371.8285062901905,424.8549880446148,-267.59519294113227,8032.1008670914807,-10988.652136496697,4162.6977073869039,-4162.6977073869039,10988.652136496697,15817.649773565618,0.0
688296.95196600363,3660566.251970998,-7500.0,-12658.163040624097,-1949.8604968581747,-700.12787108836324,1886.3033204921546,304.83126165365553,-203.49522105800651,6662.2062550772835,-9047.0274017292086,3522.6825485607874,-3522.6825485607874,9047.0274017292086,13097.291881030214,0.0
693296.95196600363,3660566.251970998,-7500.0,-10668.575902460745,-1478.9193415776429,-583.77021337815836,1513.9402786246221,221.51693489439421,-156.06799637466088,5576.4888306206121,-7517.8849208578085,2991.5433325962827,-2991.5433325962827,7517.8849208578085,10944.605554335454,0.0
698296.95196600363,3660566.251970998,-7500.0,-9057.146036685921,-1134.5061469419259,-497.13469202360903,1226.0011016425101,162.91249427730418,-120.79190092660698,4707.4660150064283,-6302.1050740372802,2551.7304973864711,-2551.7304973864711,6302.1050740372802,9224.266735997955,0.0
703296.95196600363,3660566.251970998,-7500.0,-7742.4439976775257,-879.39360962138858,-430.37874606656743,1001.4045487675602,121.1531269982481,-94.360589031577703,4005.2850512769151,-5326.3976910445408,2187.1980120874714,-2187.1980120874714,5326.3976910445408,7836.367777803036,0.0
708296.95196600363,3660566.251970998,-7500.0,-6661.9781840516689,-688.15545242434314,-377.40554476953167,824.67717402749543,91.026905024656983,-74.389832209237426,3432.8068358567507,-4536.2639657638283,1884.2176863146708,-1884.2176863146708,4536.2639657638283,6706.5493984169116,0.0
713296.95196600363,3660566.251970998,-7500.0,-5767.6603381192963,-543.1925557094944,-334.3212993027671,684.41626154552046,69.037808359117605,-59.16702647843023,2962.1164896038026,-3890.8846745156061,1631.4243440555335,-1631.4243440555335,3890.8846745156061,5778.9825582625235,0.0
513296.95196600363,3665566.251970998,-7500.0,-4671.1629418989005,1455.865965481044,-567.88011391422481,-575.09410479851636,185.429944734044,-51.628978717162767,2612.6505471734395,-1832.6909904951717,1309.0555293496623,-1309.0555293496623,1832.6909904951717,5164.8581034410072,0.0
518296.95196600363,3665566.251970998,-7500.0,-5313.8550103331399,1747.644983714905,-669.20001943209581,-684.61895772889693,230.53098611412236,-64.263240676142331,3004.992520665714,-2019.2334740836072,1482.0629750822914,-1482.0629750822914,2019.2334740836072,5956.2423595128648,0.0
523296.95196600363,3665566.251970998,-7500.0,-6068.8130181439865,2115.1405058144833,-798.38009411052894,-819.93994383218717,289.30379786812563,-80.57711134066237,3476.5387898715794,-2219.7324727444493,1680.5093457328619,-1680.5093457328619,2219.7324727444493,6911.2436997285631,0.0
528296.95196600363,3665566.251970998,-7500.0,-6957.4860603426732,2582.4210052615913,-965.9308816612072,-988.0209942728585,366.69179414964742,-101.7654495291371,4047.1918638938159,-2429.3456936934158,1906.4834036808147,-1906.4834036808147,2429.3456936934158,8072.2890210717624,0.0
533296.95196600363,3665566.251970998,-7500.0,-8004.2642686496301,3182.5142886042063,-1187.381526487326,-1197.7358155735797,469.68132526566222,-129.40613724468284,4752.307117684285,-2638.0243287810554,2160.3442902412135,-2160.3442902412135,2638.0243287810554,9494.8408571358723,0.0
538296.95196600363,3665566.251970998,-7500.0,-9235.2851423091997,3961.1198911388374,-1486.1617034825001,-1460.2046770288216,608.21096273449598,-165.53021560871889,5655.2334359814522,-2826.665817047709,2438.6044960590102,-2438.6044960590102,2826.665817047709,11251.865854675892,0.0
543296.95196600363,3665566.251970998,-7500.0,-10675.129123121322,4981.8879848297238,-1898.4079761179864,-1788.8989437486307,796.46179136829755,-212.61208428264928,6786.6374185250615,-2960.4782367565285,2729.8587555597742,-2729.8587555597742,2960.4782367565285,13439.85336463621,0.0
548296.95196600363,3665566.251970998,-7500.0,-12339.128509591326,6333.7679757594597,-2481.1488661669082,-2199.0333460016641,1054.596304927657,-273.30018749407293,8217.3102820215572,-2977.4726262911499,3006.9794898790497,-3006.9794898790497,2977.4726262911499,16186.812507410386,0.0
553296.95196600363,3665566.251970998,-7500.0,-14216.668278190184,8140.7225064657005,-3326.52852005772,-2705.1450947545591,1410.8170846618302,-349.43866771518196,10043.073277058349,-2768.3974854081275,3212.1022752554068,-3212.1022752554068,2768.3974854081275,19662.600687017031,0.0
558296.95196600363,3665566.251970998,-7500.0,-16236.141742336809,10572.999437199707,-4586.9779147309764,-3314.4720891789962,1902.9103804545482,-439.30069378418966,12393.834827327368,-2141.701121036067,3227.56664030305,-3227.56664030305,2141.701121036067,24091.669647358198,0.0
563296.95196600363,3665566.251970998,-7500.0,-18192.597475995484,13855.296387137256,-6520.3456789862184,-4011.2661752946565,2576.2689267978021,-530.57789815976957,15445.775136644685,-762.70764420856881,2819.3063931811193,-2819.3063931811193,762.70764420856881,29767.815262249773,0.0
568296.95196600363,3665566.251970998,-7500.0,-19599.4825024969,18255.091514062657,-9570.9391302043241,-4723.3205304170333,3469.2455214664542,-584.13603464674247,19438.344452240133,1949.689850566559,1526.174150140545,-1526.174150140545,-1949.689850566559,37070.746137548354,0.0
573296.95196600363,3665566.251970998,-7500.0,-19385.225803427456,23997.785751176387,-14511.097950448955,-5260.0158868054286,4560.7891470744162,-501.4235881454353,24703.253452939982,6988.7244906924643,-1555.3355229672325,1555.3355229672325,-6988.7244906924643,46490.858233464241,0.0
578296.95196600363,3665566.251970998,-7500.0,-15268.315650230477,30941.328210251482,-22660.545004894379,-5231.5155088629544,5620.8082617286427,-82.686590686421297,31738.308058957784,15985.317766834902,-8177.7209460733538,8177.7209460733538,-15985.317766834902,58706.798005139914,0.0
583296.95196600363,3665566.251970998,-7500.0,-2450.4117830310561,37461.380902264616,-36051.183251131311,-4081.4019377999994,5865.145636267277,897.43455655103764,41468.681834522489,31326.75490859725,-21623.891611971674,21623.891611971674,-31326.75490859725,74939.633310970676,0.0
588296.95196600363,3665566.251970998,-7500.0,29008.891649750407,36617.963133319259,-56268.317759533267,-1772.4659146266222,3489.4961232734308,1794.9059433934958,56312.019868416755,55006.912017074515,-47153.359991525416,47153.359991525416,-55006.912017074515,98796.007169603326,0.0
593296.95196600363,3665566.251970998,-7500.0,96245.475568796654,3544.1675686161384,-73117.355299011018,-1084.4318146756871,-3404.4419098710168,-2929.0341422224524,84843.44737576964,79029.734481856998,-85726.077501418054,85726.077501418054,-79029.734481856998,147644.36380672277,0.0
598296.95196600363,3665566.251970998,-7500.0,191566.22011526494,-122166.32464468859,513.60726033481671,-8459.8101789905995,-8741.8436000062575,-31449.723518007024,157211.28089160004,39062.371331712078,-77241.981924780324,77241.981924780324,-39062.371331712078,298072.52563568979,0.0
603296.95196600363,3665566.251970998,-7500.0,149822.60403499406,-261220.79239265883,402988.74681697873,-12190.73687751059,9277.5408196673761,-95062.189393955297,331360.09436390735,-169603.60373964955,217759.72902418903,-217759.72902418903,169603.60373964955,625676.56509157759,0.0
608296.95196600363,3665566.251970998,-7500.0,42882.113203379464,-1999.7668927397206,680798.47224750731,21682.7604426289,12961.520012151032,-122419.96040452876,403220.91683902574,-128019.57798721903,486287.40409146791,-486287.40409146791,128019.57798721903,735960.17563505564,0.0
613296.95196600363,3665566.251970998,-7500.0,115267.38721258754,131544.5760668341,322480.87781943817,28236.496597271071,-24550.011428140198,-69081.172762164337,232900.20715687174,86217.717065207893,212886.91022898903,-212886.91022898903,-86217.717065207893,413803.41436048161,0.0
618296.95196600363,3665566.251970998,-7500.0,87145.673848706225,61509.487661199113,74658.419731835267,10367.997083680299,-25402.830076969203,-18915.525679022005,87819.281451930554,78279.185816660087,32367.041673481974,-32367.041673481974,-78279.185816660087,153912.78389258753,0.0
623296.95196600363,3665566.251970998,-7500.0,41978.953379903425,11998.268823989045,-25217.60364419999,4620.5091345583223,-9084.0665295288691,-9.5206918797266269,37346.765208482087,39865.193458872032,-31342.625093385297,31342.625093385297,-39865.193458872032,64810.584096235267,0.0
628296.95196600363,3665566.251970998,-7500.0,10209.343917049446,-21346.874811548012,-61075.061366302863,6204.1719964377999,2701.8385472485261,3573.6846255678151,42644.024267631357,6066.6423100620086,-50688.333750544793,50688.333750544793,-6066.6423100620086,78466.0539490019,0.0
633296.95196600363,3665566.251970998,-7500.0,-14989.890235231072,-38897.507963980257,-59617.85804020099,8894.2529334186165,8158.9748446390022,2298.2506293380006,46704.94627566135,-21610.078686446926,-43066.022218809012,43066.022218809012,21610.078686446926,89655.71991550432,0.0
638296.95196600363,3665566.251970998,-7500.0,-31100.511421466414,-41447.356218782399,-44767.815927346972,10487.37293338645,9232.9523818831203,453.92753481976081,43886.043172413905,-36719.323296838731,-27008.300257566421,27008.300257566421,36719.323296838731,85750.155514729558,0.0
643296.95196600363,3665566.251970998,-7500.0,-37875.84125741887,-36083.777246411119,-30128.751798758502,10568.39952064116,8095.1022242944009,-650.9955715888326,37915.869938252283,-40717.749449100265,-13378.695201302113,13378.695201302113,40717.749449100265,74800.431203678498,0.0
648296.95196600363,3665566.251970998,-7500.0,-38249.256076716556,-28584.981969463613,-19470.356305726302,9589.9576743434973,6306.4419795178192,-1043.3469274607683,31415.284028237453,-38404.55588641444,-4594.941152417774,4594.941152417774,38404.55588641444,62327.841226236764,0.0
653296.95196600363,3665566.251970998,-7500.0,-35298.083028750174,-21659.826973061332,-12516.98129268308,8157.0338631687191,4632.4259370838099,-1045.4189161026261,25543.849123990418,-33555.010818589231,284.1045401825213,-284.1045401825213,33555.010818589231,50826.609145924165,0.0
658296.95196600363,3665566.251970998,-7500.0,-31079.470501905085,-16108.77389531697,-8158.1056339645484,6684.0819590907877,3311.4765718889175,-896.67902193342002,20658.99640527102,-28234.712147078295,2679.0776030172474,-2679.0776030172474,28234.712147078295,41109.188365676615,0.0
663296.95196600363,3665566.251970998,-7500.0,-26701.724209286876,-11923.607634255408,-5446.0917429439651,5370.4910135229966,2345.0286532260416,-717.96960205870334,16727.914516969759,-23345.181179605719,3660.2274934436682,-3660.2274934436682,23345.181179605719,33229.46784685825,0.0
668296.95196600363,3665566.251970998,-7500.0,-22667.890709443556,-8851.0970871254976,-3743.2671437453523,4278.1676989867456,1661.7535141171163,-556.82722409366716,13601.146747712275,-19177.704038549018,3893.1976995578871,-3893.1976995578871,19177.704038549018,26959.50930939247,0.0
673296.95196600363,3665566.251970998,-7500.0,-19154.306379227331,-6616.248416184967,-2654.6063147285777,3401.9976430032207,1185.0009478294107,-426.09883802325442,11126.22683075336,-15750.124320699711,3757.7757835051725,-3757.7757835051725,15750.124320699711,22005.3113518387,0.0
678296.95196600363,3665566.251970998,-7500.0,-16180.185429958197,-4990.680713700167,-1942.4722491176926,2711.6415518249387,852.91699961140034,-324.94710074245569,9167.0517685736813,-12977.284690601129,3460.1196991993611,-3460.1196991993611,12977.284690601129,18092.009486250947,0.0
683296.95196600363,3665566.251970998,-7500.0,-13698.498961045891,-3802.2721607486351,-1464.6671992070976,2171.7323088248495,620.52606433794176,-248.34074386107983,7610.6756322907404,-10748.209636736021,3107.8007194438733,-3107.8007194438733,10748.209636736021,14990.085558511284,0.0
688296.95196600363,3665566.251970998,-7500.0,-11640.721688686721,-2926.6458034451816,-1135.5152453016995,1750.0393342478212,456.57288876844905,-190.79733754511966,6367.3843010558421,-8957.2501165463764,2754.3882667531429,-2754.3882667531429,8957.2501165463764,12517.402581770255,0.0
693296.95196600363,3665566.251970998,-7500.0,-9937.1560365238238,-2275.5157939903847,-902.70029146115485,1419.9047063761177,339.74751310493536,-147.61316902860997,5367.536315953037,-7514.3263178049401,2424.5842467243365,-2424.5842467243365,7514.3263178049401,10532.897891506023,0.0
698296.95196600363,3665566.251970998,-7500.0,-8525.0808137594813,-1786.5573820230834,-733.7314881967344,1160.2779699259963,255.60223439810989,-115.10104411737667,4557.6401553342266,-6346.3895326615111,2128.0200392691731,-2128.0200392691731,6346.3895326615111,8928.4874463426022,0.0
703296.95196600363,3665566.251970998,-7500.0,-7351.166970246315,-1415.7185580715859,-608.04871946400544,954.91798452107525,194.32505601610222,-90.487092740606968,3896.7461898034885,-5395.6380526196926,1866.71307289575,-1866.71307289575,5395.6380526196926,7621.6246229547687,0.0
708296.95196600363,3665566.251970998,-7500.0,-6371.3734988077085,-1131.7030782719471,-512.38243775223168,791.43056571396585,149.21278126195224,-71.724175451409806,3353.4729942985377,-4616.8564406580199,1639.046531309292,-1639.046531309292,4616.8564406580199,6549.1911510420987,0.0
713296.95196600363,3665566.251970998,-7500.0,-5549.882209449398,-912.11655650349837,-437.99602348733259,660.3946899265311,115.64840041458304,-57.313062020889937,2903.6850359054092,-3974.826959591644,1441.8602166329752,-1441.8602166329752,3974.826959591644,5662.7435755365386,0.0
513296.95196600363,3670566.251970998,-7500.0,-4039.2149688799236,1647.0914794862515,-718.98297064888163,-505.64331537772631,212.42193137253011,-46.230151578641497,2399.3665883486492,-1277.095195162713,1006.5167659769518,-1006.5167659769518,1277.095195162713,4769.8383680951592,0.0
518296.95196600363,3670566.251970998,-7500.0,-4526.2847617100506,1962.7171235839153,-859.44771095504916,-594.55442858359993,262.59513793195327,-56.967585988667899,2739.3692246647852,-1341.7259673189608,1101.0677184964441,-1101.0677184964441,1341.7259673189608,5464.0974743453389,0.0
523296.95196600363,3670566.251970998,-7500.0,-5077.8826667763096,2354.4894072042684,-1039.8985486653471,-701.86606280600938,327.27716175835849,-70.604259735256818,3150.556533115298,-1387.4346940764776,1196.1542984690527,-1196.1542984690527,1387.4346940764776,6291.9696549838663,0.0
528296.95196600363,3670566.251970998,-7500.0,-5697.9649851093645,2843.9393933529414,-1275.116806701551,-831.43921098764713,411.34601716298681,-87.972008639336096,3663.0660086852422,-1399.1492571262265,1284.5734147525932,-1284.5734147525932,1399.1492571262265,7284.704793595427,0.0
533296.95196600363,3670566.251970998,-7500.0,-6386.05261294924,3459.1251368843614,-1586.4880690295201,-987.57222484178919,521.47079124352547,-110.10386633187365,4285.7955951450394,-1353.2251526421567,1353.4841882697331,-1353.4841882697331,1353.2251526421567,8481.7370621689515,0.0
538296.95196600363,3670566.251970998,-7500.0,-7132.617243613885,4236.3325835529276,-2005.3898310265845,-1174.5825255723237,666.74548132985797,-138.21620023957303,5046.9306376970553,-1212.6727834132078,1380.5515112880923,-1380.5515112880923,1212.6727834132078,9932.7913672794857,0.0
543296.95196600363,3670566.251970998,-7500.0,-7910.7498105742434,5221.6520651481615,-2578.4712696860015,-1395.7737660489538,859.44094157004349,-173.58480723129998,5983.1672161434053,-919.71472513744345,1327.4356518247225,-1327.4356518247225,919.71472513744345,11700.325555062336,0.0
548296.95196600363,3670566.251970998,-7500.0,-8661.2323885239912,6471.4323268560356,-3375.8712463868942,-1651.1657130097958,1115.7007245719453,-217.16951794162293,7141.8658174601769,-384.29524021076725,1128.7829850799985,-1128.7829850799985,384.29524021076725,13862.144005396223,0.0
553296.95196600363,3670566.251970998,-7500.0,-9265.9795122179912,8049.033052741469,-4503.8289451462724,-1932.8199352848371,1455.6120392859823,-268.68263686510312,8584.0647448803356,533.23221409865494,673.67676943314643,-673.67676943314643,-533.23221409865494,16513.859144834754,0.0
558296.95196600363,3670566.251970998,-7500.0,-9501.2720878977343,10011.551784956682,-6123.2307925675159,-2215.6951104362179,1901.0801665382714,-324.52086861506336,10388.421654912103,2046.7776064977174,-225.15601226422166,225.15601226422166,-2046.7776064977174,19770.893268957519,0.0
563296.95196600363,3670566.251970998,-7500.0,-8957.0220443430262,12371.512111314489,-8473.9230955978073,-2440.8079216990736,2467.5462224542835,-373.63745614398658,12657.220664009814,4475.2059091875326,-1880.5113476769186,1880.5113476769186,-4475.2059091875326,23771.057407799759,0.0
568296.95196600363,3670566.251970998,-7500.0,-6903.128142027138,14998.743718821761,-11895.859964908974,-2487.2553364232249,3140.3582621887376,-390.72103903215242,15529.061033359554,8265.9278176069001,-4801.8221602872854,4801.8221602872854,-8265.9278176069001,28685.977869267677,0.0
573296.95196600363,3670566.251970998,-7500.0,-2088.2804859654993,17384.482673082908,-16804.634995026256,-2135.5853264162201,3816.9950196647155,-330.47490109695417,19215.315201734775,13959.503196867825,-9770.3903690513162,9770.3903690513162,-13959.503196867825,34779.026741518966,0.0
578296.95196600363,3670566.251970998,-7500.0,7490.890075323151,18104.490542568223,-23462.748532837461,-1053.5581311200344,4186.8689712338974,-149.15557819449376,24117.974496029525,21928.041275481311,-17807.0536715956,17807.0536715956,-21928.041275481311,42652.645070795152,0.0
583296.95196600363,3670566.251970998,-7500.0,24571.947889508156,13702.852011693771,-31009.017542448844,1080.6553425000022,3549.7343060453077,39.275245324868123,31197.062472559541,31408.303148069732,-29573.585736252113,29573.585736252113,-31408.303148069732,54149.384704045406,0.0
588296.95196600363,3670566.251970998,-7500.0,51192.30781155749,-3083.5053037080265,-34116.603693566991,4083.7131958863811,786.5552808836494,-626.97471871165897,42936.007136189692,37678.819277019778,-42625.511177924724,42625.511177924724,-37678.819277019778,74984.078306062118,0.0
593296.95196600363,3670566.251970998,-7500.0,82233.723498481675,-42983.166576225667,-13900.194658454056,6486.5839091436965,-4729.7268601737987,-5049.528950780772,64858.956792720761,26197.017549693293,-42517.302895613902,42517.302895613902,-26197.017549693293,119185.61749893667,0.0
598296.95196600363,3670566.251970998,-7500.0,91204.811751983303,-102010.69430635626,71928.431025773069,6532.283980920055,-10816.112521412517,-18014.090124890852,104164.4884478178,-26512.733601621992,11193.536057267986,-11193.536057267986,26512.733601621992,204676.63417415103,0.0
603296.95196600363,3670566.251970998,-7500.0,46971.392894107063,-112619.37015518686,234555.67781380133,6874.8493909575827,-14083.030419657245,-37078.851999033257,162957.7197233513,-97857.112631145457,144544.68602883903,-144544.68602883903,97857.112631145457,311134.96461075527,0.0
608296.95196600363,3670566.251970998,-7500.0,9134.8987023329573,-15124.693088257791,319386.32080275292,9835.2018667182056,-18631.280242871533,-43295.277877440312,183440.98184968944,-76293.229523318121,230277.43947298906,-230277.43947298906,76293.229523318121,342475.16931473266,0.0
613296.95196600363,3670566.251970998,-7500.0,32797.28318126157,67901.579122163355,223691.92196766968,6961.5290935948833,-23941.626611801923,-28498.589375843334,140616.66259510288,14896.214178629438,160963.494953922,-160963.494953922,-14896.214178629438,259992.05183829411,0.0
618296.95196600363,3670566.251970998,-7500.0,52993.370396305836,68134.024545136854,91049.584385148206,-302.47532692402967,-19706.537385581778,-10908.681417226042,81767.882320159581,57593.676956532036,56615.093022854773,-56615.093022854773,-57593.676956532036,151840.93990289935,0.0
623296.95196600363,3670566.251970998,-7500.0,48034.541912936285,37312.267072885741,6617.6863591755064,-3105.5616084497665,-8925.8129505487395,-1992.9314731045188,44261.662516337768,53184.853435046025,-7196.8926460099719,7196.8926460099719,-53184.853435046025,81183.022547538043,0.0
628296.95196600363,3670566.251970998,-7500.0,31495.718879307657,6888.1706069870934,-32901.612470947563,-1208.9392147394822,399.00253970878157,440.78607072526637,32952.389748274276,31667.274184845352,-34032.688027855467,34032.688027855467,-31667.274184845352,57085.665737851494,0.0
633296.95196600363,3670566.251970998,-7500.0,12424.009007320659,-13898.446949402352,-43328.872012205771,2035.5079853691977,5558.1640005305699,330.80123495841809,31528.295246501606,8367.117498188747,-37564.129129896522,37564.129129896522,-8367.117498188747,57140.249950345984,0.0
638296.95196600363,3670566.251970998,-7500.0,-3687.6392571693086,-23750.894652171617,-39151.413680042409,4571.895652823704,7251.0494268715447,-290.10030257246615,30385.140297927741,-9156.8187258041853,-30153.519071484036,30153.519071484036,9156.8187258041853,57467.094546640918,0.0
643296.95196600363,3670566.251970998,-7500.0,-14376.960331828126,-25646.947439392392,-30418.89650245968,5844.411565065272,6941.8685807332859,-722.21410393757867,27736.41154816507,-19063.901409215432,-20345.886624787883,20345.886624787883,19063.901409215432,53695.271437471019,0.0
648296.95196600363,3670566.251970998,-7500.0,-19894.76508646418,-23367.918468332162,-22012.788648580521,6063.4906636166252,5811.1503241616119,-874.3860905181632,24209.641492229253,-22906.429801699407,-12060.262207940301,12060.262207940301,22906.429801699407,47500.857400830806,0.0
653296.95196600363,3670566.251970998,-7500.0,-21692.946762791962,-19596.419814777702,-15448.394807398881,5646.8681286700885,4538.7443817526173,-842.65532186998655,20543.98795958508,-23021.76669711103,-6216.1074116447562,6216.1074116447562,23021.76669711103,40657.709274558758,0.0
658296.95196600363,3670566.251970998,-7500.0,-21261.051282524502,-15742.842448507439,-10756.691019875931,4946.9503467827344,3418.6644277919809,-728.75686716717644,17169.129840311223,-21265.701261348251,-2489.6311694273245,2489.6311694273245,21265.701261348251,34179.351933798847,0.0
663296.95196600363,3670566.251970998,-7500.0,-19694.141891975334,-12378.457809302001,-7531.0905738105066,4184.2130084611463,2530.7535034689649,-595.45209028810098,14284.704546284154,-18792.006219694533,-276.20012251412845,276.20012251412845,18792.006219694533,28492.404846524405,0.0
668296.95196600363,3670566.251970998,-7500.0,-17674.523939601266,-9644.3407437439164,-5343.2646181219334,3470.6024085173126,1862.1920771468356,-472.14851618085771,11913.778824031142,-16217.184910120621,953.06350070717963,-953.06350070717963,16217.184910120621,23694.581041772617,0.0
673296.95196600363,3670566.251970998,-7500.0,-15581.931023898855,-7499.8128288089711,-3858.5878501423067,2850.3802800470521,1371.3018403548881,-368.88366486785537,9951.5285567917217,-13827.367579566042,1576.2903162166613,-1576.2903162166613,13827.367579566042,19730.250810506237,0.0
678296.95196600363,3670566.251970998,-7500.0,-13605.887689985793,-5846.1012559148994,-2842.3889937782851,2332.0750895142733,1014.6860172172003,-286.55021162371548,8339.1845274892512,-11728.817553407473,1840.5292415764452,-1840.5292415764452,11728.817553407473,16487.272938733695,0.0
683296.95196600363,3670566.251970998,-7500.0,-11826.721739718962,-4579.4256855346721,-2137.5525254445593,1908.0324679535056,756.19097452225708,-222.5277079352098,7019.7640413476083,-9938.7004596303159,1899.6483457588656,-1899.6483457588656,9938.7004596303159,13843.878665859773,0.0
688296.95196600363,3670566.251970998,-7500.0,-10266.374931498645,-3609.9218363980299,-1640.839360221594,1564.8549487974781,568.29942121406611,-173.33204273170207,5940.3018350994535,-8434.6985150357232,1846.7570559679248,-1846.7570559679248,8434.6985150357232,11688.511064710732,0.0
693296.95196600363,3670566.251970998,-7500.0,-8917.8800526933537,-2865.7748212825632,-1284.6983150013723,1288.3921943314881,430.94355766202858,-135.68953573491794,5055.1445233661098,-7180.2786987575619,1737.0357120321373,-1737.0357120321373,7180.2786987575619,9926.2920475682058,0.0
698296.95196600363,3670566.251970998,-7500.0,-7761.6055975485069,-2291.7808196430829,-1024.7611644101758,1065.8282038202151,329.78416584422956,-106.87688238488865,4326.5451508704919,-6136.7242599093233,1602.5470556389082,-1602.5470556389082,6136.7242599093233,8479.5193337403016,0.0
703296.95196600363,3670566.251970998,-7500.0,-6773.7762513918105,-1846.3077144139822,-831.63676430507496,886.3389601626867,254.66042279792416,-84.753193543688752,3723.9795952823329,-5268.3083506838611,1461.4654830263721,-1461.4654830263721,5268.3083506838611,7285.7975328021375,0.0
708296.95196600363,3670566.251970998,-7500.0,-5930.6858952628354,-1498.2244435480709,-685.63461625475327,741.1086830794211,198.38255975633058,-67.682887468440143,3223.0432428294107,-4544.0920648813171,1323.7080709414033,-1323.7080709414033,4544.0920648813171,6295.5093816274011,0.0
713296.95196600363,3670566.251970998,-7500.0,-5210.6016298151926,-1224.30867771211,-573.39304097897809,623.09794680288257,155.84948271874305,-54.434330239942,2804.3270447130803,-3938.1644686455065,1194.3369371356705,-1194.3369371356705,3938.1644686455065,5469.3653181336549,0.0
513296.95196600363,3675566.251970998,-7500.0,-3365.0189919796931,1743.8999586412472,-867.70301959632968,-430.98529645883934,228.45737094557626,-40.38077152930353,2173.8682722880203,-757.93911538994837,681.26712469865936,-681.26712469865936,757.93911538994837,4338.7231667887863,0.0
518296.95196600363,3675566.251970998,-7500.0,-3694.2775853159324,2055.5792788199569,-1042.3973826470756,-498.57647354166295,279.94204750305647,-49.123389003996415,2480.3730578961672,-718.7446881487524,697.21729872169385,-697.21729872169385,718.7446881487524,4930.5336566798587,0.0
523296.95196600363,3675566.251970998,-7500.0,-4043.2971667047973,2434.230719833748,-1265.7726286959969,-577.3384890923794,345.27371129504883,-59.978210640264315,2844.0997812639325,-636.72201007927276,691.27609971041841,-691.27609971041841,636.72201007927276,5625.9883499739826,0.0
528296.95196600363,3675566.251970998,-7500.0,-4401.5039384793345,2895.133440514242,-1554.6331623714025,-668.33759103545617,428.5950503807407,-73.431660973198518,3276.9537239843862,-491.38127005442101,649.19270774292386,-649.19270774292386,491.38127005442101,6446.0778652616946,0.0
533296.95196600363,3675566.251970998,-7500.0,-4748.8981319946679,3456.1720762614982,-1932.4342508779939,-771.90768781946201,535.26830040443235,-90.012833843478987,3794.3715911402091,-253.11690369916792,548.94167851356576,-548.94167851356576,253.11690369916792,7416.0997838785061,0.0
538296.95196600363,3675566.251970998,-7500.0,-5049.9375135299224,4137.0250081173599,-2432.0507785191244,-886.75010388356111,672.08619444649889,-110.2094577480182,4415.6439192043881,120.70680011119146,356.54377440960349,-356.54377440960349,-120.70680011119146,8566.3061013780571,0.0
543296.95196600363,3675566.251970998,-7500.0,-5243.7116577862253,4956.5867551186711,-3099.5418778394937,-1008.2810803148157,847.29358049299947,-134.26919967789848,5164.8723524671477,691.04907423741975,19.716419171813584,-19.716419171813584,-691.04907423741975,9932.5335335630243,0.0
548296.95196600363,3675566.251970998,-7500.0,-5228.3412562970725,5926.6006052103048,-3998.8851499275333,-1125.6763197023877,1070.0405547280072,-161.77651140903359,6072.3456870856844,1543.8151732293586,-541.540804487272,541.540804487272,-1543.8151732293586,11556.933320100699,0.0
553296.95196600363,3675566.251970998,-7500.0,-4836.786685687307,7037.4489440365123,-5216.8385933403524,-1216.7493330121681,1348.4070820410866,-190.82052962488677,7176.7966640952745,2796.7041757031857,-1448.1928028546226,1448.1928028546226,-2796.7041757031857,13489.56092654263,0.0
558296.95196600363,3675566.251970998,-7500.0,-3801.0225408934452,8228.162361412149,-6864.602614431612,-1239.4853614474134,1684.1456844555696,-216.49774486175144,8529.9307722294307,4602.1944742676405,-2878.6855359296251,2878.6855359296251,-4602.1944742676405,15793.72657414929,0.0
563296.95196600363,3675566.251970998,-7500.0,-1703.9334704976354,9325.7590168684947,-9066.1150914873215,-1119.1985741678293,2060.3979889959946,-228.61105794546609,10207.145495452849,7134.9489557743964,-5083.0893478163343,5083.0893478163343,-7134.9489557743964,18564.556705687573,0.0
568296.95196600363,3675566.251970998,-7500.0,2070.6438493708451,9928.2785877093374,-11904.978596766678,-732.40762468572552,2415.5857302340228,-209.42628324886385,12334.713473936776,10533.881617233261,-8373.5578325959195,8373.5578325959195,-10533.881617233261,21988.131262896502,0.0
573296.95196600363,3675566.251970998,-7500.0,8343.8790337958071,9196.1400604388255,-15258.494569691282,103.36118964560096,2593.8185133757947,-136.43223373640581,15157.210671062327,14730.725167951416,-13026.931970270609,13026.931970270609,-14730.725167951416,26509.525725366217,1.0
578296.95196600363,3675566.251970998,-7500.0,17964.501305426133,5537.4867897153172,-18352.105232181581,1603.2033175650008,2267.6663828972532,-7.4540469894341701,19185.870775731579,19030.845724202962,-18931.593500039853,18931.593500039853,-19030.845724202962,33231.546056345855,0.0
583296.95196600363,3675566.251970998,-7500.0,31111.78601836622,-3657.6079821136022,-18712.792669491431,3885.0017012792296,869.54417731818273,68.333881905833252,25443.307674521388,21265.784375792195,-24612.327847500273,24612.327847500273,-21265.784375792195,44577.348088391642,0.0
588296.95196600363,3675566.251970998,-7500.0,45528.667595500716,-21427.031194561321,-10217.465052468335,6671.9227707724958,-2313.7588882298082,-340.73826014630816,35618.28902513894,16637.524234699136,-25136.917333535872,25136.917333535872,-16637.524234699136,64664.896302683097,0.0
593296.95196600363,3675566.251970998,-7500.0,53836.51255179321,-47465.96755601425,18520.674816055776,8999.3628851587637,-7605.8123696894045,-2184.34100773303,51460.000383804145,-1835.8346924836369,-9616.8091909510895,9616.8091909510895,1835.8346924836369,97891.194828237552,0.0
598296.95196600363,3675566.251970998,-7500.0,44703.632582347636,-69062.454604571889,77911.726991734235,9606.2113434169642,-14106.62236351078,-6293.0000416933108,72399.614578198074,-35198.113662639167,34795.94023507848,-34795.94023507848,35198.113662639167,143456.02547367278,0.0
603296.95196600363,3675566.251970998,-7500.0,18470.531092379762,-59089.60434261449,152165.78925156777,8087.6629191027541,-19915.454213352572,-11135.811418465189,95304.812784551716,-61768.051351216011,99322.683840337908,-99322.683840337908,61768.051351216011,185930.19126653392,0.0
608296.95196600363,3675566.251970998,-7500.0,1335.2311730389231,-10545.660456868287,186781.31005899303,4689.3474048094713,-23454.747471740284,-12414.128435694684,103000.42967895599,-48246.258280853224,135829.50994152058,-135829.50994152058,48246.258280853224,197936.95013314552,0.0
613296.95196600363,3675566.251970998,-7500.0,10437.440162141242,36855.041477308892,152080.04514871194,-268.32923638044304,-22994.186084856774,-8670.7798895154956,88690.14069958344,-3436.3476081066183,112402.01071574373,-112402.01071574373,3436.3476081066183,169692.62127574193,0.0
618296.95196600363,3675566.251970998,-7500.0,27654.577997461096,51206.165478866722,84192.586515836025,-4622.6247145380321,-17520.928332125262,-3693.5850330349635,63267.965408495147,32115.661602625769,58234.81944772946,-58234.81944772946,-32115.661602625769,121667.10877153298,0.0
623296.95196600363,3675566.251970998,-7500.0,35020.493627656462,39701.97677336281,25322.271870207776,-5934.7486836573235,-9383.6615643501591,-727.81809511107349,41327.090978550135,42404.122915002445,11194.898023816471,-11194.898023816471,-42404.122915002445,78255.135037633358,0.0
628296.95196600363,3675566.251970998,-7500.0,31036.267078385481,19766.892751408606,-10664.211720513931,-4376.9401705821319,-2122.2998742071654,160.27494221940788,29033.296286122611,34867.062405499419,-16114.998667603368,16114.998667603368,-34867.062405499419,51457.63889022392,0.0
633296.95196600363,3675566.251970998,-7500.0,20748.242351046702,2084.6920498750515,-26505.84846497835,-1665.5259011247615,2537.9440881953665,49.668934057830228,23903.593278936503,20331.446837787513,-26241.338648688663,26241.338648688663,-20331.446837787513,41520.729826604344,0.0
638296.95196600363,3675566.251970998,-7500.0,9187.3182370077593,-9446.6171927309515,-29502.134504643975,808.01581436484446,4689.6919070563645,-286.87397302620445,21882.910431529235,6163.4204449669032,-25819.587343559288,25819.587343559288,-6163.4204449669032,39442.829362025455,0.0
643296.95196600363,3675566.251970998,-7500.0,-514.00279295672306,-15002.062429362328,-26286.05806100975,2467.5535125262613,5145.7558858970806,-533.2705045496092,20261.610787084901,-4297.4076362114902,-20800.83955133444,20800.83955133444,4297.4076362114902,37902.389618373105,0.0
648296.95196600363,3675566.251970998,-7500.0,-7228.8759957771299,-16383.231581457874,-21122.192632924791,3299.3063156189291,4714.3458026565677,-632.29625873019722,18309.667900193836,-10573.820404429902,-14897.272251561477,14897.272251561477,10573.820404429902,35110.536155194342,0.0
653296.95196600363,3675566.251970998,-7500.0,-11127.37672488741,-15448.919620245275,-16103.231237521788,3520.7688347121998,3948.4815275539549,-622.39532050986998,16124.743741980721,-13527.359919044127,-9793.8595578940003,9793.8595578940003,13527.359919044127,31422.147166361454,0.0
658296.95196600363,3675566.251970998,-7500.0,-12897.63090875032,-13518.679443980693,-11971.465425251501,3374.9030521009158,3148.4525021371296,-555.28931507966217,13936.537779290024,-14292.154355253406,-5949.3608397130001,5949.3608397130001,14292.154355253406,27457.829134570475,0.0
663296.95196600363,3675566.251970998,-7500.0,-13266.56715751553,-11352.913623047481,-8820.9047640518838,3048.0931778815552,2443.8268953795546,-468.40137107526084,11906.681755087153,-13803.674237998941,-3271.6550823377793,3271.6550823377793,13803.674237998941,23645.635246611448,0.0
668296.95196600363,3675566.251970998,-7500.0,-12809.945099749781,-9320.1360239016485,-6506.7399931547388,2658.7249284777149,1871.2075561793279,-382.50820635706702,10117.105098478747,-12697.985629903993,-1501.0007003254259,1501.0007003254259,12697.985629903993,20202.584316608238,0.0
673296.95196600363,3675566.251970998,-7500.0,-11923.777639733345,-7561.7634898870865,-4834.9292555931806,2272.200267788643,1425.0803731534397,-306.7556569272698,8639.6758956118065,-11359.908236476307,-377.06082915618208,377.06082915618208,11359.908236476307,17204.002710492019,0.0
678296.95196600363,3675566.251970998,-7500.0,-10857.024816045689,-6104.2708914498489,-3632.6564126758653,1919.6194130267565,1085.128462809083,-243.76223658480828,7384.0913942652141,-10001.615200209702,308.02359871655972,-308.02359871655972,10001.615200209702,14646.925251945433,0.0
683296.95196600363,3675566.251970998,-7500.0,-9755.3452992155071,-4923.6768988188469,-2765.6759848365009,1612.3259579939638,828.82772490063951,-193.04209905365013,6318.3776192414643,-8728.6582365262966,704.54170523699349,-704.54170523699349,8728.6582365262966,12491.725907667058,0.0
688296.95196600363,3675566.251970998,-7500.0,-8697.7192171341594,-3978.7481484699965,-2135.9520600882606,1351.3574600212819,636.29909863473449,-152.91607886918263,5420.326350853803,-7585.3272348505743,915.63142909580301,-915.63142909580301,7585.3272348505743,10685.779399220037,0.0
693296.95196600363,3675566.251970998,-7500.0,-7722.4664711515215,-3226.4548175960958,-1673.9848458500978,1132.9818226254224,491.57378878111115,-121.45047141641575,4665.9171686437949,-6582.8580660311836,1009.9785881282132,-1009.9785881282132,6582.8580660311836,9175.5587547807736,0.0
698296.95196600363,3675566.251970998,-7500.0,-6844.2548486711848,-2628.2382393858525,-1331.1468758876242,951.70298337467352,382.40974271652829,-96.85944374847567,4032.396693374139,-5715.9369417161561,1032.4838556157019,-1032.4838556157019,5715.9369417161561,7912.105973513977,0.0
703296.95196600363,3675566.251970998,-7500.0,-6064.659734844975,-2151.8642653893376,-1073.5387207711788,801.77346115803186,299.64727444819499,-77.639213344493015,3499.6205213802664,-4971.9145901177117,1012.1272128822468,-1012.1272128822468,4971.9145901177117,6852.9706501435003,0.0
708296.95196600363,3675566.251970998,-7500.0,-5378.4903430159993,-1771.3463237178967,-877.48183942525077,677.88175328377224,236.5159862822108,-62.581681925662949,3050.3963383496284,-4335.7289191957834,967.41658221016928,-967.41658221016928,4335.7289191957834,5962.4161377603659,0.0
513296.95196600363,3680566.251970998,-7500.0,-2685.911428607797,1750.663887095985,-998.0365140371398,-355.09358825144346,233.84546194596837,-34.37628944035535,1967.7135440699833,-299.29924468995534,358.09352869510406,-358.09352869510406,299.29924468995534,3891.1307201364179,0.0
518296.95196600363,3680566.251970998,-7500.0,-2867.4383692109072,2034.5982214581845,-1196.9813912125833,-402.17809758528199,283.27557954880882,-41.156099895266117,2228.2507701451932,-180.54522835424422,303.57853148303781,-303.57853148303781,180.54522835424422,4381.9928844465876,0.0
523296.95196600363,3680566.251970998,-7500.0,-3031.4347197748148,2369.4349413915038,-1448.1788777527324,-454.01967689263836,344.70490827411413,-49.317585757400991,2532.7368992074748,-5.4398245367999465,210.27380721850039,-210.27380721850039,5.4398245367999465,4949.3230986785275,0.0
528296.95196600363,3680566.251970998,-7500.0,-3157.4755787159625,2762.3135120024081,-1767.7161706413387,-509.49472955975125,421.10833259458906,-59.052185711326011,2889.7801472224487,247.13358993542008,60.262490715669372,-60.262490715669372,-247.13358993542008,5606.0212995926195,0.0
533296.95196600363,3680566.251970998,-7500.0,-3213.6542580983792,3218.8552551670577,-2176.8444002127458,-566.0111857315369,515.97383162840197,-70.475111272499376,3309.9065286712721,605.63582861856594,-172.19207160849174,172.19207160849174,-605.63582861856594,6366.9891737748021,0.0
538296.95196600363,3680566.251970998,-7500.0,-3150.8538249235958,3740.290909686858,-2703.2708311986507,-618.43980944366831,633.09192127554093,-83.504430639083211,3806.1170712881267,1107.85024313649,-523.83316190717221,523.83316190717221,-1107.85024313649,7249.4977220163864,0.0
543296.95196600363,3680566.251970998,-7500.0,-2894.5057259967416,4317.9355268940908,-3382.1396469835167,-657.37545753568861,775.92356605821931,-97.632788523737844,4394.8388740317323,1802.6115476640184,-1046.5009246634791,1046.5009246634791,-1802.6115476640184,8274.0822117691241,0.0
548296.95196600363,3680566.251970998,-7500.0,-2333.2274561644208,4922.9063135426977,-4255.5825226666275,-666.38486872453575,946.08521755275456,-111.51775780485033,5097.7511205113497,2750.0239644104472,-1811.7360854104813,1811.7360854104813,-2750.0239644104472,9467.038380222004,0.0
553296.95196600363,3680566.251970998,-7500.0,-1304.4085900964722,5487.5531531889883,-5368.1016915300452,-617.84253300429873,1140.0708700840376,-122.29160580999763,5945.6194920986345,4017.1775819216314,-2914.2442226357048,2914.2442226357048,-4017.1775819216314,10867.334291432426,0.0
558296.95196600363,3680566.251970998,-7500.0,420.84665828214634,5873.1178102971908,-6751.48709844933,-467.1317505127717,1342.624722493428,-124.51257570887476,6986.6635907347863,5662.8160833745042,-4469.3749547208881,4469.3749547208881,-5662.8160833745042,12544.775321336112,0.0
563296.95196600363,3680566.251970998,-7500.0,3144.7110654054345,5816.462639217928,-8385.525776965469,-145.88996708830788,1514.169933142563,-108.89517870434926,8304.5487134641626,7697.6832479439781,-6592.3605378887132,6592.3605378887132,-7697.6832479439781,14644.219369891944,0.0
568296.95196600363,3680566.251970998,-7500.0,7218.1365936406919,4850.9863568543988,-10106.492980686045,442.2762553118539,1568.8811204414478,-61.757429174649346,10054.329953517403,9996.3571098289813,-9331.371801306841,9331.371801306841,-9996.3571098289813,17481.000379179146,0.0
573296.95196600363,3680566.251970998,-7500.0,12932.206269079974,2214.7734464937612,-11412.665900061458,1413.7402668500317,1341.5046519644814,31.680291874130102,12523.265497055803,12124.798437921512,-12497.943263839457,12497.943263839457,-12124.798437921512,21705.880969649272,0.0
578296.95196600363,3680566.251970998,-7500.0,20229.666513380609,-3177.4149537300564,-11097.380228057669,2863.483812819914,551.00031658223907,172.62238451816108,16201.35689719205,13058.676259870024,-15303.185307184895,15303.185307184895,-13058.676259870024,28480.488722236834,0.0
583296.95196600363,3680566.251970998,-7500.0,28130.309921797096,-12459.443258782521,-6697.5303611787276,4761.4291279053659,-1201.5674948618775,311.44969914924695,21785.734347574791,10880.917341625085,-15729.175485051812,15729.175485051812,-10880.917341625085,39446.859399522174,0.0
588296.95196600363,3680566.251970998,-7500.0,33978.401625570128,-25735.017000540156,5889.4225378486599,6786.6075074080063,-4314.0927689718565,292.11063358545272,29964.367703841675,2936.7538128250649,-9877.0417863454968,9877.0417863454968,-2936.7538128250649,56199.86688117103,1.0
593296.95196600363,3680566.251970998,-7500.0,33457.729483156749,-39768.628752677861,31226.820054767712,8219.4280281484753,-8854.1734736293947,-142.5623281144793,40799.35583576616,-12366.774079119816,7412.1774879738041,-7412.1774879738041,12366.774079119816,79003.132928510633,0.0
598296.95196600363,3680566.251970998,-7500.0,23534.839565336577,-45972.100345544306,69193.901212106139,8152.5644950157175,-14139.395767798718,-1105.2804099422804,52733.564048429464,-31230.452595195522,38003.110799529248,-38003.110799529248,31230.452595195522,104672.78859335213,0.0
603296.95196600363,3680566.251970998,-7500.0,8408.3768531200967,-34444.073524276522,107354.11603429669,6072.0897278839175,-18695.003687028478,-2130.7953335363713,63283.822175193091,-41687.228326835218,72413.667423928753,-72413.667423928753,41687.228326835218,125149.68057193569,0.0
608296.95196600363,3680566.251970998,-7500.0,-326.68639838305012,-6356.6412658500403,123806.10845882284,2321.1104570010802,-20844.535669270401,-2329.0732807860663,66749.625482138261,-32319.325067859074,90509.031418934435,-90509.031418934435,32319.325067859074,130776.10454512491,0.0
613296.95196600363,3680566.251970998,-7500.0,3841.8131856259347,22062.904520273591,107732.2166684322,-1897.6843304167173,-19536.72979287586,-1461.7308785711175,60514.725133659842,-7326.2608586310525,80376.883257745591,-80376.883257745591,7326.2608586310525,118272.99423894205,0.0
618296.95196600363,3680566.251970998,-7500.0,14758.503476406424,35816.146744349659,70759.990469642231,-4986.5085422419015,-15077.297711912428,-310.73330404194883,47951.317188336812,16918.620936189705,51006.169330043325,-51006.169330043325,-16918.620936189705,93872.827453964986,0.0
623296.95196600363,3680566.251970998,-7500.0,22933.363965285713,33621.55643925567,32192.215057102087,-5954.0506428208982,-9147.5128296126659,349.33697590265893,35079.307195802736,29280.446060090206,19645.911132313417,-19645.911132313417,-29280.446060090206,67479.456457618624,0.0
628296.95196600363,3680566.251970998,-7500.0,24400.173560064086,22645.455956813421,3564.6320765320888,-5020.7554212438345,-3677.6613927396984,419.76072217078638,25422.755306948864,29407.771746682076,-3104.5033979836298,3104.5033979836298,-29407.771746682076,46520.798184751235,0.0
633296.95196600363,3680566.251970998,-7500.0,20268.755406988152,10059.251361819584,-12826.701659356353,-3127.9801573254804,237.70919044641218,182.92443329561146,19588.924960035631,22211.174144629505,-15147.631936559577,15147.631936559577,-22211.174144629505,34162.670243332075,0.0
638296.95196600363,3680566.251970998,-7500.0,13397.71058120294,-86.786773532195213,-19529.377216962224,-1161.5309282016981,2459.6893927860147,-98.675532715105092,16667.819194709555,12726.962122126663,-18876.742783494945,18876.742783494945,-12726.962122126663,29054.588834188671,0.0
643296.95196600363,3680566.251970998,-7500.0,6283.8768895590392,-6581.5386651040781,-20263.458353117112,389.67127860200856,3370.5128791639286,-300.92078232962189,15083.546529684538,4155.3141757444482,-17735.386492560363,17735.386492560363,-4155.3141757444482,27162.442701064934,0.0
648296.95196600363,3680566.251970998,-7500.0,362.08571932641428,-9837.3723521519696,-18097.316720939161,1394.3557480045768,3464.660823876608,-401.70288111661648,13799.103580012432,-2186.5711238299555,-14507.793012898852,14507.793012898852,2186.5711238299555,25678.78156060238,0.0
653296.95196600363,3680566.251970998,-7500.0,-3888.7239618045251,-10826.547353770757,-14970.78945913707,1920.5300883633422,3143.748652040691,-423.72606331867229,12473.525057379478,-6203.5053864884412,-10887.868690512163,10887.868690512163,6203.5053864884412,23781.818198272616,0.0
658296.95196600363,3680566.251970998,-7500.0,-6565.9565167814117,-10480.603899234955,-11879.902795797763,2103.1445112925558,2667.653501031758,-398.40550458301482,11097.822918753094,-8346.7569542349211,-7677.1580742264932,7677.1580742264932,8346.7569542349211,21522.051381898393,0.0
663296.95196600363,3680566.251970998,-7500.0,-8003.1684641876254,-9478.5570053314059,-9225.2346293828177,2071.7559861508403,2178.1288864024764,-350.9071050498008,9746.0097106425601,-9182.881241450832,-5132.3178561347995,5132.3178561347995,9182.881241450832,19132.18500225867,0.0
668296.95196600363,3680566.251970998,-7500.0,-8565.5641130359836,-8242.5256378107897,-7097.1333704694862,1924.4258144261155,1739.4799146737726,-297.21427403841381,8482.901074205809,-9198.5993776953164,-3243.1572076079706,3243.1572076079706,9198.5993776953164,16804.335772298207,0.0
673296.95196600363,3680566.251970998,-7500.0,-8560.8546943219844,-7003.7499787273855,-5451.8992391958282,1725.9684501717059,1372.5841664798074,-245.8802859108238,7345.1141170384071,-8748.8915891299657,-1899.3815458592085,1899.3815458592085,8748.8915891299657,14652.64217938103,0.0
678296.95196600363,3680566.251970998,-7500.0,-8217.2931678564728,-5872.1651121271798,-4203.2109471277363,1515.1047246240562,1077.1396831108684,-200.64715757170407,6384.4362827378027,-8068.5693849257113,-972.80977293706565,972.80977293706565,8068.5693849257113,12728.482984708227,0.0
683296.95196600363,3680566.251970998,-7500.0,-7691.4018202400475,-4888.3537764399043,-3262.8659024724675,1312.7897359761857,844.2442164124401,-162.55331144141297,5563.9448548853679,-7302.2183376889689,-350.41057238011035,350.41057238011035,7302.2183376889689,11043.107248285922,0.0
688296.95196600363,3680566.251970998,-7500.0,-7084.5249832130121,-4056.8121254961566,-2555.5462821999868,1128.9285048136485,662.73467668785474,-131.30308746467435,4847.4906704947261,-6533.1821927061246,56.769488934350193,-56.769488934350193,6533.1821927061246,9585.5210219995915,0.0
693296.95196600363,3680566.251970998,-7500.0,-6459.0389895921189,-3365.3390953860808,-2021.8571365490532,967.02760203289347,522.00565620312364,-106.0520919934802,4227.9323507266436,-5805.8168833744221,314.70240922804578,-314.70240922804578,5805.8168833744221,8334.2117616962496,0.0
698296.95196600363,3680566.251970998,-7500.0,-5851.2447351462588,-2795.5396892935373,-1616.8194019381669,827.14761833996079,413.02506954582111,-85.815481828979017,3695.0450247737099,-5140.8283626843986,470.67285051606495,-470.67285051606495,5140.8283626843986,7264.0668929669155,0.0
703296.95196600363,3680566.251970998,-7500.0,-5280.6551363561239,-2328.1064581899573,-1307.0812148517566,707.66557950715151,328.51070939534139,-69.657651938023008,3237.827748989786,-4545.1973249547973,557.87329815866951,-557.87329815866951,4545.1973249547973,6350.107825933349,0.0
708296.95196600363,3680566.251970998,-7500.0,-4756.3367340418899,-1945.2172274358027,-1068.1613822716931,606.27679313376018,262.76472342229306,-56.766140245443424,2845.7243439857593,-4018.3503471581316,599.30041252253795,-599.30041252253795,4018.3503471581316,5569.3106843288751,0.0
518296.95196600363,3685566.251970998,-7500.0,-2087.1739338822867,1917.4412237762322,-1307.9555233686251,-310.04627557145676,274.39538369615593,-33.436533849301924,1980.4886486798734,255.19759351489523,-52.806453400745738,52.806453400745738,-255.19759351489523,3843.0086840637609,0.0
523296.95196600363,3685566.251970998,-7500.0,-2095.2966479920401,2187.3988537777241,-1568.5031222532086,-338.19796163994459,328.4952180486012,-39.143834863742072,2231.215073042596,487.08155079244648,-212.3896835913504,212.3896835913504,-487.08155079244648,4294.5442092204667,0.0
528296.95196600363,3685566.251970998,-7500.0,-2033.3700836374881,2487.6489109339586,-1892.256654993666,-363.34167355028507,393.63199793064791,-45.568498408237545,2521.471737831941,797.03202429344378,-438.69897799045037,438.69897799045037,-797.03202429344378,4807.9979119837944,0.0
533296.95196600363,3685566.251970998,-7500.0,-1865.2358100993954,2812.3857590383454,-2294.8072806100067,-381.12559255847736,471.29528811661152,-52.525399144064416,2858.8624235687166,1207.349549044894,-755.97819954225645,755.97819954225645,-1207.349549044894,5392.5697241429789,0.0
538296.95196600363,3685566.251970998,-7500.0,-1539.6708456204287,3147.0801906141619,-2793.9388227780437,-384.44504717505458,562.29884570962759,-59.548778416434125,3253.2929038417651,1744.4932448185973,-1196.0922426349198,1196.0922426349198,-1744.4932448185973,6060.0902914515418,0.0
543296.95196600363,3685566.251970998,-7500.0,-985.36560933046906,3461.9368454079258,-3407.7085894348256,-361.99740906798831,665.73870020972561,-65.673616141646789,3718.4862235403648,2437.4703094360161,-1799.5134479107187,1799.5134479107187,-2437.4703094360161,6827.8224132823698,0.0
548296.95196600363,3685566.251970998,-7500.0,-105.61937279155477,3701.3068780270801,-4149.3668962273496,-296.25915086624417,777.01421855958972,-69.085266587846363,4274.9727087589345,3313.0192239989151,-2614.5172601786385,2614.5172601786385,-3313.0192239989151,7724.9299694321071,0.0
553296.95196600363,3685566.251970998,-7500.0,1225.2519603528201,3767.2329630401714,-5015.7740642922608,-160.89181250579932,884.23082365779248,-66.595699748218962,4955.9216190435227,4384.3820589289389,-3691.6574672746119,3691.6574672746119,-4384.3820589289389,8806.600077135412,0.0
558296.95196600363,3685566.251970998,-7500.0,3158.8830706095491,3495.5590291830908,-5963.0970430939442,82.005484277727888,961.97458926914146,-52.95318818360807,5817.9805436069528,5628.1559952032239,-5067.4673750235215,5067.4673750235215,-5628.1559952032239,10182.399799456954,0.0
563296.95196600363,3685566.251970998,-7500.0,5852.7372300926381,2625.5526733902402,-6859.0692028843469,483.34962696517204,961.25079117870337,-20.17333731947658,6959.4623440017112,6940.8878506654873,-6725.8855524406717,6725.8855524406717,-6940.8878506654873,12065.623454662214,0.0
568296.95196600363,3685566.251970998,-7500.0,9413.493665012591,772.67586081694844,-7395.9128269077755,1103.6308936783946,794.97594268570992,42.451885890045972,8545.3408058050936,8066.0512065647663,-8518.1440479336197,8518.1440479336197,-8066.0512065647663,14838.866795449503,0.0
573296.95196600363,3685566.251970998,-7500.0,13774.998913036292,-2563.4885247278526,-6948.2568832881771,1997.421084957592,321.45595143270361,146.08337111591399,10828.754169546683,8490.8971963527256,-10016.388418539365,10016.388418539365,-8490.8971963527256,19098.656016962152,0.0
578296.95196600363,3685566.251970998,-7500.0,18487.019343435186,-7879.1381134518242,-4386.658665156745,3175.2779289674918,-663.31542074416313,295.12169537598129,14141.972848136358,7351.5491063828858,-10292.471817085723,10292.471817085723,-7351.5491063828858,25609.456467573418,0.0
583296.95196600363,3685566.251970998,-7500.0,22455.371723373461,-15298.604471322042,2042.0196419877195,4536.2451515461398,-2398.0416455362065,473.24765999881191,18815.338334786506,3486.1766396244861,-7702.6630335838927,7702.6630335838927,-3486.1766396244861,35104.360858298845,0.0
588296.95196600363,3685566.251970998,-7500.0,23870.129570346613,-23844.775071067714,14422.819450094297,5789.9896085907721,-5052.7804011742528,629.35437770104886,24981.941976760299,-4062.4861582862441,1.1979947449533483,-1.1979947449533483,4062.4861582862441,47882.21060376177,0.0
593296.95196600363,3685566.251970998,-7500.0,20855.741579434103,-30598.637534587644,33866.317534984191,6443.0611089855647,-8533.2657394935031,689.12329329907891,32259.604776933375,-14791.079005986991,14583.744385452177,-14583.744385452177,14791.079005986991,63167.758687452224,0.0
598296.95196600363,3685566.251970998,-7500.0,13247.011225037182,-30917.770241967988,58002.792768450709,5958.478964719392,-12282.722874893636,621.71691955141341,39445.604982758457,-25203.895119829449,34862.30822414405,-34862.30822414405,25203.895119829449,78449.759466222633,1.0
603296.95196600363,3685566.251970998,-7500.0,4340.7979784181171,-21306.138882934447,79235.436859401088,4093.9406747820881,-15299.968837936067,517.01165460236712,45054.250668813635,-29217.752643906952,54521.130512238204,-54521.130512238204,29217.752643906952,89580.199950721624,0.0
608296.95196600363,3685566.251970998,-7500.0,-432.37462594328338,-3730.0883292005815,87748.860107310655,1194.0122834590156,-16523.348459508248,528.76666549201525,46780.249074130785,-22520.504150983063,64301.042466689076,-64301.042466689076,22520.504150983063,92505.027601771653,0.0
613296.95196600363,3685566.251970998,-7500.0,1720.2315677943134,14153.608396807191,79000.047442475625,-1858.0099205847303,-15409.567966651301,681.0327626285349,43484.181562826438,-7395.3749733205332,59088.225508646443,-59088.225508646443,7395.3749733205332,85890.941416448142,0.0
618296.95196600363,3685566.251970998,-7500.0,8363.971996811586,24861.961112132198,57515.835162415533,-4081.6688609952289,-12291.043789396668,817.4207631573496,36539.262647067648,8674.1032611596129,42216.136163510178,-42216.136163510178,-8674.1032611596129,72120.203876415864,0.0
623296.95196600363,3685566.251970998,-7500.0,14735.443100086752,26240.229847112525,32454.992018259032,-4937.2926682185471,-8192.8873231444177,787.68790818693367,28651.679805471329,19220.637832458939,21788.186334626698,-21788.186334626698,-19220.637832458939,55640.09337887806,0.0
628296.95196600363,3685566.251970998,-7500.0,17706.856227531902,20892.500725929276,11160.763383441215,-4526.0691104937905,-4239.5464756664278,588.53625501873137,21685.66022934849,22350.92646081877,4540.9108387388842,-4540.9108387388842,-22350.92646081877,40604.150352096338,0.0
633296.95196600363,3685566.251970998,-7500.0,16842.81649409057,12812.386486655634,-3300.3042022342111,-3352.7151893123169,-1152.958655063738,316.27233732139933,16572.764394403897,19737.463212222559,-6688.4918155911819,6688.4918155911819,-19737.463212222559,29599.959127716877,0.0
638296.95196600363,3685566.251970998,-7500.0,13339.753184458532,5050.1597368096336,-11166.686555257955,-1960.2531946627239,857.58786835966578,65.672212065543505,13421.013353916858,14196.008910230055,-12145.118267995371,12145.118267995371,-14196.008910230055,23274.725296923323,0.0
643296.95196600363,3685566.251970998,-7500.0,8750.6852051367478,-886.89770762719593,-14168.458496092226,-716.40901819099815,1928.9689311833463,-115.38416804329174,11655.368470245116,8083.1399233447974,-13459.230742331603,13459.230742331603,-8083.1399233447974,20390.043349303534,0.0
648296.95196600363,3685566.251970998,-7500.0,4269.1274933931954,-4690.052325283179,-14214.672248251749,217.13461519577817,2331.3639870775091,-220.64668418373617,10547.835008085469,2779.7095728187978,-12402.551871050298,12402.551871050298,-2779.7095728187978,19006.783714166013,0.0
653296.95196600363,3685566.251970998,-7500.0,545.20415017468315,-6684.8276925388382,-12790.48734969709,823.8839736406735,2327.8404120687701,-265.21500525396874,9638.2254874305145,-1187.6106258469163,-10321.523594996641,10321.523594996641,1187.6106258469163,17889.762109651005,0.0
658296.95196600363,3685566.251970998,-7500.0,-2212.5653329836045,-7394.3296378589539,-10841.870195413354,1159.2231564836545,2116.5297352041657,-269.47342562770064,8753.163766378646,-3820.3965558539498,-8039.1098438446079,8039.1098438446079,3820.3965558539498,16628.495504194954,0.0
663296.95196600363,3685566.251970998,-7500.0,-4058.4381246999747,-7304.2894857431802,-8880.7033667687501,1298.5626187233893,1824.5555370569741,-250.99111467907579,7867.8926759750511,-5357.8066733885289,-5966.595458299721,5966.595458299721,5357.8066733885289,15205.760493927686,0.0
668296.95196600363,3685566.251970998,-7500.0,-5160.4853115857441,-6779.8276026490284,-7136.6245118381394,1310.5905224177504,1523.3734238778857,-222.14133545334931,7005.7624278826725,-6094.2172470251335,-4256.2566594914442,4256.2566594914442,6094.2172470251335,13713.65566739787,0.0
673296.95196600363,3685566.251970998,-7500.0,-5709.1111686022059,-6062.578385825248,-5681.1222900564571,1247.9509211397567,1247.6575470133616,-190.52042408550932,6194.2112023608252,-6292.1188821350424,-2923.0680938724745,2923.0680938724745,6292.1188821350424,12243.685337270837,0.0
678296.95196600363,3685566.251970998,-7500.0,-5873.270486179098,-5297.4677995354541,-4508.5800743858772,1146.973090320118,1010.5254846790896,-160.24052501074127,5451.5420818479979,-6154.1316598791182,-1921.9470066287499,1921.9470066287499,6154.1316598791182,10858.369876901954,0.0
683296.95196600363,3685566.251970998,-7500.0,-5786.0952155238838,-4563.2698749528217,-3582.3133279588315,1030.8443146192774,813.75362252440345,-133.18921264249144,4805.6958896602964,-5823.8046014187476,-1189.7782022771266,1189.7782022771266,5823.8046014187476,9591.6124690551205,0.0
688296.95196600363,3685566.251970998,-7500.0,-5545.1853902622233,-3897.3605611103367,-2857.8949553742573,913.34649550412871,653.88943149746569,-109.96973492248432,4257.8832548650516,-5396.8787524222571,-665.17307204324334,665.17307204324334,5396.8787524222571,8456.3983892469751,0.0
693296.95196600363,3685566.251970998,-7500.0,-5218.5775502910865,-3313.0074933100973,-2293.5422088901291,802.02013616987233,525.59352288544233,-90.514216697069216,3767.5892110000004,-4934.0918728066781,-295.99018933630214,295.99018933630214,4934.0918728066781,7452.4901422706289,0.0
698296.95196600363,3685566.251970998,-7500.0,-4851.81330472625,-2810.429623241384,-1853.819505424837,700.4899918278611,423.30639752515299,-74.448787022746671,3333.8283341652877,-4472.0657757166327,-40.890391667572658,40.890391667572658,4472.0657757166327,6572.2018350528979,0.0
703296.95196600363,3685566.251970998,-7500.0,-4474.2425770990221,-2383.46335339303,-1510.2229179296792,610.04836374555987,341.98396617573252,-61.295370528096726,2952.8220458438823,-4031.5178194326863,131.6238177668813,-131.6238177668813,4031.5178194326863,5804.2641309096389,0.0
708296.95196600363,3685566.251970998,-7500.0,-4103.9850792336392,-2023.3625098585219,-1240.4814208978637,530.67450858017025,277.34652289913947,-50.574522433724525,2619.5411197314929,-3623.030419310312,244.97454778040105,-244.97454778040105,3623.030419310312,5136.1884221192731,0.0
518296.95196600363,3690566.251970998,-7500.0,-1383.8004159347672,1727.2427858538044,-1367.0636708604436,-225.72961866696937,255.7971180063054,-26.2546220416884,1746.5800850963872,582.93120729264081,-353.16566944617188,353.16566944617188,-582.93120729264081,3334.6290357545017,0.0
523296.95196600363,3690566.251970998,-7500.0,-1271.0421368244488,1921.6088899727272,-1618.5043833155175,-234.3587387915359,300.42675520973989,-29.844784017176877,1951.6666095251817,838.47185671511966,-554.86467831444929,554.86467831444929,-838.47185671511966,3688.6112618498682,0.0
528296.95196600363,3690566.251970998,-7500.0,-1071.0329400900969,2119.6167811801506,-1921.5609052214252,-235.44159707270799,351.90763040542674,-33.493992973023971,2187.3017444016928,1162.6318858052564,-823.43919821950476,823.43919821950476,-1162.6318858052564,4086.3775952280585,0.0
533296.95196600363,3690566.251970998,-7500.0,-749.46281344224678,2306.8374887619934,-2284.2723499852264,-223.91672920577972,409.95584810642009,-36.830198945963701,2460.0840227705125,1569.1600002496803,-1177.8947891936755,1177.8947891936755,-1569.1600002496803,4536.1157376333958,0.0
538296.95196600363,3690566.251970998,-7500.0,-261.20528636720564,2458.2275890660035,-2712.5853639683346,-192.24669293090201,472.94404089548891,-39.178241431506166,2779.533762119408,2071.0917319402615,-1640.4847441370878,1640.4847441370878,-2071.0917319402615,5051.0777243482044,0.0
543296.95196600363,3690566.251970998,-7500.0,451.34729914256235,2532.2757522295319,-3206.3361252460199,-129.43704675637179,536.72884057891952,-39.376038957748278,3160.2544880599694,2677.0205493558069,-2234.9500074655216,2234.9500074655216,-2677.0205493558069,5654.7593809116843,0.0
548296.95196600363,3690566.251970998,-7500.0,1458.2906901390384,2462.7219160240329,-3751.4910396814398,-19.877394207521863,592.68784046489134,-35.506738959342321,3625.7207712484987,3383.8859038452124,-2981.7140313213499,2981.7140313213499,-3383.8859038452124,6390.6899115419537,0.0
553296.95196600363,3690566.251970998,-7500.0,2838.0521055828567,2147.7701878636535,-4305.8903468774342,157.75430364052116,624.56687423505673,-24.539992943397912,4214.4797290115694,4164.0373697629084,-3887.1722587454474,3887.1722587454474,-4164.0373697629084,7339.1971639699486,0.0
558296.95196600363,3690566.251970998,-7500.0,4664.4934895546658,1438.2181062070445,-4774.3566833189097,430.86973506356014,603.71214081152539,-1.9241683489161201,4989.1296295091142,4943.7182092122475,-4922.3401874379815,4922.3401874379815,-4943.7182092122475,8641.6141097993241,0.0
563296.95196600363,3690566.251970998,-7500.0,6977.9231033545439,129.75534916872863,-4968.0365358788858,831.20786419508272,482.53132943957064,38.706008134118235,6046.6455003200572,5570.6804393218681,-5984.0438257943406,5984.0438257943406,-5570.6804393218681,10525.436646215521,0.0
568296.95196600363,3690566.251970998,-7500.0,9730.6528930427394,-2027.2224021842983,-4544.6591456994229,1388.286179804988,187.12180253465081,105.29915712975937,7524.9342854520291,5773.1375065711982,-6831.6167086566984,6831.6167086566984,-5773.1375065711982,13313.263744976224,0.0
573296.95196600363,3690566.251970998,-7500.0,12701.333556725658,-5273.1397488503862,-2937.0827249928957,2114.2621219680723,-387.33769141671945,205.88210876372102,9595.9624660379777,5126.0279017255052,-6999.6340605754885,6999.6340605754885,-5126.0279017255052,17394.416120494618,0.0
578296.95196600363,3690566.251970998,-7500.0,15393.147188919571,-9697.5859001219887,691.0839863273111,2976.8149687513351,-1369.754525251446,344.86761091388041,12433.080730262018,3070.8396909027897,-5715.6566463778281,5715.6566463778281,-3070.8396909027897,23145.260952262845,0.0
583296.95196600363,3690566.251970998,-7500.0,16985.035357567878,-14973.947690527822,7360.4443275139693,3862.7689057082512,-2880.2472241780824,517.15672792339979,16140.136717514741,-920.54036763572276,-1917.53236877992,1917.53236877992,920.54036763572276,30783.679661526319,0.0
588296.95196600363,3690566.251970998,-7500.0,16488.607866190021,-20018.277511989902,17884.377804082334,4551.1373413481451,-4957.2552007554259,703.14132374644259,20636.418755222265,-6934.2141255541173,5443.0562149153757,-5443.0562149153757,6934.2141255541173,40139.980090359961,0.0
593296.95196600363,3690566.251970998,-7500.0,13282.402784199199,-22843.601677495804,32037.251270894132,4735.7072271338102,-7453.1191125104524,871.89769285966111,25520.795759724439,-13996.342231211684,16625.075159618144,-16625.075159618144,13996.342231211684,50377.973918687247,0.0
598296.95196600363,3690566.251970998,-7500.0,7925.3430302306124,-21124.165595547784,47558.743275873763,4136.73611330525,-9957.8070173041669,997.26792168698285,30014.18288955856,-19712.278024454958,30031.009808668452,-30031.009808668452,19712.278024454958,59840.541847221946,0.0
603296.95196600363,3690566.251970998,-7500.0,2531.459561553047,-13715.859563775666,60024.269000907872,2681.1962896411096,-11851.57705399003,1074.2461612769055,33321.763895422009,-21006.654279130522,41820.187752635073,-41820.187752635073,21006.654279130522,66322.291786463873,0.0
608296.95196600363,3690566.251970998,-7500.0,-211.38099477972165,-2179.5794626529459,64668.725321031467,632.89012979159031,-12536.218831597189,1110.5472449597085,34222.61554141737,-16154.067479803629,47414.240589748915,-47414.240589748915,16154.067479803629,67914.155685822348,0.0
613296.95196600363,3690566.251970998,-7500.0,996.76823658061119,9523.7632760287615,59400.406157974263,-1466.1166565093154,-11739.428706464258,1098.5618656883214,32252.068712867531,-6484.4738121792652,44406.496371444053,-44406.496371444053,6484.4738121792652,64008.182446984974,0.0
618296.95196600363,3690566.251970998,-7500.0,5076.7485240300875,17437.328558170142,46241.889693688252,-3046.497110179977,-9674.7743428461163,1012.449455749902,28084.76558843103,4258.93461443858,34216.649756152176,-34216.649756152176,-4258.93461443858,55670.668316039519,0.0
623296.95196600363,3690566.251970998,-7500.0,9595.3463552411267,19870.139466229939,29778.012485090137,-3782.4710016695076,-6926.2903498979522,841.22752952355631,23052.661604026991,12403.993463794424,20850.911931956907,-20850.911931956907,-12403.993463794424,45077.324099098725,0.0
628296.95196600363,3690566.251970998,-7500.0,12516.887500009674,17634.669351039342,14391.445152113583,-3690.3434006984307,-4151.9596096171599,611.0379336592224,18153.204165673469,16225.422417141477,8305.8156236820778,-8305.8156236820778,-16225.422417141477,34541.255334793495,0.0
633296.95196600363,3690566.251970998,-7500.0,13079.705863254459,12783.255846388507,2609.4891603269043,-3026.6624494979596,-1825.8888480707453,370.22917253297396,14101.308928590046,16031.716085735841,-1079.9878594233578,1079.9878594233578,-16031.716085735841,25803.174563111483,0.0
638296.95196600363,3690566.251970998,-7500.0,11610.486599904982,7305.1441249598438,-4967.3692750768041,-2111.0234196267329,-150.20918034431685,161.16257963933379,11214.28339944821,13204.989822688698,-6757.8092516493061,6757.8092516493061,-13204.989822688698,19739.286272464145,0.0
643296.95196600363,3690566.251970998,-7500.0,8926.764394855134,2494.4469829284317,-8941.5937662002289,-1197.7780747751135,890.54730354534775,5.38403947925487,9395.1909783241681,9246.7701667300971,-9304.5236439994515,9304.5236439994515,-9246.7701667300971,16272.948996321917,0.0
648296.95196600363,3690566.251970998,-7500.0,5844.1705911260524,-1093.79344237798,-10357.126985716992,-432.54537599750154,1425.7530848042866,-95.081410394787966,8289.9914065695302,5269.0565206258998,-9701.6495999575709,9701.6495999575709,-5269.0565206258998,14552.729050512637,0.0
653296.95196600363,3690566.251970998,-7500.0,2940.4021070731496,-3417.8096210979279,-10215.071791136495,133.27583957823015,1612.5742132493533,-149.54127177199291,7535.9795312375727,1886.5248346019071,-8875.1763023727653,8875.1763023727653,-1886.5248346019071,13596.444978367159,0.0
658296.95196600363,3690566.251970998,-7500.0,520.47782187283622,-4692.6220661325078,-9272.7314898673285,507.56899926755545,1588.0365448641462,-170.95723766312454,6908.2967062323414,-681.20417812032838,-7508.1172934881342,7508.1172934881342,681.20417812032838,12806.803950977934,0.0
663296.95196600363,3690566.251970998,-7500.0,-1320.212361051354,-5206.6874640644355,-8021.3205220222026,725.52431522367078,1452.6035661729277,-171.34026121740439,6313.191389182768,-2454.1156797121339,-6025.3191448726602,6025.3191448726602,2454.1156797121339,11965.015039420981,0.0
668296.95196600363,3690566.251970998,-7500.0,-2612.0612596871051,-5224.4905793129783,-6740.6021940117889,828.64640362630098,1271.5048037211075,-159.92218193585856,5729.1805893551054,-3562.7304205501096,-4651.2091432845773,4651.2091432845773,3562.7304205501096,11044.348613049067,0.0
673296.95196600363,3690566.251970998,-7500.0,-3443.3943782940146,-4950.7840318377275,-5568.2013307589932,854.10312706699983,1082.8488702800382,-142.98872273721389,5162.5591838447217,-4166.4272501006208,-3479.6807452551375,3479.6807452551375,4166.4272501006208,10082.517345963352,0.0
678296.95196600363,3690566.251970998,-7500.0,-3917.392656794334,-4528.250352728558,-4556.937437325304,830.97538598821268,906.42868506655805,-124.4239792300887,4625.400745046195,-4412.0259542718331,-2530.4859472265889,2530.4859472265889,4412.0259542718331,9125.4016441135209,0.0
683296.95196600363,3690566.251970998,-7500.0,-4129.6855245868337,-4048.6661715521068,-3714.1950308288601,780.15383279353784,750.79333044283294,-106.4055293095028,4127.37501109398,-4418.2634414619006,-1786.9410685611854,1786.9410685611854,4418.2634414619006,8208.5239153351122,0.0
688296.95196600363,3690566.251970998,-7500.0,-4159.4573441653602,-3566.8395832548281,-3026.0104083291926,715.72575467747333,618.15785926046999,-90.006623066143845,3681.607618743391,-4273.9997872548811,-1218.1522007534118,1218.1522007534118,4273.9997872548811,7354.101304720235,0.0
693296.95196600363,3690566.251970998,-7500.0,-4067.9487738727094,-3112.7410874398743,-2470.4990410383625,646.68076603643419,507.49919909970436,-75.63766450286731,3307.4917274269305,-4042.2610519572713,-790.71836722702346,790.71836722702346,4042.2610519572713,6573.2490376472124,0.0
698296.95196600363,3690566.251970998,-7500.0,-3900.3667748003359,-2700.6302316686701,-2024.7022989199813,578.43511557796376,416.37388974808431,-63.340570528256578,2965.97872622362,-3765.9149177208028,-474.1213504316122,474.1213504316122,3765.9149177208028,5869.240812539234,0.0
703296.95196600363,3690566.251970998,-7500.0,-3688.9189323672717,-2335.3537360210807,-1667.6691725400642,514.01787594596146,341.91210763101219,-52.971712065885647,2657.7198187809213,-3473.0313850113744,-242.65995557657038,242.65995557657038,3473.0313850113744,5240.3617575596099,0.0
518296.95196600363,3695566.251970998,-7500.0,-775.81991824239299,1488.800809051133,-1372.80891548813,-151.52803265043698,230.26052819040393,-19.808658149639438,1533.8093173837185,807.1150620920323,-587.48583054703477,587.48583054703477,-807.1150620920323,2873.4656437735593,0.0
523296.95196600363,3695566.251970998,-7500.0,-577.88653635664321,1606.1429020540299,-1599.3562651917712,-145.11459979834493,264.50505317117432,-21.664643101140687,1702.7453450466544,1059.4727011800369,-807.85298788248804,807.85298788248804,-1059.4727011800369,3151.6813931737906,0.0
528296.95196600363,3695566.251970998,-7500.0,-288.09706653700567,1704.8212117646935,-1861.9131779231391,-128.55010763037686,301.69830014489236,-23.116717541647279,1897.1528258265814,1365.086163642648,-1087.5878025865281,1087.5878025865281,-1365.086163642648,3464.9717395610455,0.0
533296.95196600363,3695566.251970998,-7500.0,122.15937892608464,1765.3712332658438,-2160.7331891311619,-96.857445472472264,340.21047791351072,-23.702737991749721,2124.0203338803904,1729.0594915848424,-1438.6022075764213,1438.6022075764213,-1729.0594915848424,3824.2472550260677,0.0
538296.95196600363,3695566.251970998,-7500.0,687.59161662520728,1757.9929216493817,-2490.6280146022177,-43.120967639569528,376.7450626666361,-22.677508379037022,2394.0663341811492,2152.2609291155554,-1871.9769045994385,1871.9769045994385,-2152.2609291155554,4248.6676847807321,0.0
543296.95196600363,3695566.251970998,-7500.0,1448.1248361769049,1638.3684268405468,-2836.0205819680746,42.032394213258272,405.25586371752274,-18.874114482414733,2724.0993961415952,2626.8950590403783,-2394.4809133088029,2394.4809133088029,-2626.8950590403783,4771.9913526832424,0.0
548296.95196600363,3695566.251970998,-7500.0,2445.5908949445643,1342.7284083841191,-3162.6748228231977,170.85870850848841,415.31209030448366,-10.520186367757461,3140.4709673855123,3129.3106782369537,-3001.9125530319457,3001.9125530319457,-3129.3106782369537,5452.0080389160294,0.0
553296.95196600363,3695566.251970998,-7500.0,3715.9643134504372,783.18128723621305,-3404.4803848272777,358.52194648588392,389.76282364127547,4.9794517658762087,3683.4676821422181,3609.0809372979534,-3667.2778474817819,3667.2778474817819,-3609.0809372979534,6381.9868991998037,0.0
558296.95196600363,3695566.251970998,-7500.0,5274.2475133422413,-154.01058874573405,-3443.6127720036211,622.11506685406732,301.68437746697168,31.243851143569259,4411.5993416242,3973.9370748614583,-4321.3059450840465,4321.3059450840465,-3973.9370748614583,7699.8494529708469,0.0
563296.95196600363,3695566.251970998,-7500.0,7088.7676923488607,-1601.4507164144104,-3083.6032964012047,977.6470034978787,111.01306166368865,72.975405501969064,5403.4255174235186,4072.2261514310817,-4823.2451550411724,4823.2451550411724,-4072.2261514310817,9587.9881572915983,0.0
568296.95196600363,3695566.251970998,-7500.0,9043.4969357987884,-3684.5392063557642,-2019.2793282465686,1433.5394690540654,-237.78265312411699,135.63520477339472,6753.39043231493,3679.7729719633057,-4923.256812911226,4923.256812911226,-3679.7729719633057,12257.714038674261,0.0
573296.95196600363,3695566.251970998,-7500.0,10894.32713447238,-6461.3566144114129,181.6414732404707,1979.2287189788544,-813.92122464317185,224.37674177303529,8557.5986883459318,2508.0645459758371,-4227.6473364200529,4227.6473364200529,-2508.0645459758371,15915.165127096947,0.0
578296.95196600363,3695566.251970998,-7500.0,12242.192071984879,-9815.4384841128085,4050.5895777169058,2569.0717998982173,-1689.1273953540726,341.92253410775578,10885.347306044096,264.5273253100379,-2198.7433608921201,2198.7433608921201,-264.5273253100379,20703.256521325337,0.0
583296.95196600363,3695566.251970998,-7500.0,12572.067064487564,-13311.219077503101,10085.089977914671,3106.3858367882572,-2910.7565599164718,485.56310748223956,13733.40710780388,-3197.6466825467833,1749.8559639017933,-1749.8559639017933,3197.6466825467833,26610.934682497202,0.0
588296.95196600363,3695566.251970998,-7500.0,11422.572396773556,-16083.015987786632,18452.104935908621,3440.2314347438496,-4457.2781734675136,644.57926800785754,16967.054051407275,-7633.2292563566252,7990.1511147378651,-7990.1511147378651,7633.2292563566252,33353.283045582255,0.0
593296.95196600363,3695566.251970998,-7500.0,8703.6390469958515,-16915.539815345623,28554.72099047598,3393.4287162494952,-6188.6187487342941,800.43957979481115,20271.099943497196,-12161.689255867783,16245.504773170403,-16245.504773170403,12161.689255867783,40264.905557149781,0.0
598296.95196600363,3695566.251970998,-7500.0,5018.4167200982874,-14686.08753934127,38701.166954502987,2831.9485813980773,-7825.4311025146135,931.14051246068379,23206.378237715457,-15283.11093247126,25190.895355001339,-25190.895355001339,15283.11093247126,46300.319756508521,0.0
603296.95196600363,3695566.251970998,-7500.0,1656.3728238072026,-9106.8937440444242,46316.00848395189,1754.1818076036673,-8999.3351492113143,1017.2229455279994,25264.713408954412,-15420.192880121558,32529.804457166076,-32529.804457166076,15420.192880121558,50243.784415405724,0.0
608296.95196600363,3695566.251970998,-7500.0,14.425281744640026,-1267.7082615042191,48941.852042837185,341.2982310957712,-9382.5840133528436,1044.7898903360124,25744.722025735278,-11864.397350856885,35866.519381705642,-35866.519381705642,11864.397350856885,51125.443824225324,0.0
613296.95196600363,3695566.251970998,-7500.0,736.25977217787897,6645.1124072269768,45550.200491769298,-1086.9856149849136,-8837.6960657818236,1005.6159435733749,24469.181477727107,-5424.4730294264518,33990.169202297831,-33990.169202297831,5424.4730294264518,48647.946608441292,0.0
618296.95196600363,3695566.251970998,-7500.0,3299.2844412296922,12430.686980162651,37140.335764422533,-2202.5096092464837,-7488.8208184908462,899.59951942797693,21799.971430960002,1894.4614179474156,27571.844424813939,-27571.844424813939,-1894.4614179474156,43342.236869689739,0.0
623296.95196600363,3695566.251970998,-7500.0,6416.8268513856747,14927.823468642719,26128.999762136009,-2803.5793540407167,-5662.7879826065655,739.52808159150993,18482.782875876794,7976.0529356547186,18695.278120472885,-18695.278120472885,-7976.0529356547186,36345.767188559221,0.0
628296.95196600363,3695566.251970998,-7500.0,8834.5988594054761,14291.166867204418,15108.256416056836,-2870.7305465428435,-3743.9144194946753,550.73245003485454,15047.630351649081,11553.308546512573,9705.5763555241829,-9705.5763555241829,-11553.308546512573,28973.050950094512,0.0
633296.95196600363,3695566.251970998,-7500.0,9874.7133813302498,11531.794288210924,5892.7624936299289,-2527.6212097743196,-2038.1184926579892,362.74313642192698,11969.741997043851,12460.450863290185,2275.5674289803183,-2275.5674289803183,-12460.450863290185,22339.036211955878,0.0
638296.95196600363,3695566.251970998,-7500.0,9499.9848098759176,7857.2626187796823,-752.00648581867927,-1955.970742959923,-710.18986529087636,199.12921103934718,9543.7626213968833,11298.761908457287,-2887.5948155872929,2887.5948155872929,-11298.761908457287,17159.756726517749,0.0
643296.95196600363,3695566.251970998,-7500.0,8078.5855484483327,4222.6807531465383,-4882.4559876253043,-1321.7373640383455,205.99690185921969,72.239849175021476,7839.2675231474532,8941.7619148105914,-5845.0479677958156,5845.0479677958156,-8941.7619148105914,13681.40933434297,0.0
648296.95196600363,3695566.251970998,-7500.0,6103.2102206673717,1181.1032586769138,-6991.4991783499372,-738.49497672664006,760.7306380297141,-16.120531792691292,6736.204197382749,6173.8811838096499,-7064.6737392462692,7064.6737392462692,-6173.8811838096499,11676.644967995542,0.0
653296.95196600363,3695566.251970998,-7500.0,4002.6449040892257,-1066.1389237812841,-7688.9618195253815,-263.7863616168645,1039.7941514299462,-70.920374472665529,6022.9951181255637,3533.751640219135,-7117.20663939721,7117.20663939721,-3533.751640219135,10607.700063568516,0.0
658296.95196600363,3695566.251970998,-7500.0,2065.8191586874796,-2545.0433338870898,-7517.4307288463724,87.298325732650738,1130.7570338701132,-99.942405734355603,5508.4255388715846,1307.292790347472,-6501.7002191594229,6501.7002191594229,-1307.292790347472,9953.1201845567157,0.0
663296.95196600363,3695566.251970998,-7500.0,442.68223573995135,-3391.0957363144785,-6883.274077032208,324.78876492826186,1106.2011201933958,-111.04155826769083,5074.4427812724934,-409.50405635396646,-5582.2399217793609,5582.2399217793609,409.50405635396646,9402.4351351884998,0.0
668296.95196600363,3695566.251970998,-7500.0,-820.68919047587394,-3768.6530862917639,-6056.0584703957702,469.76209766129273,1019.0625979535685,-110.77402954716004,4667.772363025575,-1635.5285392930875,-4590.5253487782329,4590.5253487782329,1635.5285392930875,8832.6367712598403,0.0
673296.95196600363,3695566.251970998,-7500.0,-1741.6496369628055,-3827.886100319156,-5196.7060678356647,545.39634294310952,904.41236785718422,-104.00722969883859,4272.6760540488585,-2444.4814794900362,-3655.4780776722823,3655.4780776722823,2444.4814794900362,8220.8167004506831,0.0
678296.95196600363,3695566.251970998,-7500.0,-2368.5593558954843,-3688.1746228686579,-4390.7143345485829,572.40044212934845,783.56755771621897,-94.055049619447445,3889.7404045533231,-2926.1400642443568,-2836.7627867968349,2836.7627867968349,2926.1400642443568,7582.5218826684904,0.0
683296.95196600363,3695566.251970998,-7500.0,-2759.4593657730939,-3436.3438979727357,-3676.1015324481664,567.34121432539223,668.30913948688999,-83.011686762782858,3524.3775664667137,-3165.5528933935566,-2152.3164056700743,2152.3164056700743,3165.5528933935566,6941.7481568602034,0.0
688296.95196600363,3695566.251970998,-7500.0,-2970.1653728672632,-3131.4391121529329,-3063.4692579881066,542.55235240022955,564.30464410848913,-72.102473565272973,3181.8985019718298,-3234.2203934290969,-1597.6266507264886,1597.6266507264886,3234.2203934290969,6319.3366590057958,0.0
693296.95196600363,3695566.251970998,-7500.0,-3048.8389023287027,-2811.2938210549241,-2549.0381690115314,506.73906030072095,473.56552777286447,-61.976300259642265,2868.550613259913,-3188.0955357680045,-1157.8610447078549,1157.8610447078549,3188.0955357680045,5729.8846459351971,0.0
698296.95196600363,3695566.251970998,-7500.0,-3034.4065775261661,-2498.6578191365415,-2122.4948405260993,465.77622727580462,396.07492115828524,-52.921777654319854,2605.7560942860814,-3068.8708625281379,-814.83817095688573,814.83817095688573,3068.8708625281379,5182.0193793393828,0.0
523296.95196600363,3700566.251970998,-7500.0,-20.443828548363449,1271.4790503386303,-1519.3344762326117,-71.409830782816499,224.45770565554517,-14.715376052697216,1489.4078161078196,1169.1841378194931,-972.57627502364141,972.57627502364141,-1169.1841378194931,2696.6110427324484,0.0
528296.95196600363,3700566.251970998,-7500.0,317.24939477389989,1282.5024196772749,-1728.4221224565256,-43.074833967835694,248.08622897262964,-14.528253478994925,1655.4130355478162,1434.8393490627177,-1238.5974745004005,1238.5974745004005,-1434.8393490627177,2956.4817441714831,0.0
533296.95196600363,3700566.251970998,-7500.0,763.38808709683678,1237.4416488670449,-1950.0018340974034,0.83109227013621412,268.89732739927393,-13.167276612715277,1852.9695572116257,1734.1210719361468,-1556.3270135960413,1556.3270135960413,-1734.1210719361468,3266.3634968338438,0.0
538296.95196600363,3700566.251970998,-7500.0,1341.229140142593,1106.5758253496533,-2170.1714470649708,66.035437043422448,282.70367972111632,-9.9132141799957285,2094.1930350097409,2058.821562124444,-1926.5805904742861,1926.5805904742861,-2058.821562124444,3652.0533962801796,0.0
543296.95196600363,3700566.251970998,-7500.0,2073.7380522355556,849.28603962167108,-2362.7809162930166,159.7568266398911,282.74817186216058,-3.7127213616309258,2397.2264048064699,2390.5946433672189,-2342.2510209702923,2342.2510209702923,-2390.5946433672189,4154.7706507004959,0.0
548296.95196600363,3700566.251970998,-7500.0,2978.9715249774431,412.24490892474518,-2482.2381485694677,290.63626687755254,258.52096416365634,6.9336990000874845,2788.3830921528925,2695.2500255831042,-2781.6618403754278,2781.6618403754278,-2695.2500255831042,4836.3874320116956,0.0
553296.95196600363,3700566.251970998,-7500.0,4061.9612819621452,-270.55689593367197,-2453.4069438378046,468.1752434039351,194.27830881754176,24.083229245081707,3303.9223842937963,2915.4160691892926,-3198.4066664193883,3198.4066664193883,-2915.4160691892926,5782.4406078490592,0.0
558296.95196600363,3700566.251970998,-7500.0,5301.9224894234239,-1273.3544169217632,-2158.7305381941619,701.25215381631233,67.452424634862211,50.416936549278795,3990.3999464847393,2962.5766716387488,-3507.0952214998824,3507.0952214998824,-2962.5766716387488,7100.2254203308512,0.0
563296.95196600363,3700566.251970998,-7500.0,6634.4965547875663,-2665.4540958221155,-1424.6084905545752,995.13330120465662,-152.49464625399847,89.173433040381823,4902.2464330953708,2711.5757348097568,-3565.9358107729304,3565.9358107729304,-2711.5757348097568,8910.4182634589324,0.0
568296.95196600363,3700566.251970998,-7500.0,7931.5341758459126,-4483.616430175568,-13.13118862724399,1346.3973444312633,-503.59452376564633,143.81109380494183,6095.125743420771,2004.3388668646157,-3160.859280428831,3160.859280428831,-2004.3388668646157,11331.50975630388,0.0
573296.95196600363,3700566.251970998,-7500.0,8986.815837957889,-6684.8860782512465,2367.7651543374895,1735.6703799781046,-1027.2626025979901,217.23264101284616,7613.4980513436421,674.37032154732094,-2003.0609189972961,2003.0609189972961,-674.37032154732094,14454.676466498729,0.0
578296.95196600363,3700566.251970998,-7500.0,9525.1043388756825,-9081.7999144634541,6014.1887564112485,2119.5047195652232,-1757.9463262206734,310.47503109464827,9470.9736261007802,-1393.5128145855977,238.14514728179279,-238.14514728179279,1393.5128145855977,18304.901845383592,0.0
583296.95196600363,3700566.251970998,-7500.0,9259.2821315096298,-11280.53032652713,11111.932716789177,2425.3865364343528,-2704.6987268772036,421.03177626609465,11623.887776278565,-4160.8183469396618,3838.7347994819911,-3838.7347994819911,4160.8183469396618,22787.40774490482,0.0
588296.95196600363,3700566.251970998,-7500.0,8012.6868474097846,-12672.496130313226,17552.70275618348,2556.8578276649841,-3826.6927654577207,541.42804079308428,13944.222828925047,-7311.8784370045469,8844.6000846630795,-8844.6000846630795,7311.8784370045469,27630.188426854715,0.0
593296.95196600363,3700566.251970998,-7500.0,5882.7796197762364,-12551.280960810325,24734.66133175874,2415.9586992312338,-5012.2962321557334,659.03702487781447,16217.317643693892,-10183.679282473031,14857.116295923761,-14857.116295923761,10183.679282473031,32351.849706170244,0.0
598296.95196600363,3700566.251970998,-7500.0,3350.2327244684184,-10392.115866278096,31487.106196862915,1943.0934927708352,-6079.0540732236313,757.85407364350601,18233.760849356706,-11865.139398521165,20910.669991404156,-20910.669991404156,11865.139398521165,36297.730710562479,0.0
603296.95196600363,3700566.251970998,-7500.0,1196.0621883353708,-6205.2136195680632,36289.170039540724,1159.4390598878772,-6810.3922088115214,821.90230929739926,19528.908578266983,-11531.511789140992,25622.925928409728,-25622.925928409728,11531.511789140992,38774.835890920345,0.0
608296.95196600363,3700566.251970998,-7500.0,178.13378867156939,-726.01363641939008,37810.779132425734,184.33940557965062,-7026.0696329745751,839.01364484901251,19785.290232736323,-8894.3072064788012,27680.746237363099,-27680.746237363099,8894.3072064788012,39262.734168968585,0.0
613296.95196600363,3700566.251970998,-7500.0,631.50524533733312,4776.6742595212081,35519.917932286568,-793.37775076124251,-6655.2332420581615,803.9278093978445,18917.860935067718,-4461.569311810641,26442.065711255134,-26442.065711255134,4461.569311810641,37608.909901956795,0.0
618296.95196600363,3700566.251970998,-7500.0,2284.306892527467,9023.8600472028011,29949.59850677189,-1582.184304868965,-5768.985590103598,720.20499787247036,17112.470082883508,632.13540551004735,22251.094695899628,-22251.094695899628,-632.13540551004735,34098.823529012974,0.0
623296.95196600363,3700566.251970998,-7500.0,4429.6905705021227,11245.304029811741,22434.457223875892,-2056.0164713467202,-4551.4192404159303,600.13583440330979,14857.590027632994,5135.238426616349,16243.27921854112,-16243.27921854112,-5135.238426616349,29359.594714422266,0.0
628296.95196600363,3700566.251970998,-7500.0,6302.7978082681839,11376.728520488861,14524.408532245679,-2186.6201235949543,-3228.1660916655574,461.78722637782914,12432.533704153922,8177.37485023722,9808.7915836418306,-9808.7915836418306,-8177.37485023722,24158.47159654136,0.0
633296.95196600363,3700566.251970998,-7500.0,7393.1411809548608,9900.0768270295048,7456.415927032639,-2030.3587237565237,-1994.2056541868872,323.93548418045253,10132.165866994508,9478.4446587304137,4081.6062504801725,-4081.6062504801725,-9478.4446587304137,19203.05123751091,0.0
638296.95196600363,3700566.251970998,-7500.0,7547.4458273310211,7521.5086803738523,1913.7547528434068,-1688.0035102545776,-972.69440852094931,201.31723026979691,8182.3239118038919,9254.6587325670516,-307.21023291313486,307.21023291313486,-9254.6587325670516,15014.127036023001,0.0
643296.95196600363,3700566.251970998,-7500.0,6895.4398040851138,4893.68165749339,-1939.3235009059813,-1263.7127829181352,-210.47948497161485,102.25840963973528,6689.2597909863471,7980.9698442565077,-3209.3126580760818,3209.3126580760818,-7980.9698442565077,11872.33682700409,0.0
648296.95196600363,3700566.251970998,-7500.0,5707.241393822911,2473.1554408458373,-4283.0150257715404,-839.15597391230324,302.88916091463273,28.940843457280756,5642.25942538258,6168.3669788969282,-4798.2719023394448,4798.2719023394448,-6168.3669788969282,9800.9136933587251,0.0
653296.95196600363,3700566.251970998,-7500.0,4268.9217292457233,499.60312448907661,-5454.1395533971354,-465.00525247968756,609.44077651387749,-20.775680890412605,4945.1447750643947,4229.9608667126686,-5391.8640799369805,5391.8640799369805,-4229.9608667126686,8587.327142629525,0.0
658296.95196600363,3700566.251970998,-7500.0,2810.4316482904087,-957.50830181104709,-5810.06195310781,-164.19653297675995,761.34482352001385,-51.233271243619903,4471.571643915433,2436.0315980503374,-5322.6685880871146,5322.6685880871146,-2436.0315980503374,7899.5795891040088,0.0
663296.95196600363,3700566.251970998,-7500.0,1482.0909228733053,-1933.8013914130611,-5655.9656064101682,59.880186945301091,807.54148287801718,-67.315014043846446,4115.7152254938019,925.90863608179461,-4869.5758845521941,4869.5758845521941,-925.90863608179461,7448.3993396194874,0.0
668296.95196600363,3700566.251970998,-7500.0,361.22963727825606,-2514.2018512465661,-5220.4338554671267,215.0011722339195,787.65143482675148,-73.455178822650296,3811.9223651674661,-256.55450373318604,-4235.9779183910277,4235.9779183910277,256.55450373318604,7062.6586760007631,0.0
673296.95196600363,3700566.251970998,-7500.0,-528.7007872159287,-2795.6117962588673,-4658.7102050458116,313.70666815100867,730.71607281792137,-73.215361719300034,3528.6177140720715,-1125.6501029205183,-3554.5198733217203,3554.5198733217203,1125.6501029205183,6670.0084981568443,0.0
678296.95196600363,3700566.251970998,-7500.0,-1197.8588540668445,-2866.657283370947,-4067.4505345968878,369.26914366235928,656.41900793020295,-69.22268591506591,3254.8051387604628,-1724.441897990228,-2902.5547962232381,2902.5547962232381,1724.441897990228,6253.1599816182506,0.0
683296.95196600363,3700566.251970998,-7500.0,-1673.757952241376,-2799.4584445572623,-3501.4223121901009,393.5958479588212,577.18188808202865,-63.289358843217492,2989.32461359528,-2105.3988882874796,-2318.9919837831735,2318.9919837831735,2105.3988882874796,5818.2845214641393,0.0
688296.95196600363,3700566.251970998,-7500.0,-1990.2084859323713,-2648.3746444041381,-2987.7899296033952,396.4170858815657,500.2548414639158,-56.592756117750255,2734.5826300948211,-2319.4288352466833,-1818.383697233829,1818.383697233829,2319.4288352466833,5378.3684056715338,0.0
693296.95196600363,3700566.251970998,-7500.0,-2180.7635102013419,-2452.0817721305671,-2536.7786095782835,385.20585388846132,429.44066849318978,-49.851691461401188,2493.5788994637646,-2410.7450460373852,-1401.1980524098749,1401.1980524098749,2410.7450460373852,4945.9773834566349,0.0
698296.95196600363,3700566.251970998,-7500.0,-2275.4024254742503,-2236.7667598600724,-2148.9620726123544,365.44276107000707,366.37298452512988,-43.472252564500252,2269.9320033447857,-2415.2574555923684,-1060.6422370309483,1060.6422370309483,2415.2574555923684,4530.7839014038955,0.0
528296.95196600363,3705566.251970998,-7500.0,760.17237633893762,881.94399010734298,-1540.5887392361444,22.278025553231956,195.0882735082524,-7.6704666808469391,1461.3920958483195,1405.1066509943009,-1292.7202997360985,1292.7202997360985,-1405.1066509943009,2562.3435027596888,0.0
533296.95196600363,3705566.251970998,-7500.0,1203.3143744498141,756.6756198247972,-1681.4084491016818,72.059609396889883,201.03368967266206,-5.0447954253146357,1642.2309115956853,1631.353870534316,-1558.7558172641595,1558.7558172641595,-1631.353870534316,2854.9031072411067,0.0
538296.95196600363,3705566.251970998,-7500.0,1750.015154300771,539.87738469811541,-1793.962454528996,140.82081536139458,196.8157532391844,-0.48658762667094618,1868.1446040816504,1855.5807347844725,-1848.7299414138274,1848.7299414138274,-1855.5807347844725,3235.7994781168513,0.0
543296.95196600363,3705566.251970998,-7500.0,2409.5384855119851,198.2637052492031,-1846.6597539282175,233.63498466510265,175.84076211687179,6.8876725294888059,2156.6085702408263,2054.4846752430117,-2146.1334295897109,2146.1334295897109,-2054.4846752430117,3746.4967038334648,0.0
548296.95196600363,3705566.251970998,-7500.0,3182.9763293149881,-307.91878999576079,-1790.4738992604352,355.95543755245598,128.61316265410704,18.266070925910594,2530.6895160950944,2191.4502162512977,-2419.5891429723401,2419.5891429723401,-2191.4502162512977,4441.3115223771874,0.0
553296.95196600363,3705566.251970998,-7500.0,4056.5685310240065,-1022.1198656803638,-1552.4609784156255,512.84969251889868,41.952413655253778,35.183025170820102,3018.9674129349914,2212.7382200727825,-2615.538164530928,2615.538164530928,-2212.7382200727825,5385.6471244528602,0.0
558296.95196600363,3705566.251970998,-7500.0,4992.8290832088087,-1984.5195183322896,-1029.1968660347427,707.53979889214293,-101.57614234765647,59.509719199960976,3654.129082252698,2045.054068323617,-2649.6733834301544,2649.6733834301544,-2045.054068323617,6651.4361794846727,0.0
563296.95196600363,3705566.251970998,-7500.0,5920.5979722302709,-3218.4686846111731,-82.826755225225668,939.0100506365377,-323.5374521290405,93.337305069130338,4469.6674716819825,1597.3852728890201,-2399.2165660508485,2399.2165660508485,-1597.3852728890201,8309.5984051307441,0.0
568296.95196600363,3705566.251970998,-7500.0,6727.391890556245,-4708.2122809888051,1454.9164700306255,1198.5924920151288,-647.9972162929929,138.67867664114897,5494.0478333580031,771.82893509517544,-1700.8813619186794,1700.8813619186794,-771.82893509517544,10418.381453627208,0.0
573296.95196600363,3705566.251970998,-7500.0,7260.7689859249704,-6368.1635043877386,3762.1380999253247,1465.9234095077877,-1097.2962693749473,196.91858630039104,6741.6651603396203,-510.63173649599128,-363.12409591475421,363.12409591475421,510.63173649599128,13005.540598313026,0.0
578296.95196600363,3705566.251970998,-7500.0,7348.6280574296043,-8010.2619912949831,6979.3338610017636,1705.5945372400081,-1684.2388157563964,268.00225238587774,8200.4497909575803,-2265.1823340458254,1795.6841697596151,-1795.6841697596151,2265.1823340458254,16043.28011433859,0.0
583296.95196600363,3705566.251970998,-7500.0,6847.6543187546695,-9326.6249929958813,11129.224211828943,1867.0614187194919,-2400.7408169460373,349.49701661706393,9817.7898743074093,-4383.3439364415208,4873.8977037856675,-4873.8977037856675,4383.3439364415208,19418.713383025362,0.0
588296.95196600363,3705566.251970998,-7500.0,5718.5211226607398,-9915.6496745164568,16015.066252773488,1891.1641942678614,-3205.4557352394445,435.86825226892785,11492.382990909218,-6580.2343936827801,8783.6869553775705,-8783.6869553775705,6580.2343936827801,22909.234109769193,0.0
593296.95196600363,3705566.251970998,-7500.0,4102.5753931801855,-9378.3372868952938,21139.52187282981,1725.4523865283547,-4016.3632433112161,518.45778842744278,13140.469495822201,-8391.8934582607071,13155.110791817173,-13155.110791817173,8391.8934582607071,26179.201169737655,0.0
598296.95196600363,3705566.251970998,-7500.0,2347.804500827473,-7481.3219780417458,25714.957222204332,1346.0932325111949,-4716.4703565295395,586.55155142991862,14514.338897847743,-9268.985153707632,17317.227316578806,-17317.227316578806,9268.985153707632,28816.020186117883,0.0
603296.95196600363,3705566.251970998,-7500.0,931.51355427668648,-4323.9667966012175,28825.372421294549,777.5651641687449,-5177.8653365860691,629.50401668064194,15346.261946783283,-8771.9861818335648,20425.005447851458,-20425.005447851458,8771.9861818335648,30412.457009118523,0.0
608296.95196600363,3705566.251970998,-7500.0,280.81839538138252,-400.39520471862329,29721.118086902479,97.574289572218746,-5299.7631356623669,639.36053726164448,15479.978898281872,-6790.8773413828667,21729.682820041999,-21729.682820041999,6790.8773413828667,30676.965126187239,0.0
613296.95196600363,3705566.251970998,-7500.0,577.59684670882905,3522.2086168239239,28115.473694778957,-580.53141481712794,-5044.7374375038207,613.11691210857725,14870.248537193907,-3653.6875194575987,20875.71414250453,-20875.71414250453,3653.6875194575987,29528.5423619254,0.0
618296.95196600363,3705566.251970998,-7500.0,1671.7110899704971,6671.5982220887927,24310.582147106838,-1142.6215057860143,-4454.0522981317217,553.79465760407584,13607.248363648916,-32.2550128226776,18051.741187669315,-18051.741187669315,32.2550128226776,27130.052556293795,0.0
623296.95196600363,3705566.251970998,-7500.0,3160.0592675758248,8538.6256196808372,19074.785819479075,-1509.0942722801183,-3633.3005899170876,469.82999166622756,12013.915648542057,3311.9048144186299,13902.993473855611,-13902.993473855611,-3311.9048144186299,23843.01190252633,0.0
628296.95196600363,3705566.251970998,-7500.0,4572.6803910195704,9003.5751578847103,13352.504194892315,-1653.7065496532775,-2716.565028073715,372.87212304760965,10281.782085442104,5792.8306606043971,9269.0956815168993,-9269.0956815168993,-5792.8306606043971,20127.935356141516,0.0
633296.95196600363,3705566.251970998,-7500.0,5548.7990674681296,8286.3863340192693,7971.8391676968331,-1600.1836277325524,-1827.6823230852744,274.81480474242619,8568.0667264039585,7143.3078328928523,4904.4082321909527,-4904.4082321909527,-7143.3078328928523,16436.567009779239,0.0
638296.95196600363,3705566.251970998,-7500.0,5922.0911693692105,6791.6554753807313,3473.0675346398612,-1403.4234334623925,-1054.470895893227,185.23323322297634,7034.6699086078224,7404.5568283075345,1306.3363020866536,-1306.3363020866536,-7404.5568283075345,13133.309787282071,0.0
643296.95196600363,3705566.251970998,-7500.0,5709.2808934825925,4947.0026808024268,81.547639170140499,-1127.21293563516,-441.15907870033067,110.05143318290523,5780.2464252874288,6818.5096228623579,-1318.372265778441,1318.372265778441,-6818.5096228623579,10455.906458795225,0.0
648296.95196600363,3705566.251970998,-7500.0,5044.1224993523992,3096.4823793706387,-2222.9902768433076,-827.47314191737405,5.1586763748825062,51.533068843872996,4834.745385095689,5700.5256471597968,-2992.083935428398,2992.083935428398,-5700.5256471597968,8501.4111476679063,0.0
653296.95196600363,3705566.251970998,-7500.0,4103.4823220989156,1460.6604669485782,-3604.7184145839688,-544.11727813828429,301.74826561543028,9.138255830220201,4167.9248414647782,4343.8615959739545,-3870.9616945150888,3870.9616945150888,-4343.8615959739545,7223.7054110597282,0.0
658296.95196600363,3705566.251970998,-7500.0,3053.0844127438131,144.70933736403151,-4282.1088364613133,-300.10759410586735,477.51705373922869,-19.341129961437822,3711.3144429712806,2970.8733286502188,-4159.9415723421189,4159.9415723421189,-2970.8733286502188,6459.4974502689929,0.0
663296.95196600363,3705566.251970998,-7500.0,2019.7732145187613,-830.97147585471794,-4468.424675931733,-104.6105520471643,563.60474632162834,-36.784144569830659,3388.3981319372688,1722.4606190615766,-4056.3019279684158,4056.3019279684158,-1722.4606190615766,6003.3416304687144,0.0
668296.95196600363,3705566.251970998,-7500.0,1084.962428360639,-1496.8105880927769,-4341.7936607143247,42.527458415310171,587.91641667096212,-46.057651348599002,3138.0323843228834,669.62920810771334,-3721.7497281985443,3721.7497281985443,-669.62920810771334,5688.1285735820811,0.0
673296.95196600363,3705566.251970998,-7500.0,290.37588283561246,-1906.6384853153836,-4036.3828877413835,146.67816164166939,572.82504212403342,-49.647322184365841,2921.913928844458,-166.80314164216497,-3274.8690341805054,3274.8690341805054,166.80314164216497,5414.7944403472311,0.0
678296.95196600363,3705566.251970998,-7500.0,-351.46392647699645,-2119.4935512734169,-3645.4293922230831,215.3947478557107,534.89042841074911,-49.522996964650297,2720.6237205703383,-796.9520193786376,-2794.8916530556266,2794.8916530556266,796.9520193786376,5139.0881053011844,0.0
683296.95196600363,3705566.251970998,-7500.0,-846.66501703067604,-2189.5513652919067,-3229.1906677454822,256.49586148849187,485.59704548239347,-47.145314706212623,2526.5605847061747,-1246.8133195021146,-2329.9996696156759,2329.9996696156759,1246.8133195021146,4848.4766500561509,0.0
688296.95196600363,3705566.251970998,-7500.0,-1211.4400830060324,-2161.8023163578655,-2823.7042972326326,277.04256657628963,432.44420346761342,-43.539999627342645,2338.2030801223277,-1548.1015872333837,-1906.162471541636,1906.162471541636,1548.1015872333837,4545.0852021617648,0.0
693296.95196600363,3705566.251970998,-7500.0,-1466.1301330706415,-2071.1936544725772,-2448.4165854429621,282.91884245219342,380.0216863169901,-39.392587393547061,2156.5655952423404,-1732.2251334975047,-1534.6627899946395,1534.6627899946395,1732.2251334975047,4236.1350054510713,0.0
528296.95196600363,3710566.251970998,-7500.0,1063.3360229638513,522.23527315892204,-1318.5798081302114,69.845762034499472,145.5479946864867,-2.3862629203551835,1310.2508744657875,1307.2139279144667,-1270.3256230811276,1270.3256230811276,-1307.2139279144667,2273.1483062127445,0.0
533296.95196600363,3710566.251970998,-7500.0,1477.8047632928858,342.06159288022928,-1382.7366343946676,120.84571453594519,139.83168559305403,0.9629928694472174,1482.1519292882949,1461.9928857313898,-1476.3058954876315,1476.3058954876315,-1461.9928857313898,2567.6214365916653,0.0
538296.95196600363,3710566.251970998,-7500.0,1968.0740051628475,73.56354537741133,-1398.9702564005115,187.78571150047154,122.38273312239303,6.1307931800512794,1699.268013218343,1595.0718413899804,-1682.0925580445091,1682.0925580445091,-1595.0718413899804,2957.5693396788665,0.0
543296.95196600363,3710566.251970998,-7500.0,2533.7440638029011,-308.00074023402158,-1334.5651255426278,273.89579515452186,87.305555425148128,13.818480829811795,1976.640789619566,1682.4901750565057,-1866.1742574520006,1866.1742574520006,-1682.4901750565057,3478.290745007384,0.0
548296.95196600363,3710566.251970998,-7500.0,3165.5619034380288,-829.05696836515949,-1142.7891016870899,382.15534076755864,26.642440453017016,24.920065527724162,2332.3781840105394,1690.4771079375248,-1993.9375447829609,1993.9375447829609,-1690.4771079375248,4170.9466624511333,0.0
553296.95196600363,3710566.251970998,-7500.0,3840.753865957628,-1513.8629615198429,-759.56286813455597,514.54494435848483,-69.917810363291849,40.523875576795682,2786.8235697658333,1574.3239293907666,-2013.2299687108923,2013.2299687108923,-1574.3239293907666,5080.0274225941048,0.0
558296.95196600363,3710566.251970998,-7500.0,4517.8654644277449,-2377.4669221040531,-101.47273282212029,670.85810749562279,-215.01243494622346,61.868786340813287,3360.8269889748021,1279.3566976760496,-1850.398780022758,1850.398780022758,-1279.3566976760496,6249.5060487695382,0.0
563296.95196600363,3710566.251970998,-7500.0,5132.5625358600728,-3414.5303971656622,932.51464753477785,847.02242748713707,-422.9117545637464,90.222427541670442,4072.8344052674333,746.0749537108295,-1408.9259423799117,1408.9259423799117,-746.0749537108295,7717.090361138039,0.0
568296.95196600363,3710566.251970998,-7500.0,5597.1928025136222,-4583.9698125116583,2451.9560027248976,1033.0539385474797,-707.68887248505109,126.64536124234309,4934.4681024298025,-77.932516496094195,-574.30154025734168,574.30154025734168,77.932516496094195,9505.5587091599045,0.0
573296.95196600363,3710566.251970998,-7500.0,5808.301171346232,-5791.6596932886796,4553.8852743185325,1211.1112024369927,-1079.7674219618889,171.61877905445283,5944.4272643330696,-1217.1225220402052,769.85105267087374,-769.85105267087374,1217.1225220402052,11610.470866166079,0.0
578296.95196600363,3710566.251970998,-7500.0,5666.5940284482786,-6877.4632677851223,7286.2863267845505,1354.6130210413094,-1540.6510379175684,224.55656757572129,7081.153767514209,-2638.7110629604517,2709.6086823581049,-2709.6086823581049,2638.7110629604517,13984.91509451871,0.0
583296.95196600363,3710566.251970998,-7500.0,5111.0504614178462,-7617.7147927952965,10597.752366395624,1429.8462580025591,-2076.4392687854338,283.30232201834144,8296.5635754671493,-4221.623361744787,5251.9865422503626,-5251.9865422503626,4221.623361744787,16524.417746877185,0.0
588296.95196600363,3710566.251970998,-7500.0,4161.128207932883,-7756.5593876785688,14285.82743247868,1401.4657702946488,-2652.0784198987976,343.80728657558018,9558.2146486570346,-5739.1334736202834,8269.3471135464206,-8269.3471135464206,5739.1334736202834,19058.232313937569,0.0
593296.95196600363,3710566.251970998,-7500.0,2949.3785016548036,-7073.3861058188895,17970.399781076962,1242.1784748252908,-3209.6916482162733,400.23941700353885,10755.224187592561,-6876.9791134419647,11461.53216210215,-11461.53216210215,6876.9791134419647,21355.411944289997,0.0
598296.95196600363,3710566.251970998,-7500.0,1718.5934287759101,-5474.7133634101156,21125.356304108256,944.50425224410992,-3674.5782935122002,445.70728088095711,11691.891513089649,-7302.9416060872081,14370.107218820251,-14370.107218820251,7302.9416060872081,23152.679868038005,0.0
603296.95196600363,3710566.251970998,-7500.0,765.0013372885345,-3073.0866299349718,23187.117810746462,529.78049535241382,-3970.2381565499941,473.56952451302004,12237.631452509419,-6778.9361041159354,16468.700549430447,-16468.700549430447,6778.9361041159354,24203.981432506785,0.0
608296.95196600363,3710566.251970998,-7500.0,337.62091753672809,-202.85649689495227,23718.170981985397,48.738566069587783,-4039.0781565292314,479.01251119531975,12302.665403384286,-5271.2587246040011,17315.398139147568,-17315.398139147568,5271.2587246040011,24340.035648019108,0.0
613296.95196600363,3710566.251970998,-7500.0,538.794661109294,2655.6306910603748,22558.635415494955,-429.09440230711664,-3860.830123885637,460.37367862567277,11862.147702216074,-2996.9371359352072,16705.910288496609,-16705.910288496609,2996.9371359352072,23516.672194461906,0.0
618296.95196600363,3710566.251970998,-7500.0,1281.3044292346735,5020.1076947331403,19888.553940664606,-834.07252551406339,-3460.0114032433162,419.70235387971047,10965.935194126876,-369.49172073526097,14749.486079583769,-14749.486079583769,369.49172073526097,21831.414264263556,0.0
623296.95196600363,3710566.251970998,-7500.0,2327.0611727402265,6551.0803540146653,16166.994935865792,-1115.2640434888974,-2898.6139626946033,362.30497713930731,9788.3554552639016,2134.5161817998123,11826.869449565384,-11826.869449565384,-2134.5161817998123,19500.856926612618,0.0
628296.95196600363,3710566.251970998,-7500.0,3382.8210665021306,7130.3573539149411,11982.114085135328,-1251.4774910859251,-2257.6549853993592,295.42316449583103,8533.366442300061,4121.0074208884562,8456.3927177236037,-8456.3927177236037,-4121.0074208884562,16809.071933484556,0.0
633296.95196600363,3710566.251970998,-7500.0,4199.8262717670523,6850.3867005367583,7887.1489933710327,-1251.2103621657993,-1616.0828269118142,226.54383047715916,7252.09878681189,5370.6549951088828,5138.6921350301118,-5138.6921350301118,-5370.6549951088828,14048.104637238492,0.0
638296.95196600363,3710566.251970998,-7500.0,4634.1323739434274,5939.9984669932392,4287.1141361116224,-1143.9379310391971,-1035.0155344781551,161.93852540337645,6057.0901158482984,5853.1494051218233,2245.0031233040581,-2245.0031233040581,-5853.1494051218233,11469.930490261697,0.0
643296.95196600363,3710566.251970998,-7500.0,4655.8147927355685,4672.8984709094757,1399.7632454486236,-968.15083234488634,-550.95358577492891,105.83244150507741,5028.2060336656559,5681.3532382214325,-24.615151231737855,24.615151231737855,-5681.3532382214325,9258.4972874692685,0.0
648296.95196600363,3710566.251970998,-7500.0,4321.5432553570354,3295.6303185903289,-723.26418584548787,-761.01306585490738,-177.03077554092306,60.271831073076967,4205.2623573790461,5041.8225179289257,-1624.3552922167828,1624.3552922167828,-5041.8225179289257,7518.390945948935,0.0
653296.95196600363,3710566.251970998,-7500.0,3733.6894737823159,1989.4902295021586,-2145.1427187689947,-552.06617472680057,91.062241958436189,25.495956219263096,3589.342729874671,4132.5184277169692,-2615.333428399138,2615.333428399138,-4132.5184277169692,6270.9602122826554,0.0
658296.95196600363,3710566.251970998,-7500.0,3003.9355685817263,862.776400212098,-2989.0953582212019,-361.0419866343193,267.92304961161761,0.5313322654270668,3150.4946800391253,3122.5779066172549,-3113.9199771236658,3113.9199771236658,-3122.5779066172549,5456.8226838125729,0.0
663296.95196600363,3710566.251970998,-7500.0,2229.5586996444927,-38.208902095701703,-3395.3672874689901,-198.5536391897856,372.30619536632884,-16.222811886265603,2841.9098615625785,2135.039981880655,-3250.9223105349215,3250.9223105349215,-2135.039981880655,4958.7758857684485,0.0
668296.95196600363,3710566.251970998,-7500.0,1482.7225245573293,-710.83789226965223,-3494.329938651671,-68.197615233792774,422.91472367646935,-26.542912901378859,2616.2846616126158,1246.177174632121,-3146.205762846691,3146.205762846691,-1246.177174632121,4647.971060692932,0.0
673296.95196600363,3710566.251970998,-7500.0,809.24666099117223,-1178.1749945940578,-3393.660568713532,31.050768893307275,436.08141966166272,-32.095428657721925,2436.9107219863772,493.7055995303765,-2896.8900515677778,2896.8900515677778,-493.7055995303765,4424.2383932387438,0.0
678296.95196600363,3710566.251970998,-7500.0,232.59428215503112,-1474.9492586332995,-3175.1563659187059,102.77542864747845,424.872622398337,-34.294023869860318,2280.512327467171,-112.17901260998337,-2574.8169526844149,2574.8169526844149,112.17901260998337,4227.785424798768,0.0
683296.95196600363,3710566.251970998,-7500.0,-240.25411668053317,-1638.2470831436201,-2896.9048252271241,151.61574837310587,399.07423019599628,-34.256474522277216,2134.751112342356,-578.4937028776078,-2229.1060801456206,2229.1060801456206,578.4937028776078,4030.6072796991825,0.0
688296.95196600363,3710566.251970998,-7500.0,-613.06992760900346,-1702.2491411441893,-2597.7051149456724,182.31006065447397,365.62343585792013,-32.820149597719855,1994.3506119358669,-921.4122453087075,-1890.7591268933511,1890.7591268933511,921.4122453087075,3823.7101798324161,0.0
533296.95196600363,3715566.251970998,-7500.0,1623.2929768663719,0.88792573459991142,-1077.2349995008096,151.52340508116103,86.96600552801398,5.204524272488241,1360.8066257199857,1258.8815256764274,-1337.5220678184633,1337.5220678184633,-1258.8815256764274,2373.3811551337531,0.0
538296.95196600363,3715566.251970998,-7500.0,2045.75301915155,-291.26281147477039,-1013.4538408158124,213.36534070374375,60.616701513099464,10.495593490177692,1570.4498885172673,1315.8878600790797,-1464.2446919538313,1464.2446919538313,-1315.8878600790797,2770.7120849685489,0.0
543296.95196600363,3715566.251970998,-7500.0,2513.2199431954496,-679.52367975068455,-858.5111495458948,289.77909632824901,17.221583453823182,17.940991642350379,1835.1702959983832,1317.0425801398626,-1549.4691477136214,1549.4691477136214,-1317.0425801398626,3289.3222400139257,0.0
548296.95196600363,3715566.251970998,-7500.0,3011.3453033679157,-1179.0617155431303,-571.34187131787655,382.00041540676256,-49.518264705409315,28.185359360571685,2168.0332858909869,1234.0979779405727,-1559.815064379645,1559.815064379645,-1234.0979779405727,3957.6319291548716,0.0
553296.95196600363,3715566.251970998,-7500.0,3514.9627406526115,-1799.7548871353731,-99.569939613959633,490.07917816564958,-147.24660764270794,41.967382982688022,2582.4197017726819,1032.9805689948157,-1449.3718888452945,1449.3718888452945,-1032.9805689948157,4803.7712775177242,0.0
558296.95196600363,3715566.251970998,-7500.0,3985.7155619235273,-2540.2849201232316,619.70917794797629,612.01685070081464,-284.63823554405388,60.067107207780381,3090.4942189514854,676.3831761074149,-1158.8349922830294,1158.8349922830294,-676.3831761074149,5852.5934495232086,0.0
563296.95196600363,3715566.251970998,-7500.0,4371.3622535024388,-3380.0842468138303,1655.6409862135929,742.70151477159015,-470.56040142209713,83.200760429987383,3700.9286831253921,129.61352720472436,-617.55033542423155,617.55033542423155,-129.61352720472436,7121.2376781664134,0.0
568296.95196600363,3715566.251970998,-7500.0,4608.6290809439024,-4269.9594744195892,3073.701120931235,872.81482811690262,-712.47536319173639,111.84867811553528,4415.7606241581934,-629.19666284813309,249.25656111642402,-249.25656111642402,629.19666284813309,8612.8245195705858,0.0
573296.95196600363,3715566.251970998,-7500.0,4631.7798137073669,-5123.822117633229,4918.2549899648293,988.08897729220723,-1013.9318706282596,146.0148440926653,5226.4878262860439,-1594.3395497081508,1505.671624427441,-1505.671624427441,1594.3395497081508,10308.395024200559,0.0
578296.95196600363,3715566.251970998,-7500.0,4388.3473854556105,-5816.0754701726319,7187.3472755621115,1069.5156426357851,-1371.2605220791274,184.94490260545663,6110.0788941945466,-2715.2808646115573,3181.5458443443258,-3181.5458443443258,2715.2808646115573,12158.17317351647,0.0
583296.95196600363,3715566.251970998,-7500.0,3860.9166329726204,-6190.8754367435258,9803.3667429777252,1095.2174375695699,-1770.0932033953748,226.87210124059587,7052.512296548035,-3882.5330173600246,5242.5897245650722,-5242.5897245650722,3882.5330173600246,14074.556151739827,0.0
588296.95196600363,3715566.251970998,-7500.0,3089.267642755301,-6088.7255765961781,12589.106266210343,1044.46179931559,-2182.9816566912405,268.9021409812446,8020.8914585937409,-4925.9623193698089,7562.429103409494,-7562.429103409494,4925.9623193698089,15930.507778901083,0.0
593296.95196600363,3715566.251970998,-7500.0,2182.2048161990251,-5390.4422998176024,15264.110807954208,903.53490600853286,-2569.8609517991213,307.16206320410612,8874.7822985212297,-5635.5895947146373,9911.1600694372282,-9911.1600694372282,5635.5895947146373,17567.397906484104,0.0
598296.95196600363,3715566.251970998,-7500.0,1306.9742612634461,-4068.187787560862,17475.970102255538,671.98265571358024,-2882.8418374317575,337.28985657189764,9524.1166904615402,-5808.9552187534373,11976.370194438796,-11976.370194438796,5808.9552187534373,18814.701866612511,0.0
603296.95196600363,3715566.251970998,-7500.0,650.74059594035259,-2222.5568946114158,18870.470522820789,366.65650487254561,-3075.416677652458,355.2252162211667,9888.7752322543365,-5315.5176141413313,13423.650286076961,-13423.650286076961,5315.5176141413313,19519.919313522681,0.0
608296.95196600363,3715566.251970998,-7500.0,363.16458624553115,-82.512455447027492,19184.337630336566,20.999965645834749,-3113.9009071707446,358.11438756311389,9915.0326493256362,-4153.4421825748859,13984.117567419427,-13984.117567419427,4153.4421825748859,19581.688267717207,0.0
613296.95196600363,3715566.251970998,-7500.0,503.65964772561614,2041.9403493284049,18325.827109281177,-321.34328857238285,-2987.0579770019781,345.04145325424457,9588.9801000986099,-2469.5244295832572,13536.572412558562,-13536.572412558562,2469.5244295832572,18975.447940840731,0.0
618296.95196600363,3715566.251970998,-7500.0,1019.3118607648387,3840.482787229264,16406.812949270919,-616.8296791031687,-2709.8496211688212,317.31626275744151,8941.2114282406801,-526.94459231238307,12147.309759212607,-12147.309759212607,526.94459231238307,17762.014558630151,0.0
623296.95196600363,3715566.251970998,-7500.0,1764.8742222446035,5083.6223445599726,13710.854701206117,-832.36627353327992,-2319.5916560351579,278.19769738194282,8047.6178850337283,1368.0035472396803,10048.744560038889,-10048.744560038889,-1368.0035472396803,16075.637811805955,0.0
628296.95196600363,3715566.251970998,-7500.0,2553.9266477882179,5671.3774697153831,10612.557395216023,-951.83754284085296,-1866.1792921584263,232.1466369625216,7118.1708583248055,2948.2368726700047,7568.2029526982969,-7568.2029526982969,-2948.2368726700047,14096.169214129575,0.0
633296.95196600363,3715566.251970998,-7500.0,3216.0914185928095,5635.4335373641825,7483.7699878970234,-976.97055828560099,-1400.3852236005209,183.87399534935417,6153.296335858271,4044.247197848671,5039.931138854713,-5039.931138854713,-4044.247197848671,12015.362515888568,0.0
638296.95196600363,3715566.251970998,-7500.0,3637.2548337032731,5103.7148850494859,4620.8100089281252,-923.33930993052127,-964.29584520513038,137.49213993241918,5223.6535318784827,4602.2836463475269,2734.1886106153256,-2734.1886106153256,-4602.2836463475269,10007.442838387569,0.0
643296.95196600363,3715566.251970998,-7500.0,3773.0444764079302,4249.1541361234913,2209.7095184002524,-813.97061489070632,-586.17217771381013,95.982981636766709,4390.4384124778708,4666.8003576896799,821.57512355570611,-821.57512355570611,-4666.8003576896799,8209.7922762295293,0.0
648296.95196600363,3715566.251970998,-7500.0,3639.4872534455003,3243.3477475212821,327.37131079568161,-673.12507767384727,-279.81780279964244,61.03940338283072,3691.3898127710941,4343.7584104597181,-628.02737195973805,628.02737195973805,-4343.7584104597181,6713.8116455531472,0.0
653296.95196600363,3715566.251970998,-7500.0,3291.6783198644484,2226.4774086976036,-1034.616200917678,-521.86881607594648,-47.06946075998512,33.203508870257693,3139.9696271283933,3762.0566770992982,-1624.0452225157533,1624.0452225157533,-3762.0566770992982,5561.713170762313,0.0
658296.95196600363,3715566.251970998,-7500.0,2801.0344100812954,1295.0727267557204,-1938.3344035849846,-375.87814117683871,118.36081092591749,12.166382948298159,2727.7642362031565,3044.0893797096978,-2225.625167779639,2225.625167779639,-3044.0893797096978,4745.4661046081019,0.0
663296.95196600363,3715566.251970998,-7500.0,2237.622439905937,503.18507002631861,-2470.6738905903198,-245.09075753683464,227.09683046822317,-2.8972783718822797,2430.3065089206893,2288.959313193835,-2514.3388068164536,2514.3388068164536,-2288.959313193835,4211.1121060110145,0.0
668296.95196600363,3715566.251970998,-7500.0,1659.6883104534675,-129.12574326791022,-2722.2606610191424,-134.49992602593679,291.1276711912227,-13.041793620645606,2215.9429784459003,1566.7782834115187,-2574.2376595368778,2574.2376595368778,-1566.7782834115187,3876.6276396364037,0.0
673296.95196600363,3715566.251970998,-7500.0,1109.5742329932343,-605.09913486003313,-2774.8747006617546,-45.425506618251148,321.87236139138622,-19.34519807609809,2054.7544067649801,920.33467099151483,-2480.0614476795377,2480.0614476795377,-920.33467099151483,3659.727242552683,0.0
678296.95196600363,3715566.251970998,-7500.0,614.00058336426468,-941.51269444601166,-2695.7450233616723,23.195940304060741,329.15855111513247,-22.786207369194177,1923.9357086703199,370.42693870095218,-2292.0725972143605,2292.0725972143605,-370.42693870095218,3498.328141656878,0.0
683296.95196600363,3715566.251970998,-7500.0,186.66384384816587,-1161.2219017764714,-2536.4507876534394,73.740579093214649,320.86412505827616,-24.186853238013015,1808.8356746049651,-77.834306015343032,-2055.3078258821333,2055.3078258821333,77.834306015343032,3355.0147524595918,0.0
538296.95196600363,3720566.251970998,-7500.0,2025.7920079278194,-562.58052295583366,-656.58091808149879,223.27584031183358,11.291932507543846,13.128130396742707,1467.3037651398949,1043.8179050175345,-1224.5080274138409,1224.5080274138409,-1043.8179050175345,2635.6507098073216,0.0
543296.95196600363,3720566.251970998,-7500.0,2400.7068701698822,-934.93169200181649,-437.11940358852519,288.94054650952319,-35.953520206815121,20.008805726374231,1716.1978289943586,983.03444659963475,-1229.4550511859163,1229.4550511859163,-983.03444659963475,3137.132991784154,0.0
548296.95196600363,3720566.251970998,-7500.0,2781.8828606673333,-1391.4903381887364,-90.079456008039713,365.32717244341205,-103.55274694366875,29.118999439069096,2022.0903257611258,841.80908232525121,-1151.804849946587,1151.804849946587,-841.80908232525121,3763.1555607930172,0.0
553296.95196600363,3720566.251970998,-7500.0,3145.6024064174876,-1932.4371413327642,424.97558078092084,451.4170714247299,-196.91597982800687,40.939771549241811,2393.1599462992135,596.06851334817156,-953.86211523949282,953.86211523949282,-596.06851334817156,4530.4206972210914,0.0
558296.95196600363,3720566.251970998,-7500.0,3459.6778087079356,-2547.1128807464638,1152.8230315885739,544.4858976607768,-321.69752740290619,55.936558340970144,2835.7104431928792,222.61838711065411,-590.71382939379259,590.71382939379259,-222.61838711065411,5451.4503901384151,0.0
563296.95196600363,3720566.251970998,-7500.0,3684.5341329801881,-3208.7870531365634,2137.6594392127545,639.48867475301711,-483.02227218905807,74.477366855110304,3352.482984343289,-295.61609241555067,-13.644326537766062,13.644326537766062,295.61609241555067,6531.2125686671279,0.0
568296.95196600363,3720566.251970998,-7500.0,3777.0304941285744,-3869.603250754094,3414.3850704981155,728.55832364411947,-684.25147897965803,96.714536766554147,3940.520109185542,-961.89779620677803,822.71946504734672,-822.71946504734672,961.89779620677803,7762.7358203724225,0.0
573296.95196600363,3720566.251970998,-7500.0,3697.9130490050084,-4457.6408355473477,4995.6441549981373,800.87650997934327,-925.2884791585941,122.43568294628687,4588.7776651353215,-1756.1536158623132,1948.6902541408124,-1948.6902541408124,1756.1536158623132,9122.0898884678791,0.0
578296.95196600363,3720566.251970998,-7500.0,3422.9372567060932,-4878.9581922520983,6855.6183065245887,843.25676888129294,-1200.6176263168429,150.90779499388358,5288.4767315727377,-2625.7116513213755,3363.639426750548,-3363.639426750548,2625.7116513213755,10563.697393888895,0.0
583296.95196600363,3720566.251970998,-7500.0,2955.9176614189601,-5027.7061426058235,8913.9886376169034,841.75399004148085,-1497.5506081426111,180.75805365615065,6048.5104874097024,-3480.1982201144938,5018.7144449318848,-5018.7144449318848,3480.1982201144938,12017.563334536047,0.0
588296.95196600363,3720566.251970998,-7500.0,2339.5816609264225,-4806.0159841239865,11026.346544585123,784.39507917709159,-1795.4456157808745,209.9537571745058,6765.6001534054194,-4195.7153185325988,6803.9741015069012,-6803.9741015069012,4195.7153185325988,13390.475972098018,0.0
593296.95196600363,3720566.251970998,-7500.0,1658.2550674860147,-4151.6756244391718,12988.955247440057,664.66510122279749,-2066.766478920908,235.94033978673647,7382.2886674998708,-4632.5047171828319,8547.977136628986,-8547.977136628986,4632.5047171828319,14573.013040924157,0.0
598296.95196600363,3720566.251970998,-7500.0,1027.0016340710938,-3066.3090313862745,14563.905480270665,484.80137995941448,-2280.54399747764,255.96446551179827,7839.8259742830514,-4666.0163566260853,10036.869419383846,-10036.869419383846,4666.0163566260853,15452.967779827748,0.0
603296.95196600363,3720566.251970998,-7500.0,566.28516080594432,-1632.5573764754367,15523.946364872314,257.55643612924109,-2407.9921119894284,267.54674269666498,8087.3629559134424,-4224.2087937532924,11054.005579480799,-11054.005579480799,4224.2087937532924,15933.590811077138,0.0
608296.95196600363,3720566.251970998,-7500.0,368.5409726194041,-9.412321089103532,15706.296753640088,5.2666606176176494,-2428.9501142997274,268.99406019851335,8091.8276023203662,-3317.5128009847185,11431.273107561199,-11431.273107561199,3317.5128009847185,15952.530619912606,0.0
613296.95196600363,3720566.251970998,-7500.0,469.2142374710794,1597.6445964756181,15057.024278811959,-244.03995454227191,-2337.0552441581058,259.7987731038927,7845.3271222925614,-2047.2423757011393,11094.719580448553,-11094.719580448553,2047.2423757011393,15495.951812127989,0.0
618296.95196600363,3720566.251970998,-7500.0,834.97607863601695,2983.5381820526632,13648.171619000412,-462.49065785461823,-2141.6869755251441,240.78777801168519,7367.5999842236233,-585.86946597957467,10086.215458580346,-10086.215458580346,585.86946597957467,14603.121342932753,0.0
623296.95196600363,3720566.251970998,-7500.0,1374.5612247347915,3990.6964495567436,11660.197478194501,-628.22612204918767,-1865.8758487727321,213.9624254531135,6702.7329352232955,864.80525419746391,8552.0233685546336,-8552.0233685546336,-864.80525419746391,13359.800016650019,0.0
628296.95196600363,3720566.251970998,-7500.0,1967.1040061564656,4539.4982302876315,9337.003292001913,-729.32041555472347,-1540.9707391896338,182.08166705185681,5972.561769144103,2121.6180227405971,6703.5093312821864,-6703.5093312821864,-2121.6180227405971,11882.667415521533,0.0
633296.95196600363,3720566.251970998,-7500.0,2495.6204886675796,4633.7074250051155,6931.0939415473686,-764.72941812739782,-1200.0117942771296,148.125157413241,5239.345898002849,3056.938999505277,4766.1440085939284,-4766.1440085939284,-3056.938999505277,10299.740966340056,0.0
638296.95196600363,3720566.251970998,-7500.0,2873.2236451292838,4343.7362815917786,4657.1816046739996,-742.4915259355314,-871.91700622858184,114.79510539087563,4514.3506235499599,3614.4838190198566,2934.7423066458718,-2934.7423066458718,-3614.4838190198566,8732.1868971712065,0.0
643296.95196600363,3720566.251970998,-7500.0,3055.3551859794934,3778.0439288664979,2665.3032424977928,-676.30948554666986,-577.85883199674049,84.175839096072167,3843.372593817051,3804.1457092464552,1346.4636391247759,-1346.4636391247759,-3804.1457092464552,7281.2036633019643,0.0
648296.95196600363,3720566.251970998,-7500.0,3038.2818966707996,3054.0501927898886,1034.912892647126,-581.85868179064607,-330.1418731308674,57.592926246352796,3258.3565596835269,3683.1861408574246,73.803615113390151,-73.803615113390151,-3683.1861408574246,6020.8721541698224,0.0
653296.95196600363,3720566.251970998,-7500.0,2848.6561092787033,2276.3174956197272,-215.45179784614533,-473.82466152422808,-133.06546136662178,35.646771247272248,2776.0718839912975,3333.1219856913485,-867.16384863466919,867.16384863466919,-3333.1219856913485,4995.390610363128,0.0
658296.95196600363,3720566.251970998,-7500.0,2529.9836331646893,1524.7044860537874,-1110.7884828107233,-364.1045404484467,15.111562152217786,18.356179600318566,2398.6364109031465,2839.5213805642943,-1500.744424039528,1500.744424039528,-2839.5213805642943,4218.0331439833417,0.0
663296.95196600363,3720566.251970998,-7500.0,2130.4461653556168,851.35944410370712,-1701.2545672125013,-261.1304247614334,119.92217993159987,5.3443127574342171,2115.7247867679716,2278.2580755049321,-1874.3420010567449,1874.3420010567449,-2278.2580755049321,3671.1556839253753,0.0
668296.95196600363,3720566.251970998,-7500.0,1694.3061935684825,283.6093159181795,-2046.9156691918945,-170.01024964436493,188.7093664401327,-3.9842835240365533,1908.710505216,1708.6030715855177,-2044.0368449425505,2044.0368449425505,-1708.6030715855177,3310.9057629127601,0.0
673296.95196600363,3720566.251970998,-7500.0,1257.2318863319852,-170.32499366326635,-2207.1614140996558,-93.120926089105481,229.1614576876552,-10.303489243848897,1756.1374841074098,1171.6864545727217,-2064.6062630317733,2064.6062630317733,-1171.6864545727217,3080.2624981162949,0.0
678296.95196600363,3720566.251970998,-7500.0,844.81039176047409,-515.08193606995656,-2234.611614741661,-30.855654922528775,248.39353641306022,-14.270299975670083,1638.638514439032,692.31698072745269,-1983.8617939777323,1983.8617939777323,-692.31698072745269,2925.6230114736791,0.0
543296.95196600363,3725566.251970998,-7500.0,2235.3037436794302,-1095.7595276154248,-78.544423292253697,277.33620077525484,-74.556788810860994,20.637917812693011,1609.734496091964,692.54514899404228,-927.60394652654225,927.60394652654225,-692.54514899404228,2997.2865519596708,0.0
548296.95196600363,3725566.251970998,-7500.0,2519.2367579667266,-1499.0125174200239,299.5748043033779,339.2767288717273,-139.60604544908423,28.534945224571974,1886.3728571301062,518.67479657563968,-788.63352413609209,788.63352413609209,-518.67479657563968,3570.278683668655,0.0
553296.95196600363,3725566.251970998,-7500.0,2773.5166037385443,-1957.1203125720069,824.53403497359375,406.56759318893239,-225.49378689915551,38.469877289423138,2213.9209101892993,256.93140778708141,-537.63994567198233,537.63994567198233,-256.93140778708141,4252.9811868303905,0.0
558296.95196600363,3725566.251970998,-7500.0,2972.7997229394082,-2455.046939154025,1526.4623321854117,476.38260576204596,-335.70226593791062,50.702336009691088,2594.9440478912297,-105.40582565955037,-142.30926536469889,142.30926536469889,105.40582565955037,5050.2358253934699,0.0
563296.95196600363,3725566.251970998,-7500.0,3088.6000933744258,-2965.3257958413446,2431.3580178893499,544.2578558739981,-472.90078261607425,65.392147538339174,3028.8149750695534,-573.88585815919157,429.04163272126993,-429.04163272126993,573.88585815919157,5960.1846013940531,0.0
568296.95196600363,3725566.251970998,-7500.0,3092.9281733152184,-3445.7852339823316,3554.2174740348983,603.92378789110921,-638.05994532280306,82.521532546739593,3510.3158672884883,-1141.5586994215337,1201.4352973227356,-1201.4352973227356,1141.5586994215337,6971.3589262319374,0.0
573296.95196600363,3725566.251970998,-7500.0,2964.0251900593312,-3839.4116488382174,4890.0486362321662,647.44712723444877,-829.36530255069363,101.80630724998952,4031.5133745040253,-1783.2717308610715,2184.711382981463,-2184.711382981463,1783.2717308610715,8059.7092450849977,0.0
578296.95196600363,3725566.251970998,-7500.0,2693.7200398286195,-4077.9799664932616,6404.0034657515935,665.85790444989482,-1041.1077294647453,122.61327315892328,4621.5392042095173,-2451.2394159970327,3363.4011524952839,-3363.4011524952839,2451.2394159970327,9186.2890173408123,0.0
583296.95196600363,3725566.251970998,-7500.0,2294.8624028438135,-4090.7980912083726,8023.2179085861517,650.37877835844756,-1262.8718285509742,143.91106564523682,5202.2524113171339,-3074.326322351611,4687.2759441196504,-4687.2759441196504,3074.326322351611,10296.575299163918,0.0
588296.95196600363,3725566.251970998,-7500.0,1806.1542623635473,-3818.6918835645251,9634.1862800247291,594.21327184713539,-1479.4562017201308,164.28687926825916,5738.0974258586311,-3563.6649767507906,6066.2706233367544,-6066.2706233367544,3563.6649767507906,11322.51153752432,0.0
593296.95196600363,3725566.251970998,-7500.0,1291.2002423698837,-3231.1176224506667,11089.675069902642,494.5917628853436,-1671.9383826007461,182.05648352797081,6189.3009469215876,-3826.1056242061745,7374.026341688892,-7374.026341688892,3826.1056242061745,12188.050959707021,0.0
598296.95196600363,3725566.251970998,-7500.0,829.53545915441975,-2341.6845146309806,12227.403594344614,354.50432615593797,-1820.0641253023464,195.47409624547794,6516.5422992840604,-3784.2879481355617,8462.9575611196742,-8462.9575611196742,3784.2879481355617,12818.180797359206,0.0
603296.95196600363,3725566.251970998,-7500.0,500.11943748622338,-1215.8397644611839,12898.707639789774,183.42285417592828,-1905.6875970001322,203.01386849277759,6686.8286589493673,-3398.5026676123534,9190.0469705212818,-9190.0469705212818,3398.5026676123534,13150.194569393487,0.0
608296.95196600363,3725566.251970998,-7500.0,361.46585854420175,34.401473191969608,13000.472966506848,-3.517316029939439,-1916.472605091883,203.66138307704645,6679.3050231303705,-2682.8425804077524,9447.5861649552135,-9447.5861649552135,2682.8425804077524,13144.812058432719,0.0
613296.95196600363,3725566.251970998,-7500.0,435.23310837892609,1269.5683832078807,12500.349541415491,-187.920480980646,-1848.7491557314738,197.13265374031261,6489.4576535103488,-1708.5357988157466,9189.3175409457235,-9189.3175409457235,1708.5357988157466,12794.194400590233,0.0
618296.95196600363,3725566.251970998,-7500.0,699.73216935657842,2350.8577665506805,11446.179583292302,-351.54261797609837,-1708.5502664049363,183.95238591345455,6130.454689657272,-591.56728465782589,8442.6125444262507,-8442.6125444262507,591.56728465782589,12124.468504489168,0.0
623296.95196600363,3725566.251970998,-7500.0,1096.0532760199451,3168.3313379984738,9955.9356047973306,-479.70107184460784,-1510.4366575777869,165.36222080933211,5631.1670633581971,532.03662162858382,7302.0811900870458,-7302.0811900870458,-532.03662162858382,11191.920317815133,0.0
628296.95196600363,3725566.251970998,-7500.0,1544.2834291236466,3660.2220669419244,8191.7976937941876,-563.66820548088265,-1274.5030648157217,143.08700579696446,5042.5758229455832,1534.9428984684555,5907.1558698300623,-5907.1558698300623,-1534.9428984684555,10073.985655622166,0.0
633296.95196600363,3725566.251970998,-7500.0,1963.5076260341853,3818.3914059715744,6327.3536656563329,-601.4626187120798,-1022.5418368671634,119.02859469868797,4479.8770687501728,2322.0217026989894,4411.8371263272156,-4411.8371263272156,-2322.0217026989894,8857.5766283882276,0.0
638296.95196600363,3725566.251970998,-7500.0,2288.7997195080352,3680.6109693411195,4517.949992939728,-597.0692535366137,-774.4848230384265,94.971026560553298,3911.6717648914127,2842.5649861083048,2956.3340076882005,-2956.3340076882005,-2842.5649861083048,7627.713663549247,0.0
643296.95196600363,3725566.251970998,-7500.0,2480.8680860521495,3314.5698144491275,2881.0784947305251,-558.60681677743526,-545.929378142264,72.363239472837975,3371.9529258887455,3090.1852956139887,1647.6537131411646,-1647.6537131411646,-3090.1852956139887,6458.6634240950234,0.0
648296.95196600363,3725566.251970998,-7500.0,2527.5627405678456,2799.8380655199917,1488.942340686342,-496.1485637711902,-347.0539903926794,52.208867628710351,2886.4383294053641,3093.528299601232,551.66237038360282,-551.66237038360282,-3093.528299601232,5408.5363352858967,0.0
653296.95196600363,3725566.251970998,-7500.0,2439.2157700102707,2212.7210111967606,371.23897345028985,-419.7929524318306,-182.75830064452248,35.057708580219455,2471.3059988474329,2902.7322082158676,-304.95181178043777,304.95181178043777,-2902.7322082158676,4516.8621749420454,0.0
658296.95196600363,3725566.251970998,-7500.0,2240.9172132157473,1616.4626969157966,-475.81963895302437,-338.31841839871777,-53.606945896281879,21.069274459261926,2133.0665347525933,2576.0951922810123,-926.51488876222993,926.51488876222993,-2576.0951922810123,3803.7475489169824,0.0
663296.95196600363,3725566.251970998,-7500.0,1964.5409628557532,1056.9788160985361,-1078.2796411766985,-258.49401444695604,42.881946890561537,10.113098544770056,1869.3348726216943,2169.7388521232456,-1337.8937341930086,1337.8937341930086,-2169.7388521232456,3269.4279062496976,0.0
668296.95196600363,3725566.251970998,-7500.0,1642.2994936465873,562.87316613264215,-1473.9713453912664,-184.93443927983722,110.966639120192,1.874803171836835,1670.6015415719644,1731.2256315860689,-1574.6239024968725,1574.6239024968725,-1731.2256315860689,2894.8490651046714,0.0
548296.95196600363,3730566.251970998,-7500.0,2250.4658049173054,-1530.1577691254015,603.79195242696915,308.77314827268299,-161.64254274268532,27.029847584627497,1757.3006423337883,261.39537385561573,-477.95184331741802,477.95184331741802,-261.39537385561573,3373.7937519369525,0.0
553296.95196600363,3730566.251970998,-7500.0,2421.7650350028389,-1909.732078415969,1115.7698220673228,360.58195626053379,-238.63658321085225,35.263204221881338,2043.3568534506037,2.5179256024035368,-200.09824684437615,200.09824684437615,-2.5179256024035368,3973.2083572277161,0.0
558296.95196600363,3730566.251970998,-7500.0,2539.3491313318732,-2305.4433397226976,1771.3313118293543,412.19317088371338,-334.13207208679813,45.137484638640579,2368.8015787188924,-332.98979172211898,199.67670888617056,-199.67670888617056,332.98979172211898,4656.7363520472409,0.0
563296.95196600363,3730566.251970998,-7500.0,2583.5649242890131,-2691.9462138730496,2583.9121155835805,459.89381714404669,-449.26501880401133,56.695099331406624,2731.2772493726961,-743.71917265619356,740.61644182351176,-740.61644182351176,743.71917265619356,5419.0124502246726,0.0
568296.95196600363,3730566.251970998,-7500.0,2537.1649572353313,-3034.1375227121107,3556.311891103463,498.86528760119086,-583.71155756347525,69.840872520487082,3125.7324200290664,-1217.9168084167966,1434.3933895346083,-1434.3933895346083,1217.9168084167966,6247.2108320939078,0.0
573296.95196600363,3730566.251970998,-7500.0,2389.4152340274004,-3288.2880420722245,4674.7708986940179,523.41557843798353,-735.01997501612368,84.290909693979245,3580.0696611641874,-1730.3264830773849,2279.2484211251549,-2279.2484211251549,1730.3264830773849,7119.3852989013085,0.0
578296.95196600363,3730566.251970998,-7500.0,2140.736108883108,-3405.7967337928512,5903.2562647089981,527.52307576184489,-898.01360794754657,99.531347176761244,4043.1067273150657,-2240.4761407768151,3253.8199775201297,-3253.8199775201297,2240.4761407768151,8003.4761286955418,0.0
583296.95196600363,3730566.251970998,-7500.0,1806.7246001719409,-3340.0325269931432,7179.7348702696727,505.72002483633639,-1064.4683635747811,114.80281890332144,4489.8594391563702,-2693.8379860880741,4312.3064466063715,-4312.3064466063715,2693.8379860880741,8857.5696751026462,0.0
588296.95196600363,3730566.251970998,-7500.0,1419.9275037890623,-3055.8483826635966,8416.6500778454174,454.23912017147575,-1223.3010097483198,129.12765734603641,4894.3124328283639,-3027.1075330220465,5383.185810475361,-5383.185810475361,3027.1075330220465,9631.9615383266118,0.0
593296.95196600363,3730566.251970998,-7500.0,1027.7324021245872,-2540.0679703616152,9507.5467594688798,372.2081268867928,-1361.455899141567,141.39132862569713,5228.5256551192806,-3177.9394483585597,6373.6565199161632,-6373.6565199161632,3177.9394483585597,10273.314890599246,0.0
598296.95196600363,3730566.251970998,-7500.0,685.54717620467545,-1810.0124104129511,10340.447487794501,262.55702849328742,-1465.5192005128145,150.47700851317745,5465.7678495753462,-3097.8590270279851,7180.8408902106057,-7180.8408902106057,3097.8590270279851,10730.700451426888,0.0
603296.95196600363,3730566.251970998,-7500.0,446.04154558298876,-916.6752124829909,10816.304827141508,132.27385683221902,-1523.8453272704312,155.43454581052285,5584.2077588768761,-2765.248609585245,7708.6281231961711,-7708.6281231961711,2765.248609585245,10962.671538258362,0.0
608296.95196600363,3730566.251970998,-7500.0,347.09018150898976,59.883973958479274,10868.363077884314,-8.2323591341764715,-1528.7269851754488,155.64756403337555,5570.4102874718474,-2194.2145654394994,7886.4695418846677,-7886.4695418846677,2194.2145654394994,10943.949644898674,0.0
613296.95196600363,3730566.251970998,-7500.0,402.20839875770338,1022.9649905281452,10476.895965177813,-146.63872400902378,-1478.0144845273858,150.95570120650825,5421.7934194518875,-1435.6905172328893,7684.786008747742,-7684.786008747742,1435.6905172328893,10670.108303955943,0.0
618296.95196600363,3730566.251970998,-7500.0,596.87315878948198,1876.5771405909863,9674.5365959213577,-270.75211508527605,-1375.6824564757308,141.69605901422591,5147.3811360964037,-569.4870441550911,7122.0135845413433,-7122.0135845413433,569.4870441550911,10158.99386093184,0.0
623296.95196600363,3730566.251970998,-7500.0,892.11790448713441,2542.8006232251437,8540.3033966411567,-370.5467028429249,-1231.1494446418453,128.6506512177551,4766.6224532152473,310.76508283864177,6260.891159566303,-6260.891159566303,-310.76508283864177,9448.4585626392491,0.0
628296.95196600363,3730566.251970998,-7500.0,1234.0966744308116,2974.2218060198802,7184.191743548633,-439.65101486388545,-1057.5487639267544,112.91284879256968,4306.6091901611844,1115.2809725360751,5195.2661812213755,-5195.2661812213755,-1115.2809725360751,8590.9794620864868,0.0
633296.95196600363,3730566.251970998,-7500.0,1566.2858886029605,3158.4887086842436,5727.1315126070022,-475.94860810857659,-869.46184551530757,95.710721140554938,3848.1123649995238,1773.2807779850975,4031.7473469736433,-4031.7473469736433,-1773.2807779850975,7646.5475597824707,0.0
638296.95196600363,3730566.251970998,-7500.0,1840.5303137126411,3114.9300012523472,4281.866383788064,-481.2657383179702,-680.71329526600766,78.230602011046287,3399.9161416087341,2241.9788251587606,2871.5595380344066,-2871.5595380344066,-2241.9788251587606,6675.4413019045596,0.0
643296.95196600363,3730566.251970998,-7500.0,2024.2071016400628,2885.5926502498974,2939.039476404892,-460.38660251519474,-502.70861410029988,61.478392681844248,2965.0400931515805,2508.2860529217055,1796.9251168277556,-1796.9251168277556,-2508.2860529217055,5732.2543713314972,0.0
648296.95196600363,3730566.251970998,-7500.0,2102.5928622186625,2524.1055299246577,1760.3333560638382,-419.76740407754664,-343.54380617748228,46.198918053760494,2563.6703065388037,2584.4859783098041,864.0094768294324,-864.0094768294324,-2584.4859783098041,4861.9013242575402,0.0
653296.95196600363,3730566.251970998,-7500.0,2077.1369255628238,2085.4133978658274,778.15863571359762,-366.29760351098804,-207.85995718588293,32.853898053816621,2209.9679673327128,2500.4478035825741,102.15406014890527,-102.15406014890527,-2500.4478035825741,4097.5534934192219,0.0
658296.95196600363,3730566.251970998,-7500.0,1961.2355782615871,1618.2647284791751,-0.028837136685572862,-306.34188645049056,-97.252956839999555,21.646264778595238,1911.7219064269791,2295.0505495058514,-482.34623016318278,482.34623016318278,-2295.0505495058514,3459.8800517370282,0.0
663296.95196600363,3730566.251970998,-7500.0,1775.1991047879776,1161.0236915071682,-585.12619517611051,-245.15270592816043,-10.985024107667272,12.572342700704954,1670.553078754064,2008.7815088741856,-900.15179267126155,900.15179267126155,-2008.7815088741856,2956.7221174447354,0.0
553296.95196600363,3735566.251970998,-7500.0,2101.7617167600488,-1817.3130041741676,1317.1615254800281,316.43213314404193,-240.91289814802673,31.7809498493306,1881.6953204629071,-182.05002405958592,65.582567761864368,-65.582567761864368,182.05002405958592,3695.7671941607646,0.0
558296.95196600363,3735566.251970998,-7500.0,2162.6991557119227,-2126.846017141871,1915.9876741775045,354.07921298583841,-322.57975186567683,39.699117258514299,2158.2775136367254,-483.30652170234163,452.01560594021129,-452.01560594021129,483.30652170234163,4278.1933724007276,0.0
563296.95196600363,3735566.251970998,-7500.0,2161.6051237373476,-2414.7923202357201,2634.3000256492323,387.01559039112448,-418.35977067694955,48.758565765645564,2461.1096422404107,-836.05816151746592,949.53928154966854,-949.53928154966854,836.05816151746592,4914.7102242848305,0.0
568296.95196600363,3735566.251970998,-7500.0,2088.5238820980499,-2652.9687708608758,3467.9373893640413,411.62538463574975,-527.30268755121369,58.837739473052579,2811.1057312942366,-1226.9890521055438,1561.5029094194972,-1561.5029094194972,1226.9890521055438,5592.795775321526,0.0
573296.95196600363,3735566.251970998,-7500.0,1939.3712975521269,-2808.5592829114162,4399.6516604845829,423.88413237971758,-646.88440280204395,69.684186072714724,3178.5153252689952,-1633.1010488801949,2280.1599340699577,-2280.1599340699577,1633.1010488801949,6293.4164923325434,0.0
578296.95196600363,3735566.251970998,-7500.0,1718.7487708737176,-2847.4019747977354,5395.9867798312498,419.78766409312823,-772.70643514239043,80.895539672562293,3543.7911382473376,-2021.4198117951437,3083.0689356268977,-3083.0689356268977,2021.4198117951437,6990.7369788954747,0.0
583296.95196600363,3735566.251970998,-7500.0,1441.9803355972899,-2739.0680681384461,6405.926982156685,395.96557952805716,-898.41345895774941,91.919114442347251,3890.1130119998088,-2350.7685631360109,3930.8621682919002,-3930.8621682919002,2350.7685631360109,7652.7349083883601,0.0
588296.95196600363,3735566.251970998,-7500.0,1135.4195752110402,-2463.213971547023,7362.5529606694517,350.40780144198669,-1015.9533790860712,102.07837958698008,4198.3929461830012,-2576.1428579843487,4767.669512812935,-4767.669512812935,2576.1428579843487,8242.9877824088453,0.0
593296.95196600363,3735566.251970998,-7500.0,834.22109951987909,-2015.9800597923477,8188.5930874180685,283.1605427311693,-1116.2588356669387,110.63079460339736,4448.8099552742733,-2655.5804553112689,5525.2544604589184,-5525.2544604589184,2655.5804553112689,8723.708522347426,1.0
598296.95196600363,3735566.251970998,-7500.0,577.34978307945778,-1414.6479361299514,8805.8538493907599,196.796925121925,-1190.3298379573757,116.85407931647654,4622.9229443302784,-2558.484106004149,6131.121300867273,-6131.121300867273,2558.484106004149,9059.8043600077744,0.0
603296.95196600363,3735566.251970998,-7500.0,400.52730120002411,-698.7065085570672,9147.209688170049,96.47121815020661,-1230.5624723895171,120.14824525097355,4706.0246214698673,-2273.4410294914842,6519.5889446627452,-6519.5889446627452,2273.4410294914842,9223.3831202192541,0.0
608296.95196600363,3735566.251970998,-7500.0,328.76980841878219,73.823974293213467,9168.58726928957,-10.552390454250979,-1232.0472250683026,120.13301713435432,4689.2934225610898,-1813.1664558432949,6643.5141782383653,-6643.5141782383653,1813.1664558432949,9197.8648768906933,0.0
613296.95196600363,3735566.251970998,-7500.0,370.66820862738058,834.60115883948106,8857.7997706801671,-115.86065296700083,-1193.5091467089223,116.71700031313608,4571.2658398131734,-1214.6542364511397,6483.6057293707354,-6483.6057293707354,1214.6542364511397,8980.7878991022899,0.0
618296.95196600363,3735566.251970998,-7500.0,516.25042933995678,1515.9387007487289,8237.6384975100373,-211.14524263101447,-1117.6258139390634,110.12035547186781,4358.2714582309018,-533.96405364095017,6052.6118656560702,-6052.6118656560702,533.96405364095017,8584.6306266698884,0.0
623296.95196600363,3735566.251970998,-7500.0,739.16129279458619,2061.7709889375415,7362.2010763981652,-289.45057060896164,-1010.6204021242423,100.84370916281233,4063.7030149488214,163.20837587227516,5393.0806231441493,-5393.0806231441493,-163.20837587227516,8035.4099202378347,0.0
628296.95196600363,3735566.251970998,-7500.0,1002.4602027599079,2435.7948024750212,6307.4891584894667,-346.11390778733113,-881.23853646056568,89.591037655871389,3706.3180017684458,812.65267331555447,4569.3817269680585,-4569.3817269680585,-812.65267331555447,7369.3878465317766,0.0
633296.95196600363,3735566.251970998,-7500.0,1266.2196906715224,2625.0106020344238,5158.8877090597371,-379.20295962737896,-739.37891496945736,77.165736572380865,3321.5799187430939,1361.5579319416934,3656.3286303497175,-3656.3286303497175,-1361.5579319416934,6628.6330477901038,0.0
638296.95196600363,3735566.251970998,-7500.0,1494.7614864378552,2638.4084950918054,3998.6998798617697,-389.4136562501281,-594.70966821625734,64.363580191484672,2965.1803456464077,1774.9823825246663,2727.4345668080082,-2727.4345668080082,-1774.9823825246663,5856.3589200056367,0.0
643296.95196600363,3735566.251970998,-7500.0,1661.8316351606079,2501.9396967506923,2896.3924218727252,-379.5408825358864,-455.55715835780614,51.884449399613288,2613.5469656638488,2037.9705886282088,1845.4504993501766,-1845.4504993501766,-2037.9705886282088,5092.8877366301094,0.0
648296.95196600363,3735566.251970998,-7500.0,1752.9439466362437,2251.6376741546619,1902.9249688909376,-353.71713539682827,-328.22359591125581,40.274902135648126,2282.0364965124218,2153.7570261598125,1056.6571284470851,-1056.6571284470851,-2153.7570261598125,4372.7284030090314,0.0
653296.95196600363,3735566.251970998,-7500.0,1765.0619853118706,1926.7515197601053,1049.2460103150877,-316.62319076171292,-216.75792405569982,29.905051362083835,1982.4698787324821,2139.3733812956166,389.11751474436414,-389.11751474436414,-2139.3733812956166,3722.8921589871161,0.0
658296.95196600363,3735566.251970998,-7500.0,1704.4079187575703,1564.2150699530005,348.05867253646011,-272.82391915014591,-123.0964579572907,20.974669258106815,1722.458495139987,2020.2286208468968,-145.89016748214988,145.89016748214988,-2020.2286208468968,3162.1781426562911,0.0
563296.95196600363,3740566.251970998,-7500.0,1811.9515957217477,-2149.0435804096401,2613.1785401312591,325.05776989973418,-384.32181737054424,41.726265532788588,2236.0712626321383,-874.57274400297945,1080.3294074907849,-1080.3294074907849,874.57274400297945,4450.7613886897216,0.0
568296.95196600363,3740566.251970998,-7500.0,1727.1965436055025,-2310.0801050215828,3323.2897837003288,339.82376798779251,-472.41789329339684,49.462330067525883,2527.8431729260883,-1194.0267775721929,1613.7252610242369,-1613.7252610242369,1194.0267775721929,5006.5469948543623,0.0
573296.95196600363,3740566.251970998,-7500.0,1585.8612872075923,-2396.9612652567093,4097.5574913097853,344.27446073678061,-567.02878790748161,57.631436727167781,2824.0707522699863,-1514.3863461789872,2221.3951369603619,-2221.3951369603619,1514.3863461789872,5571.2622434566456,0.0
578296.95196600363,3740566.251970998,-7500.0,1394.2329646386786,-2385.9143590524573,4906.6028956064647,335.76755582772591,-664.55002049186601,65.925146316559861,3113.8536876774169,-1809.4004525623434,2882.200474312549,-2882.200474312549,1809.4004525623434,6124.3378713434158,0.0
583296.95196600363,3740566.251970998,-7500.0,1166.0764322457953,-2257.3100496410148,5709.2886711450756,312.25246680016483,-760.12757956082578,73.943418671387846,3384.3755404536755,-2048.2243764915243,3563.3894719648865,-3563.3894719648865,2048.2243764915243,6641.35201913939,0.0
588296.95196600363,3740566.251970998,-7500.0,922.30133894819642,-1999.8593415997007,6454.6502345169201,272.72796665441427,-847.90863571156444,81.216673007635038,3621.5601413829208,-2198.8340359012373,4221.6729278245602,-4221.6729278245602,2198.8340359012373,7095.4761992241683,0.0
593296.95196600363,3740566.251970998,-7500.0,688.99661950280745,-1614.5084504220526,7086.2719952363777,217.64706560992482,-921.54508906332205,87.246056606473786,3811.2027810331715,-2232.8134444654502,4806.6800130337124,-4806.6800130337124,2232.8134444654502,7459.6621525208766,0.0
598296.95196600363,3740566.251970998,-7500.0,493.84363924032584,-1116.9522169832799,7548.8962833873829,149.15680285162242,-974.91892448243641,91.558728528527624,3940.4022013574868,-2130.7478477164123,5266.7515332569201,-5266.7515332569201,2130.7478477164123,7709.386028252502,0.0
603296.95196600363,3740566.251970998,-7500.0,361.45143831704104,-537.75150259484144,7796.3043977218513,71.071961036496745,-1002.9832839538052,93.770275530371862,3999.0860756034672,-1886.9962438862112,5556.2919254470098,-5556.2919254470098,1886.9962438862112,7825.5652785240245,0.0
608296.95196600363,3740566.251970998,-7500.0,308.64983447896617,80.486289046552741,7798.8767471550527,-11.465799402377106,-1002.5540498018855,93.642349941142058,3981.3618522721781,-1512.4791454824799,5643.2190237747545,-5643.2190237747545,1512.4791454824799,7797.1375939546024,0.0
613296.95196600363,3740566.251970998,-7500.0,340.98847271077329,688.61414106260827,7549.0147436562393,-92.610292219051871,-972.86865881167762,91.122571045614833,3886.4211181455457,-1034.4557352638622,5514.7282602717651,-5514.7282602717651,1034.4557352638622,7622.7838918110392,0.0
618296.95196600363,3740566.251970998,-7500.0,451.46619910683199,1238.0565108352919,7062.9691539117684,-166.59813780953235,-915.76765813416898,86.357119096573271,3718.7938385688617,-493.0366189191891,5179.8386781205099,-5179.8386781205099,493.0366189191891,7311.409133997201,0.0
623296.95196600363,3740566.251970998,-7500.0,621.89232912106138,1687.8913522690266,6378.5213001269767,-228.53003318474978,-835.44534249030426,79.672081542635595,3487.8854791232329,64.86569045122269,4668.0007995164233,-4668.0007995164233,-64.86569045122269,6881.2540305417342,0.0
628296.95196600363,3740566.251970998,-7500.0,826.49088883315187,2010.2717427147766,5549.1006974901829,-274.97588591316702,-737.82957495303003,71.528003883955165,3206.9091135083427,592.69677386016929,4024.148712513726,-4024.148712513726,-592.69677386016929,6357.8296285216211,0.0
633296.95196600363,3740566.251970998,-7500.0,1036.7267918930952,2193.0900108898118,4635.7975642393867,-304.28738764840955,-629.73659668859386,62.457539974874791,2891.8987866234411,1050.8390051858946,3301.4928162728661,-3301.4928162728661,-1050.8390051858946,5771.0816458123045,0.0
638296.95196600363,3740566.251970998,-7500.0,1226.0955397583596,2239.6277443210743,3699.1433157948409,-316.58660340659213,-517.99197080972101,52.999987104141177,2595.4146583248507,1411.2300063748162,2553.8259667860539,-2553.8259667860539,-1411.2300063748162,5152.345621464422,0.0
643296.95196600363,3740566.251970998,-7500.0,1373.8142591327489,2165.7352949365627,2792.2824734125106,-313.48190599243446,-408.68523525888804,43.644403746969665,2309.715131735426,1659.349234562907,1828.9532956643657,-1828.9532956643657,-1659.349234562907,4531.5912505949309,0.0
648296.95196600363,3740566.251970998,-7500.0,1466.8357732270922,1995.5744586062328,1956.5324288038503,-297.61565827110178,-306.66619337752616,34.789748160741155,2035.5956064650477,1793.6686423343515,1164.2855457570847,-1164.2855457570847,-1793.6686423343515,3935.3064358000738,0.0
573296.95196600363,3745566.251970998,-7500.0,1306.8984680152435,-2046.850720717136,3789.4984446278818,280.63624726879556,-496.03787909703681,47.744056682773831,2512.6348691967896,-1388.2874892401883,2126.5178154360724,-2126.5178154360724,1388.2874892401883,4941.4546085765214,0.0
578296.95196600363,3745566.251970998,-7500.0,1142.5346140786221,-2005.2566276469429,4448.0271164024962,270.04072096101913,-571.98940715681658,53.918676535310397,2743.8737802620626,-1612.1400649011998,2670.7505329522633,-2670.7505329522633,1612.1400649011998,5382.6778845337394,0.0
583296.95196600363,3745566.251970998,-7500.0,954.78750419134064,-1869.9386878858706,5089.2270476948015,248.00593944126155,-645.17402213311209,59.798625362951213,2956.7720194835611,-1784.840205818665,3220.2880724614497,-3220.2880724614497,1784.840205818665,5789.4865340195047,0.0
588296.95196600363,3745566.251970998,-7500.0,760.07065968498898,-1635.095740284233,5674.2853715163183,214.10106518078405,-711.32435183183827,65.056292482008132,3140.8840824696899,-1883.5391760829548,3741.6941247362261,-3741.6941247362261,1883.5391760829548,6141.9931676443239,0.0
593296.95196600363,3745566.251970998,-7500.0,577.8057866661735,-1303.9722549834871,6161.7279104563122,168.924189716309,-765.95684853324497,69.353387743007232,3285.926191461127,-1888.8778770037534,4197.5795025430061,-4197.5795025430061,1888.8778770037534,6420.6366879090692,0.0
598296.95196600363,3745566.251970998,-7500.0,427.86383188493522,-890.18298272871527,6512.0478845579328,114.22023249884278,-804.85900210582281,72.37643017137141,3382.7528263999957,-1788.5057212534707,4550.7227267251128,-4550.7227267251128,1788.5057212534707,6608.0502201918298,0.0
603296.95196600363,3745566.251970998,-7500.0,327.44843395607961,-417.43772282979762,6692.9489752262425,52.828133672678014,-824.62891497357066,73.875527157240683,3424.3603694508824,-1580.0306810303637,4769.0040250454331,-4769.0040250454331,1580.0306810303637,6690.9781474856145,0.0
608296.95196600363,3745566.251970998,-7500.0,288.07392705280802,82.579959712426032,6684.2016493153924,-11.563185582862184,-823.16690375298185,73.698907392691368,3406.7515748517753,-1272.6043264419507,4830.224011821073,-4830.224011821073,1272.6043264419507,6661.9251887185319,0.0
613296.95196600363,3745566.251970998,-7500.0,313.37582401876114,573.96518626335944,6481.043695161613,-74.82464938411708,-800.01497199173821,71.816557929718655,3329.5036461366917,-886.58105673613909,4725.7493285176442,-4725.7493285176442,886.58105673613909,6520.2385944090829,0.0
618296.95196600363,3745566.251970998,-7500.0,398.34051013039732,1021.2935670355214,6095.2767468567108,-132.89157794087336,-756.46169791372688,68.327134219723888,3195.9166444150287,-451.14334192636784,4462.0899299804842,-4462.0899299804842,451.14334192636784,6272.3888223972554,0.0
623296.95196600363,3745566.251970998,-7500.0,530.17788638254819,1394.2924658571171,5553.7721092020938,-182.26326213809472,-695.38684553835049,63.446701912404301,3012.7161915929364,-0.33524172475449632,4060.0152835598828,-4060.0152835598828,0.33524172475449632,5931.4001485377394,0.0
628296.95196600363,3745566.251970998,-7500.0,690.61438607536365,1671.509350783497,4894.6959136913192,-220.39906855490841,-620.87543638389468,57.48128252067567,2789.361121998455,431.64475658373112,3551.4064603361194,-3551.4064603361194,-431.64475658373112,5515.5161955051135,0.0
633296.95196600363,3745566.251970998,-7500.0,859.01657085745887,1842.2881594639973,4162.3232415608882,-245.94022576250282,-537.68704206455675,50.789022118015147,2537.1815799588844,814.87167263135666,2974.6069712608742,-2974.6069712608742,-814.87167263135666,5046.3599774008289,0.0
638296.95196600363,3745566.251970998,-7500.0,1015.5980287664516,1906.8444231869873,3401.542288319024,-258.73384550345224,-450.68863086869118,43.739215979578894,2280.6215009541529,1126.9888805180985,2369.310596346616,-2369.310596346616,-1126.9888805180985,4546.9107990234043,0.0
593296.95196600363,3750566.251970998,-7500.0,491.08512045306622,-1061.5393243885883,5383.0694964483582,132.30989258009197,-640.81841534717171,55.563812598820448,2850.0917943771251,-1607.4916768637627,3680.1853058496949,-3680.1853058496949,1607.4916768637627,5560.2889346733691,0.0
598296.95196600363,3750566.251970998,-7500.0,374.65852465362985,-715.57171469769332,5650.8619355187175,88.303859219394482,-669.47489274585564,57.706318581018536,2923.3037292713011,-1512.3172433537241,3953.9715861634104,-3953.9715861634104,1512.3172433537241,5702.2098077724868,0.0
603296.95196600363,3750566.251970998,-7500.0,297.58395978718409,-326.49800351872756,5784.1086990582544,39.573514505029337,-683.52029026882428,58.731326140317201,2952.8426236488563,-1333.7313279216858,4120.2448404964325,-4120.2448404964325,1333.7313279216858,5761.5602199804098,0.0
608296.95196600363,3750566.251970998,-7500.0,267.86118418078178,81.841852425331808,5768.791054007218,-11.200334823298022,-681.54889420113614,58.54081040643176,2935.9598267139522,-1079.3065406030983,4163.4092917086582,-4163.4092917086582,1079.3065406030983,5733.1926919100079,0.0
613296.95196600363,3750566.251970998,-7500.0,287.90052070784657,482.83668795131723,5601.9196638706753,-61.057134002294752,-663.28546189111523,57.117585543122104,2872.4575358240104,-764.42825954367072,4077.5591383450565,-4077.5591383450565,764.42825954367072,5616.8376945436439,0.0
618296.95196600363,3750566.251970998,-7500.0,354.04747371920774,850.27106588538925,5292.210867812737,-107.08601678759887,-629.64795746710161,54.529334874899412,2764.7803625360252,-410.65386005055097,3867.4805223196336,-3867.4805223196336,410.65386005055097,5417.2772574253095,0.0
598296.95196600363,3550566.251970998,-12500.0,478.75634201502186,1415.6956230090134,4432.3035765185286,283.52050565911441,892.72706676216012,132.75124196580578,2555.049069988198,234.52447343472681,3254.4807967100287,-3254.4807967100287,-234.52447343472681,5075.7089692703648,0.0
603296.95196600363,3550566.251970998,-12500.0,339.88630117390375,1145.2417567604232,4951.0147339903515,227.399926934208,984.86433458108922,144.70993090547546,2731.4913062311543,-147.84828906578969,3653.3100292434515,-3653.3100292434515,147.84828906578969,5403.7324181513486,0.0
608296.95196600363,3550566.251970998,-12500.0,232.13001056050595,801.57599047994734,5363.5530441654219,158.08327154608659,1058.1104278923206,154.22358831322057,2872.5128340350702,-535.14721275741067,3955.6046220980479,-3955.6046220980479,535.14721275741067,5665.5695892502436,0.0
613296.95196600363,3550566.251970998,-12500.0,168.95096193964818,404.2103433915405,5643.0561921185199,79.072556676158968,1107.9600212594721,160.74145367045909,2971.4371198659419,-900.01259129148593,4139.2041455224371,-4139.2041455224371,900.01259129148593,5848.2883665352156,0.0
618296.95196600363,3550566.251970998,-12500.0,158.90778079755808,-21.499986217874994,5772.0639063387043,-5.1458719161316777,1131.4622256705084,163.89961595114184,3023.7971411360659,-1216.4155931654232,4191.1487823412235,-4191.1487823412235,1216.4155931654232,5943.1988987936002,0.0
623296.95196600363,3550566.251970998,-12500.0,204.26266425103302,-447.27507257904182,5744.7447137963527,-89.582758530842582,1127.5795198474254,163.56337342074102,3027.7552011872276,-1462.9574218596081,4109.467186059228,-4109.467186059228,1462.9574218596081,5946.6493395987491,0.0
628296.95196600363,3550566.251970998,-12500.0,300.65545458416921,-845.34249759403019,5567.4880500062191,-169.3111816521068,1097.2907098490728,159.84019493566183,2984.2403644961882,-1625.4724694555975,3903.3479050361316,-3903.3479050361316,1625.4724694555975,5860.2863645197131,0.0
633296.95196600363,3550566.251970998,-12500.0,437.91364840433806,-1191.7180745502303,5257.7352449269865,-240.01136903620505,1043.4158738563942,153.06078635492287,2896.7729541776798,-1698.4237801728038,3591.6501397173897,-3591.6501397173897,1698.4237801728038,5690.7208408545594,0.0
638296.95196600363,3550566.251970998,-12500.0,601.79093452772452,-1468.7287977002179,4841.3504156492199,-298.39952443707989,970.20849881120751,143.73301726597393,2771.02252385374,-1684.8882215413541,3200.1109597336026,-3200.1109597336026,1684.8882215413541,5448.6859609629073,0.0
643296.95196600363,3550566.251970998,-12500.0,776.2148379159006,-1666.3697988819931,4349.0996935837566,-342.47353501433423,882.79872233524304,132.47780773166841,2614.1736113666284,-1595.2524134755163,2757.8524726303663,-2757.8524726303663,1595.2524134755163,5147.827879890011,0.0
648296.95196600363,3550566.251970998,-12500.0,945.5519478953139,-1782.3984231439631,3812.950706421439,-371.55621720421505,786.59754576077694,119.95932100307456,2434.2106353913509,-1445.0234443336071,2293.8883259542149,-2293.8883259542149,1445.0234443336071,4803.3408873900817,0.0
583296.95196600363,3555566.251970998,-12500.0,1102.4855499022513,1974.9006781644209,2733.5008458460247,429.93304670515744,630.47380023598305,106.01534417188498,2207.9433299835637,1376.9097141149903,1856.0294417343819,-1856.0294417343819,-1376.9097141149903,4327.37089838065,0.0
588296.95196600363,3555566.251970998,-12500.0,943.29944034771495,1986.914281552562,3500.2027833895181,424.00746711473306,774.94372589372938,125.89371034017864,2447.0061472000484,1112.3750737071059,2474.8927199854861,-2474.8927199854861,-1112.3750737071059,4845.6557548913061,0.0
593296.95196600363,3555566.251970998,-12500.0,758.53690071577489,1893.7465537826965,4270.9873764035929,397.74680310727939,918.86071400910737,145.53080306031185,2680.3704778840693,761.48701941451486,3093.8965352291298,-3093.8965352291298,-761.48701941451486,5350.9428143568794,0.0
598296.95196600363,3555566.251970998,-12500.0,567.3633660092363,1687.5637003013023,5002.296631549244,350.0284723821357,1054.5022410423308,163.93076314044902,2923.3770110196783,340.88465306224634,3673.7049330209184,-3673.7049330209184,-340.88465306224634,5819.5950079851182,0.0
603296.95196600363,3555566.251970998,-12500.0,392.01806862927054,1370.9623936224195,5647.3282966286033,281.59182552311262,1173.6681462321867,180.04686171737546,3142.8686596741759,-123.25307179691572,4172.6984524464797,-4172.6984524464797,123.25307179691572,6227.8550169400114,0.0
608296.95196600363,3555566.251970998,-12500.0,254.73304749562229,958.23663064249945,6161.3105853957086,195.2279917666113,1268.5666697825516,192.88992542706563,3318.3510330967051,-597.487682573342,4552.0274364651132,-4552.0274364651132,597.487682573342,6553.8952076554697,0.0
613296.95196600363,3555566.251970998,-12500.0,174.19473885155071,474.78239497411136,6507.2737660494731,95.658552866152846,1332.7724416008564,201.6445101030769,3440.6085473992171,-1045.028994653343,4780.9817636640901,-4780.9817636640901,1045.028994653343,6779.9229841698798,1.0
618296.95196600363,3555566.251970998,-12500.0,162.31234127995555,-45.514491482446871,6661.1928947184661,-10.918431299981593,1362.0765700752561,205.77157898991112,3503.5043148624814,-1430.6406027381474,4841.575327927877,-4841.575327927877,1430.6406027381474,6893.9996264764823,0.0
623296.95196600363,3555566.251970998,-12500.0,222.08397412330834,-564.5453720392436,6615.3890479955489,-117.55475175603232,1355.0536620272967,205.077618349006,3504.596295817325,-1725.5584237501207,4731.3004413866129,-4731.3004413866129,1725.5584237501207,6891.2603256278153,0.0
628296.95196600363,3555566.251970998,-12500.0,347.11342448214418,-1045.0634915128442,6379.3871533169849,-217.41569782731594,1313.2162141220463,199.73495897745562,3445.3306695100659,-1911.3430650234991,4463.3676848434061,-4463.3676848434061,1911.3430650234991,6774.2871457673473,0.0
633296.95196600363,3555566.251970998,-12500.0,522.89629411925523,-1455.518273092491,5978.0751337184329,-304.60924557385721,1240.7313266235051,190.25010797877098,3330.7695743735899,-1981.8515253646199,4064.3933539123873,-4064.3933539123873,1981.8515253646199,6552.5931870406712,0.0
638296.95196600363,3555566.251970998,-12500.0,729.51606167686953,-1773.6408169628044,5447.6077977243876,-374.81767864992435,1143.7624032202912,177.38685400360581,3168.8906122749895,-1942.994050723682,3570.0901429753717,-3570.0901429753717,1942.994050723682,6241.2883259961054,0.0
643296.95196600363,3555566.251970998,-12500.0,945.04686168967976,-1988.1801670377554,4830.111547865692,-425.63018612531533,1029.6041241739554,162.06319253437022,2969.6378910613735,-1810.5577609747688,3020.0395563490165,-3020.0395563490165,1810.5577609747688,5859.2705602490914,0.0
648296.95196600363,3555566.251970998,-12500.0,1148.8561537869375,-2098.6819785431862,4168.2451202616903,-456.55006595425886,905.77231589101063,145.24059800265456,2743.8491904499174,-1606.7681367536061,2452.6051243902111,-2452.6051243902111,1606.7681367536061,5427.1762588345327,0.0
653296.95196600363,3555566.251970998,-12500.0,1324.1555625559472,-2113.6935715581981,3500.6703783726639,-468.73108671851259,779.22465717736202,127.82659029307325,2502.266343125742,-1356.4871895997246,1900.9389476304952,-1900.9389476304952,1356.4871895997246,4965.4857489911283,0.0
658296.95196600363,3555566.251970998,-12500.0,1459.4511101275693,-2048.0401297215212,2858.9937266392535,-464.54148537346856,655.80809946948932,110.60268609747743,2254.74574375577,-1083.818519297801,1390.5409217152439,-1390.5409217152439,1083.818519297801,4492.9875075302771,0.0
573296.95196600363,3560566.251970998,-12500.0,1528.3819774178517,1886.1469577753362,1243.414773490174,457.22384370441682,379.95750870952423,77.960509852772134,1945.8763410515251,1920.7387472231994,607.02556924195426,-607.02556924195426,-1920.7387472231994,3674.8498315937381,0.0
578296.95196600363,3560566.251970998,-12500.0,1461.7396850999919,2123.4922282538691,2009.8310279354405,496.52186408984363,535.65338680368859,101.01856211475408,2209.7179117791579,1862.9059045836962,1219.1375525391418,-1219.1375525391418,-1862.9059045836962,4245.6800196735503,0.0
583296.95196600363,3560566.251970998,-12500.0,1331.3930196349124,2281.920557874575,2873.2221026153707,518.55881653400138,708.06397210778175,126.15016748492445,2493.3182788474242,1691.2612221251429,1915.397363763986,-1915.397363763986,-1691.2612221251429,4860.0806101381277,0.0
588296.95196600363,3560566.251970998,-12500.0,1145.365996394532,2332.5228667862689,3801.8259367907885,518.1569835952431,890.95474410407564,152.47240532238789,2786.1486427991226,1398.9021017296213,2666.5944184598497,-2666.5944184598497,-1398.9021017296213,5494.4562030463303,0.0
593296.95196600363,3560566.251970998,-12500.0,920.44386228715575,2251.5493707285332,4749.934828012817,491.23263979553946,1075.6841869201535,178.79945920080917,3075.3634404960799,990.95678237374773,3430.8775325896113,-3430.8775325896113,-990.95678237374773,6120.3594383222144,0.0
598296.95196600363,3560566.251970998,-12500.0,681.35039511416187,2025.2585827812766,5660.4331856612553,435.63523419782564,1251.6965588600547,203.71117489291947,3361.7068949906989,486.69849598453516,4156.4262222361285,-4156.4262222361285,-486.69849598453516,6706.1310649962334,0.0
603296.95196600363,3560566.251970998,-12500.0,458.04278374189613,1654.1434364372101,6470.0926385942375,351.85676247650349,1407.4743802635332,225.67768126176955,3637.0394978952199,-80.550817321492559,4786.7149762964218,-4786.7149762964218,80.550817321492559,7219.3255253409916,0.0
608296.95196600363,3560566.251970998,-12500.0,281.31205881936637,1155.3197730405404,7117.157338537274,243.40998652156878,1531.862006275363,243.2277745248314,3857.7160872473241,-666.30622525276976,5267.8314267728565,-5267.8314267728565,666.30622525276976,7629.7057343870501,0.0
613296.95196600363,3560566.251970998,-12500.0,177.47205578697657,562.09280029053605,7549.9993277792255,116.71814466721203,1615.5533621559505,255.13561482904868,4010.4610222835163,-1220.479888523374,5556.5806339117053,-5556.5806339117053,1220.479888523374,7912.4184431698295,0.0
618296.95196600363,3560566.251970998,-12500.0,163.36699986426737,-79.680996798079107,7735.0377506712257,-19.540944496489931,1652.4463992909336,260.58992775321389,4086.6862906837428,-1694.6912977354305,5627.5918878044095,-5627.5918878044095,1694.6912977354305,8050.8037048362248,0.0
623296.95196600363,3560566.251970998,-12500.0,243.03042246024367,-717.92662486904521,7662.0101779884289,-155.54782476467093,1640.5501616035615,259.30799464537068,4083.0878689342471,-2049.7263608829685,5477.6294941471642,-5477.6294941471642,2049.7263608829685,8038.2721019787396,0.0
628296.95196600363,3560566.251970998,-12500.0,406.95170676725053,-1302.0298271678062,7345.2778339444676,-281.68732912216257,1582.2301076253107,251.56923044234497,4001.9268075153909,-2261.3599070368346,5125.9633504574786,-5125.9633504574786,2261.3599070368346,7878.8864735637226,0.0
633296.95196600363,3560566.251970998,-12500.0,634.15396534623994,-1790.0756323490525,6820.8259138984013,-389.83127233664419,1483.729439862811,238.15986745223648,3850.5707147816552,-2323.1579987465066,4610.6761987590307,-4610.6761987590307,2323.1579987465066,7586.5000774542568,0.0
638296.95196600363,3560566.251970998,-12500.0,896.45434690050251,-2154.0160827473183,6139.8522611367734,-474.28414717166896,1354.1064261942454,220.2450478141067,3640.4101898528183,-2245.7787553841558,3981.9534110055552,-3981.9534110055552,2245.7787553841558,7182.6958715348665,0.0
643296.95196600363,3560566.251970998,-12500.0,1163.6886474473135,-2381.8163923161246,5360.5803480858021,-532.2234414763933,1203.8460190366432,199.19737489792914,3385.3616651066777,-2053.2749098993136,3294.0714687650816,-3294.0714687650816,2053.2749098993136,6693.9284315379709,0.0
648296.95196600363,3560566.251970998,-12500.0,1408.5670059407109,-2476.5551568704532,4540.2517128191002,-563.61591635452305,1043.4681909271703,176.42107234058926,3100.2789088164536,-1777.6568331617002,2597.9739492657491,-2597.9739492657491,1777.6568331617002,6148.4768778032358,0.0
653296.95196600363,3560566.251970998,-12500.0,1610.1510535761911,-2453.2243644447281,3728.8026920673815,-570.71956520576418,882.38821262744784,153.20289183269861,2799.5665784436951,-1453.1791995990566,1935.8000216022297,-1935.8000216022297,1453.1791995990566,5573.6941975638556,0.0
658296.95196600363,3560566.251970998,-12500.0,1755.5106289822436,-2334.3721461751456,2965.0268114913315,-557.35372588937605,728.17744908221891,130.60975974094998,2499.9555144075575,-1111.5629090020741,1337.9789995905746,-1337.9789995905746,1111.5629090020741,4993.9075679063117,0.0
663296.95196600363,3560566.251970998,-12500.0,1839.6780988523976,-2145.7087275719891,2275.265865278579,-528.12651001689335,586.25133132198698,109.43869749470814,2229.9718759851112,-778.82779688701714,822.76099824058099,-822.76099824058099,778.82779688701714,4429.1261821497956,0.0
668296.95196600363,3560566.251970998,-12500.0,1864.380800956779,-1912.4755802974464,1674.1179646610917,-487.76360174329693,459.9150946336955,90.21282336386588,1975.3693897701496,-473.84828747266801,397.55875987122528,-397.55875987122528,473.84828747266801,3894.5228128981726,0.0
568296.95196600363,3565566.251970998,-12500.0,1778.901049662896,1697.7553692283134,328.40879100986047,460.81906979831712,224.00230791633206,61.617119634133189,1893.1184462457898,2159.41100522535,-170.82124486926659,170.82124486926659,-2159.41100522535,3463.6394833595245,0.0
573296.95196600363,3565566.251970998,-12500.0,1808.3639041952345,2071.8765376704755,1061.2879141001388,531.62855266611393,385.06188992469413,87.322334027539441,2166.8707095408017,2259.5465123481795,399.23783826904867,-399.23783826904867,-2259.5465123481795,4050.3184664281553,0.0
578296.95196600363,3565566.251970998,-12500.0,1756.6023531030783,2398.0257679969741,1949.2775404505619,589.62948893057069,575.22759624020955,116.97647960055789,2479.5756806041531,2242.2296443988203,1105.4699580102888,-1105.4699580102888,-2242.2296443988203,4725.3194465820025,0.0
583296.95196600363,3565566.251970998,-12500.0,1619.7396911255767,2636.3434245475469,2975.5327951980003,627.0839344833015,790.50690918106739,149.92193146683877,2822.6491558800444,2082.5210643423056,1932.4435817688309,-1932.4435817688309,-2082.5210643423056,5467.7814724038235,0.0
588296.95196600363,3565566.251970998,-12500.0,1404.6755484892742,2745.8396551703145,4103.6803822658503,636.30099522029889,1023.2885246494183,185.0133977206354,3183.0995620301114,1765.8796908940976,2846.6176906587043,-2846.6176906587043,-1765.8796908940976,6248.1179738042601,0.0
593296.95196600363,3565566.251970998,-12500.0,1130.950728499193,2690.6748438977456,5276.7042975712393,610.81353534669131,1262.2383155332311,220.61660357369561,3544.1814994472047,1293.7264269701625,3795.5795350481421,-3795.5795350481421,-1293.7264269701625,7029.097480415011,0.0
598296.95196600363,3565566.251970998,-12500.0,830.33311461776145,2447.5452801609831,6419.5260162291861,546.71174696311948,1492.85754238608,254.69374932490183,3890.7472508508104,687.47889293822709,4710.8861219357696,-4710.8861219357696,-687.47889293822709,7767.9973769547269,0.0
603296.95196600363,3565566.251970998,-12500.0,543.42653753998638,2012.5912537641238,7445.9821717424838,443.8499661261618,1698.8033795527786,284.98503292336471,4234.7701842743618,-10.582904828775099,5515.0887673574189,-5515.0887673574189,10.582904828775099,8419.997088300348,0.0
608296.95196600363,3565566.251970998,-12500.0,313.38585000532055,1405.8204046539931,8269.7931398379678,306.58205109945612,1863.8813845355646,309.27240225828837,4515.362483866832,-740.80122945974699,6132.3950973559895,-6132.3950973559895,740.80122945974699,8942.6111559903729,0.0
613296.95196600363,3565566.251970998,-12500.0,177.84297022222833,671.21658612034264,8817.7312922752772,143.72154181274502,1974.3928075448325,325.68449586300665,4708.4740418037709,-1434.0885212136227,6501.0804500033346,-6501.0804500033346,1434.0885212136227,9300.5610959769801,0.0
618296.95196600363,3565566.251970998,-12500.0,161.04946829043055,-128.32644898004887,9042.0236237807549,-32.408465399394082,2021.3281617117118,332.9791060295658,4801.7619980136878,-2022.9835571419558,6584.6998473055555,-6584.6998473055555,2022.9835571419558,9470.1750592000499,0.0
623296.95196600363,3565566.251970998,-12500.0,268.52624327488149,-920.56173408550899,8928.7418158022938,-207.71013160209796,2001.8598478971107,330.7364662089721,4790.6666931903028,-2453.1988538996375,6379.0170590387879,-6379.0170590387879,2453.1988538996375,9442.3784450754574,0.0
628296.95196600363,3565566.251970998,-12500.0,485.9182064280385,-1635.7180407137021,8499.8021460084983,-368.45057476668256,1919.7325392383063,319.41443382019617,4678.7370963395197,-2692.5968418954581,5912.5728161274801,-5912.5728161274801,2692.5968418954581,9223.5843511867624,0.0
633296.95196600363,3565566.251970998,-12500.0,782.42094382917901,-2217.5532730539171,7808.0433838256486,-503.28653768192129,1784.4529635491037,300.25238651403902,4476.8715751347581,-2735.233335453519,5240.7094473756133,-5240.7094473756133,2735.233335453519,8834.2927353619489,0.0
638296.95196600363,3565566.251970998,-12500.0,1117.6404587929451,-2630.8724260284821,6926.8924101485427,-604.69564440599061,1609.5169242356753,275.05097014563376,4201.5540518276466,-2599.6992232478997,4434.8455976498426,-4434.8455976498426,2599.6992232478997,8305.7361945362009,0.0
643296.95196600363,3565566.251970998,-12500.0,1449.74573397937,-2864.0482266083754,5937.6286514303201,-669.54518677861518,1410.1718227838053,245.88714010089072,3872.5300271748479,-2322.8130813405,3570.0942232903876,-3570.0942232903876,2322.8130813405,7675.4210130160391,0.0
648296.95196600363,3565566.251970998,-12500.0,1742.6506251028043,-2926.7055462113594,4917.4028194546991,-698.79626772196968,1201.2452909766075,214.82853040271416,3510.4523224193367,-1950.8984430646501,2714.2879914872196,-2714.2879914872196,1950.8984430646501,6982.4411116474366,0.0
653296.95196600363,3565566.251970998,-12500.0,1970.6778291847431,-2844.083364137397,3930.4848219616015,-696.5789132858564,995.48494207977171,183.70556213357457,3137.14678681334,-1531.1709404990336,1920.5876895172976,-1920.5876895172976,1531.1709404990336,6263.4896008956366,0.0
658296.95196600363,3565566.251970998,-12500.0,2120.2100418378368,-2650.0834934164573,3023.6949684509736,-668.97198661043228,802.60243223390864,153.96885724147435,2791.3708008849981,-1105.0863932326697,1224.3230732173351,-1224.3230732173351,1105.0863932326697,5550.0242158494957,0.0
663296.95196600363,3565566.251970998,-12500.0,2188.7773619493155,-2380.7980666913354,2225.7314713796727,-622.80529505726292,629.00825519294369,126.63510450629018,2465.4756363505885,-704.48721043043633,643.5091271465044,-643.5091271465044,704.48721043043633,4866.7455955513869,0.0
668296.95196600363,3565566.251970998,-12500.0,2182.5386098229033,-2069.6296343567369,1549.3056877641088,-564.69945747013958,478.0768065915646,102.30517806362636,2162.2982359990815,-350.4379106909704,181.79401659598329,-181.79401659598329,350.4379106909704,4231.2541841228549,0.0
673296.95196600363,3565566.251970998,-12500.0,2113.1713766794664,-1744.3642168728477,994.75086445948102,-500.43342653698414,350.72082303344638,81.228348764838628,1886.7448537421487,-54.051989632517135,-167.52290734007653,167.52290734007653,54.051989632517135,3654.5623325368065,0.0
678296.95196600363,3565566.251970998,-12500.0,1994.9485619890193,-1426.0063252208365,553.97655196360427,-434.63013364274718,246.07579679253132,63.387129382034153,1641.2459433051756,181.55676263652191,-417.47320979579712,417.47320979579712,-181.55676263652191,3142.1101210495235,0.0
558296.95196600363,3570566.251970998,-12500.0,1674.1550863555719,832.25095501630744,-1086.6823564956903,317.92537993651973,-79.463407676744666,16.842062457090218,1642.8508487403799,1841.6440391199394,-1271.0421486390069,1271.0421486390069,-1841.6440391199394,2862.4178401498029,0.0
563296.95196600363,3570566.251970998,-12500.0,1896.2709993471151,1280.9497697818861,-652.64730346490012,415.90083005012002,32.893998043219618,37.483941832611507,1846.0539941212112,2178.906870946967,-977.42587457646971,977.42587457646971,-2178.906870946967,3264.7880440249787,0.0
568296.95196600363,3570566.251970998,-12500.0,2059.5363968949014,1762.9052997273118,-39.470180344065909,517.08880724806102,182.68931760499589,63.767962033825142,2103.2909323897911,2460.9155205132643,-528.62421245435883,528.62421245435883,-2460.9155205132643,3798.0999377222138,0.0
573296.95196600363,3570566.251970998,-12500.0,2140.293296165843,2247.1914817135425,774.0838725075314,614.48395352158218,373.23320751506867,96.038271311786048,2417.8874318684352,2647.6677128831766,95.563089222483541,-95.563089222483541,-2647.6677128831766,4466.8686629514395,0.0
578296.95196600363,3570566.251970998,-12500.0,2118.7757301577662,2690.760677870057,1795.9113343182273,698.88508917611614,604.97037852784695,134.19764993666899,2787.3852308728337,2696.6015309891263,902.89603751741754,-902.89603751741754,-2696.6015309891263,5261.7401711553184,0.0
583296.95196600363,3570566.251970998,-12500.0,1984.213033919581,3040.4991398220441,3013.344914249064,759.42638380444691,874.17435233325796,177.53682010027569,3202.7634046785242,2568.7737864972032,1881.8885565981245,-1881.8885565981245,-2568.7737864972032,6159.4749944802816,0.0
588296.95196600363,3570566.251970998,-12500.0,1740.0766094196347,3238.5337268033213,4386.7208167329964,784.70737296403252,1171.8549271009836,224.60146743754484,3648.3169803965575,2237.0956800276722,2995.8916329345952,-2995.8916329345952,-2237.0956800276722,7123.4573744017089,0.0
593296.95196600363,3570566.251970998,-12500.0,1407.9649339291334,3230.9616162229268,5845.915172752012,764.51870380768605,1483.2689268507011,273.14826461224584,4102.320298112797,1695.3067823518775,4180.1909221288497,-4180.1909221288497,-1695.3067823518775,8104.9698749506824,0.0
598296.95196600363,3570566.251970998,-12500.0,1028.3040816066714,2979.0397334210661,7292.2227982859331,691.95545141800449,1788.4391511372612,320.23906623007929,4539.9584608853484,965.3761595550227,5344.3720183820205,-5344.3720183820205,-965.3761595550227,9045.9537634080152,0.0
603296.95196600363,3570566.251970998,-12500.0,656.38433531551198,2470.5172106617629,8607.2791153291928,565.48019779791491,2063.9482724645104,362.50274020499666,4963.3215959683266,100.49236955921924,6381.4493071279376,-6381.4493071279376,-100.49236955921924,9883.7762356480052,0.0
608296.95196600363,3570566.251970998,-12500.0,353.41574053247325,1727.7359936258379,9668.9450682590941,390.33169498486808,2285.9523888149997,396.55096127582607,5323.9578206576916,-818.76587054301172,7183.4384879248919,-7183.4384879248919,818.76587054301172,10557.847619104843,0.0
613296.95196600363,3570566.251970998,-12500.0,174.10938747009402,809.12150838298419,10371.591952182105,178.69695560062559,2433.9327511412698,419.48149322125386,5571.2676839484502,-1695.7878798196903,7660.6132784261372,-7660.6132784261372,1695.7878798196903,11017.195510685249,0.0
618296.95196600363,3570566.251970998,-12500.0,154.06542838450002,-197.82038553227062,10645.941504247965,-51.660249965683875,2494.3261716534598,429.35927931195442,5686.6853593563919,-2434.9168644909714,7759.575101757855,-7759.575101757855,2434.9168644909714,11227.524016367921,0.0
623296.95196600363,3570566.251970998,-12500.0,300.9927256227794,-1191.181720640986,10472.736002589278,-280.15287093881909,2463.0377918749641,425.54996161018471,5663.7439904659386,-2959.7144908647829,7474.6610617512779,-7474.6610617512779,2959.7144908647829,11176.080512883935,0.0
628296.95196600363,3570566.251970998,-12500.0,592.86305160331653,-2073.2752164924746,9885.9184749399919,-486.84663914768754,2346.0849819755567,408.81334029769943,5508.0677549755464,-3227.1262770200565,6848.8761367751458,-6848.8761367751458,3227.1262770200565,10873.083790411929,0.0
633296.95196600363,3570566.251970998,-12500.0,983.68525144554121,-2767.8683356689185,8964.348554019256,-655.72329922664221,2158.1891639681994,381.13231878953246,5236.0507149176738,-3233.3786567869729,5963.9831027444843,-5963.9831027444843,3233.3786567869729,10349.365911583976,0.0
638296.95196600363,3570566.251970998,-12500.0,1414.7881340558847,-3231.2372766366902,7814.8252476886319,-776.87502519260511,1919.7630270916534,345.32843881568016,4871.9533102647829,-3010.390275941033,4923.0196518766597,-4923.0196518766597,3010.390275941033,9650.8320110413024,0.0
643296.95196600363,3570566.251970998,-12500.0,1827.7424625197925,-3454.7622546950702,6551.8847008875564,-847.19107941376615,1653.2277170112136,304.57835957362801,4444.2893446254739,-2614.8468247199999,3830.8132209082642,-3830.8132209082642,2614.8468247199999,8831.3092565554562,0.0
648296.95196600363,3570566.251970998,-12500.0,2175.0292344360473,-3459.7822472513258,5279.8013875321321,-869.60511797127424,1379.6055587037215,261.94832798226651,3983.8256150822203,-2114.0726015242176,2777.7164045328641,-2777.7164045328641,2114.0726015242176,7945.3144855233204,0.0
653296.95196600363,3570566.251970998,-12500.0,2426.0929244785293,-3287.7101034028815,4080.623431372283,-851.38990625223641,1116.1114684508141,220.04489465081687,3538.4249567350216,-1573.0206820363071,1829.8475581916475,-1829.8475581916475,1573.0206820363071,7042.2237107784831,0.0
658296.95196600363,3570566.251970998,-12500.0,2568.4188867344874,-2988.9831382120437,3009.2691166931704,-802.12030405113137,874.98965373001261,180.8226311790657,3117.8018989240331,-1045.1990698533352,1026.3241874482476,-1026.3241874482476,1045.1990698533352,6162.5164822150118,0.0
663296.95196600363,3570566.251970998,-12500.0,2604.8324018620874,-2613.6755697603808,2094.5711042644693,-731.83387719109567,663.46538200653629,145.54189717096796,2723.2000287671408,-568.39850093400844,381.96010479007339,-381.96010479007339,568.39850093400844,5336.1781245438542,0.0
668296.95196600363,3570566.251970998,-12500.0,2548.8516932923553,-2205.1972553846658,1344.0395597567838,-649.69337715575807,484.45513288371899,114.83757943436372,2363.0085393158261,-164.51352011919298,-106.98379383041637,106.98379383041637,164.51352011919298,4582.853568658069,0.0
673296.95196600363,3570566.251970998,-12500.0,2419.7568249235301,-1797.2110787377146,750.08001868056431,-563.22675682198337,337.63726951045908,88.848810159722106,2041.9803220530803,158.00591056056589,-456.23342870088106,456.23342870088106,-158.00591056056589,3913.1397447011409,0.0
678296.95196600363,3570566.251970998,-12500.0,2238.4534154864714,-1413.107669655773,295.99894639710209,-478.06404392490106,220.56591632703922,67.366443590096409,1761.5263536698587,400.55963668634865,-687.63691745620292,687.63691745620292,-400.55963668634865,3330.4224854241193,0.0
683296.95196600363,3570566.251970998,-12500.0,2024.5856803036629,-1067.1011409218004,-39.11802609476419,-398.02055542481185,129.63290862963586,49.968817431781993,1520.5662877345451,570.76810878380979,-824.72534219697286,824.72534219697286,-570.76810878380979,2832.7990221345112,0.0
553296.95196600363,3575566.251970998,-12500.0,1458.6749081935327,201.49552138040715,-1823.8395496186058,205.41755414555089,-255.57011403495574,-10.802062091996266,1684.990960214709,1456.703721292487,-1809.7310788105888,1809.7310788105888,-1456.703721292487,2924.8970975381426,0.0
558296.95196600363,3575566.251970998,-12500.0,1801.1361143726529,649.63189364822153,-1584.8889124192617,314.7238217445389,-176.10278120889498,6.5719489122963717,1848.6277547938262,1912.8638429886037,-1700.1179515941544,1700.1179515941544,-1912.8638429886037,3203.9727623509561,0.0
563296.95196600363,3575566.251970998,-12500.0,2114.9736768638309,1178.5135156559004,-1170.9707315586613,438.09008713931286,-56.346309379774304,30.589830998135081,2064.9515038784375,2364.9673403890456,-1443.369852910165,1443.369852910165,-2364.9673403890456,3611.7714547937017,0.0
568296.95196600363,3575566.251970998,-12500.0,2368.775693014496,1770.3142499591452,-539.67216212971732,570.41086742595871,111.77759277217039,62.344605808461694,2347.4190289583821,2772.0339399319782,-999.67505549988823,999.67505549988823,-2772.0339399319782,4181.6485663069543,0.0
573296.95196600363,3575566.251970998,-12500.0,2528.2151691458344,2391.0056797156622,346.12887996729711,703.25633315656182,334.77476690989096,102.62477075659382,2704.9511188957536,3081.7572475225406,-333.89968609745733,333.89968609745733,-3081.7572475225406,4931.8147905250444,0.0
578296.95196600363,3575566.251970998,-12500.0,2561.2445251920681,2988.1944315256173,1509.2063288442275,824.63658825265895,615.75007562885025,151.64751458317681,3138.9216519612014,3234.3687264713999,575.76868211260671,-575.76868211260671,-3234.3687264713999,5860.3236159713779,0.0
583296.95196600363,3575566.251970998,-12500.0,2445.4991275345524,3492.1562503663381,2946.8501907306309,919.44236558491593,952.27059978937245,208.76312794996002,3641.252991113839,3170.4624241322153,1727.2545674990215,-1727.2545674990215,-3170.4624241322153,6943.9021666042354,0.0
588296.95196600363,3575566.251970998,-12500.0,2176.8385434368352,3821.7579727452517,4619.6274324858296,970.84359381380057,1334.3285417718812,272.19166611554169,4193.6947335656823,2842.7813563893701,3084.1022223358536,-3084.1022223358536,-2842.7813563893701,8138.4248686750279,0.0
593296.95196600363,3575566.251970998,-12500.0,1776.8070829438072,3896.2236494868253,6443.4149521183781,962.76625457690329,1743.0489346325467,338.88144685106454,4768.3368354547574,2230.4480060907872,4568.3898318602669,-4568.3898318602669,-2230.4480060907872,9380.4150098565096,0.0
598296.95196600363,3575566.251970998,-12500.0,1295.8847278518322,3651.9473855338892,8288.9419994593245,883.22710709665773,2150.9033779417587,404.58681063677591,5330.3185557467123,1352.1998380468358,6061.1316888833626,-6061.1316888833626,-1352.1998380468358,10590.549790938237,0.0
603296.95196600363,3575566.251970998,-12500.0,809.50913427104751,3061.0798149659281,9992.4932025198923,727.86514326767224,2524.0405578832101,464.23549486864238,5859.8740943905032,273.75719304146514,7413.512139976956,-7413.512139976956,-273.75719304146514,11680.299085564666,0.0
608296.95196600363,3575566.251970998,-12500.0,405.51664684068396,2146.3012065066814,11378.808227645985,502.62278404659349,2826.8411040942956,512.58520119424998,6327.0754830276219,-895.44400295679316,8469.5592933371445,-8469.5592933371445,895.44400295679316,12561.867090776044,0.0
613296.95196600363,3575566.251970998,-12500.0,164.84837432809633,985.51522653875725,12292.754339726782,224.45678280327874,3028.004646491991,545.06621483733988,6648.2192965597551,-2018.3643726740956,9096.4374614844546,-9096.4374614844546,2018.3643726740956,13160.19461256258,0.0
618296.95196600363,3575566.251970998,-12500.0,140.88265789309315,-297.66244763128623,12631.719399437845,-80.621562468442278,3106.6800617157355,558.61241631883252,6792.7582048639815,-2956.8722948725572,9214.1843949756349,-9214.1843949756349,2956.8722948725572,13424.507356517712,0.0
623296.95196600363,3575566.251970998,-12500.0,344.63891956802172,-1556.8485052561227,12368.502720909011,-381.99496776434478,3056.8081098989128,552.24839056388601,6751.1771452296462,-3601.3074608167935,8815.0234593844998,-8815.0234593844998,3601.3074608167935,13336.470827617815,0.0
628296.95196600363,3575566.251970998,-12500.0,741.6915503432615,-2652.926896687617,11556.555870274802,-650.22147779322358,2888.2192028144641,527.25126945907334,6532.4977869069335,-3893.4203618462884,7964.9859656314511,-7964.9859656314511,3893.4203618462884,12912.562688856904,0.0
633296.95196600363,3575566.251970998,-12500.0,1262.1308706439365,-3481.5356911639269,10315.677705514947,-862.41192124691099,2624.1218289813964,486.83929115706906,6161.8584130576783,-3835.061088353078,6787.0492805818749,-6787.0492805818749,3835.061088353078,12199.979809092842,0.0
638296.95196600363,3575566.251970998,-12500.0,1819.5617927747985,-3989.4867382417638,8803.5413188760103,-1005.6388650020785,2295.8825196647317,435.49280821523382,5675.7471349097086,-3480.7141403344153,5432.0210145159926,-5432.0210145159926,3480.7141403344153,11267.346535117802,0.0
643296.95196600363,3575566.251970998,-12500.0,2331.9117143958661,-4176.4921156570472,7183.0049094099231,-1077.6389968393073,1936.8343990772826,378.11883263580415,5117.2732481890534,-2918.2512119348121,4047.3133465597111,-4047.3133465597111,2918.2512119348121,10192.919220322075,0.0
648296.95196600363,3575566.251970998,-12500.0,2737.2703981756449,-4084.419190735292,5594.9847933168603,-1085.0994858238353,1576.8968760309172,319.28789756151184,4545.6744003700969,-2245.8128798466751,2752.8355176990499,-2752.8355176990499,2245.8128798466751,9053.3225209826724,0.0
653296.95196600363,3575566.251970998,-12500.0,3001.236254072679,-3780.0066647090916,4142.5735561780057,-1040.5248299679249,1239.135490563142,262.70200214798615,3998.8653070951023,-1552.2222029716538,1628.7237117498419,-1628.7237117498419,1552.2222029716538,7915.0242699533592,0.0
658296.95196600363,3575566.251970998,-12500.0,3116.1050046956029,-3337.4418741952672,2887.0694987803895,-958.85182065517449,938.5322585395254,210.95233163157661,3479.9399007720558,-905.09538595936374,714.58886198668324,-714.58886198668324,905.09538595936374,6829.5870913489316,0.0
663296.95196600363,3575566.251970998,-12500.0,3094.696866570921,-2825.0820080960075,1852.8226701885492,-854.66863952266488,682.51689764554885,165.52735293117584,3002.8630259519387,-347.02981210409592,16.600361094844459,-16.600361094844459,347.02981210409592,5832.3883596453643,0.0
668296.95196600363,3575566.251970998,-12500.0,2962.2206463076168,-2297.8748437982399,1036.6217727771359,-740.43407535303902,472.53117655328469,126.98706191807287,2576.7802848624806,102.19353317320414,-482.05061380775203,482.05061380775203,-102.19353317320414,4943.9083016429959,0.0
673296.95196600363,3575566.251970998,-12500.0,2748.7667177628309,-1794.8732014802465,417.89880264860403,-625.67974323967337,305.92410176287223,95.209901223604561,2205.3051130410922,440.25402650913804,-810.85181201618195,810.85181201618195,-440.25402650913804,4172.424006653966,0.0
678296.95196600363,3575566.251970998,-12500.0,2483.7650394545531,-1340.2368742610149,-32.539961714204928,-516.95296662525516,177.69785901492401,69.640632074111238,1887.7980132500998,676.19459414437426,-1003.7943223977026,1003.7943223977026,-676.19459414437426,3517.1393954849345,0.0
683296.95196600363,3575566.251970998,-12500.0,2192.6796722343579,-946.03441231483441,-346.17173406897052,-418.20097718496544,81.869810863055534,49.498142145926337,1620.7396075150029,825.07435286174587,-1093.90140785209,1093.90140785209,-825.07435286174587,2971.1111709546472,0.0
688296.95196600363,3575566.251970998,-12500.0,1895.5817592268152,-615.55521111832377,-552.79143746320062,-331.34098891175699,12.39940358430438,33.927805060228863,1398.9047691094429,903.99525799970593,-1110.1920918364119,1110.1920918364119,-903.99525799970593,2523.6500459993067,0.0
548296.95196600363,3580566.251970998,-12500.0,1005.9282332735326,-509.79938381134269,-2370.1051836740139,52.446351437397873,-415.34812380425075,-40.492324687270219,1802.0962035433176,827.13822678096426,-2137.0738728366923,2137.0738728366923,-827.13822678096426,3203.9549202503845,0.0
553296.95196600363,3580566.251970998,-12500.0,1435.7585866324589,-132.75110603687727,-2347.0535274426834,158.54387656538307,-379.29889697677328,-28.739284057820182,1935.5910591234074,1339.7057550182035,-2223.3843054741174,2223.3843054741174,-1339.7057550182035,3387.3856036713842,0.0
558296.95196600363,3580566.251970998,-12500.0,1882.1648695580843,359.62670822759736,-2182.8527128835208,288.74087582352797,-306.26266279259772,-10.164677456466897,2106.0742850824076,1906.9458461578618,-2198.8529590330941,2198.8529590330941,-1906.9458461578618,3651.3592843575516,0.0
563296.95196600363,3580566.251970998,-12500.0,2315.0274740389873,969.57248127533512,-1822.1054375250133,441.75615946165237,-184.28472649260738,17.069281723339948,2332.9199613009641,2499.0039815535247,-2012.3642073620383,2012.3642073620383,-2499.0039815535247,4049.3286602362814,0.0
568296.95196600363,3580566.251970998,-12500.0,2693.9653831289643,1684.3619750654796,-1203.4223215025986,612.75372927228932,-0.75395605607262906,54.800498133067798,2637.2970421077616,3068.378381903181,-1606.5772948715899,1606.5772948715899,-3068.378381903181,4637.5211406343251,0.0
573296.95196600363,3580566.251970998,-12500.0,2970.8465642111637,2469.808912537379,-266.67854338662079,792.14784620673083,255.88299375880155,104.57822982915508,3037.1601814213627,3548.836149529955,-924.81592209248379,924.81592209248379,-3548.836149529955,5458.5930818219822,0.0
578296.95196600363,3580566.251970998,-12500.0,3095.9331343437871,3264.9002579330586,1034.974544548088,964.77434873387051,593.5051958085204,167.25333319158287,3541.6101967765044,3858.4242729002517,77.446775408807071,-77.446775408807071,-3858.4242729002517,6528.1439062429981,0.0
583296.95196600363,3580566.251970998,-12500.0,3028.1243917798338,3980.2040669563803,2718.5595453157612,1109.9506263564749,1012.9252669531586,242.47959293937936,4146.5289155936425,3908.5576841910797,1416.7990056203296,-1416.7990056203296,-3908.5576841910797,7829.0105918314384,0.0
588296.95196600363,3580566.251970998,-12500.0,2748.3902926934193,4503.2853486032182,4752.4302106017985,1203.0146390150132,1504.2497950881477,328.21624883433765,4832.341335508866,3620.2462989108981,3064.105777170792,-3064.105777170792,-3620.2462989108981,9310.8708284066161,0.0
593296.95196600363,3580566.251970998,-12500.0,2273.3465724988905,4713.7474105581896,7040.0855872053371,1218.7505633526368,2044.0083584960223,420.38223677001292,5563.9321080435702,2946.1656891061625,4929.6795740073085,-4929.6795740073085,-2946.1656891061625,10892.019478647668,0.0
598296.95196600363,3580566.251970998,-12500.0,1663.8196999370118,4508.0521700348982,9413.9044583830619,1136.5902023265082,2594.4334004419115,512.84881429308814,6293.4175683202948,1893.8123261863111,6858.4967846889194,-6858.4967846889194,-1893.8123261863111,12463.748979992748,0.0
603296.95196600363,3580566.251970998,-12500.0,1022.4877789192502,3829.9439635650101,11646.367804286076,946.66073685453421,3106.2387478455662,597.93400118580757,6975.7243982726031,541.58129001861835,8642.5589665593361,-8642.5589665593361,-541.58129001861835,13899.552169859066,0.0
608296.95196600363,3580566.251970998,-12500.0,476.76675012303303,2697.3534563695803,13482.581112226968,654.87514282330119,3525.4462110294571,667.43637032732215,7583.530799356965,-961.51195909058333,10053.496462849324,-10053.496462849324,961.51195909058333,15070.095977303001,0.0
613296.95196600363,3580566.251970998,-12500.0,148.61032735725846,1214.1433286390202,14690.248926902705,284.9039979039805,3803.3793778082386,714.05861066590182,8006.7701544693118,-2418.2374307747932,10890.756237768594,-10890.756237768594,2418.2374307747932,15862.517686180552,0.0
618296.95196600363,3580566.251970998,-12500.0,119.9323176603024,-442.22378802229633,15113.795757848775,-124.53806089943022,3907.2541585908471,732.86586293390167,8190.2648513413615,-3625.124421056099,11031.688969346727,-11031.688969346727,3625.124421056099,16199.83044724824,0.0
623296.95196600363,3580566.251970998,-12500.0,406.93154639893419,-2057.2295014139349,14713.814280774495,-527.01665052984572,3827.8847175852584,722.3344373390255,8119.3072686422065,-4421.541417470009,10465.215543523414,-10465.215543523414,4421.541417470009,16054.963840870616,0.0
628296.95196600363,3580566.251970998,-12500.0,954.70729186724259,-3429.0286900558267,13576.075609717034,-878.23518269737747,3581.6259012986907,684.63696221542989,7808.5996508540356,-4727.9242335947692,9294.8504829789072,-9294.8504829789072,4727.9242335947692,15454.878516852232,0.0
633296.95196600363,3580566.251970998,-12500.0,1654.9074826162109,-4413.4339875570877,11886.203618379763,-1145.1163108929557,3205.7884596309191,625.06811784163688,7297.6498202413959,-4558.7221249874019,7709.2454989300313,-7709.2454989300313,4558.7221249874019,14473.316585216557,0.0
638296.95196600363,3580566.251970998,-12500.0,2378.5226557384544,-4948.4322741218502,9880.5969599577274,-1311.1446696878827,2749.3493642311819,550.82330796882434,6643.3623994722866,-4007.0021738555351,5932.4000698304244,-5932.4000698304244,4007.0021738555351,13214.69457890215,0.0
643296.95196600363,3580566.251970998,-12500.0,3009.9498711986453,-5052.61566582259,7792.6788590500691,-1376.7520678655976,2262.3763753253343,469.5442598861946,5920.9714492547582,-3209.9855722559591,4172.8478499931898,-4172.8478499931898,3209.9855722559591,11794.336919000634,0.0
648296.95196600363,3580566.251970998,-12500.0,3470.2803378643048,-4803.3353801018138,5811.9507948922919,-1355.5924562487332,1787.4724727197677,388.0582963267878,5206.7489543462189,-2310.8260490087441,2588.0893923896056,-2588.0893923896056,2310.8260490087441,10320.621110429744,0.0
653296.95196600363,3580566.251970998,-12500.0,3724.9438650790835,-4306.597261904185,4064.2544469841014,-1268.8091910436174,1355.0504705384199,311.58388931311083,4518.2119246244101,-1429.5040128943915,1270.7804161974009,-1270.7804161974009,1429.5040128943915,8882.7249595185385,0.0
658296.95196600363,3580566.251970998,-12500.0,3778.1489814903625,-3669.9447950509189,2611.8213983375404,-1139.4484544528354,982.48031967940324,243.46167898841921,3877.9337144829037,-648.41442131963163,253.58730668359914,-253.58730668359914,648.41442131963163,7545.0676956449106,0.0
663296.95196600363,3580566.251970998,-12500.0,3660.2883125375379,-2984.5105875976201,1465.8658919585766,-988.37561507627515,675.95573183379895,185.30021613064091,3303.4131956023257,-11.235899371374103,-475.36490343571438,475.36490343571438,11.235899371374103,6347.3426019228655,0.0
668296.95196600363,3580566.251970998,-12500.0,3414.3513301813991,-2317.1229860371686,603.73942883701318,-832.09293461878838,433.62251698638102,137.35816551963791,2802.9192661344355,469.91272523981411,-954.44953172278861,954.44953172278861,-469.91272523981411,5308.1320336349791,0.0
673296.95196600363,3580566.251970998,-12500.0,3085.070010738481,-1710.0311288164596,-15.124847819174372,-682.15655803475101,248.78169409615109,98.991853036278556,2377.2595654577449,804.2689857469112,-1233.132664306042,1233.132664306042,-804.2689857469112,4429.9837314260185,0.0
678296.95196600363,3580566.251970998,-12500.0,2712.0935688396889,-1184.9358801016533,-437.19985310949676,-545.62795891260498,112.51117265689714,69.05810815893895,2022.1169582463353,1012.787746459812,-1361.2822037226515,1361.2822037226515,-1012.787746459812,3704.4994714622576,0.0
683296.95196600363,3580566.251970998,-12500.0,2326.8190337555225,-748.52885627880801,-707.25570094322802,-426.00885388365657,15.486729200660497,46.220090938373055,1730.1256633839457,1120.786349822276,-1383.1084458630339,1383.1084458630339,-1120.786349822276,3116.6151341617046,0.0
688296.95196600363,3580566.251970998,-12500.0,1951.8171468397531,-397.79682173581205,-864.40058654016752,-324.2715122062541,-50.935883277872577,29.149101340265386,1492.490246360692,1153.1910643374204,-1334.6358419916069,1334.6358419916069,-1153.1910643374204,2647.8386011047969,0.0
693296.95196600363,3580566.251970998,-12500.0,1601.7488389263096,-124.28569733336495,-940.65322353262786,-239.76922059707366,-94.200499485850017,16.638910872383665,1300.1483257546436,1131.9735727942868,-1243.424583564394,1243.424583564394,-1131.9735727942868,2278.5576192702265,0.0
543296.95196600363,3585566.251970998,-12500.0,331.5559180814497,-1205.2023414090365,-2667.3678890110255,-127.09208795812546,-540.06882155643177,-69.313325293799593,1974.9065632395991,13.285087244010583,-2205.0679243306304,2205.0679243306304,-13.285087244010583,3637.7303469706617,0.0
548296.95196600363,3585566.251970998,-12500.0,788.00338672711348,-960.49963384394073,-2842.397829111987,-40.516610495741794,-551.33005650246912,-64.979938702751994,2105.650962965859,499.80290589558308,-2460.4635651065787,2460.4635651065787,-499.80290589558308,3807.2588249719292,0.0
553296.95196600363,3585566.251970998,-12500.0,1309.6508590998346,-589.99710935471467,-2932.3916627803383,76.473555701040056,-534.99395095429384,-54.679492354631755,2253.7876213335385,1090.973364940528,-2661.4891375600678,2661.4891375600678,-1090.973364940528,3998.6578579013608,0.0
558296.95196600363,3585566.251970998,-12500.0,1878.1690491990441,-70.97689403050444,-2882.247367393174,227.3985452237207,-477.53220721176643,-36.0672829269743,2434.3348339780614,1777.9027654167937,-2758.9754257799195,2758.9754257799195,-1777.9027654167937,4250.6067348372571,0.0
563296.95196600363,3585566.251970998,-12500.0,2460.8010931731819,611.30276538163196,-2620.8016076458266,413.25916547212876,-362.31213562699548,-6.3928352689253414,2670.3440795830861,2533.7856569356577,-2687.9601290451897,2687.9601290451897,-2533.7856569356577,4625.9772412534221,0.0
568296.95196600363,3585566.251970998,-12500.0,3008.289365000714,1455.2215244146594,-2062.8187472662348,630.68812116438801,-170.40496427724426,37.309131444278769,2991.6380125371034,3307.5206467911175,-2369.3681637284481,2369.3681637284481,-3307.5206467911175,5206.7383456587913,0.0
573296.95196600363,3585566.251970998,-12500.0,3455.8541656104308,2432.3082776474894,-1116.2677586209322,869.82167093589908,117.42145996079186,97.838240159666412,3429.2141332105844,4019.039533515037,-1716.8361857734626,1716.8361857734626,-4019.039533515037,6073.4516462182419,0.0
578296.95196600363,3585566.251970998,-12500.0,3729.4018673133396,3476.558419706671,302.87704594704473,1112.3693758336906,517.15504787178213,177.22154283878382,4006.0952028198481,4559.4760120258015,-650.84978923802487,650.84978923802487,-4559.4760120258015,7277.4476026721213,0.0
583296.95196600363,3585566.251970998,-12500.0,3758.7408693719349,4477.3824066704765,2247.1750867321116,1330.7158296466491,1036.3555548822421,275.89761626516355,4728.1460260659642,4800.0678657944636,878.78988293940824,-878.78988293940824,-4800.0678657944636,8821.8962568244915,0.0
588296.95196600363,3585566.251970998,-12500.0,3497.7905179942063,5281.8329162987302,4707.3946967667025,1489.1727292670828,1667.8930430510811,391.81034799094272,5578.0848279540278,4613.1063059155358,2864.1115523849712,-2864.1115523849712,-4613.1063059155358,10656.408701228613,0.0
593296.95196600363,3585566.251970998,-12500.0,2948.2046983164355,5712.0063451256892,7581.9103682920659,1548.4154378729615,2384.0986877233981,519.65718491329926,6513.5510021220916,3905.1010916137952,5210.4202116528968,-5210.4202116528968,-3905.1010916137952,12678.637382104349,0.0
598296.95196600363,3585566.251970998,-12500.0,2178.3802175738138,5600.5826922386541,10657.812309151228,1473.4325711190697,3133.7739610530843,650.6433945541479,7469.6923401912954,2656.3915681004196,7719.8852323977662,-7719.8852323977662,-2656.3915681004196,14739.854031174011,0.0
603296.95196600363,3585566.251970998,-12500.0,1326.7032015609911,4840.2030030261676,13618.489970374201,1243.8308167032392,3844.8322128859027,773.09061315242604,8372.9676151406602,954.06331360212425,10101.405594360496,-10101.405594360496,-954.06331360212425,16657.480050303311,0.0
608296.95196600363,3585566.251970998,-12500.0,579.66874068606114,3432.453488166545,16088.401162538143,863.49571957533817,4434.3400284491509,874.05741981311144,9173.6033310850034,-999.49720688141224,12016.228415915637,-12016.228415915637,999.49720688141224,18237.709578139868,0.0
613296.95196600363,3585566.251970998,-12500.0,124.53060595992308,1514.8338238193321,17712.47271935442,365.41740953700787,4825.078163324989,941.75966560702,9740.3848695829056,-2916.3226133313174,13155.202871255864,-13155.202871255864,2916.3226133313174,19306.969875232036,0.0
618296.95196600363,3585566.251970998,-12500.0,90.223864834645212,-653.5854432879762,18248.586300535175,-191.81805705797979,4964.2323004761929,968.15421398582725,9977.0043402275805,-4490.1417246301125,13325.101672550813,-13325.101672550813,4490.1417246301125,19745.324050680454,0.0
623296.95196600363,3585566.251970998,-12500.0,501.38304436588521,-2751.3899075738113,17637.880258168305,-736.29992242393791,4837.4949726183877,950.83489074464296,9859.4616045127241,-5480.0929010306127,12509.337151041822,-12509.337151041822,5480.0929010306127,19511.546279979179,0.0
628296.95196600363,3585566.251970998,-12500.0,1268.4665647586701,-4479.6264200049845,16020.97666505646,-1200.0614690933403,4472.6309015089591,893.53532772344067,9412.2594995067175,-5776.5439153985426,10873.983725877151,-10873.983725877151,5776.5439153985426,18650.554610354036,0.0
633296.95196600363,3585566.251970998,-12500.0,2219.9545833165744,-5637.5565690832545,13691.816271613734,-1534.8200481672613,3930.8817534250784,805.05785022072359,8699.6318101723409,-5420.5497770219299,8714.7538169821091,-8714.7538169821091,5420.5497770219299,17280.210849809813,0.0
638296.95196600363,3585566.251970998,-12500.0,3160.5376994133121,-6159.2682970098931,11010.612247934092,-1720.3992032111439,3289.9903947035423,697.05569980888424,7817.4184250430471,-4571.9951418274659,6369.4296862363617,-6369.4296862363617,4571.9951418274659,15562.522926445754,0.0
643296.95196600363,3585566.251970998,-12500.0,3927.7361743668125,-6102.753819953532,8313.86306966548,-1763.8495252540786,2625.8085295655856,581.48432562998914,6886.8962431216523,-3446.6762771207859,4133.8333531227991,-4133.8333531227991,3446.6762771207859,13669.729884490467,0.0
648296.95196600363,3585566.251970998,-12500.0,4425.2763486289214,-5606.0850732012104,5853.1618658701154,-1691.5508255126251,1998.7173766373257,468.52245695584082,5967.8611830674363,-2252.6948704566248,2210.3697155770196,-2210.3697155770196,2252.6948704566248,11755.754572617901,0.0
653296.95196600363,3585566.251970998,-12500.0,4627.5930960445494,-4835.1899448928898,3774.0230648573802,-1538.7453188591594,1447.6070802162617,365.41682790823626,5097.8859831698737,-1148.3919631371316,696.62180364815777,-696.62180364815777,1148.3919631371316,9939.0018645373329,0.0
658296.95196600363,3585566.251970998,-12500.0,4563.6696364698764,-3942.7619620634268,2127.0148512469086,-1340.4727429450563,990.5913236106029,276.27706488531186,4310.3702805461398,-227.84116520701735,-396.55911278869377,396.55911278869377,227.84116520701735,8297.1475027869674,0.0
663296.95196600363,3585566.251970998,-12500.0,4293.1051387922062,-3045.973415035357,895.13464767239338,-1125.8717461830049,629.68519444396759,202.53831059811898,3623.4326260393104,472.72078925355424,-1114.4499717702297,1114.4499717702297,-472.72078925355424,6870.6221766632971,0.0
668296.95196600363,3585566.251970998,-12500.0,3884.5765280251226,-2221.0258374226019,23.296539432876887,-915.93478395534214,356.66057014528809,143.73115201607629,3041.7517131078266,958.36977312024794,-1528.9353991498474,1528.9353991498474,-958.36977312024794,5670.6483818407414,1.0
673296.95196600363,3585566.251970998,-12500.0,3401.3161320923932,-1508.1805802958363,-558.14702069439977,-723.72097635784348,158.21271862685339,98.261188031866794,2560.5512711567253,1257.7853679225136,-1716.8730828360376,1716.8730828360376,-1257.7853679225136,4688.2226925917785,0.0
678296.95196600363,3585566.251970998,-12500.0,2893.8887009594864,-921.10004590929339,-918.1647623343124,-555.84701810194542,19.672969968848669,64.037272129696248,2169.3876702824282,1409.1295509194401,-1747.4722640192035,1747.4722640192035,-1409.1295509194401,3901.9995463794826,1.0
683296.95196600363,3585566.251970998,-12500.0,2398.3895527768273,-456.37197966609182,-1117.0797316902322,-414.34135882450369,-72.75783556892118,38.898811061468926,1855.145238816162,1450.8356888098344,-1676.8639461077862,1676.8639461077862,-1450.8356888098344,3284.3183714536212,0.0
688296.95196600363,3585566.251970998,-12500.0,1937.7871362357471,-101.23663573080968,-1203.6845051467103,-298.33314114266994,-130.93092364442384,20.862073300260494,1604.1685301635969,1416.6967591194559,-1547.2704014486856,1547.2704014486856,-1416.6967591194559,2805.4702503336016,0.0
693296.95196600363,3585566.251970998,-12500.0,1524.6046412299979,160.98457665657463,-1215.3258198130891,-205.36184947388804,-164.42961213648476,8.232519605495666,1403.6471646585101,1333.9781135778421,-1388.5588142313718,1388.5588142313718,-1333.9781135778421,2436.6429852853366,0.0
698296.95196600363,3585566.251970998,-12500.0,1163.8109414180501,347.50445023392126,-1179.4052814519544,-132.28400153390848,-180.67520654642192,-0.36829184777991819,1242.4023736430813,1223.3298420787526,-1220.6845738616855,1220.6845738616855,-1223.3298420787526,2151.9195336573607,0.0
538296.95196600363,3590566.251970998,-12500.0,-502.97940420939568,-1787.1142657600135,-2704.104031526058,-313.63119047848926,-616.63416048503461,-94.357683795711296,2163.5307683345109,-884.5799721864629,-2015.245862898641,2015.245862898641,884.5799721864629,4114.4243216561626,0.0
543296.95196600363,3590566.251970998,-12500.0,-95.284426778264191,-1709.5927803869199,-3025.5643698288022,-260.83689628073705,-671.24694317013643,-98.252754553341916,2320.0668921040542,-505.89980425234614,-2380.2104048638007,2380.2104048638007,505.89980425234614,4347.6198987553453,0.0
548296.95196600363,3590566.251970998,-12500.0,414.85238921622783,-1523.4146472804243,-3325.5286362655902,-177.15128205597068,-711.77114449617682,-98.007970021342317,2483.0704075769445,3.7394632987575278,-2751.9255743328963,2751.9255743328963,-3.7394632987575278,4572.9160922443962,0.0
553296.95196600363,3590566.251970998,-12500.0,1027.9167577177266,-1192.4955693447293,-3562.2714033184016,-54.843708807084298,-726.08716822601286,-91.203632220741468,2658.0578393021806,659.05318266200265,-3095.9262225762591,3095.9262225762591,-659.05318266200265,4800.2138399989572,0.0
558296.95196600363,3590566.251970998,-12500.0,1731.5821677768638,-678.80481780496189,-3673.5229178455374,113.35125283985884,-697.28615666419159,-74.644677386232004,2857.770219469739,1463.3947226632731,-3358.1178284757621,3358.1178284757621,-1463.3947226632731,5059.0777727411496,0.0
563296.95196600363,3590566.251970998,-12500.0,2494.6991689830229,51.240085148215378,-3572.2551638158411,332.48228964103953,-603.10248548432139,-44.347032749516629,3105.9675933053804,2399.8240906076271,-3460.3540836831316,3460.3540836831316,-2399.8240906076271,5411.2032874182942,0.0
568296.95196600363,3590566.251970998,-12500.0,3261.7149644336587,1015.9729308404602,-3145.4002084033259,602.7267009630184,-416.22017041301694,4.2964518163509009,3439.6446093387231,3420.1985300809883,-3298.7960515094474,3298.7960515094474,-3420.1985300809883,5957.9697662381877,0.0
573296.95196600363,3590566.251970998,-12500.0,3950.0513754477283,2202.9174616139208,-2259.0138761514072,915.90111440450335,-106.20842473382821,76.058219948804066,3905.7502885817812,4434.424145489611,-2748.5251368589597,2748.5251368589597,-4434.424145489611,6827.5500182227415,0.0
578296.95196600363,3590566.251970998,-12500.0,4454.2204123216898,3550.008868924248,-774.37626475394688,1251.6534929806619,356.05261237886111,175.0201537181488,4549.601657768827,5304.2644476970527,-1678.8153770004569,1678.8153770004569,-5304.2644476970527,8134.0939574253307,0.0
583296.95196600363,3590566.251970998,-12500.0,4660.9300359062008,4928.4730511841426,1420.9368959799017,1574.5461865504724,990.84472625551655,303.28430184400315,5398.0007921251599,5848.4936337141062,17.069773112601524,-17.069773112601524,-5848.4936337141062,9930.777227886103,0.0
588296.95196600363,3590566.251970998,-12500.0,4477.6543431580085,6136.3619484273459,4366.5218971378281,1833.9799714451212,1799.262491654933,459.37782974705254,6444.6658247963387,5866.9929382886303,2377.3444111524304,-2377.3444111524304,-5866.9929382886303,12185.221938725754,0.0
593296.95196600363,3590566.251970998,-12500.0,3871.88356747136,6914.5701114339308,7974.4407447158073,1969.2490027674544,2751.9912589413011,636.73213222814604,7642.9941072414913,5188.2113089086406,5320.0147345368232,-5320.0147345368232,-5188.2113089086406,14776.928164947612,0.0
598296.95196600363,3590566.251970998,-12500.0,2909.6138792153715,6994.9131506733238,11984.73715410216,1921.2317687967736,3781.2872427368811,822.87352020206652,8907.1260041621772,3735.0108045547354,8602.4604645795007,-8602.4604645795007,-3735.0108045547354,17504.399387068308,0.0
603296.95196600363,3590566.251970998,-12500.0,1773.1260068466768,6178.9277862109902,15958.880261050344,1649.7649940903013,4781.7091978221497,1000.0534859113352,10126.700791129937,1589.2848737958384,11819.220432805192,-11819.220432805192,-1589.2848737958384,20102.157337270237,0.0
608296.95196600363,3590566.251970998,-12500.0,736.8879560916572,4426.7906426126501,19337.134798434174,1151.9363840423778,5624.2389204734627,1147.7617516369824,11207.459903310499,-977.35271017441755,14461.974379396805,-14461.974379396805,977.35271017441755,22274.697183949829,0.0
613296.95196600363,3590566.251970998,-12500.0,93.937545970212113,1916.8226897314785,21564.76779310462,473.24770402398406,6183.8489250596231,1246.8543917883239,11980.843503862543,-3538.7944755786611,16043.596345450331,-16043.596345450331,3538.7944755786611,23748.392941262224,0.0
618296.95196600363,3590566.251970998,-12500.0,52.942331876051632,-966.24813192865918,22253.824723384107,-296.17144999751088,6373.2284851756085,1284.1515857381517,12291.704825477203,-5623.0580219481244,16250.467997335949,-16250.467997335949,5623.0580219481244,24330.624863688743,0.0
623296.95196600363,3590566.251970998,-12500.0,652.95870248061931,-3728.8054495539541,21312.953895776416,-1042.4625894566591,6169.3886647516756,1255.8527201337895,12099.497736073745,-6859.2564144627149,15056.001752064451,-15056.001752064451,6859.2564144627149,23956.195849094373,0.0
628296.95196600363,3590566.251970998,-12500.0,1744.2461638609452,-5917.7697069170827,18978.454040265515,-1659.1641140637407,5620.5273509178005,1168.4090211562229,11446.422139718799,-7095.2421393632458,12733.658540760036,-12733.658540760036,7095.2421393632458,22701.60922168567,0.0
633296.95196600363,3590566.251970998,-12500.0,3048.9677948325693,-7252.4106115791465,15727.231423960448,-2075.2667027013904,4829.4222131840615,1036.5162397745557,10442.30149257608,-6427.0252363948175,9758.1745298433452,-9758.1745298433452,6427.0252363948175,20760.184312896738,0.0
638296.95196600363,3590566.251970998,-12500.0,4267.6404811566517,-7678.3879258498173,12117.38729544106,-2268.4689951496684,3921.5215364418104,879.09269371778942,9254.7554568482519,-5131.9148459170083,6646.6471791052118,-6646.6471791052118,5131.9148459170083,18388.74098472566,0.0
643296.95196600363,3590566.251970998,-12500.0,5174.4576504018869,-7332.7066862137699,8634.8995493585953,-2260.5460143276227,3012.3951596292754,714.82598009927847,8027.6333054661818,-3551.1861812669267,3817.5398311593399,-3817.5398311593399,3551.1861812669267,15847.864516607095,0.0
648296.95196600363,3590566.251970998,-12500.0,5662.2530453986819,-6456.1795502983996,5604.7632361897231,-2100.7968894063761,2186.4571959800151,558.77024768074466,6833.7822545805511,-1984.1301371768482,1519.7356311717863,-1519.7356311717863,1984.1301371768482,13356.048613668432,0.0
653296.95196600363,3590566.251970998,-12500.0,5734.4895484425169,-5303.8237906127579,3177.6203050835229,-1847.074165809772,1490.6324740950588,420.7425160861585,5736.3685342131394,-630.89855832749004,-164.85509276374609,164.85509276374609,630.89855832749004,11067.049125380472,1.0
658296.95196600363,3590566.251970998,-12500.0,5466.9873714645182,-4085.5966064975983,1366.8824055155553,-1551.5062687871073,939.42648761905912,305.40508964637462,4774.5138665802442,414.30840896279381,-1274.6793530306663,1274.6793530306663,-414.30840896279381,9068.3594775567635,0.0
663296.95196600363,3590566.251970998,-12500.0,4965.1742023187335,-2943.5336935918122,102.72706552980044,-1253.2997840829946,525.17149155767868,213.39066612601479,3962.5711603410464,1139.4176096115625,-1911.970883388839,1911.970883388839,-1139.4176096115625,7392.5916180735267,0.0
668296.95196600363,3590566.251970998,-12500.0,4332.3080859053189,-1955.0441855312092,-720.3373859233468,-977.46633231397607,228.37269966998628,142.76149222782163,3296.767477979341,1581.7050044893849,-2197.4431311252874,2197.4431311252874,-1581.7050044893849,6033.4575629111278,0.0
673296.95196600363,3590566.251970998,-12500.0,3652.4761099484358,-1148.5072627682707,-1211.4836108751279,-736.98457959978407,25.560868508848138,90.31121918416595,2762.3301424162069,1799.6518649437924,-2242.7432951786236,2242.7432951786236,-1799.6518649437924,4960.7965097122396,0.0
678296.95196600363,3590566.251970998,-12500.0,2985.4034852393643,-520.9408005468307,-1466.6774397505033,-536.18014163881162,-105.88235493857553,52.497673404879485,2339.2623417676541,1854.2257567267152,-2138.2076140838558,2138.2076140838558,-1854.2257567267152,4132.2712458452552,0.0
683296.95196600363,3590566.251970998,-12500.0,2368.2623102853431,-52.609601792287222,-1562.5293504782626,-373.96760144738715,-185.37449586398873,25.997365729793326,2006.4335072993758,1798.9819075910477,-1950.5352075575597,1950.5352075575597,-1798.9819075910477,3501.6171067114524,0.0
688296.95196600363,3590566.251970998,-12500.0,1820.4566150981125,282.86165915118926,-1556.3101398984186,-246.37622137141841,-228.41373456104196,7.9668679708945298,1744.1663026708065,1676.3838230434767,-1725.5071942335103,1725.5071942335103,-1676.3838230434767,3024.230821821187,0.0
693296.95196600363,3590566.251970998,-12500.0,1348.880780098644,512.41024986252478,-1488.7674630702561,-148.26635588548558,-246.75739484209763,-3.8851537971892003,1535.6219087663267,1517.7151177462235,-1492.4862576899716,1492.4862576899716,-1517.7151177462235,2660.8003520018838,0.0
698296.95196600363,3590566.251970998,-12500.0,952.44755232688897,660.40325250755438,-1387.7278902238877,-74.367709004324198,-248.99151103017914,-11.329566585126221,1367.2822438813837,1344.6564320414352,-1268.9281952463837,1268.9281952463837,-1344.6564320414352,2379.2560276221693,0.0
533296.95196600363,3595566.251970998,-12500.0,-1402.3334615921581,-2181.2710951131376,-2515.8003421694216,-486.19328315090462,-640.4386132991898,-113.33040595979783,2327.4225882762057,-1749.791580958215,-1617.6450489990152,1617.6450489990152,1749.791580958215,4533.2181650640532,0.0
538296.95196600363,3595566.251970998,-12500.0,-1113.8524077978675,-2270.5606572785723,-2913.5984087786742,-475.92474719294529,-727.69353968099438,-125.08747559405919,2526.6684480329668,-1538.5846935582445,-2016.9089151305379,2016.9089151305379,1538.5846935582445,4871.4198489806367,0.0
543296.95196600363,3595566.251970998,-12500.0,-708.78668361448069,-2289.7956291557239,-3344.527859792855,-440.49189293356727,-815.26731912077105,-135.17067941673758,2733.5460883423011,-1200.7364823471294,-2472.0670902512252,2472.0670902512252,1200.7364823471294,5205.155520025749,0.0
548296.95196600363,3595566.251970998,-12500.0,-167.93918265767959,-2201.1255004184509,-3787.693702628585,-370.01383892710635,-894.96467185979373,-141.5747147302576,2946.9161219351417,-703.96427096054595,-2970.0708141947766,2970.0708141947766,703.96427096054595,5526.9546037910441,0.0
553296.95196600363,3595566.251970998,-12500.0,521.91957748032326,-1956.4936802849866,-4204.2587034223561,-252.82992877213258,-953.56766298459343,-141.32934949781261,3168.2461891289904,-17.026725266024187,-3481.5553854605596,3481.5553854605596,17.026725266024187,5834.832727148354,0.0
558296.95196600363,3595566.251970998,-12500.0,1361.1968259723983,-1499.2543837240717,-4529.3924855197529,-76.375963141378449,-971.08640751072448,-130.25386969837572,3405.2840481107446,883.10567286299738,-3952.7911707246076,3952.7911707246076,-883.10567286299738,6142.2928540478879,0.0
563296.95196600363,3595566.251970998,-12500.0,2328.1299629409277,-769.90337261092191,-4663.3707227410077,170.86323671204548,-919.09963558357299,-102.78977259729103,3677.8880879506287,1999.6134202105382,-4296.6201263398852,4296.6201263398852,-1999.6134202105382,6495.7481761155668,0.0
568296.95196600363,3595566.251970998,-12500.0,3367.9360681713624,281.65682092280747,-4464.2766919822225,495.87595636534724,-759.88185544507212,-52.050029219975904,4024.9957832533214,3299.2983592524743,-4384.778044256479,4384.778044256479,-3299.2983592524743,6997.2662350700321,0.0
573296.95196600363,3595566.251970998,-12500.0,4383.4214072723435,1675.1535340005642,-3747.1645048382743,895.85542660580211,-447.50800958530363,29.71191896703828,4508.0715173235876,4692.6824030188209,-4046.4081812276627,4046.4081812276627,-4692.6824030188209,7816.0017740033618,0.0
578296.95196600363,3595566.251970998,-12500.0,5232.7782192115628,3370.1211537015279,-2297.4022818401909,1351.4640429094088,67.391042410262301,149.97586132912372,5202.6779057159265,6015.9510525077985,-3080.3855938332981,3080.3855938332981,-6015.9510525077985,9155.8843695839241,0.0
583296.95196600363,3595566.251970998,-12500.0,5742.8019000302538,5231.9922771649735,92.479562631345786,1820.1189971904193,827.49177381394873,314.00014939900433,6173.8716958263885,7025.1455518627845,-1290.5579146488417,1290.5579146488417,-7025.1455518627845,11173.070667063519,0.0
588296.95196600363,3595566.251970998,-12500.0,5745.5091587111401,7006.8700394837306,3555.8369004482447,2232.4152561091259,1852.51071356446,522.11246812962361,7445.045490078619,7417.5115930066659,1449.9532640065522,-1449.9532640065522,-7417.5115930066659,13898.781078493876,0.0
593296.95196600363,3595566.251970998,-12500.0,5139.6366374088602,8326.2970451461988,8059.2648734070735,2496.2237701395848,3118.7378926373931,766.78998766721406,8976.2615398195921,6894.0072974008344,5110.4570845039798,-5110.4570845039798,-6894.0072974008344,17212.430052774307,0.0
598296.95196600363,3595566.251970998,-12500.0,3963.5117280676209,8765.548175216165,13309.326379660601,2512.7479708911533,4540.6339856237382,1030.6551134092208,10659.203843081081,5264.3987314900751,9415.9473307994122,-9415.9473307994122,-5264.3987314900751,20848.36003743063,0.0
603296.95196600363,3595566.251970998,-12500.0,2445.9833384790327,7965.2751376042797,18707.637448880501,2205.1782049870017,5965.0589506259994,1286.8646571219679,12333.810607154001,2569.5483532884164,13810.198807647106,-13810.198807647106,-2569.5483532884164,24419.36074607055,0.0
608296.95196600363,3595566.251970998,-12500.0,990.59976217430597,5791.5424236482022,23412.653629338423,1553.12057938967,7189.2838375584715,1502.9807308810684,13836.467817252871,-836.76836043820367,17523.962286819667,-17523.962286819667,836.76836043820367,27467.112116607936,0.0
613296.95196600363,3595566.251970998,-12500.0,64.352472908024481,2464.460990282802,26537.788490629377,617.66662919375972,8006.7023651977424,1648.0315078045378,14918.158391330528,-4317.2139371713029,19772.091044786768,-19772.091044786768,4317.2139371713029,29548.477400264503,0.0
618296.95196600363,3595566.251970998,-12500.0,15.357632067796317,-1435.1033802489787,27440.425725938174,-460.36229476554524,8268.8963454769164,1700.6172089305155,15336.328665892566,-7125.6744761824293,20028.129193067038,-20028.129193067038,7125.6744761824293,30342.946576158047,0.0
623296.95196600363,3595566.251970998,-12500.0,908.83228783556956,-5127.6967946671102,25971.752185162168,-1496.4479980105873,7937.5928321136344,1654.8985689478936,15022.519771032239,-8673.2483470782172,18245.546110418858,-18245.546110418858,8673.2483470782172,29742.595754668768,0.0
628296.95196600363,3595566.251970998,-12500.0,2487.2332584819542,-7908.4898697442168,22540.296489778066,-2320.208163788514,7098.5415642341686,1521.9661653293826,14052.740398762371,-8747.8667605662649,14888.125282311374,-14888.125282311374,8747.8667605662649,27881.252812965802,0.0
633296.95196600363,3595566.251970998,-12500.0,4289.0222221685035,-9385.5681907721973,17941.423570403018,-2826.928437678609,5928.3755271350174,1326.1370841087728,12624.867961714603,-7558.8617941741231,10738.695077349477,-10738.695077349477,7558.8617941741231,25085.760923410216,0.0
638296.95196600363,3595566.251970998,-12500.0,5850.1806481948543,-9556.6768625594868,13054.443452079349,-2998.0826238328978,4632.7605158340721,1097.8474455566875,11003.331643675048,-5593.2774345628768,6600.258727871189,-6600.258727871189,5593.2774345628768,21773.062645275724,0.0
643296.95196600363,3595566.251970998,-12500.0,6865.8661538676806,-8713.9596245638586,8577.3366660960128,-2886.6029530181818,3387.8921696158236,866.02402175450311,9357.0830798539937,-3392.0469506932568,3056.9096756614426,-3056.9096756614426,3392.0469506932568,18341.917476403167,0.0
648296.95196600363,3595566.251970998,-12500.0,7241.9407932299246,-7269.2684115024358,4906.8021899416026,-2582.4167215732859,2308.3401700108002,652.59581347567007,7804.2455572932886,-1375.3916786162372,387.29287467686277,-387.29287467686277,1375.3916786162372,15099.802211771314,1.0
653296.95196600363,3595566.251970998,-12500.0,7051.1211616489491,-5603.9944227948927,2159.2652153510526,-2178.5705206837779,1444.2696096429534,470.38178140155031,6428.6368341207162,224.14622153084599,-1388.8671122686874,1388.8671122686874,-224.14622153084599,12237.437209265247,0.0
658296.95196600363,3595566.251970998,-12500.0,6451.426618283991,-3991.972632288866,263.84528597728564,-1750.0152465270126,797.01696486405797,323.92309582351089,5268.2747532162284,1340.6221980897963,-2406.5891654438169,2406.5891654438169,-1340.6221980897963,9839.6616028886056,0.0
663296.95196600363,3595566.251970998,-12500.0,5615.0793378910712,-2588.1894407567811,-939.17967799870428,-1346.3943404604779,339.68353676256021,211.88360384912116,4325.0818130947637,2015.4666334029064,-2858.0881162229944,2858.0881162229944,-2015.4666334029064,7913.2517116877571,0.0
668296.95196600363,3595566.251970998,-12500.0,4686.8960492794185,-1453.2800977367799,-1627.7709428271226,-994.21209350110223,34.292539209136827,129.6777157323273,3578.5697793566678,2339.3658698644954,-2929.5250654503093,2929.5250654503093,-2339.3658698644954,6416.4563504247644,0.0
673296.95196600363,3595566.251970998,-12500.0,3769.5836583101513,-587.38603608295205,-1960.1292507604526,-702.96664889111742,-157.26612259582228,71.543403888733323,2997.5105210305082,2412.1448597310782,-2771.7976208223554,2771.7976208223554,-2412.1448597310782,5282.8168673667578,0.0
678296.95196600363,3595566.251970998,-12500.0,2925.562496050728,40.865755740724218,-2060.7749041632051,-471.58830193771922,-267.82591425211677,31.84367257947757,2548.2008632959764,2321.6381231848814,-2494.0652803771104,2494.0652803771104,-2321.6381231848814,4437.9612068484294,0.0
683296.95196600363,3595566.251970998,-12500.0,2185.8177935110407,474.58299277234289,-2020.2344844163952,-293.52424600851492,-323.23685003636677,5.7098959992649014,2199.5352894369889,2136.0982913404314,-2168.6442570322988,2168.6442570322988,-2136.0982913404314,3810.7349822219262,0.0
688296.95196600363,3595566.251970998,-12500.0,1559.8843839500842,757.21122950481401,-1900.574137434651,-160.13241556948194,-342.65371083680492,-10.754679835288405,1925.5308621842717,1904.1657968071402,-1839.6718323746466,1839.6718323746466,-1904.1657968071402,3340.0325329374555,0.0
693296.95196600363,3595566.251970998,-12500.0,1044.2723381347037,927.0791982909418,-1742.324646445692,-62.656354842608557,-339.65213120048173,-20.512854991875905,1706.0102157909096,1658.0999128906822,-1531.6243481033864,1531.6243481033864,-1658.0999128906822,2977.9285989403247,0.0
698296.95196600363,3595566.251970998,-12500.0,628.5970725315932,1015.5449116659823,-1570.7480099716624,6.7912922479233657,-323.51747057987137,-25.735982250946947,1526.1344582954812,1417.8024556791108,-1256.1879566116024,1256.1879566116024,-1417.8024556791108,2689.6635070676357,0.0
703296.95196600363,3595566.251970998,-12500.0,299.60564053557812,1047.0406786817089,-1400.7769820899812,54.855449140973867,-300.40452228342093,-27.971853160750616,1375.3990922251314,1194.4798429851846,-1017.2398887932248,1017.2398887932248,-1194.4798429851846,2451.5789891879872,0.0
528296.95196600363,3600566.251970998,-12500.0,-2260.1741750571309,-2353.3892208363095,-2171.187659331978,-627.03502456141337,-615.70134686556389,-124.97554791014113,2437.5338933537832,-2477.7075772982198,-1094.8042841975421,1094.8042841975421,2477.7075772982198,4827.9492102819759,0.0
533296.95196600363,3600566.251970998,-12500.0,-2138.3539168759553,-2576.9865866601644,-2576.2344349589157,-660.73847088971502,-721.11593865365558,-143.18441447070231,2682.0860952538669,-2457.7751986893891,-1458.0654306744264,1458.0654306744264,2457.7751986893891,5276.2123461800184,0.0
538296.95196600363,3600566.251970998,-12500.0,-1912.3909141434644,-2777.726147302461,-3048.9242671385891,-679.65978256125459,-838.92599929417224,-162.32759600365816,2943.8095530023083,-2342.3580460140611,-1903.5738435522637,1903.5738435522637,2342.3580460140611,5743.5115927523093,0.0
543296.95196600363,3600566.251970998,-12500.0,-1551.4898787800958,-2926.7338246926647,-3588.7273772319622,-674.46679862498411,-965.98509549737219,-181.19170143925888,3220.1390654216666,-2093.2520368279133,-2438.136064382004,2438.136064382004,2093.2520368279133,6219.4121260914244,0.0
548296.95196600363,3600566.251970998,-12500.0,-1022.2797525555214,-2981.7724807720715,-4184.6239238104235,-632.55728698889266,-1095.318696699271,-197.66048628422092,3507.6942076484056,-1664.1859627377753,-3060.250519443136,3060.250519443136,1664.1859627377753,6690.3366289916485,0.0
553296.95196600363,3600566.251970998,-12500.0,-293.06889727627703,-2884.1955314528141,-4807.2052822901023,-537.74563607832704,-1213.9482080102734,-208.31364012588304,3803.52390940035,-1003.253265869809,-3752.5356031273868,3752.5356031273868,1003.253265869809,7142.2322140741971,0.0
558296.95196600363,3600566.251970998,-12500.0,658.26884915894334,-2557.5079278952662,-5397.2432001041443,-370.6263015913309,-1300.0211000619684,-207.95823002755873,4108.2722409497219,-59.47253092339497,-4470.5148677208581,4470.5148677208581,59.47253092339497,7568.284057032276,0.0
563296.95196600363,3600566.251970998,-12500.0,1831.6318379295249,-1910.1530422794413,-5850.7164737110479,-110.2893338156107,-1319.463335806021,-189.18235644948797,4432.7066207587432,1204.0759062957925,-5127.652192981328,5127.652192981328,-1204.0759062957925,7986.4299098596766,0.0
568296.95196600363,3600566.251970998,-12500.0,3187.074202169817,-846.62567576380354,-6002.118096642097,261.69806426868308,-1222.8932441441598,-142.12390471157053,4808.7438104845851,2788.1303785693417,-5578.3648696213277,5578.3648696213277,-2788.1303785693417,8471.974972181335,0.0
573296.95196600363,3600566.251970998,-12500.0,4624.6138736739058,707.85408631134646,-5611.5853977811312,754.08826405489765,-944.43688599092116,-54.791247551809732,5302.9112153365568,4625.4272872882648,-5604.4610416634277,5604.4610416634277,-4625.4272872882648,9201.2111794098109,0.0
578296.95196600363,3600566.251970998,-12500.0,5968.656472178176,2764.8270689877249,-4367.1838294231065,1355.1375066233959,-405.26487677606747,85.597850141771289,6021.4882833729862,6543.4080445189902,-4916.2185779199517,4916.2185779199517,-6543.4080445189902,10467.489531833036,0.0
583296.95196600363,3600566.251970998,-12500.0,6970.6113203150999,5213.7471465066592,-1919.9619454894473,2019.4550758701403,474.37907268447054,289.79605920775293,7088.5598895738167,8234.9124683633145,-3185.4620217108481,3185.4620217108481,-8234.9124683633145,12599.146353654205,0.0
588296.95196600363,3600566.251970998,-12500.0,7347.8038999581604,7761.5273156216481,2028.7779528087203,2656.866811369342,1751.3326434292082,562.08842614386106,8592.4861731082947,9262.2903029566769,-129.4193324987782,129.4193324987782,-9262.2903029566769,15790.71928381141,0.0
593296.95196600363,3600566.251970998,-12500.0,6872.0112925403082,9904.6663791219016,7580.3702525172603,3131.4237409889774,3424.1510934473513,894.92807423116233,10529.751647023293,9127.5537910605453,4348.2800242797985,-4348.2800242797985,-9127.5537910605453,19984.002126232659,0.0
598296.95196600363,3600566.251970998,-12500.0,5498.5629626862292,10983.547373182042,14458.236770237541,3280.6449255376097,5394.506724959062,1264.5890784990395,12778.702815493973,7429.6897919736739,9987.3291204054094,-9987.3291204054094,-7429.6897919736739,24852.409440490152,0.0
603296.95196600363,3600566.251970998,-12500.0,3486.4894343124615,10358.786846600129,21873.123597619579,2960.9060333223151,7444.205835979823,1630.7958907970303,15115.917668278236,4086.6183024863431,16050.448209166952,-16050.448209166952,-4086.6183024863431,29834.455964308414,0.0
608296.95196600363,3600566.251970998,-12500.0,1421.4763866003543,7693.558322645843,28555.981276710067,2111.3525781269554,9252.8834123465658,1942.8256233556806,17272.124168540628,-471.49068474333762,21370.605358614303,-21370.605358614303,471.49068474333762,34208.187758059416,0.0
613296.95196600363,3600566.251970998,-12500.0,59.292507706500437,3227.7247503066428,33056.780556610385,809.10288590533821,10472.251609319215,2151.7122040360205,18835.492891513342,-5286.5711955726401,24653.287097061977,-24653.287097061977,5286.5711955726401,37234.266056121669,0.0
618296.95196600363,3600566.251970998,-12500.0,0.18802180478066433,-2149.1875023326015,34269.768920639755,-722.91277870404303,10842.297897146836,2224.1621850846936,19416.485663824933,-9146.6000153341447,24980.228159171202,-24980.228159171202,9146.6000153341447,38356.572761967502,0.0
623296.95196600363,3600566.251970998,-12500.0,1360.4229356023629,-7166.6673302375684,31936.46282844909,-2178.3539523722216,10296.479907644816,2152.0838428950315,18899.83404966446,-11081.849420706345,22260.529007622677,-22260.529007622677,11081.849420706345,37385.647275338612,0.0
628296.95196600363,3600566.251970998,-12500.0,3682.6781026951239,-10694.266569430185,26787.305515106265,-3278.425884565037,8991.6223367256589,1954.0135562594016,17429.3402647068,-10796.835147598213,17308.236902078759,-17308.236902078759,10796.835147598213,34563.655726812991,0.0
633296.95196600363,3600566.251970998,-12500.0,6178.6194725838313,-12192.863552530605,20191.955766636525,-3869.7129646987441,7239.258456083413,1668.6794258706236,15367.497187048441,-8737.6286137870648,11454.47213690193,-11454.47213690193,8737.6286137870648,30463.992662765937,0.0
638296.95196600363,3600566.251970998,-12500.0,8125.5678155047899,-11811.949373068215,13558.164463445995,-3954.3837737144404,5381.5218986771615,1343.503861924409,13105.741194472985,-5772.4060496464663,5961.3700019757889,-5961.3700019757889,5772.4060496464663,25782.046982601565,0.0
643296.95196600363,3600566.251970998,-12500.0,9139.2294747019241,-10144.368802596351,7868.5015823587564,-3649.3032712335676,3684.8220333015233,1022.2416894152717,10881.725283771193,-2754.4790363376705,1616.3529011525507,-1616.3529011525507,2754.4790363376705,21132.827445923802,0.0
648296.95196600363,3600566.251970998,-12500.0,9202.9139331275856,-7878.4581847949976,3548.9616139817076,-3114.7079481706219,2295.3960093563123,736.18268877782975,8870.8025760343644,-244.75049889252944,-1336.4835300057903,1336.4835300057903,244.75049889252944,16938.219371345847,0.0
653296.95196600363,3600566.251970998,-12500.0,8533.6242845920042,-5559.2038664057882,593.08395062904378,-2495.6201686920181,1251.6963732090985,501.34375016838618,7168.4785821906953,1534.2042239488533,-3034.0845357756084,3034.0845357756084,-1534.2042239488533,13412.229427568029,0.0
658296.95196600363,3600566.251970998,-12500.0,7422.3950065876261,-3511.3392243596395,-1234.1387325234114,-1893.9032260492147,523.10677987612382,320.79718685255131,5796.1010209454571,2603.0529739295266,-3782.4288107176621,3782.4288107176621,-2603.0529739295266,10604.861464698884,0.0
663296.95196600363,3600566.251970998,-12500.0,6128.237969038998,-1869.525183790664,-2231.952442256521,-1366.0041013222872,48.283013561304223,189.3559460723886,4726.9422003729887,3102.3941983005388,-3903.314658241994,3903.314658241994,-3102.3941983005388,8461.8666649137631,0.0
668296.95196600363,3600566.251970998,-12500.0,4835.6965380457978,-644.97861886155351,-2672.2814796292196,-933.52454614873602,-238.78620443909961,98.090442601946251,3910.9381616255578,3201.5755137216397,-3659.9957664932831,3659.9957664932831,-3201.5755137216397,6875.9185607397858,0.0
673296.95196600363,3600566.251970998,-12500.0,3654.0805454344018,213.78742086709858,-2765.9380548554191,-596.38224816134755,-395.5734096413276,37.473557775106016,3292.3910309462708,3050.4981545908486,-3238.6754118687895,3238.6754118687895,-3050.4981545908486,5722.8809449015544,0.0
678296.95196600363,3600566.251970998,-12500.0,2634.515786715056,780.00224527671378,-2661.1121667992552,-343.52688518952709,-466.7015676387187,-0.94424423434631766,2820.4834205966276,2762.9005693820304,-2757.5792511102959,2757.5792511102959,-2762.9005693820304,4885.2413365843213,0.0
683296.95196600363,3600566.251970998,-12500.0,1789.8928049165668,1126.1859785050908,-2454.8799703977943,-159.98492123047359,-484.35597251853136,-23.924557914510899,2454.0593882087237,2416.6104193023998,-2284.5649081157294,2284.5649081157294,-2416.6104193023998,4265.4728931937316,0.0
688296.95196600363,3600566.251970998,-12500.0,1111.2646760690166,1314.3558246476534,-2207.1918076007214,-30.786092151876627,-470.5568440080084,-36.532985828402538,2162.4571593755891,2060.4905410135343,-1853.9856945934416,1853.9856945934416,-2060.4905410135343,3790.8290116670219,0.0
693296.95196600363,3600566.251970998,-12500.0,579.21302105951463,1393.4124509426294,-1952.9378396130423,57.224377183293136,-439.75023058791248,-42.394742134579566,1924.1327985722639,1722.543907921259,-1479.6687698611279,1479.6687698611279,-1722.543907921259,3411.5889288071503,0.0
698296.95196600363,3600566.251970998,-12500.0,170.85702406322073,1399.9619073434435,-1710.9672294250279,114.80698408597384,-401.06134103792459,-44.017735502900763,1724.4956142379108,1416.8742346473337,-1163.8149354879697,1163.8149354879697,-1416.8742346473337,3095.9408430959161,0.0
703296.95196600363,3600566.251970998,-12500.0,-136.26862874258467,1360.4163875384434,-1490.3060421703913,150.37712073615432,-360.02938513091362,-43.090671973807687,1553.8235778553694,1148.9005989704742,-902.64685316748421,902.64685316748421,-1148.9005989704742,2824.3879762537786,0.0
708296.95196600363,3600566.251970998,-12500.0,-362.34787661225937,1293.2933161404803,-1294.2231269596928,170.31981539340379,-319.85344661191141,-40.724127432908617,1405.6206143187944,918.95914559446783,-689.7767378709616,689.7767378709616,-918.95914559446783,2585.2107332337278,0.0
523296.95196600363,3605566.251970998,-12500.0,-2984.1452812349426,-2312.254491287219,-1750.8006566757949,-725.03882378783032,-553.35637061300361,-129.19761687005038,2489.0366671501915,-2998.1978735459775,-537.94350015708233,537.94350015708233,2998.1978735459775,4968.4954441033797,0.0
528296.95196600363,3605566.251970998,-12500.0,-3043.7592348906824,-2618.1693932866051,-2110.6814450444053,-797.28940931168665,-662.2987970573414,-151.78732887938511,2761.2607365652207,-3156.2795555333628,-816.01703953034257,816.01703953034257,3156.2795555333628,5506.638187214161,0.0
533296.95196600363,3605566.251970998,-12500.0,-3032.6542918168125,-2943.4213068391377,-2549.9308746781585,-867.0459533403689,-791.29504193796924,-177.57718728252874,3072.1389489204994,-3264.9936063365194,-1178.3363435635927,1178.3363435635927,3264.9936063365194,6093.5384751929796,0.0
538296.95196600363,3605566.251970998,-12500.0,-2918.8107651685987,-3273.7015864881232,-3081.8626066618499,-927.78054559471627,-941.7747829179898,-206.29581543030173,3412.5544853513038,-3291.8635898592174,-1643.890181471912,1643.890181471912,3291.8635898592174,6724.6650097159672,0.0
543296.95196600363,3605566.251970998,-12500.0,-2661.4795848299382,-3583.5569336259714,-3717.4619779895561,-969.46667335186612,-1113.292220112816,-237.04573340679869,3780.4211193338019,-3192.1208022349033,-2231.6719131558843,2231.6719131558843,3192.1208022349033,7390.3067770559992,0.0
548296.95196600363,3605566.251970998,-12500.0,-2211.35569184719,-3831.2105702061231,-4460.5778133922558,-977.38641718057306,-1301.7557001499219,-267.88435549896303,4171.4690886293656,-2906.4782323792442,-2956.5198011781686,2956.5198011781686,2906.4782323792442,8074.1228219182458,0.0
553296.95196600363,3605566.251970998,-12500.0,-1513.2179780797353,-3952.2932348537915,-5299.3703777031178,-930.93985205508125,-1496.6251431170811,-295.22538606970772,4579.2601339115772,-2360.5719357965227,-3821.2558992024451,3821.2558992024451,2360.5719357965227,8752.795807432296,0.0
558296.95196600363,3605566.251970998,-12500.0,-513.11141475317208,-3853.5772144226694,-6192.1972424545511,-802.91966389532035,-1676.7605407468095,-313.05462951265986,4996.8177747465907,-1468.4998358310315,-4803.2078423063704,4803.2078423063704,1468.4998358310315,9399.3067800286699,0.0
563296.95196600363,3605566.251970998,-12500.0,827.20619177042636,-3409.520185923348,-7046.1740087446606,-560.15920118094698,-1804.793333405011,-312.03404352226653,5421.8283621124447,-144.41129235528251,-5833.207839364446,5833.207839364446,144.41129235528251,9995.2973041805035,0.0
568296.95196600363,3605566.251970998,-12500.0,2505.91747277374,-2467.2656931845231,-7688.0733208396978,-167.07634274838486,-1820.4963783743156,-278.73366289219746,5868.684929439496,1672.400542604405,-6766.551152509338,6766.551152509338,-1672.400542604405,10562.839907594631,0.0
573296.95196600363,3605566.251970998,-12500.0,4446.546605408651,-869.42634053337974,-7831.6721159158915,405.78675480493581,-1634.9675307852519,-195.5032539778181,6390.5412941936356,3973.4535519617671,-7349.8350440357608,7349.8350440357608,-3973.4535519617671,11228.901549706661,0.0
578296.95196600363,3605566.251970998,-12500.0,6459.3274596918864,1493.532766343463,-7054.9589891971791,1166.1930758370809,-1129.7035535774767,-41.820686561503337,7107.0417874286613,6617.1919717284381,-7196.9207846088302,7196.9207846088302,-6617.1919717284381,12314.345973162392,0.0
583296.95196600363,3605566.251970998,-12500.0,8217.0088721173979,4593.1023562850069,-4815.1706148990988,2077.3903835931292,-167.49599623247909,201.85407917578459,8210.8428014156289,9257.7039630394866,-5801.6921693889926,5801.6921693889926,-9257.7039630394866,14350.820797728715,0.0
588296.95196600363,3605566.251970998,-12500.0,9278.5688958323863,8144.132242630315,-543.65740359323252,3032.7360730026762,1376.2508692864549,547.03972268699272,9908.7646397783556,11302.656781985046,-2628.7272820558965,2628.7272820558965,-11302.656781985046,17866.393292643286,0.0
593296.95196600363,3605566.251970998,-12500.0,9199.7573325790909,11504.067823693138,6140.7565401725233,3840.6515745823126,3556.4556606447463,987.72519459017906,12303.739257362298,11964.036675990052,2681.6347142803625,-2681.6347142803625,-11964.036675990052,23041.31112790127,0.0
598296.95196600363,3605566.251970998,-12500.0,7743.779041151417,13681.724488157435,15107.49248109246,4240.7285329249944,6283.020712599272,1491.7002263688064,15303.034444490462,10468.850804795056,10004.917752611913,-10004.917752611913,-10468.850804795056,29551.656808580035,0.0
603296.95196600363,3605566.251970998,-12500.0,5133.5301453855973,13562.775818803442,25388.806327221821,3970.5082559433517,9257.5681981846537,1998.7249053618823,18619.589009056945,6439.1372993362138,18432.943105119855,-18432.943105119855,-6439.1372993362138,36603.944336714761,0.0
608296.95196600363,3605566.251970998,-12500.0,2188.5256444546731,10387.371069551677,35086.105008609324,2880.8929677236597,11974.713578654744,2431.2067481869335,21822.246233737384,314.03529019379494,26210.923231044238,-26210.923231044238,-314.03529019379494,43047.629008173273,1.0
613296.95196600363,3605566.251970998,-12500.0,142.57936153173088,4323.7011755542435,41775.690654630656,1055.3758056403924,13836.2872181239,2716.3623227371781,24178.022164007205,-6477.1185496410653,31159.649500406824,-31159.649500406824,6477.1185496410653,47608.180851550329,1.0
618296.95196600363,3605566.251970998,-12500.0,68.034643805327548,-3255.856278001987,43468.309373094125,-1150.2813860863976,14371.000045442028,2808.8533408953163,25023.597350664226,-11909.022234628312,31604.870686614115,-31604.870686614115,11909.022234628312,49269.58309444083,0.0
623296.95196600363,3605566.251970998,-12500.0,2190.1664503930774,-10202.281323311616,39674.687036428251,-3214.6045578141006,13456.362740405037,2701.4560339679415,24156.406263088582,-14311.774136112039,27344.919388372447,-27344.919388372447,14311.774136112039,47672.497629929683,0.0
628296.95196600363,3605566.251970998,-12500.0,5666.2568368077164,-14633.303096747526,31755.157455854671,-4670.7308666472327,11388.462721758855,2422.5399720506575,21860.075420196092,-13276.690925261639,19868.539873881979,-19868.539873881979,13276.690925261639,43274.895148049298,0.0
633296.95196600363,3605566.251970998,-12500.0,9106.9924742713938,-15840.145809681275,22161.328819510651,-5299.4323323188173,8733.3708125168341,2027.0191484399256,18805.716443687816,-9757.7460148070659,11523.159293239261,-11523.159293239261,9757.7460148070659,37131.711205073443,0.0
638296.95196600363,3605566.251970998,-12500.0,11393.980349395071,-14365.264942801836,13177.512025727947,-5167.5307554467772,6067.4390588862207,1582.8991597121528,15596.816569063969,-5327.7154969479379,4305.9324758924522,-4305.9324758924522,5327.7154969479379,30439.624777384179,0.0
643296.95196600363,3605566.251970998,-12500.0,12123.364996915274,-11376.882149564935,6116.4884978883892,-4519.8263861810365,3783.4652264554566,1153.7541675786949,12590.957773886519,-1306.4411916282811,-808.83405607961367,808.83405607961367,1306.4411916282811,24146.479886429861,0.0
648296.95196600363,3605566.251970998,-12500.0,11507.629837257173,-7984.6128485039853,1285.021744357414,-3633.2616159802383,2043.8671777777481,783.75260488788365,10018.240368276878,1637.3060115640894,-3787.5804351614479,3787.5804351614479,-1637.3060115640894,18795.567056787851,0.0
653296.95196600363,3605566.251970998,-12500.0,10034.763312513604,-4904.3343359588334,-1624.3236495069423,-2722.2644349401608,839.12476205851738,492.55649827871412,7958.3680678760284,3405.5115605139786,-5098.2866488778691,5098.2866488778691,-3405.5115605139786,14568.344055298552,0.0
658296.95196600363,3605566.251970998,-12500.0,8186.9369683193609,-2450.4675475511804,-3130.7472298619641,-1912.0744598345057,73.295602658802679,279.90917401618486,6382.3917078999457,4209.2941600761278,-5319.0813557172532,5319.0813557172532,-4209.2941600761278,11407.032795089455,0.0
663296.95196600363,3605566.251970998,-12500.0,6312.8952888275589,-668.3521257169383,-3725.9222023850275,-1253.7259695397679,-370.98150254290215,134.22454537648312,5207.4872292097743,4347.7380271086595,-4933.7470743350559,4933.7470743350559,-4347.7380271086595,9132.1264108468895,0.0
668296.95196600363,3605566.251970998,-12500.0,4613.4222578178606,529.9133562623615,-3784.8310343046528,-751.40593046979757,-598.20545680575492,40.11979515044974,4337.4798646159288,4089.021460719588,-4276.0255744502128,4276.0255744502128,-4089.021460719588,7526.4737911485154,0.0
673296.95196600363,3605566.251970998,-12500.0,3175.8129423834894,1274.6594957714685,-3560.2580896895765,-386.11500368535491,-688.42323950692321,-17.008048466715557,3686.0647113266141,3630.788253530478,-3547.0263566840094,3547.0263566840094,-3630.788253530478,6387.8787081832043,0.0
678296.95196600363,3605566.251970998,-12500.0,2016.2056555592699,1691.846174815742,-3208.5276431600068,-131.06810865241587,-697.59741891108274,-49.037643637907451,3186.1686781493186,3101.5360393777723,-2853.4719643251497,2853.4719643251497,-3101.5360393777723,5556.1871777325741,0.0
683296.95196600363,3605566.251970998,-12500.0,1113.1630520474127,1884.9829727157276,-2819.4772657989488,40.113126290286218,-662.438571909031,-64.789941730942431,2790.4013497898595,2576.4453862822529,-2242.9945598849972,2242.9945598849972,-2576.4453862822529,4919.5072807027327,0.0
688296.95196600363,3605566.251970998,-12500.0,429.55657718422827,1932.0093682187824,-2440.7849123382944,149.94043632931937,-605.84147066236778,-70.431751388131502,2467.2721884541047,2094.49492376127,-1729.7223117182496,1729.7223117182496,-2094.49492376127,4406.8435431863254,0.0
693296.95196600363,3605566.251970998,-12500.0,-74.997503031864682,1888.4459876932162,-2094.9803017849049,216.19606495960659,-541.42768530638398,-70.090772292180148,2196.5086517850987,1672.1565167737469,-1310.6280914237771,1310.6280914237771,-1672.1565167737469,3976.0036306600064,0.0
698296.95196600363,3605566.251970998,-12500.0,-437.98009440310005,1792.3022739560349,-1790.3859417232838,252.27236176014327,-476.87927768525401,-66.436199438937138,1965.1167121428307,1312.9541166381805,-975.1127409897764,975.1127409897764,-1312.9541166381805,3602.739578640329,0.0
703296.95196600363,3605566.251970998,-12500.0,-691.50897951006868,1668.7694189684426,-1527.7731744135572,267.93892705350737,-416.21295327276329,-61.141473726381683,1764.6003607013024,1013.6016468842283,-710.21747158664061,710.21747158664061,-1013.6016468842283,3273.1181410245081,0.0
708296.95196600363,3605566.251970998,-12500.0,-861.84544700058859,1534.0354168436581,-1304.2386377595139,270.1613372317783,-361.25984271604631,-55.222268384441762,1589.1832045990964,767.70424019001769,-503.22632068728592,503.22632068728592,-767.70424019001769,2978.8384877185144,0.0
523296.95196600363,3610566.251970998,-12500.0,-3738.2353121436199,-2432.790453283129,-1612.790529620554,-877.56896085906919,-568.20679039353752,-151.59950217003981,2792.6036776316173,-3580.5763391245728,-196.33182725361871,196.33182725361871,3580.5763391245728,5549.1118631466579,0.0
528296.95196600363,3610566.251970998,-12500.0,-3935.180790069704,-2813.0094019759204,-1971.878187179793,-987.14196348162227,-691.67310808187437,-181.11651645854045,3119.0219745426239,-3873.7894314936093,-435.80089490156024,435.80089490156024,3873.7894314936093,6218.9098756507092,0.0
533296.95196600363,3610566.251970998,-12500.0,-4080.2772991398301,-3240.4667111950871,-2422.7525146627877,-1102.9623303715091,-842.41903797951193,-216.01469756980708,3491.4923029635111,-4145.0566421555777,-765.35420499576298,765.35420499576298,4145.0566421555777,6968.1607014775072,0.0
538296.95196600363,3610566.251970998,-12500.0,-4138.7595187152747,-3708.9151959639476,-2987.4365356470189,-1219.7768223287644,-1024.8781528846043,-256.62582060195695,3925.8075784030834,-4363.5418500725409,-1212.1880116656382,1212.1880116656382,4363.5418500725409,7798.0616102718241,0.0
543296.95196600363,3610566.251970998,-12500.0,-4062.5699947528051,-4201.6696096842925,-3690.0235896336731,-1328.3036828167458,-1242.5566548735155,-302.71966135469086,4408.7650047987181,-4482.7371934133853,-1808.3484017528401,1808.3484017528401,4482.7371934133853,8704.1163996080777,0.0
548296.95196600363,3610566.251970998,-12500.0,-3787.7780854087609,-4684.8507968558724,-4553.2986604756634,-1413.3106117397838,-1496.2671108286208,-352.98349920895197,4936.7908907480623,-4435.1506943955883,-2588.3765285750915,2588.3765285750915,4435.1506943955883,9672.9265969569497,0.0
553296.95196600363,3610566.251970998,-12500.0,-3233.6894523570318,-5097.781558053377,-5591.2563055760347,-1451.2268702969318,-1780.9632777499628,-404.20523352230646,5502.6080453408586,-4127.0963820980587,-3583.0570353223843,3583.0570353223843,4127.0963820980587,10678.511129190578,0.0
558296.95196600363,3610566.251970998,-12500.0,-2306.306515818188,-5340.6060241385021,-6794.4692236166929,-1407.6353601317269,-2080.4487130254574,-450.08619606226159,6093.7175215801353,-3435.9852846595863,-4806.1431348974029,4806.1431348974029,3435.9852846595863,11679.704951872502,0.0
563296.95196600363,3610566.251970998,-12500.0,-910.59979732439274,-5260.9778984976765,-8104.0352391381548,-1235.6100372520416,-2359.1728006883018,-479.6938177665379,6694.0815625358937,-2215.0885877216188,-6229.6184662352371,6229.6184662352371,2215.0885877216188,12623.067714016335,0.0
568296.95196600363,3610566.251970998,-12500.0,1022.0569763017423,-4645.6777533742488,-9369.5421693282497,-876.97772832090629,-2550.7609532630904,-475.80241127587686,7292.6139503877575,-314.64367404237419,-7742.6452284460311,7742.6452284460311,314.64367404237419,13462.434427352411,0.0
573296.95196600363,3610566.251970998,-12500.0,3484.9247580233114,-3230.0917863836667,-10289.591152865734,-270.10599312285581,-2544.4495367202317,-413.8358049110912,7906.3927669031527,2367.8503924882616,-9092.3962146523445,9092.3962146523445,-2367.8503924882616,14218.864371750689,0.0
578296.95196600363,3610566.251970998,-12500.0,6324.9314198430611,-747.96903497393191,-10344.759044114333,630.83106926010248,-2174.1310182200291,-262.82766356041424,8627.8808506423265,5795.2782576058516,-9816.3202544782671,9816.3202544782671,-5795.2782576058516,15116.679487654957,0.0
583296.95196600363,3610566.251970998,-12500.0,9167.2540784535904,2950.5193111459939,-8758.1921508885807,1820.8802993649588,-1220.7334596202618,9.5381305303498838,9686.924997268914,9656.9121068318418,-9200.6794184593055,9200.6794184593055,-9656.9121068318418,16779.848552483727,0.0
588296.95196600363,3610566.251970998,-12500.0,11385.974502621095,7698.7448915613168,-4557.7237996735894,3195.5607645234591,554.43447378351618,425.93197024389468,11453.916442484922,13232.012720431212,-6338.1771192006063,6338.1771192006063,-13232.012720431212,20222.499193275777,0.0
593296.95196600363,3610566.251970998,-12500.0,12204.96265330391,12775.011165709549,3158.0139890217943,4505.1041383641668,3326.3627662725753,982.82974566113421,14275.849310179246,15355.42439266669,-383.60141992558329,383.60141992558329,-15355.42439266669,26266.75037599479,0.0
598296.95196600363,3610566.251970998,-12500.0,11003.07022220169,16771.622074640029,14686.738498275787,5349.4860337544196,7070.0553807164024,1634.1001091656724,18224.090762085732,14642.201166651437,8937.3992581531893,-8937.3992581531893,-14642.201166651437,34864.439816392318,0.0
603296.95196600363,3610566.251970998,-12500.0,7789.9846680163764,17806.938318926343,29030.188748751458,5263.4552996137299,11411.511187919232,2287.3502444268979,23011.843794405773,10081.36460755054,20682.244417423615,-20682.244417423615,-10081.36460755054,44981.586653439808,0.0
608296.95196600363,3610566.251970998,-12500.0,3615.7593368586295,14268.040546936012,43432.225351018766,3914.2176522588329,15565.719357244352,2826.9141187653172,27962.53872009127,1886.4895066713943,32294.923215619237,-32294.923215619237,-1886.4895066713943,54780.939855133845,1.0
613296.95196600363,3610566.251970998,-12500.0,480.70883502268208,5966.3421217970545,53774.348607557105,1351.390452859293,18488.713807121338,3160.0143766074229,31706.712091418714,-7886.9789719968085,40053.062045772145,-40053.062045772145,7886.9789719968085,61986.844347427468,1.0
618296.95196600363,3610566.251970998,-12500.0,371.90467419508673,-5003.7566372223009,56285.265281165361,-1859.2143300088346,19289.669541124509,3251.2375129373909,33026.116208029889,-15763.079840851249,40742.736499087245,-40742.736499087245,15763.079840851249,64617.010955993515,0.0
623296.95196600363,3610566.251970998,-12500.0,3775.2450374255241,-14842.72376404655,49925.074591422475,-4805.874809749308,17722.481733106724,3112.9976445860748,31521.419671076328,-18695.150247018835,33849.3314402084,-33849.3314402084,18695.150247018835,61913.453016155065,0.0
628296.95196600363,3610566.251970998,-12500.0,9066.7373489227157,-20257.369843375534,37361.547249683506,-6685.602452435518,14369.030275937035,2777.2381676165178,27776.256834439202,-16126.621574921694,22239.471095405912,-22239.471095405912,16126.621574921694,54796.863811355252,0.0
633296.95196600363,3610566.251970998,-12500.0,13707.338520180871,-20435.666586071671,23203.745808315292,-7205.6975196406638,10298.520940698118,2293.8443813413191,23095.987939984567,-10148.979013130234,10245.21976626789,-10245.21976626789,10148.979013130234,45339.067327697972,0.0
638296.95196600363,3610566.251970998,-12500.0,16024.963677407226,-16902.599380940701,11180.122051658311,-6608.0190039017325,6491.3051928971836,1740.4349121564926,18484.95001521871,-3655.6027208137039,1005.2122010592568,-1005.2122010592568,3655.6027208137039,35676.55315673424,0.0
643296.95196600363,3610566.251970998,-12500.0,15844.660238913655,-11900.710699191584,2813.2411780808261,-5385.9834004154509,3491.4554861617116,1205.1880420884095,14453.358423764907,1420.3337290555535,-4545.70939890719,4545.70939890719,-1420.3337290555535,27236.683226049623,0.0
648296.95196600363,3610566.251970998,-12500.0,13929.531185156042,-7099.4965320382835,-2106.7921789687598,-3995.0902938927397,1413.9664332008101,753.87873830915237,11240.704745894947,4501.3814618205906,-6999.9490283474115,6999.9490283474115,-4501.3814618205906,20604.88187020037,0.0
653296.95196600363,3610566.251970998,-12500.0,11215.482011104406,-3283.0095498396759,-4504.8576718907862,-2723.232008928595,124.90741690782342,413.71718836262329,8835.9016084044524,5863.9298849868019,-7437.5903565361305,7437.5903565361305,-5863.9298849868019,15767.974799257425,0.0
658296.95196600363,3610566.251970998,-12500.0,8402.1346846997185,-599.21849923053753,-5329.2764607079325,-1695.379018480628,-589.30535900361303,180.16294284645946,7095.1953968824109,6061.7641364698593,-6807.3814234219844,6807.3814234219844,-6061.7641364698593,12409.478548737367,0.0
663296.95196600363,3610566.251970998,-12500.0,5878.9972256949723,1110.5158268626788,-5290.1664302585932,-930.102626460073,-927.0157301953177,32.619358279231633,5842.285821298201,5603.3811877395965,-5745.3073026136808,5745.3073026136808,-5603.3811877395965,10124.439892203483,0.0
668296.95196600363,3610566.251970998,-12500.0,3799.8982064603447,2092.2140996267108,-4840.7564921788899,-394.16381816329414,-1038.2380948749253,-52.852099491340908,4923.3183102678031,4849.6145666332868,-4609.7005474463585,4609.7005474463585,-4849.6145666332868,8546.7130169994616,0.0
673296.95196600363,3610566.251970998,-12500.0,2179.8857889102328,2575.1579976148905,-4240.8598838665866,-37.992601240204692,-1024.0661988084148,-96.965367848126775,4225.4864829220169,4019.824185298367,-3571.8121718508187,3571.8121718508187,-4019.824185298367,7405.1147973622656,0.0
678296.95196600363,3610566.251970998,-12500.0,968.13244451517619,2738.0547186378103,-3626.0157366459521,186.36389702557278,-947.52193026365319,-115.23655686301412,3674.5000775199865,3230.7539178954021,-2694.8450795746348,2694.8450795746348,-3230.7539178954021,6526.1893195420762,0.0
683296.95196600363,3610566.251970998,-12500.0,91.625960341966376,2707.7161392774028,-3059.1765854996183,318.41802952122379,-845.52569462134772,-118.31652523442303,3224.2903702529061,2534.6442380702201,-1986.7969945790874,1986.7969945790874,-2534.6442380702201,5809.8396286106381,0.0
688296.95196600363,3610566.251970998,-12500.0,-522.59543537550485,2568.9472043053515,-2563.8755298247811,388.09906227531656,-738.4257543298171,-113.09109140570314,2846.8349135562657,1947.1474133373081,-1431.2525813945131,1431.2525813945131,-1947.1474133373081,5201.5940771628348,0.0
693296.95196600363,3610566.251970998,-12500.0,-938.09774091080635,2376.0169662478211,-2143.7303793617925,416.94725916891645,-636.59756593834084,-103.80797850793398,2524.7820219805144,1465.1438081679221,-1003.6227344537979,1003.6227344537979,-1465.1438081679221,4672.1633896280555,0.0
698296.95196600363,3610566.251970998,-12500.0,-1206.4721809746404,2162.3193235335025,-1793.2557239494688,419.94431235752683,-544.67813421529513,-92.976238666930143,2246.8705913440222,1077.1706748157894,-678.91383039442417,678.91383039442417,-1077.1706748157894,4205.1785087981079,0.0
703296.95196600363,3610566.251970998,-12500.0,-1367.8768733256882,1947.5374005127264,-1503.5484424391707,407.25233220024046,-464.1502338964325,-82.006708917455597,2005.3105368418644,769.0949488814507,-434.94905259925065,434.94905259925065,-769.0949488814507,3790.633240182437,0.0
708296.95196600363,3610566.251970998,-12500.0,-1452.749267073656,1742.6122794910711,-1265.1013959364898,385.622919100356,-394.86158549648985,-71.639269261258278,1794.3466315256569,526.95667957045032,-253.32269144731086,253.32269144731086,-526.95667957045032,3421.6178908393567,0.0
518296.95196600363,3615566.251970998,-12500.0,-4177.6413463952749,-2089.4570439720228,-1155.8418264840807,-903.25535704663525,-457.07601011834169,-144.35148953362099,2744.0548886141219,-3731.8209576932804,324.78400298943961,-324.78400298943961,3731.8209576932804,5420.587092544657,0.0
523296.95196600363,3615566.251970998,-12500.0,-4542.5372984912692,-2462.0648780109836,-1418.4098614920867,-1037.8672448654552,-563.47508089366261,-174.80344920192971,3095.0517553397758,-4146.8287228949939,213.54942117195492,-213.54942117195492,4146.8287228949939,6128.7210908661846,0.0
528296.95196600363,3615566.251970998,-12500.0,-4909.2207382998049,-2903.0728240315871,-1755.3204281648366,-1190.9684046507284,-697.12078417156226,-212.06776942518007,3496.3006237710797,-4591.3438648287574,40.770330032459697,-40.770330032459697,4591.3438648287574,6942.0908827733692,0.0
533296.95196600363,3615566.251970998,-12500.0,-5257.2312929020918,-3420.7914530500716,-2189.4850273835314,-1362.4448629818912,-864.84160902711869,-257.42958143080591,3953.4864164403498,-5052.8878875827204,-218.18508784170808,218.18508784170808,5052.8878875827204,7873.3109179574021,0.0
538296.95196600363,3615566.251970998,-12500.0,-5554.1830198515472,-4020.3794563444631,-2750.2969052051731,-1549.9246099166742,-1074.5632957784412,-312.12677096908129,4477.1320211916827,-5507.9804675084197,-596.37862027003075,596.37862027003075,5507.9804675084197,8933.3091836164622,0.0
543296.95196600363,3615566.251970998,-12500.0,-5750.8008255770919,-4699.6622880690802,-3474.3316406098725,-1747.0862129071766,-1334.7957394219034,-377.04370054754781,5092.3281719458009,-5916.1164414980722,-1137.0288393727401,1137.0288393727401,5916.1164414980722,10128.614498336236,0.0
548296.95196600363,3615566.251970998,-12500.0,-5774.8595277679206,-5441.9082801032137,-4404.6527771641986,-1941.079210964238,-1653.2666571059219,-452.12925687393675,5791.4642749582454,-6211.3624622057341,-1894.2487794817521,1894.2487794817521,6211.3624622057341,11456.963722672963,0.0
553296.95196600363,3615566.251970998,-12500.0,-5524.8853578710905,-6204.0109374677086,-5586.7213784910791,-2108.8229317153873,-2033.9556599740333,-535.3792790102915,6566.9532237007606,-6291.5383121017476,-2930.8645696263716,2930.8645696263716,6291.5383121017476,12900.740687808384,0.0
558296.95196600363,3615566.251970998,-12500.0,-4866.014863124281,-6898.3623763334817,-7057.055202649698,-2212.1500123861692,-2471.3191756365945,-621.19056733114076,7406.0467518178793,-6006.2179216776585,-4309.4883445591331,4309.4883445591331,6006.2179216776585,14418.219765248801,0.0
563296.95196600363,3615566.251970998,-12500.0,-3633.4006954351448,-7367.6300491759148,-8817.8725120752006,-2192.4276515236875,-2939.9787548829822,-697.95642686448821,8283.884419974951,-5147.9266644068957,-6069.9727046293738,6069.9727046293738,5147.9266644068957,15934.580918075251,0.0
568296.95196600363,3615566.251970998,-12500.0,-1653.2167499204832,-7355.3739302961176,-10787.271948942422,-1966.7902297608209,-3377.9026006628715,-745.06806692722375,9163.519074527112,-3457.1179172493844,-8182.5036662712901,8182.5036662712901,3457.1179172493844,17340.43900639092,0.0
573296.95196600363,3615566.251970998,-12500.0,1203.2895066186277,-6485.0990179531,-12712.421117709295,-1430.9093918696456,-3662.0937959113276,-730.24943301206076,10009.151927922754,-661.73091856498922,-10463.299422453387,10463.299422453387,661.73091856498922,18520.902581615144,0.0
578296.95196600363,3615566.251970998,-12500.0,4916.3642727798124,-4279.3577828609632,-14040.191553293676,-477.17496764710398,-3579.905241067218,-609.54427341886935,10832.931404619987,3416.3291086838381,-12446.780166111663,12446.780166111663,-3416.3291086838381,19473.146683515406,0.0
583296.95196600363,3615566.251970998,-12500.0,9165.3547771237627,-276.88218722306976,-13771.463708907384,959.83317350850541,-2808.9699753830505,-333.94967925747312,11805.259224253929,8655.6903623252783,-13239.956527068449,13239.956527068449,-8655.6903623252783,20618.326137786225,0.0
588296.95196600363,3615566.251970998,-12500.0,13181.810219578369,5682.8406045664542,-10400.98754673869,2822.7917876986985,-935.34729881418616,132.92029011007324,13410.128785014,14342.206575352431,-11459.839916012226,11459.839916012226,-14342.206575352431,23283.162644834756,1.0
593296.95196600363,3615566.251970998,-12500.0,15754.859430234466,12999.539670837861,-2152.5412160165256,4829.6499375501226,2444.445008571292,785.56975304153252,16419.984713702364,18921.665649507759,-5458.3501489701857,5458.3501489701857,-18921.665649507759,29522.197554119593,0.0
598296.95196600363,3615566.251970998,-12500.0,15592.506108172051,19863.310960529707,12248.394949964797,6408.3123258288706,7500.2934228321719,1545.9074143942066,21432.476385168047,20103.717305137117,5939.0103199302857,-5939.0103199302857,-20103.717305137117,40461.49526033007,0.0
603296.95196600363,3615566.251970998,-12500.0,12113.122289330511,23261.782249735046,32256.043781746794,6772.2246216172116,13855.008885575684,2258.4551424549659,28458.993620914403,15659.032353737946,22198.018926875127,-22198.018926875127,-15659.032353737946,55119.488118414891,0.0
608296.95196600363,3615566.251970998,-12500.0,6386.8577891568048,19953.151700920385,54172.503046020502,5226.4967922537689,20342.931516105949,2749.7147182363037,36482.89547091641,4950.8328997913377,39885.675350796955,-39885.675350796955,-4950.8328997913377,70628.167988655288,1.0
613296.95196600363,3615566.251970998,-12500.0,1512.4674456696825,8596.343649460181,70995.014674825157,1660.4743135704664,25125.239648951476,2947.9296053585094,42874.695391202513,-9388.7542676015728,52663.21005354802,-52663.21005354802,9388.7542676015728,82788.533344093797,1.0
618296.95196600363,3615566.251970998,-12500.0,1293.502833289816,-7818.4536491775843,75129.579456765714,-3057.3909699379897,26416.404219586744,2940.0671919737647,45168.564149198646,-21294.173371573284,53991.734645814984,-53991.734645814984,21294.173371573284,87394.555550570876,0.0
623296.95196600363,3615566.251970998,-12500.0,6931.7272753546858,-22200.029215443832,64005.540296071806,-7280.5839879594041,23640.83452181987,2840.2132359179004,42418.383960516403,-24752.819098622542,42348.365903348516,-42348.365903348516,24752.819098622542,82594.73771916845,0.0
628296.95196600363,3615566.251970998,-12500.0,15111.231128342388,-28357.161825505376,43230.531442957705,-9568.3638497139036,18011.118152881358,2631.8677926714968,35909.154324142488,-19016.2592144341,23646.333302705807,-23646.333302705807,19016.2592144341,70410.143422979439,0.0
633296.95196600363,3615566.251970998,-12500.0,20982.414098366589,-25825.135819003473,22057.2457422712,-9604.4077588837026,11674.641246925608,2237.9532543998794,28418.450188183262,-8897.6702187015089,6372.2685716961523,-6372.2685716961523,8897.6702187015089,55309.093512700609,0.0
638296.95196600363,3615566.251970998,-12500.0,22329.379917137234,-18589.736888966225,6462.3193668283639,-8086.4485976386968,6305.9662451918639,1683.1080671536852,21734.558672196679,237.96097594879893,-4766.3847153805327,4766.3847153805327,-237.96097594879893,41263.046938574451,0.0
643296.95196600363,3615566.251970998,-12500.0,19984.748083564238,-10773.119117876369,-2567.3338853127661,-5967.8237793913204,2537.089495363989,1094.1619364241089,16440.65914832387,5967.6811023366708,-9771.8233229001362,9771.8233229001362,-5967.6811023366708,30228.531502124904,0.0
648296.95196600363,3615566.251970998,-12500.0,15844.197411183493,-4520.756243595798,-6672.1358736622242,-3929.1319346422783,250.70913305223445,591.58997240104645,12596.691235640828,8430.8469307550895,-10721.063194392324,10721.063194392324,-8430.8469307550895,22450.145105344105,0.0
653296.95196600363,3615566.251970998,-12500.0,11424.212013284963,-302.50806749710154,-7850.9855911931181,-2284.3058374971342,-952.71251049224941,228.04197862281973,9925.8723792287801,8716.6086626849847,-9645.135428465439,9645.135428465439,-8716.6086626849847,17312.73382682856,0.0
658296.95196600363,3615566.251970998,-12500.0,7530.2783800122588,2195.5222285253444,-7567.8705038447788,-1094.5465843511724,-1470.8325124607541,-1.8724662185645613,8072.8047684277744,7866.151418883981,-7857.456666158012,7857.456666158012,-7866.151418883981,13982.523244405951,0.0
663296.95196600363,3615566.251970998,-12500.0,4437.9231269093425,3476.1436607357173,-6688.0343624032676,-300.05581472446704,-1599.9669620899058,-129.38465742602679,6744.0901883689958,6578.8587821439014,-6032.4080771407935,6032.4080771407935,-6578.8587821439014,11748.704854881968,0.0
668296.95196600363,3615566.251970998,-12500.0,2138.7044075486519,3981.1588096599489,-5657.659209364052,194.44048116616872,-1530.8682542421614,-188.47358051196974,5742.9271022574285,5241.7183604904567,-4447.3395268192671,4447.3395268192671,-5241.7183604904567,10136.492873766789,0.0
673296.95196600363,3615566.251970998,-12500.0,509.37563634160858,4030.372007457177,-4679.2518728021078,478.87092213787002,-1375.1541923812465,-206.20827166818592,4951.782356485287,4034.4212543903927,-3175.0497908299753,3175.0497908299753,-4034.4212543903927,8877.7143568605134,0.0
678296.95196600363,3615566.251970998,-12500.0,-598.48714910803972,3833.427849831161,-3828.3384952360598,624.17502543703836,-1193.2527672241442,-201.16381773646916,4303.8516864720032,3019.5543842063303,-2198.4498308867337,2198.4498308867337,-3019.5543842063303,7835.7480798326715,0.0
683296.95196600363,3615566.251970998,-12500.0,-1319.7659105283758,3519.2754754247712,-3120.0454812393796,681.39910187718488,-1015.2567532841126,-184.96752380724345,3760.8285684937891,2201.2844294084689,-1469.3429367716619,1469.3429367716619,-2201.2844294084689,6943.542389362723,0.0
688296.95196600363,3615566.251970998,-12500.0,-1763.6227464099711,3163.2398226172236,-2543.836582988165,685.2877612800653,-854.37364427403577,-164.4115361692717,3299.429184747014,1558.6793273556684,-935.12446943049076,935.12446943049076,-1558.6793273556684,6166.9211349857333,0.0
693296.95196600363,3615566.251970998,-12500.0,-2013.1711312299792,2807.0059856892208,-2080.4685185564372,658.61226150752589,-714.93792167371862,-143.21119289637039,2904.2322632347068,1062.9299769832378,-549.19183900611802,549.19183900611802,-1062.9299769832378,5486.3183800449933,0.0
698296.95196600363,3615566.251970998,-12500.0,-2129.4425391219306,2471.9659667621686,-1709.6445882948433,615.8606672271768,-596.92518675856354,-123.23541400647022,2564.082645633363,685.40577061614999,-273.79086471622202,273.79086471622202,-685.40577061614999,4888.5125601647505,0.0
703296.95196600363,3615566.251970998,-12500.0,-2156.2279298244353,2167.6803403671743,-1413.0868996249999,566.00052259034283,-498.39170950065471,-105.2966107169717,2270.3375462323829,400.90492568603383,-79.729421853687882,79.729421853687882,-400.90492568603383,4363.1655354993782,0.0
708296.95196600363,3615566.251970998,-12500.0,-2124.4485657876612,1897.0587777930039,-1175.4587114304936,514.41193992966544,-416.73482179651785,-89.63082832210668,2015.9967113324169,188.54839752766162,54.975463674726015,-54.975463674726015,-188.54839752766162,3901.4615551330048,0.0
713296.95196600363,3615566.251970998,-12500.0,-2055.6722934062059,1659.4536298493761,-984.35375388165301,464.18881698225709,-349.30767189061862,-76.1787989891275,1795.2478095294023,31.620229196715428,146.62288412505987,-146.62288412505987,-31.620229196715428,3495.6072718987184,0.0
518296.95196600363,3620566.251970998,-12500.0,-4839.5896074659977,-1985.4072966338858,-954.76137093246791,-1027.905005053773,-428.18659524035689,-161.39726686290692,2973.1086157273394,-4122.5285401352539,706.31287387190423,-706.31287387190423,4122.5285401352539,5860.7784536008066,0.0
523296.95196600363,3620566.251970998,-12500.0,-5360.9331919067417,-2376.9834826472184,-1178.7315902165558,-1198.8824847424439,-535.13435261199334,-197.81364972806276,3384.1148472648888,-4656.620571902582,673.94051644918522,-673.94051644918522,4656.620571902582,6684.0573170811322,0.0
528296.95196600363,3620566.251970998,-12500.0,-5923.3705010298836,-2854.2819552071755,-1471.7861770993979,-1399.9417631246329,-672.36772529883262,-243.31693435161051,3863.1360318200122,-5257.4269936627734,595.20396495001842,-595.20396495001842,5257.4269936627734,7646.6264738670043,0.0
533296.95196600363,3620566.251970998,-12500.0,-6515.3632214734753,-3434.8053181622731,-1858.4475229215868,-1634.7211836666447,-848.91011049876988,-300.08687732179072,4421.1282781788741,-5923.7548738988517,446.28111962172261,-446.28111962172261,5923.7548738988517,8771.8329767960313,0.0
538296.95196600363,3620566.251970998,-12500.0,-7114.045990364215,-4137.0770027993422,-2372.264411256433,-1905.630324569815,-1076.1736277157374,-370.5798938325359,5069.9725548093211,-6645.9645825480802,192.79435167996826,-192.79435167996826,6645.9645825480802,10084.529361213277,0.0
543296.95196600363,3620566.251970998,-12500.0,-7678.7374255866871,-4977.9008879939156,-3058.6362852424013,-2212.1857211510332,-1368.1009118111415,-457.28887596796227,5824.725854844929,-7399.4649967745318,-214.14786262919233,214.14786262919233,7399.4649967745318,11608.863858454479,0.0
548296.95196600363,3620566.251970998,-12500.0,-8141.6630063941911,-5966.53587581176,-3977.6546071949847,-2548.1450568838322,-1740.6777600681537,-562.17636169462878,6713.4818473883697,-8134.4242877644965,-842.52216765687899,842.52216765687899,8134.4242877644965,13363.913934683656,0.0
553296.95196600363,3620566.251970998,-12500.0,-8395.4974424476204,-7093.372240133318,-5205.5736203031338,-2896.8197895189874,-2209.9856988080364,-685.52223849073084,7747.1020252788849,-8760.1707505107297,-1783.4224311300363,1783.4224311300363,8760.1707505107297,15355.770652181747,0.0
558296.95196600363,3620566.251970998,-12500.0,-8278.5260253002052,-8309.388291739353,-6831.4424413197594,-3223.898559516103,-2787.2245397946385,-823.81628644149168,8915.1260607682834,-9123.1091346305402,-3151.3274801455377,3151.3274801455377,9123.1091346305402,17564.264548330917,0.0
563296.95196600363,3620566.251970998,-12500.0,-7561.3386883581079,-9491.4713110720932,-8941.1966416017785,-3467.4720225719143,-3467.9725520919815,-966.29430784396834,10194.804358690682,-8979.0920261437132,-5073.0885124391543,5073.0885124391543,8979.0920261437132,19922.68840511714,0.0
568296.95196600363,3620566.251970998,-12500.0,-5945.858513565905,-10389.376505217258,-11573.757020514093,-3526.4025428631376,-4211.476086112184,-1090.0256825862982,11535.600812274175,-7967.6974279334881,-7650.1801543206566,7650.1801543206566,7967.6974279334881,22291.569215344382,0.0
573296.95196600363,3620566.251970998,-12500.0,-3100.0297266874991,-10557.567375043087,-14621.99886753363,-3251.880854121624,-4904.8358677013084,-1154.6412170587892,12850.936003500974,-5611.2629450458653,-10866.770631691317,10866.770631691317,5611.2629450458653,24438.456053566526,0.0
578296.95196600363,3620566.251970998,-12500.0,1231.8229936796804,-9299.8630062490465,-17641.319958538264,-2454.2398885080511,-5309.2836121401879,-1100.5325503335559,14035.041278258894,-1390.5438185203029,-14405.793923450132,14405.793923450132,1390.5438185203029,26071.329870174151,0.0
583296.95196600363,3620566.251970998,-12500.0,6997.7276558812491,-5710.8103386746179,-19544.156040116366,-947.30501156324169,-4997.1876543877079,-858.48542869334642,15061.131197847864,5014.42950872653,-17351.041303636535,17351.041303636535,-5014.42950872653,27076.204646655748,0.0
588296.95196600363,3620566.251970998,-12500.0,13494.489903223464,1020.6694311444248,-18260.636382058667,1341.4578713871929,-3317.3451252205487,-380.89194169183077,16271.355255627379,13232.470964027492,-17855.184830026104,17855.184830026104,-13232.470964027492,28316.742855759996,0.0
593296.95196600363,3620566.251970998,-12500.0,19103.094786508012,10869.329843328786,-10703.249782178735,4185.7763900631271,526.15559645285407,302.82549769291899,18840.221137211916,21537.97077816051,-13105.713226693042,13105.713226693042,-21537.97077816051,33004.85846507785,0.0
598296.95196600363,3620566.251970998,-12500.0,21549.731157322225,21915.358096134114,6331.1023423469424,6866.4650335099841,7163.1856722546227,1027.1724546860451,24631.658626978857,26518.993724694432,-191.4739346464321,191.4739346464321,-26518.993724694432,45570.652288752462,0.0
603296.95196600363,3620566.251970998,-12500.0,19047.179036034322,29745.516819216675,33910.867735389729,8158.0747367911335,16472.374976085335,1485.8242256996991,35023.398642396889,23903.325602059096,21793.269002183068,-21793.269002183068,-23903.325602059096,66771.4325919697,0.0
608296.95196600363,3620566.251970998,-12500.0,11980.794003512123,28349.034551218556,67986.258471564448,6719.0553747393369,26925.585027043635,1386.1610637187057,48745.638294102479,10877.285580313826,49085.087489362137,-49085.087489362137,-10877.285580313826,92539.815315158034,0.0
613296.95196600363,3620566.251970998,-12500.0,4451.6603498635795,13242.64624346532,97173.294783059129,1919.6549202203751,35337.215001055105,810.40712272719645,60757.983593363089,-10386.350098438983,71443.069477850237,-71443.069477850237,10386.350098438983,115028.24750187129,0.0
618296.95196600363,3620566.251970998,-12500.0,3801.194557417029,-12424.339363302852,105234.0365668216,-5111.9144460329599,37804.08072067536,381.46641614949988,65451.799022686893,-29554.799229945671,74797.930603605841,-74797.930603605841,29554.799229945671,124403.06231798937,0.0
623296.95196600363,3620566.251970998,-12500.0,13542.113280842525,-34535.968945484754,84549.172831423974,-11251.739247676398,32592.130681199793,620.60793301274907,60022.605372287289,-33394.131185842067,53901.041622765668,-53901.041622765668,33394.131185842067,115200.82992112114,0.0
628296.95196600363,3620566.251970998,-12500.0,26322.206453266874,-40064.140220678368,48131.568471757586,-13643.277994834518,22501.87687859793,1220.1958011945026,47636.013911661015,-20837.225223287282,22213.626444958052,-22213.626444958052,20837.225223287282,92444.81886786122,0.0
633296.95196600363,3620566.251970998,-12500.0,32362.327202422726,-30984.866812512868,16282.439853668915,-12269.261406265994,12365.292278155517,1502.1597101085429,34973.80980100669,-3883.4132300211213,-2259.2194962957537,2259.2194962957537,3883.4132300211213,67120.610082657877,0.0
638296.95196600363,3620566.251970998,-12500.0,30057.003827622881,-17531.883656451198,-2404.8232877091577,-9050.4244398777009,4981.5032214090097,1256.5735531689779,25291.518918344715,7769.5198226485154,-13769.907056381322,13769.907056381322,-7769.5198226485154,46803.82377042975,0.0
643296.95196600363,3620566.251970998,-12500.0,23337.880347645681,-6478.9511326705442,-10230.261398215725,-5690.6651973806456,614.10219605987947,740.31455970721663,18648.52510615734,12627.85347569067,-16068.233471080322,16068.233471080322,-12627.85347569067,33213.32002910514,0.0
648296.95196600363,3620566.251970998,-12500.0,15912.309650832511,548.77924499742721,-11989.486911083393,-2990.4923193656059,-1547.0741597217243,245.80035038444535,14335.329203805144,13019.145451107546,-14104.3109517624,14104.3109517624,-13019.145451107546,24934.693380707802,0.0
653296.95196600363,3620566.251970998,-12500.0,9592.2504388728521,4285.2146454508511,-11105.638809690556,-1113.103087947366,-2378.9174461127527,-97.25797657488549,11500.197619007475,11333.194406850505,-10925.224182527743,10925.224182527743,-11333.194406850505,19937.922519537489,0.0
658296.95196600363,3620566.251970998,-12500.0,4850.6195483516985,5884.3415380132901,-9374.4566618612625,62.091651104306173,-2510.9379113574364,-285.25045905739881,9519.2885378272913,9032.5517328494752,-7885.3578343558684,7885.3578343558684,-9032.5517328494752,16687.547194530482,0.0
663296.95196600363,3620566.251970998,-12500.0,1555.2908657273201,6260.5933254254387,-7583.798365494833,727.85979010476126,-2322.3131053420529,-361.38259681695877,8031.652609653057,6815.8926419579175,-5420.4705519099125,5420.4705519099125,-6815.8926419579175,14319.000656328071,0.0
668296.95196600363,3620566.251970998,-12500.0,-607.28399765345739,6006.5339908936776,-6019.0606775962815,1057.8871103776059,-2017.3149396566876,-370.62550246598323,6850.6937447307946,4942.6258839782768,-3570.7580391726792,3570.7580391726792,-4942.6258839782768,12426.80501439378,0.0
673296.95196600363,3620566.251970998,-12500.0,-1950.0936239369821,5469.4531242006396,-4745.0456161996135,1181.4627376497062,-1695.8010519168095,-345.57442518326621,5881.4082322458353,3460.849574019785,-2241.0019119681083,2241.0019119681083,-3460.849574019785,10836.527639760701,0.0
678296.95196600363,3620566.251970998,-12500.0,-2727.0656862971296,4839.250247156082,-3741.5844202945095,1185.7917131029812,-1400.975903551775,-306.25080098587523,5071.8919102130039,2332.5436279535788,-1310.4306553756198,1310.4306553756198,-2332.5436279535788,9471.3827023647373,0.0
683296.95196600363,3620566.251970998,-12500.0,-3126.1585590810373,4212.8566300025823,-2963.0733597538233,1126.189674543461,-1147.5089955211211,-263.65984812987847,4389.9435278392411,1493.8440587027756,-671.82970986952046,671.82970986952046,-1493.8440587027756,8291.7662574392398,0.0
688296.95196600363,3620566.251970998,-12500.0,-3279.8100791524257,3635.1049648759836,-2362.3022357093432,1036.2054959350939,-936.79508885740813,-223.23343016879087,3812.84999598186,880.86043741268622,-241.11585823379551,241.11585823379551,-880.86043741268622,7271.5839626798424,0.0
693296.95196600363,3620566.251970998,-12500.0,-3278.5943957115232,3122.856597777225,-1898.5465765839276,935.37788500749616,-764.7446184432672,-187.25102554536494,3323.0562615044864,438.88570529626509,43.920941972897111,-43.920941972897111,-438.88570529626509,6389.8929950051606,0.0
698296.95196600363,3620566.251970998,-12500.0,-3183.235249677231,2678.6976648462596,-1539.2347813536553,834.57151879210369,-625.55195146038125,-156.33498741087402,2906.3269249229193,124.29916850972307,227.91556407107379,-227.91556407107379,-124.29916850972307,5628.3545925647386,0.0
703296.95196600363,3620566.251970998,-12500.0,-3033.8160966904143,2298.4583835221897,-1259.2444662284622,739.43131866623082,-513.38642433564326,-130.30530522596581,2550.8734650287001,-96.389340924305145,342.3564115586608,-342.3564115586608,96.389340924305145,4970.5831869125932,0.0
708296.95196600363,3620566.251970998,-12500.0,-2856.4144326478804,1975.2244806335011,-1039.5431148770756,652.54343482430829,-423.06100877289498,-108.64325862937947,2246.8662187619639,-248.34768380612812,409.24981444229661,-409.24981444229661,248.34768380612812,4402.0264739485601,0.0
713296.95196600363,3620566.251970998,-12500.0,-2667.7176093700368,1701.3955841261304,-865.82652471856068,574.75542361237046,-350.22007261825627,-90.729518725492554,1986.1007695324904,-350.25682610225948,443.89569381148243,-443.89569381148243,350.25682610225948,3909.9183782076907,0.0
518296.95196600363,3625566.251970998,-12500.0,-5462.1792466322595,-1778.0046567441777,-739.23571775584276,-1144.0678206097707,-379.4280875540905,-177.13366222535282,3177.3074259211294,-4423.6470237839776,1096.5066870352175,-1096.5066870352175,4423.6470237839776,6254.5505671530282,0.0
523296.95196600363,3625566.251970998,-12500.0,-6145.7359137742624,-2160.7358105607786,-912.86474225294273,-1351.5948738845645,-480.47540224786042,-219.39239040866607,3645.7295225238095,-5064.7170184130719,1156.6006094343834,-1156.6006094343834,5064.7170184130719,7188.3259354089087,0.0
528296.95196600363,3625566.251970998,-12500.0,-6917.4540285370667,-2639.1637845991377,-1143.8256960352833,-1602.0794786634406,-612.67405024020945,-273.13368523246913,4200.7519058055141,-5811.1772461473784,1193.6947707805784,-1193.6947707805784,5811.1772461473784,8297.0827193172499,0.0
533296.95196600363,3625566.251970998,-12500.0,-7779.8701917337867,-3238.7086334778696,-1454.9648845763022,-1904.0095670036467,-786.58363189344959,-341.57588530391178,4859.9490380851012,-6676.243286894527,1189.0640832999838,-1189.0640832999838,6676.243286894527,9616.9507516646336,0.0
538296.95196600363,3625566.251970998,-12500.0,-8727.7244873216368,-3990.566192058222,-1879.2126453033625,-2266.4370445555228,-1016.3672001898917,-428.6519591191406,5643.9301429770512,-7669.7928250024434,1113.3175096929522,-1113.3175096929522,7669.7928250024434,11190.330463338749,0.0
543296.95196600363,3625566.251970998,-12500.0,-9741.3909434648449,-4931.4836699329935,-2464.1036151574513,-2697.8210952711506,-1320.7447554607691,-538.9093029543443,6576.4284046532857,-8793.0889053608189,920.89089174843275,-920.89089174843275,8793.0889053608189,13065.293178691274,0.0
548296.95196600363,3625566.251970998,-12500.0,-10776.185144905676,-6101.4459081175692,-3277.976893458329,-3203.5863581169237,-1723.7752616696266,-677.05737512704945,7685.218657895306,-10029.166251955623,542.1469618772544,-542.1469618772544,10029.166251955623,15293.010565145003,0.0
553296.95196600363,3625566.251970998,-12500.0,-11745.577952526104,-7536.7420208742797,-4417.7919494449607,-3781.4369144393831,-2254.7807098857766,-846.788379549453,9006.0905369825432,-11325.991878057936,-127.25659304583314,127.25659304583314,11325.991878057936,17921.31157616264,0.0
558296.95196600363,3625566.251970998,-12500.0,-12496.190242672496,-9253.5813990176484,-6017.1276278780906,-4413.0090042962875,-2945.8406238952166,-1048.2396797643373,10571.444815151403,-12568.204643552846,-1238.8645090399159,1238.8645090399159,12568.204643552846,20981.087160439838,0.0
563296.95196600363,3625566.251970998,-12500.0,-12773.744946756393,-11213.612106508624,-8249.0780138862647,-5050.1252674750931,-3823.5682483214114,-1273.2151499187003,12382.693891827601,-13532.402357620391,-3001.2325677826693,3001.2325677826693,13532.402357620391,24460.260364622394,0.0
568296.95196600363,3625566.251970998,-12500.0,-12184.655573503715,-13257.544981774625,-11309.199121538317,-5594.4729742333484,-4888.9245274366049,-1497.4283895664848,14403.350906986614,-13823.143328230992,-5673.0512876921448,5673.0512876921448,13823.143328230992,28257.984294763581,0.0
573296.95196600363,3625566.251970998,-12500.0,-10173.451725554343,-14989.79618539229,-15342.382454667344,-5872.6887721949206,-6074.6114519258845,-1670.6946073460913,16531.114858563895,-12799.16390228487,-9504.3634515853355,9504.3634515853355,12799.16390228487,32112.536309106836,0.0
578296.95196600363,3625566.251970998,-12500.0,-6071.1430951643151,-15609.250408863885,-20237.583864199114,-5617.7115811139765,-7166.0609455907097,-1711.3395537650406,18559.12227218473,-9538.1993244543228,-14550.871185537311,14550.871185537311,9538.1993244543228,35512.508546276862,0.0
583296.95196600363,3625566.251970998,-12500.0,672.45344070265219,-13747.889781800326,-25164.738886445273,-4485.3084337305445,-7676.4890179168779,-1521.6969478634765,20173.744438731366,-2980.204433176692,-20237.643772817617,20237.643772817617,2980.204433176692,37680.724040480884,0.0
588296.95196600363,3625566.251970998,-12500.0,9928.2918569548965,-7571.1113078265917,-27760.406400107342,-2160.5984243234125,-6697.4085189348034,-1050.8550074394257,21159.299884145374,7472.2366473177572,-24582.703154002564,24582.703154002564,-7472.2366473177572,38048.987732372865,1.0
593296.95196600363,3625566.251970998,-12500.0,20068.072963234466,4305.6336935969612,-23276.963761267667,1377.8889327919721,-2836.0544397306303,-413.42411745003307,22309.927444263907,20644.011119416849,-23395.499365726093,23395.499365726093,-20644.011119416849,38677.557844032286,1.0
598296.95196600363,3625566.251970998,-12500.0,27710.731862349443,20695.29111481622,-5072.9037023155988,5447.477324966535,5491.5814950280401,-6.9615418930774027,27310.943599750506,32138.944843478275,-10783.498919937245,10783.498919937245,-32138.944843478275,48976.863739721055,0.0
603296.95196600363,3625566.251970998,-12500.0,29306.594125648535,35866.470832212915,31778.365168260178,8403.6616424803888,19118.994220142435,-502.04298598412026,42190.517005096168,34842.209947936426,17445.950406971475,-17445.950406971475,-34842.209947936426,78332.804248409841,0.0
608296.95196600363,3625566.251970998,-12500.0,23482.372987322291,40218.761106356753,85023.610051338197,8020.8175172522906,36749.115601216108,-2492.3102753923908,66760.872606471341,22065.287193634878,59050.935172749902,-59050.935172749902,-22065.287193634878,123116.45478343511,0.0
613296.95196600363,3625566.251970998,-12500.0,12944.172628550277,22448.951845159983,139283.20894495604,2296.8628641157925,53533.154917928463,-5459.4751010522305,92014.273043838184,-8492.7135237656767,100576.62333402967,-100576.62333402967,8492.7135237656767,169559.53098032382,0.0
618296.95196600363,3625566.251970998,-12500.0,10488.22606803167,-19957.581520217009,159004.48481832788,-8624.8711128981595,60036.005431063597,-7056.7429397714113,103895.05350538019,-42470.465893852459,111294.63486434109,-111294.63486434109,42470.465893852459,192877.33002482489,0.0
623296.95196600363,3625566.251970998,-12500.0,28415.009698038793,-57149.11701267225,116821.42312759419,-18328.810753453574,49038.582823240155,-5508.9566873643034,92002.123590177478,-46296.475237475948,70190.086668940756,-70190.086668940756,46296.475237475948,173164.29794002336,0.0
628296.95196600363,3625566.251970998,-12500.0,48164.367719672809,-56444.983290633958,47694.560717127635,-19494.590245302436,28406.012501205514,-2311.7388958103711,65481.335872315336,-17890.015936040709,12775.068474658588,-12775.068474658588,17890.015936040709,125073.07556193127,0.0
633296.95196600363,3625566.251970998,-12500.0,49006.590762952648,-32183.580402540891,1281.450996647384,-14299.290888872019,11417.862316524695,-76.425833031926004,42952.514386930328,9119.0822464842931,-19015.272538407633,19015.272538407633,-9119.0822464842931,80350.47043217202,0.0
638296.95196600363,3625566.251970998,-12500.0,36811.366405614477,-9986.6346374350524,-16496.472459437427,-8206.2199010704917,1837.7387415619294,483.00044254521225,29351.382322490932,20153.046932240501,-25584.357532039965,25584.357532039965,-20153.046932240501,52309.136672333232,0.0
643296.95196600363,3625566.251970998,-12500.0,22824.174516963645,2832.0891641623853,-19251.709295926801,-3555.7052494660352,-2450.8280225960498,156.91875512562501,21647.701918883016,20487.504790523311,-21519.689778854834,21519.689778854834,-20487.504790523311,37555.96681181078,0.0
648296.95196600363,3625566.251970998,-12500.0,11795.832555902674,8508.6547329104269,-16779.305146118062,-577.07398773428827,-3882.1656082468635,-290.77044577039919,17049.558380535345,16779.043710479986,-15379.747802913873,15379.747802913873,-16779.043710479986,29675.788285573741,0.0
653296.95196600363,3625566.251970998,-12500.0,4300.5652640760181,10209.743611394289,-13272.16650246407,1102.1267284488724,-3978.3226074162794,-571.54979532709501,13948.333238202722,12422.817374894961,-10097.550030506905,10097.550030506905,-12422.817374894961,24713.63655818707,0.0
658296.95196600363,3625566.251970998,-12500.0,-381.15522278291235,10009.321109071601,-10115.022396851824,1914.2425786615574,-3544.50379638596,-673.93903460818092,11620.251987373915,8650.1314258448074,-6224.5478499944638,6224.5478499944638,-8650.1314258448074,21005.403981334013,0.0
663296.95196600363,3625566.251970998,-12500.0,-3105.0220991765118,9028.4291280164416,-7616.9672966597927,2203.1497448125892,-2965.624077174416,-662.48253222892379,9764.214389406543,5735.4956084544037,-3578.8091481143065,3578.8091481143065,-5735.4956084544037,17967.421521307668,0.0
668296.95196600363,3625566.251970998,-12500.0,-4553.3823294432686,7819.7474087679366,-5737.1806685799693,2203.0709527354434,-2406.0594204795011,-595.94088576029833,8245.3779438827587,3607.7415524492799,-1841.02744449741,1841.02744449741,-3607.7415524492799,15398.727648087619,0.0
673296.95196600363,3625566.251970998,-12500.0,-5205.1092622067945,6634.2252456753304,-4349.9458021536748,2059.094431189958,-1923.7042248942032,-511.03606812246949,6990.2870986259031,2104.6449961245785,-730.59973518487504,730.59973518487504,-2104.6449961245785,13214.0752652542,0.0
678296.95196600363,3625566.251970998,-12500.0,-5376.7941284526396,5571.7851406934069,-3331.2448663593646,1855.0809605575234,-1529.3019941662317,-426.74826590614424,5949.3610993878565,1066.1736594542804,-39.10243446286313,39.10243446286313,-1066.1736594542804,11359.414685819491,0.0
683296.95196600363,3625566.251970998,-12500.0,-5270.7486306206756,4660.4634558609087,-2581.1614523586995,1636.5936449860628,-1215.137514189717,-351.27174283753891,5084.3177919132604,361.75738287117792,377.9588675107783,-377.9588675107783,-361.75738287117792,9789.2043987042616,0.0
688296.95196600363,3625566.251970998,-12500.0,-5013.3082702481988,3896.3556626113464,-2025.0546093572998,1426.6392516260962,-967.98980930865423,-287.10486621420165,4363.9537896481352,-107.03644632932563,617.49499130302286,-617.49499130302286,107.03644632932563,8461.9878136415682,0.0
693296.95196600363,3625566.251970998,-12500.0,-4681.8464409552007,3263.1313003938026,-1608.9529987506876,1235.5305476837655,-774.49742613773935,-234.06386579833571,3762.5084461946217,-411.55628968487281,743.41670535794174,-743.41670535794174,411.55628968487281,7340.3750366280301,0.0
698296.95196600363,3625566.251970998,-12500.0,-4322.7577309971712,2741.1776665579596,-1294.3445745796789,1066.7360953039172,-623.05799051863301,-190.88396688651545,3258.7501383799886,-602.45388464987059,797.50175442065824,-797.50175442065824,602.45388464987059,6391.4937729178801,0.0
703296.95196600363,3625566.251970998,-12500.0,-3963.0816957322968,2311.6061276518626,-1053.8394368336981,920.22753150024619,-504.24465810507195,-156.00430156920868,2835.2691293201333,-715.28826026103468,806.92488599061869,-806.92488599061869,715.28826026103468,5587.0950583626873,0.0
708296.95196600363,3625566.251970998,-12500.0,-3617.8895203050802,1957.7734542698295,-867.91425482799445,794.3381512425068,-410.64799624190294,-127.91893971565671,2477.8523714841481,-774.87596603001873,789.29892500363724,-789.29892500363724,774.87596603001873,4903.3020670761507,0.0
713296.95196600363,3625566.251970998,-12500.0,-3294.9344687314788,1665.6496843141874,-722.57697045752013,686.76405396142093,-336.54211643858133,-105.31064594746897,2174.9288723451336,-798.48371885002132,755.99446309690995,-755.99446309690995,798.48371885002132,4320.1566488965618,0.0
513296.95196600363,3630566.251970998,-12500.0,-5284.218072017241,-1196.6398073649523,-440.44453956004583,-1047.5418583494215,-244.24372005858203,-153.55401499075401,2911.0935726749753,-3995.9267534877727,1319.8844717980446,-1319.8844717980446,3995.9267534877727,5718.4716700793333,0.0
518296.95196600363,3630566.251970998,-12500.0,-6002.9891617925095,-1465.6902702133402,-529.36641686695395,-1244.2276753801189,-310.86988668405473,-190.59370450288807,3345.6472147290706,-4603.0798335330655,1466.5020302372402,-1466.5020302372402,4603.0798335330655,6580.9268812717783,0.0
523296.95196600363,3630566.251970998,-12500.0,-6840.6336841605744,-1807.2461023927274,-646.93502379648635,-1485.5941213289852,-398.8719045260811,-238.14176355982804,3864.9289479630761,-5325.9925548133324,1624.0617975273544,-1624.0617975273544,5325.9925548133324,7612.9914478993105,0.0
528296.95196600363,3630566.251970998,-12500.0,-7816.6823327003613,-2243.7062145232821,-805.16247300451562,-1782.9138017315286,-516.07003260238571,-299.4865600411639,4488.65055453881,-6188.9591225675695,1787.8448452715829,-1787.8448452715829,6188.9591225675695,8854.41460618991,0.0
533296.95196600363,3630566.251970998,-12500.0,-8951.6787978224656,-2804.9177290744155,-1021.9721074460529,-2150.179950231558,-673.4114732388972,-378.93382746686638,5241.4847456140569,-7220.4912503013984,1948.3122634358383,-1948.3122634358383,7220.4912503013984,10354.98972807161,0.0
538296.95196600363,3630566.251970998,-12500.0,-10264.965707346884,-3530.5181238459745,-1324.4296891390636,-2604.4052632331177,-886.24124106208069,-482.017438365906,6154.1804269996464,-8452.750761526695,2087.7294145751516,-2087.7294145751516,8452.750761526695,12176.747733664453,0.0
543296.95196600363,3630566.251970998,-12500.0,-11770.145360134498,-4472.6371533190077,-1753.839695889649,-3165.518246336439,-1176.0036414123185,-615.60287200070024,7264.7455394106537,-9919.3446830558532,2174.5980437321541,-2174.5980437321541,9919.3446830558532,14396.069272078119,0.0
548296.95196600363,3630566.251970998,-12500.0,-13466.378836349655,-5698.44179012309,-2373.7582194424367,-3855.2967215792587,-1572.3635525451759,-787.64545789560475,8619.5967341256564,-11649.755896336041,2154.5622648857443,-2154.5622648857443,11649.755896336041,17104.963295110916,0.0
553296.95196600363,3630566.251970998,-12500.0,-15322.440583191661,-7291.01190959835,-3282.3993466878742,-4694.2732814946676,-2115.4491681222157,-1006.0891341608364,10274.641653396513,-13657.149622311585,1935.8313238411629,-1935.8313238411629,13657.149622311585,20409.840627912148,0.0
558296.95196600363,3630566.251970998,-12500.0,-17248.616429237474,-9344.7922836610669,-4631.1556878993842,-5694.7361852220411,-2857.1661223131919,-1275.8999278480521,12295.432210995104,-15913.616762821588,1366.6126192870179,-1366.6126192870179,15913.616762821588,24424.343358374877,0.0
563296.95196600363,3630566.251970998,-12500.0,-19049.252190327526,-11946.942133449271,-6649.9795826835389,-6846.8307475857755,-3858.7562503180343,-1592.5012062365829,14748.674684571348,-18302.457401443069,202.53549330754504,-202.53549330754504,18302.457401443069,29249.353054384803,0.0
568296.95196600363,3630566.251970998,-12500.0,-20347.48790899694,-15125.761634960345,-9674.9075897828316,-8093.8002162032953,-5177.9907179438806,-1929.3457397364423,17675.137016689536,-20530.849119223178,-1933.256577980268,1933.256577980268,20530.849119223178,34926.957991825198,0.0
573296.95196600363,3630566.251970998,-12500.0,-20478.848897937696,-18728.243857827252,-14153.333912492009,-9293.1239769908698,-6832.1365229718467,-2218.9597017512383,21046.319466444977,-21981.26554558448,-5576.3830508569517,5576.3830508569517,21981.26554558448,41343.615863885512,0.0
578296.95196600363,3630566.251970998,-12500.0,-18379.470758948119,-22160.610650243929,-20542.997132733373,-10166.144637391277,-8710.8367879848738,-2336.1261671080597,24681.497286738999,-21493.05639407842,-11356.187179504193,11356.187179504193,21493.05639407842,48038.999442033331,0.0
583296.95196600363,3630566.251970998,-12500.0,-12595.36930893755,-23920.317261617955,-28867.041766736515,-10254.856652459914,-10397.193844607445,-2118.3945807728473,28087.166635351128,-17159.637533674257,-19614.306995618979,19614.306995618979,17159.637533674257,53864.163720025696,0.0
588296.95196600363,3630566.251970998,-12500.0,-1789.11183526898,-21038.062868232293,-37409.361078984497,-8938.7541401791768,-10845.939080673226,-1498.5235223489583,30248.830375588368,-6571.2678642877163,-29213.897021024874,29213.897021024874,6571.2678642877163,56565.403330917412,0.0
593296.95196600363,3630566.251970998,-12500.0,13641.844506165626,-9420.9769009245247,-40072.6800128342,-5644.9536180198565,-7927.647076235633,-797.17653515360257,29932.910687343057,11350.361609561362,-35089.807001725247,35089.807001725247,-11350.361609561362,53558.883567786244,0.0
598296.95196600363,3630566.251970998,-12500.0,29497.96023377643,12446.392737993443,-24347.636817971877,-507.44944721654383,1763.9558271655724,-980.25901427783538,29724.736162317473,32157.935075217691,-26463.156433078002,26463.156433078002,-32157.935075217691,51594.548837801522,0.0
603296.95196600363,3630566.251970998,-12500.0,40266.062489200507,37278.564436055771,22740.497454117125,4751.1225000209843,21644.626462106888,-3449.0385047324853,47251.028590992093,44667.646450107917,7270.2622225906052,-7270.2622225906052,-44667.646450107917,84227.589289654963,0.0
608296.95196600363,3630566.251970998,-12500.0,45340.457048279131,52395.922426454425,102585.17868057948,7599.0653670189167,52623.4045805735,-9238.126302929224,90888.412804626889,39816.055600904867,65958.666774246434,-65958.666774246434,-39816.055600904867,161545.71891410658,0.0
613296.95196600363,3630566.251970998,-12500.0,38933.69106696004,41226.238642645127,206015.43741832356,4452.6846870117197,91656.395544010753,-16628.242497201598,148678.67132862698,5111.1514616017521,142993.4515001715,-142993.4515001715,-5111.1514616017521,265796.52990352525,0.0
618296.95196600363,3630566.251970998,-12500.0,29343.374358305031,-31420.023661755698,266504.76949320693,-14200.477705989812,116636.7789833993,-19027.616812333374,186486.81354441922,-62485.024042006116,182810.20534013526,-182810.20534013526,62485.024042006116,338283.9648521159,0.0
623296.95196600363,3630566.251970998,-12500.0,66209.031535631497,-104187.18651291591,167468.06761534317,-34963.421586027966,87666.188946793307,-14106.369980572501,156991.31087030625,-65128.983195230008,89643.210756697517,-89643.210756697517,65128.983195230008,290042.98017568054,0.0
628296.95196600363,3630566.251970998,-12500.0,91930.355558250783,-73369.320509528654,25103.551178938873,-28280.569110413151,35373.170453580453,-6538.1630934044515,92607.248712819448,3407.6397835044299,-20383.756521619158,20383.756521619158,-3407.6397835044299,172869.49245913219,0.0
633296.95196600363,3630566.251970998,-12500.0,66616.184559423724,-17994.891253196383,-29606.111372440697,-12588.771460083444,6486.9896839186231,-1352.0967404672158,52896.185433476334,36465.742363453479,-46108.936524598612,46108.936524598612,-36465.742363453479,94400.616310411831,0.0
638296.95196600363,3630566.251970998,-12500.0,34088.919200739103,9475.7997433692817,-33799.900940855121,-2909.4205784885307,-3679.8574565919866,-21.940159008928759,35553.001989573182,35200.099587770994,-35282.59156781678,35282.59156781678,-35200.099587770994,61579.925380504552,0.0
643296.95196600363,3630566.251970998,-12500.0,12515.901663843708,17771.220312060432,-26329.261762875998,1803.6958172220359,-6312.8567714708452,-420.12305389465581,26962.906001370018,25497.605717717925,-21639.586309767074,21639.586309767074,-25497.605717717925,47439.969589869441,0.0
648296.95196600363,3630566.251970998,-12500.0,483.91840479954521,18267.043870646954,-18782.891473787284,3869.2065582828341,-6255.2298686014101,-938.48626338635108,21534.90820919253,16597.141549265027,-11993.464132142859,11993.464132142859,-16597.141549265027,38848.148646246496,0.0
653296.95196600363,3630566.251970998,-12500.0,-5690.5164241324919,16188.148004514233,-13142.68143283638,4531.3200101772836,-5343.6068317386598,-1161.1694716623547,17533.145318438055,10090.758757829881,-5996.8386399259498,5996.8386399259498,-10090.758757829881,32299.111140602086,0.0
658296.95196600363,3630566.251970998,-12500.0,-8533.4962093256581,13547.31446668738,-9229.9502379229416,4471.2026383124448,-4290.246646362596,-1146.1207647853701,14392.046247627532,5686.8059813904865,-2450.9604753200665,2450.9604753200665,-5686.8059813904865,26944.129737255244,0.0
663296.95196600363,3630566.251970998,-12500.0,-9537.3533823255202,11061.649236591258,-6566.3538507776721,4080.0682783311245,-3349.1729714845683,-1015.4962214062397,11875.244258516239,2817.3478487827242,-424.75159598782079,424.75159598782079,-2817.3478487827242,22512.273448077169,0.0
668296.95196600363,3630566.251970998,-12500.0,-9559.0894300354994,8944.0367072725512,-4751.1878230426601,3573.4680443378402,-2584.9554529666229,-850.86640382839471,9846.4035992459721,996.50076608877475,687.53116208579763,-687.53116208579763,-996.50076608877475,18852.670107738784,0.0
673296.95196600363,3630566.251970998,-12500.0,-9085.4650819343551,7216.0732946196058,-3502.1934966911863,3060.675119467533,-1990.4209967662257,-692.33786776018985,8207.0146033530527,-129.59932527864976,1259.3470630152792,-1259.3470630152792,129.59932527864976,15841.719051779633,0.0
678296.95196600363,3630566.251970998,-12500.0,-8389.1840651817492,5833.502893718065,-2630.9016521261069,2590.7199298927926,-1536.7553175409075,-555.16588218815014,6879.2093307947007,-803.24528809212984,1516.1084044230713,-1516.1084044230713,803.24528809212984,13368.94820581422,0.0
683296.95196600363,3630566.251970998,-12500.0,-7619.7736951648612,4736.1803807752312,-2013.5290102737549,2180.85135938454,-1193.0574776757949,-442.45517058115104,5800.2890968606143,-1185.5848348415088,1592.5469651436865,-1592.5469651436865,1185.5848348415088,11337.494742138037,0.0
688296.95196600363,3630566.251970998,-12500.0,-6856.3216999438719,3866.789040076826,-1568.854217301144,1832.7860787229085,-932.78457404154483,-352.25507231170087,4919.9448475259342,-1382.2404693552464,1568.7364772108001,-1568.7364772108001,1382.2404693552464,9665.0867732939496,0.0
693296.95196600363,3630566.251970998,-12500.0,-6138.0493776924586,3176.7213213808614,-1243.2469583659761,1541.4384200975071,-735.01396315239776,-281.00455289330608,4198.1268963929624,-1461.9269502736295,1492.0129942253582,-1492.0129942253582,1461.9269502736295,8283.6282191750215,0.0
698296.95196600363,3630566.251970998,-12500.0,-5481.931294186702,2626.8344577458101,-1000.9306649119433,1299.3483685877775,-583.8907755175785,-225.0271606568264,3603.135201307593,-1469.1694486220733,1390.1374075712126,-1390.1374075712126,1469.1694486220733,7137.6956117195641,0.0
703296.95196600363,3630566.251970998,-12500.0,-4892.8190512142774,2186.3972672509299,-817.74677764401724,1098.7925365981366,-467.62074886993804,-181.08838151502815,3109.9640596135555,-1432.7374393477708,1279.1679223945048,-1279.1679223945048,1432.7374393477708,6182.6384793616162,0.0
708296.95196600363,3630566.251970998,-12500.0,-4369.2168377725175,1831.5744596970158,-677.16597896486405,932.69323063986167,-377.49619755949982,-146.53476846802806,2698.9598943450833,-1371.1573815096508,1168.1690064126733,-1168.1690064126733,1371.1573815096508,5382.674202587762,0.0
713296.95196600363,3630566.251970998,-12500.0,-3906.5501613736292,1543.9697547485812,-567.72458814114646,794.93205348502909,-307.09699715099066,-119.26487749540181,2356.6789460073865,-1296.2971712476578,1062.0364803994075,-1062.0364803994075,1296.2971712476578,4709.183101950759,0.0
513296.95196600363,3635566.251970998,-12500.0,-5603.7348435010208,-850.55799636326947,-298.73969470752132,-1104.2406915666511,-173.84803406335405,-160.83804179614026,3003.7210342318217,-3999.2773433093184,1569.1024045376266,-1569.1024045376266,3999.2773433093184,5900.2217451053511,0.0
518296.95196600363,3635566.251970998,-12500.0,-6418.7911503567911,-1057.484839648097,-347.39170952176789,-1320.8330422980118,-224.47048958633005,-200.81902046224079,3467.7140133895414,-4634.7277291604614,1784.4406440899022,-1784.4406440899022,4634.7277291604614,6820.0483431547846,0.0
523296.95196600363,3635566.251970998,-12500.0,-7386.2310234779898,-1324.9570654878221,-411.23210984095476,-1590.0882126812098,-292.39990881211645,-252.63722287023762,4027.1796716904623,-5402.0380700614851,2033.1765390334087,-2033.1765390334087,5402.0380700614851,7930.3297356567473,0.0
528296.95196600363,3635566.251970998,-12500.0,-8538.8915970373164,-1673.767217384129,-497.20560317716695,-1926.8877522150851,-384.45569754975617,-320.23869737799487,4706.3412681854779,-6333.9080812903658,2318.9621754769369,-2318.9621754769369,6333.9080812903658,9279.5334511143974,0.0
533296.95196600363,3635566.251970998,-12500.0,-9916.5029335503859,-2132.8166001525133,-616.14386306604092,-2350.6330228145753,-510.46771454196636,-408.92930029809077,5536.5287882474368,-7471.8254383042986,2644.0213508420843,-2644.0213508420843,7471.8254383042986,10930.309473642792,0.0
538296.95196600363,3635566.251970998,-12500.0,-11566.262825403379,-2742.5488790538593,-785.24501120431182,-2886.5020532979988,-684.703967027555,-525.75744771145764,6558.420713820421,-8868.1328485567956,3007.1444619039771,-3007.1444619039771,8868.1328485567956,12963.876075107093,0.0
543296.95196600363,3635566.251970998,-12500.0,-13542.399798293878,-3559.8391107530583,-1032.3021737021086,-3566.8168530447556,-927.97028374212437,-679.84986505957693,7824.9592783594298,-10588.028609802641,3399.8983284101841,-3399.8983284101841,10588.028609802641,15485.582824394243,0.0
548296.95196600363,3635566.251970998,-12500.0,-15903.397925723777,-4664.8140168073451,-1403.0094612146806,-4432.2067384886432,-1270.6278126241507,-882.42847757355389,9405.0900923377594,-12710.685548215679,3799.5764608844502,-3799.5764608844502,12710.685548215679,18631.672521252374,0.0
553296.95196600363,3635566.251970998,-12500.0,-18704.243607527354,-6169.9599638376776,-1973.734475253855,-5531.8038735483588,-1756.7270929651618,-1145.8327628632553,11388.463516101403,-15327.533669431235,4156.2068128274159,-4156.2068128274159,15327.533669431235,22576.816086862378,0.0
558296.95196600363,3635566.251970998,-12500.0,-21978.588303274024,-8231.1305569397846,-2873.9995182931316,-6920.866986351647,-2449.119443165685,-1480.0159271342768,13891.038712612593,-18533.299874369088,4368.8236654845496,-4368.8236654845496,18533.299874369088,27540.956312061768,0.0
563296.95196600363,3635566.251970998,-12500.0,-25701.023038605639,-11057.515361383892,-4326.0147927081352,-8652.8498165333021,-3434.2945497635087,-1883.3738860493406,17060.210394098292,-22400.076437919946,4242.6288314623689,-4242.6288314623689,22400.076437919946,33791.617992342981,0.0
568296.95196600363,3635566.251970998,-12500.0,-29710.760976067024,-14909.881109667205,-6712.8350778654803,-10761.188638807347,-4822.7518513228797,-2322.4035125214605,21074.503946010122,-26913.053585301317,3413.4120758965619,-3413.4120758965619,26913.053585301317,41632.335003955515,0.0
573296.95196600363,3635566.251970998,-12500.0,-33561.384256320416,-20053.885029368892,-10688.230052224257,-13225.112508619877,-6733.9788439718377,-2693.8283597018049,26128.231139077732,-31820.939670497282,1221.3470178974076,-1221.3470178974076,31820.939670497282,51353.422032732204,0.0
578296.95196600363,3635566.251970998,-12500.0,-36234.430641274863,-26571.013383127633,-17316.90012612972,-15915.291241229101,-9240.9737402955834,-2774.2354108200516,32371.958274682067,-36300.382093790504,-3467.7568872306147,3467.7568872306147,36300.382093790504,63076.191156740992,0.0
583296.95196600363,3635566.251970998,-12500.0,-35649.908974308099,-33761.340354371132,-28075.301547115287,-18513.20693455014,-12217.111503319071,-2217.2813758842854,39690.770808051093,-38255.343041127126,-12362.389891363868,12362.389891363868,38255.343041127126,76271.557460972777,0.0
588296.95196600363,3635566.251970998,-12500.0,-28187.396759052786,-38580.389719374296,-43851.616474764363,-20357.359121133046,-14926.582604354404,-796.17972218370574,46954.611654231921,-33211.161211981096,-27000.182404181498,27000.182404181498,33211.161211981096,88327.361675755979,0.0
593296.95196600363,3635566.251970998,-12500.0,-9989.6669107197049,-33088.36470041109,-60098.658537186617,-20131.144350106391,-14879.654413973813,836.34990337125566,50146.561172063775,-14539.140325614793,-44466.215889572093,44466.215889572093,14539.140325614793,91296.853003705139,0.0
598296.95196600363,3635566.251970998,-12500.0,15767.93729645315,-7175.8962910297432,-55187.493488464155,-16151.994203358568,-5401.445384675334,359.60734894100921,41449.111666596044,17570.753388574049,-46680.094185216811,46680.094185216811,-17570.753388574049,72134.964824614974,0.0
603296.95196600363,3635566.251970998,-12500.0,35916.653560905936,28056.496065329404,6713.1706539828956,-9987.2863624242036,24134.886896776745,-4877.4688269303169,43455.616731545597,39473.417819238297,-4065.6084650509147,4065.6084650509147,-39473.417819238297,75722.455434566727,1.0
608296.95196600363,3635566.251970998,-12500.0,67235.441849503739,41659.854386325074,117615.4154726214,-5008.8132074037821,77850.938821877731,-14757.094117113646,110830.33561028968,43034.743583147858,68497.058255898475,-68497.058255898475,-43034.743583147858,191978.90653362527,0.0
613296.95196600363,3635566.251970998,-12500.0,118757.88193381908,62129.776094254688,281136.41083834553,9688.9321181569194,169729.44731647463,-20831.186457352182,235107.68170327871,51900.722959579842,173738.40863806993,-173738.40863806993,-51900.722959579842,408416.9089893683,0.0
618296.95196600363,3635566.251970998,-12500.0,95381.531547236518,-42483.976377897918,490920.90413926431,-19099.332559103612,292836.82853083551,806.79415198106835,383869.11883887427,-79088.310146923905,324548.87978805869,-324548.87978805869,79088.310146923905,683061.52812721685,0.0
623296.95196600363,3635566.251970998,-12500.0,186551.90914424256,-210868.48124154354,203727.76760583653,-93412.940740280988,185448.36274693161,5040.2171261816093,299711.08868747437,-68455.598578768448,64301.357444349167,-64301.357444349167,68455.598578768448,546906.65653063566,0.0
628296.95196600363,3635566.251970998,-12500.0,160734.24030501777,-44787.689819991378,-70522.711091412464,-32868.636427255384,26167.835419594776,-3476.3400816390977,130431.04621834461,86876.68290716401,-110731.44559942588,110731.44559942588,-86876.68290716401,231911.99659455812,0.0
633296.95196600363,3635566.251970998,-12500.0,52537.967064208664,34634.12470542224,-71520.697566584946,3928.7530796479036,-7353.491343836472,1000.4924406904357,71474.133265243654,71854.276157448883,-66491.483311068325,66491.483311068325,-71854.276157448883,124338.60168811133,0.0
638296.95196600363,3635566.251970998,-12500.0,2799.3104648294252,41094.193461196948,-43505.375036160927,10984.081680197953,-10662.387583699941,1024.6102113199597,49038.096242045023,38689.591593301258,-28475.518571423981,28475.518571423981,-38689.591593301258,88511.606074818817,0.0
643296.95196600363,3635566.251970998,-12500.0,-14503.820793748046,33779.499807577769,-25794.539515847551,11362.801632534261,-9530.474144055237,-582.64576142656426,36368.170125504614,19043.83459787181,-10431.284844858936,10431.284844858936,-19043.83459787181,67538.529240101823,0.0
648296.95196600363,3635566.251970998,-12500.0,-19675.048020644204,26006.355844227106,-15811.89950529224,10349.143984583598,-7661.9450436278821,-1551.0116997471555,28009.923484859137,8426.7164053657652,-2196.4332197826052,2196.4332197826052,-8426.7164053657652,52913.239809077546,0.0
653296.95196600363,3635566.251970998,-12500.0,-20247.954177875876,19767.937676329311,-10075.712103033989,8947.3012596621338,-5876.2473268652984,-1789.9731012281563,22036.109222933716,2656.5899807262495,1537.2125069667863,-1537.2125069667863,-2656.5899807262495,42100.831938207644,0.0
658296.95196600363,3635566.251970998,-12500.0,-19015.810499825377,15043.849894205374,-6661.3570520454359,7499.2995314568707,-4410.2061682480398,-1651.1676224472553,17567.535605835536,-461.21749974941145,3121.3513615614738,-3121.3513615614738,461.21749974941145,33847.498649551431,0.0
663296.95196600363,3635566.251970998,-12500.0,-17135.626162806166,11520.636264533761,-4558.3585022201432,6172.2118166256305,-3286.2851782124276,-1385.057677560226,14146.269276752271,-2085.2105347153529,3653.7996723988308,-3653.7996723988308,2085.2105347153529,27441.423806604584,0.0
668296.95196600363,3635566.251970998,-12500.0,-15123.147879151873,8898.3978424188408,-3221.4822373730503,5032.8951388823798,-2451.8238661470768,-1111.0773629591752,11493.437330266501,-2858.9184907480317,3676.2351039751579,-3676.2351039751579,2858.9184907480317,22422.971718783811,0.0
673296.95196600363,3635566.251970998,-12500.0,-13207.321879653353,6939.5554103304839,-2346.1853793370692,4090.3168352372022,-1840.2381080993248,-873.08254553299321,9418.2282087933727,-3151.0594836650653,3463.7336007485283,-3463.7336007485283,3151.0594836650653,18465.03943117728,0.0
678296.95196600363,3635566.251970998,-12500.0,-11479.595327818035,5466.5026616936457,-1756.9340436331725,3326.1872334360023,-1393.0581864761714,-680.58347589604375,7782.2198383835967,-3175.6628952413494,3156.8143013564386,-3156.8143013564386,3175.6628952413494,15323.642416346624,0.0
683296.95196600363,3635566.251970998,-12500.0,-9964.793957354761,4349.5496819583022,-1349.6683021906615,2712.976604602276,-1064.9182577013501,-529.96652462658983,6482.5892557385805,-3057.336934918831,2826.2566164266714,-2826.2566164266714,3057.336934918831,12813.772318777555,0.0
688296.95196600363,3635566.251970998,-12500.0,-8656.6446453453245,3494.8556987650345,-1061.0874802249311,2222.7695888534081,-822.46787624280319,-413.87005422386812,5442.2496134029125,-2868.3804974025916,2506.312097198399,-2506.312097198399,2868.3804974025916,10794.48374059197,0.0
693296.95196600363,3635566.251970998,-12500.0,-7535.7930115828258,2834.6394322934752,-851.75023718660157,1830.867281105493,-641.77661660458853,-324.85501700110763,4603.2264284236253,-2650.3267799376417,2212.122477478827,-2212.122477478827,2650.3267799376417,9158.2332021862112,0.0
698296.95196600363,3635566.251970998,-12500.0,-6578.7709543450046,2319.8061869973399,-696.51687179069245,1516.7709286213264,-505.82971586664723,-256.59541922067484,3922.3225351487281,-2426.5749653671137,1948.9600831854486,-1948.9600831854486,2426.5749653671137,7822.7903734107858,0.0
703296.95196600363,3635566.251970998,-12500.0,-5762.2748153940165,1914.6043093796375,-579.01514323263245,1264.0249147048123,-402.54197355668066,-204.08106600071397,3370.1505444546715,-2209.84170162386,1717.1543427802403,-1717.1543427802403,2209.84170162386,6725.0771842747617,0.0
708296.95196600363,3635566.251970998,-12500.0,-5065.0243415813293,1592.8169703909939,-488.36248840136915,1059.6497265860314,-323.29870953750594,-163.47515328316567,2919.8724825379281,-2006.5770040927621,1514.7130145932022,-1514.7130145932022,2006.5770040927621,5816.4956349604245,0.0
713296.95196600363,3635566.251970998,-12500.0,-4468.4005884262715,1335.0668741009599,-417.18300793012565,893.49607417894208,-261.92066021356152,-131.88605087183612,2545.1550083381121,-1819.5897178954615,1338.7019581153031,-1338.7019581153031,1819.5897178954615,5059.4052972408872,0.0
718296.95196600363,3635566.251970998,-12500.0,-3956.4963419724422,1126.9120210380349,-360.384066585006,757.65454808542188,-213.94110228010442,-107.1488925861171,2230.3186107450174,-1649.6120043376629,1185.9548808512561,-1185.9548808512561,1649.6120043376629,4424.4818234724253,0.0
513296.95196600363,3640566.251970998,-12500.0,-5791.2844212333839,-449.09666696954537,-197.06233487607733,-1137.5237164605448,-93.602677040270436,-165.0969270132864,3052.4442636005001,-3874.4973268505641,1750.5897189162893,-1750.5897189162893,3874.4973268505641,5999.0326368740934,0.0
518296.95196600363,3640566.251970998,-12500.0,-6670.8938746976164,-573.83057922391458,-214.5027946528393,-1367.1971464638866,-124.1834813389043,-206.97006867793721,3534.7692408853163,-4503.1052262583735,2019.5145000749408,-2019.5145000749408,4503.1052262583735,6955.2476641167796,0.0
523296.95196600363,3640566.251970998,-12500.0,-7727.7624276319029,-738.74814779903841,-235.67302580306071,-1655.2563229946186,-166.11382797164683,-261.60031031208297,4119.9862768647554,-5268.2751355396886,2340.8366011318781,-2340.8366011318781,5268.2751355396886,8116.4939887361797,0.0
528296.95196600363,3640566.251970998,-12500.0,-9005.6829286583434,-959.03697322800315,-262.62272293292625,-2019.3970347754569,-224.21916030760306,-333.41991641743192,4835.7225934572907,-6206.9633898428729,2726.0983220661801,-2726.0983220661801,6206.9633898428729,9537.8771995814113,0.0
533296.95196600363,3640566.251970998,-12500.0,-10560.835130019386,-1256.5382892368459,-298.92193014104987,-2483.3781678582245,-305.64362241869583,-428.49178266777375,5718.4937418284617,-7367.9238733652855,3189.1579957777062,-3189.1579957777062,7367.9238733652855,11292.140503513298,0.0
538296.95196600363,3640566.251970998,-12500.0,-12465.459852857621,-1663.068861113207,-350.89059560052402,-3079.2061531585714,-421.07834744634238,-555.03829448212491,6817.0004636070653,-8815.9218781789659,3746.1573184518734,-3746.1573184518734,8815.9218781789659,13476.095494261437,0.0
543296.95196600363,3640566.251970998,-12500.0,-14812.467719082406,-2225.6004816462851,-429.90022236524777,-3850.0269458524463,-586.67901774750078,-723.97958858407628,8196.8010631457655,-10637.517054532855,4414.8114330408616,-4414.8114330408616,10637.517054532855,16219.608685473997,0.0
548296.95196600363,3640566.251970998,-12500.0,-17720.982864913407,-3014.4371870544387,-556.76208351736761,-4853.8079122798144,-827.05006489729521,-949.17559997019919,9947.0277803358222,-12948.939589016889,5212.1513797998341,-5212.1513797998341,12948.939589016889,19698.220097459642,0.0
553296.95196600363,3640566.251970998,-12500.0,-21342.496488845572,-4136.2923247235358,-770.27922086218257,-6167.7084802437021,-1179.8334600970966,-1246.515292069967,12190.270147841511,-15906.643487107362,6148.8743316718001,-6148.8743316718001,15906.643487107362,24150.990444453826,0.0
558296.95196600363,3640566.251970998,-12500.0,-25866.50588190194,-5755.4585931997481,-1144.3224541601924,-7892.6403179833533,-1702.5742296191147,-1629.6723258986829,15097.677841883087,-19720.958341152531,7216.368404184288,-7216.368404184288,19720.958341152531,29906.128315456106,0.0
563296.95196600363,3640566.251970998,-12500.0,-31522.583524578295,-8128.4442413604502,-1822.8798532475555,-10156.973157415834,-2482.4750986937097,-2097.3992361418086,18913.258433240124,-24672.344594157417,8357.8486810004615,-8357.8486810004615,24672.344594157417,37419.109971984428,0.0
568296.95196600363,3640566.251970998,-12500.0,-38570.258018919652,-11660.763432176194,-3094.2457594538637,-13118.493626828846,-3649.0770142561028,-2601.4135544403362,23995.267782462855,-31125.823860032222,9404.191848135597,-9404.191848135597,31125.823860032222,47333.140361757993,0.0
573296.95196600363,3640566.251970998,-12500.0,-47249.197342024956,-16996.940542523313,-5552.9985443061942,-16968.143078700017,-5388.831008917181,-2975.6282509483931,30891.140162763986,-39522.707470447182,9928.2347962689037,-9928.2347962689037,39522.707470447182,60582.526168021985,0.0
578296.95196600363,3640566.251970998,-12500.0,-57589.886104177065,-25136.43358765978,-10460.415057001464,-21955.599411313564,-7961.7569555275832,-2809.8011741460064,40469.816004614971,-50257.425710776224,8903.4097342518107,-8903.4097342518107,50257.425710776224,78562.859914616434,0.0
583296.95196600363,3640566.251970998,-12500.0,-68720.228820332006,-37405.052683774833,-20514.974754564089,-28476.934520644118,-11731.317075515186,-1329.0016239348172,54055.707583272408,-63051.186667481234,3907.1372408185853,-3907.1372408185853,63051.186667481234,103246.33403981641,0.0
588296.95196600363,3640566.251970998,-12500.0,-76590.083065729734,-54188.72241653777,-41043.145557747055,-37102.309889309428,-17174.355865996349,2319.8026708696352,72899.022328535924,-74424.241115781711,-10381.459357453652,10381.459357453652,74424.241115781711,136048.60404697692,0.0
593296.95196600363,3640566.251970998,-12500.0,-69225.355123442627,-67882.198785594213,-78053.628693164312,-47285.228043154828,-23885.791658238235,7320.8075998965778,93851.197371126647,-70511.229339809535,-41575.771003038069,41575.771003038069,70511.229339809535,169871.34586423449,0.0
598296.95196600363,3640566.251970998,-12500.0,-33365.169798095027,-45553.452970969724,-110062.90156475041,-52439.857159388448,-22041.254159528693,8190.1293134045436,94035.648145158644,-26122.219521254963,-74736.34458338868,74736.34458338868,26122.219521254963,163490.67212331714,0.0
603296.95196600363,3640566.251970998,-12500.0,-15881.199740324575,26195.926074727169,-15260.112026622957,-49406.852150140243,28689.402566284058,-440.97645142231346,61629.759998014939,10800.494653659993,-3043.6291101712768,3043.6291101712768,-10800.494653659993,109910.11199113478,0.0
608296.95196600363,3640566.251970998,-12500.0,-24917.562963458815,-37656.438209870052,199358.88509277583,-86117.903224095629,137031.22611461047,-10405.887969607351,203102.78734978137,-85400.719280367441,150946.68165250047,-150946.68165250047,85400.719280367441,360681.93677450303,0.0
613296.95196600363,3640566.251970998,-12500.0,261902.63811037716,-66947.526903798847,240692.93037897703,-88550.55909184074,256102.14149859489,-5964.3592592410805,314028.49890437629,65349.039364225828,81867.438328484495,-81867.438328484495,-65349.039364225828,547955.87278475706,0.0
618296.95196600363,3640566.251970998,-12500.0,472218.21647902258,-109447.4416681672,783627.77141783712,-49527.645899254574,823284.98827630223,282653.85810780438,868320.29109294584,46412.523603357549,406094.20735993685,-406094.20735993685,-46412.523603357549,1506198.0001633056,0.0
623296.95196600363,3640566.251970998,-12500.0,667081.26161697693,-204618.19157431572,-318212.17430219782,-272472.37906912831,176092.9711364852,141632.26366242679,615548.10403811897,353942.43237249233,-480381.57228086883,480381.57228086883,-353942.43237249233,1081912.1795271351,0.0
628296.95196600363,3640566.251970998,-12500.0,27766.973672229931,180429.18731763665,-196067.13088580055,77898.831484328301,-56265.273649961753,-6085.1681044196703,230888.36579168413,180691.02663455394,-133938.17253061887,133938.17253061887,-180691.02663455394,411140.50132419309,1.0
633296.95196600363,3640566.251970998,-12500.0,-77126.930914286131,106329.13627590815,-69250.289144826776,56715.19893268506,-23702.754705151969,8028.9538681357244,123276.73452999641,37565.350632473848,-13479.699280709436,13479.699280709436,-37565.350632473848,227806.45858919571,0.0
638296.95196600363,3640566.251970998,-12500.0,-70859.843966915214,61230.307265909687,-30100.052054520896,34523.829643520614,-13657.606780780112,4034.887571213123,73976.319525675848,2885.2912918274201,8311.3980103536851,-8311.3980103536851,-2885.2912918274201,140002.19451285084,0.0
643296.95196600363,3640566.251970998,-12500.0,-56581.611561480531,38585.85188146602,-15131.45606569866,23721.225020270551,-9555.8385043188246,-235.47842185281561,49199.561149605703,-6507.6519059402654,12065.390493735098,-12065.390493735098,6507.6519059402654,94794.945669026289,0.0
648296.95196600363,3640566.251970998,-12500.0,-45208.14677201672,26001.825282173613,-8395.9469188737148,17653.469562149578,-6944.9984674093457,-2039.8059699508092,35363.811244363162,-9219.636248851526,11832.37267881347,-11832.37267881347,9219.636248851526,68829.069764112326,0.0
653296.95196600363,3640566.251970998,-12500.0,-36590.654005689765,18290.038300262378,-5026.4920303336703,13537.664644575552,-5044.3010864279449,-2369.6970951193689,26640.163244645737,-9680.063624772014,10578.520656778866,-10578.520656778866,9680.063624772014,52124.187300316589,0.0
658296.95196600363,3640566.251970998,-12500.0,-29907.480963358616,13246.831804729116,-3210.4302081507694,10481.871484671412,-3659.2721538919036,-2119.2356330316129,20618.574380926642,-9238.4769872201741,9121.7319150663261,-9121.7319150663261,9238.4769872201741,40487.90273307907,0.0
663296.95196600363,3640566.251970998,-12500.0,-24623.715768400991,9809.8064165445849,-2172.1586304527013,8155.2324869863851,-2665.2007128070359,-1722.5113161116376,16244.347403152953,-8436.5226936645813,7737.4009937498113,-7737.4009937498113,8436.5226936645813,31998.439400304793,0.0
668296.95196600363,3640566.251970998,-12500.0,-20402.865667420308,7400.0681314976964,-1547.4541751888721,6377.358121860655,-1957.1664030197203,-1344.6885695981678,12976.064431243172,-7528.009200039799,6517.5052033342172,-6517.5052033342172,7528.009200039799,25635.473493680678,0.0
673296.95196600363,3640566.251970998,-12500.0,-17010.807730728971,5673.4509537089498,-1153.6296897321818,5018.5839033879784,-1452.6358629343829,-1032.9156167724916,10489.82034688876,-6634.8868336747282,5480.3809843342506,-5480.3809843342506,6634.8868336747282,20780.567727267793,0.0
678296.95196600363,3640566.251970998,-12500.0,-14271.839487537534,4413.5953437874095,-894.28394917692026,3978.3194044992952,-1090.995594189272,-790.10273617945188,8572.6638239627464,-5811.8199339723587,4614.4082899257091,-4614.4082899257091,5811.8199339723587,17025.12547555424,0.0
683296.95196600363,3640566.251970998,-12500.0,-12049.622627688203,3479.4486014327276,-716.36051680304035,3178.7618051090226,-829.4205209910067,-605.60908074432064,7077.7161436542747,-5078.6076496872411,3897.4910831356224,-3897.4910831356224,5078.6076496872411,14085.71452789825,0.0
688296.95196600363,3640566.251970998,-12500.0,-10237.316466666716,2776.6480770156513,-589.56065015214983,2560.7152084260574,-638.18796648820125,-466.69605730908592,5901.731818968613,-4437.5459920908315,3305.776258124879,-3305.776258124879,4437.5459920908315,11760.213348489864,0.0
693296.95196600363,3640566.251970998,-12500.0,-8751.08793484544,2240.7753920956347,-495.99074394914442,2079.7082642442856,-496.77836936734775,-362.20865222593005,4970.0512491815489,-3882.7574408389319,2817.2684769036441,-2817.2684769036441,3882.7574408389319,9901.9220437328295,0.0
698296.95196600363,3640566.251970998,-12500.0,-7525.1907717082831,1827.0924671772304,-424.74670796096086,1702.5569121635003,-390.99795560855046,-283.3509324410764,4223.1361005299214,-3405.1098839389092,2413.0451457222584,-2413.0451457222584,3405.1098839389092,8402.9643837667991,0.0
703296.95196600363,3640566.251970998,-12500.0,-6508.0249447953192,1504.0443922756242,-368.98261549032537,1404.5393445123843,-310.96684701436874,-223.4920054354987,3616.1258059465968,-2994.7018288975228,2077.3827733708672,-2077.3827733708672,2994.7018288975228,7183.0998395357747,0.0
708296.95196600363,3640566.251970998,-12500.0,-5659.0581068304846,1249.0647548232835,-324.27672553307838,1167.2149302363478,-249.75032266864426,-177.73374790586078,3117.6441579001366,-2642.0743106482851,1797.4688748704493,-1797.4688748704493,2642.0743106482851,6182.0650284091407,0.0
713296.95196600363,3640566.251970998,-12500.0,-4946.3441216173451,1045.7994775594955,-287.69308734465204,976.77010244587859,-202.43237866928766,-142.48542546092204,2704.7863416830237,-2338.702993761688,1562.9569948095022,-1562.9569948095022,2338.702993761688,5354.1434696043989,0.0
718296.95196600363,3640566.251970998,-12500.0,-4344.6154471949076,882.25161619382175,-257.2302791701631,822.80264476911157,-165.49213023378556,-115.1178589485681,2360.2450228576727,-2077.1539599896723,1365.529833273059,-1365.529833273059,2077.1539599896723,4664.3392785506794,0.0
513296.95196600363,3645566.251970998,-12500.0,-5827.0738022321866,-15.899886589000769,-146.92979535115097,-1144.1110020338999,-7.7532572473512147,-165.9362073317067,3053.1254147097752,-3622.2173586638451,1846.6527079588691,-1846.6527079588691,3622.2173586638451,6007.0247825857004,0.0
518296.95196600363,3645566.251970998,-12500.0,-6730.8382808387478,-45.511951285048212,-147.2418563594405,-1378.4397088080589,-15.74133394545728,-208.43954234828732,3540.8128197853312,-4207.0028896832919,2146.6457625057128,-2146.6457625057128,4207.0028896832919,6975.0864973054959,0.0
523296.95196600363,3645566.251970998,-12500.0,-7823.7512729523733,-88.945247951062967,-144.34323950008184,-1673.7328232604343,-27.815357871535866,-264.08326965151895,4134.5288898237905,-4919.9494495078861,2511.0046064462595,-2511.0046064462595,4919.9494495078861,8154.6497419802972,0.0
528296.95196600363,3645566.251970998,-12500.0,-9155.7313066911811,-152.59600743930451,-136.99140086509553,-2049.1574651633741,-46.053967298402199,-337.53144704998914,4863.6393906550611,-5796.7838647337367,2956.7076723648524,-2956.7076723648524,5796.7838647337367,9604.3024609336098,0.0
533296.95196600363,3645566.251970998,-12500.0,-10792.595593728065,-246.13233732955001,-123.66005685436895,-2530.8528695697205,-73.678047891330621,-435.22006655158856,5767.4426942522332,-6885.4015298244694,3505.9240714924972,-3505.9240714924972,6885.4015298244694,11402.320770754111,0.0
538296.95196600363,3645566.251970998,-12500.0,-12822.020259188021,-384.39283454845059,-102.64180116956513,-3154.7298374838306,-115.73667242811206,-565.96710975025269,6899.1709147165802,-8250.8247645565934,4187.7325922994323,-4187.7325922994323,8250.8247645565934,13654.466971624415,0.0
543296.95196600363,3645566.251970998,-12500.0,-15362.132449643655,-590.54610519841776,-72.431315376629485,-3970.4301766723906,-180.237322713379,-741.62032562253205,8331.8991699007565,-9982.5765231555888,5040.3806534098221,-5040.3806534098221,9982.5765231555888,16505.384354377453,0.0
548296.95196600363,3645566.251970998,-12500.0,-18574.200702984504,-901.48835223368803,-32.790301242968056,-5046.8910633260975,-280.02267388295331,-977.40336293256007,10167.494524762447,-12205.941292172214,6114.1740471132907,-6114.1740471132907,12205.941292172214,20155.603318458099,0.0
553296.95196600363,3645566.251970998,-12500.0,-22682.048044693383,-1377.3539601473119,12.556668294295124,-6480.0967015035285,-435.90114836546724,-1290.9337680864355,12550.688994706821,-15099.778460982514,7474.9761612719558,-7474.9761612719558,15099.778460982514,24887.713257875424,0.0
558296.95196600363,3645566.251970998,-12500.0,-28003.3086002005,-2118.9592707989045,49.307817731618854,-8403.8708550008068,-681.88258546394161,-1697.107827193076,15692.599052968153,-18926.097253956497,9207.937040425928,-9207.937040425928,18926.097253956497,31108.643816481428,0.0
563296.95196600363,3645566.251970998,-12500.0,-35003.442193285016,-3301.4852904206364,36.348055408350525,-11005.587891478555,-1073.9741796520759,-2191.6624511910345,19913.741052889876,-24082.417116434248,11420.016434788238,-11420.016434788238,24082.417116434248,39423.476282061456,0.0
568296.95196600363,3645566.251970998,-12500.0,-44396.99057753339,-5244.0195925862508,-135.08867060059254,-14553.273334208672,-1705.3859305672997,-2706.1192705364788,25731.436936845108,-31201.802336066343,14236.363945153418,-14236.363945153418,31201.802336066343,50779.375702641744,0.0
573296.95196600363,3645566.251970998,-12500.0,-57350.016660112153,-8565.132729128658,-749.03480204605705,-19459.891169782255,-2735.924858889096,-2996.8776215532334,34055.895403400471,-41357.923346494623,17772.173541521326,-17772.173541521326,41357.923346494623,66783.952245387321,1.0
578296.95196600363,3645566.251970998,-12500.0,-75879.974101404761,-14559.745896421213,-2569.1506006678492,-26482.580297165783,-4466.4343262374923,-2408.3394417124441,46660.778523694033,-56495.328169776047,22001.978079690925,-22001.978079690925,56495.328169776047,90476.951690143236,0.0
583296.95196600363,3645566.251970998,-12500.0,-103458.66272933119,-26147.436844533273,-7781.8898402864079,-37374.197935568824,-7600.165367154339,488.62850292867046,67281.018544124221,-80219.922607555462,26164.915068111251,-26164.915068111251,80219.922607555462,128174.05261888173,0.0
588296.95196600363,3645566.251970998,-12500.0,-144524.83375600277,-49971.283302043674,-23178.516553238809,-56682.39615817833,-14293.732952246888,7812.4410122235367,103584.42318143819,-118162.08240477936,26031.389057733373,-26031.389057733373,118162.08240477936,192844.51946851343,0.0
593296.95196600363,3645566.251970998,-12500.0,-193775.4957036796,-96906.927740763247,-70513.227370122142,-93955.945465932979,-31596.502815187174,19094.176613699252,166963.11178318856,-169278.59242954274,2631.0433196020458,-2631.0433196020458,169278.59242954274,303181.99070209323,0.0
598296.95196600363,3645566.251970998,-12500.0,-185586.18560436383,-139579.97459880231,-195921.44677499839,-147836.64482645693,-69136.136286959969,20421.389981110417,243137.010492159,-164046.44631176407,-97034.426745779434,97034.426745779434,164046.44631176407,427819.15049303405,0.0
603296.95196600363,3645566.251970998,-12500.0,-69547.101202562102,75457.287064022676,-177884.66893399946,-135133.21772860465,4845.0401489506166,2551.9242991814081,176959.99589238677,46424.17385441513,-99314.274403841264,99314.274403841264,-46424.17385441513,310935.87839828304,0.0
608296.95196600363,3645566.251970998,-12500.0,-377959.90461824497,-5274.5133101664123,626672.1651934369,-335457.41353792476,508866.05404092075,62079.71690005633,782797.28777227446,-381213.8139831411,587408.21904213249,-587408.21904213249,381213.8139831411,1369436.0232099798,1.0
613296.95196600363,3645566.251970998,-12500.0,-494746.73015142116,-662625.49612455431,90263.779379864893,-1433422.9157274882,498774.20389044931,-195344.01495047141,1676646.737005397,-767247.48034609272,160389.39348508482,-160389.39348508482,767247.48034609272,2912794.8909763061,0.0
618296.95196600363,3645566.251970998,-12500.0,7668512.4061151799,1606923.8450064177,-7353439.2434712071,-2245207.7193518477,678691.13669762574,642031.25787187333,8034526.0856693517,7515703.761475361,-7810179.436783188,7810179.436783188,-7515703.761475361,13918705.379116489,1.0
623296.95196600363,3645566.251970998,-12500.0,-877793.07035208156,243398.88851372461,-469668.96416392172,1062826.3977533772,100751.68735700115,-534869.4820814227,1112839.4810226394,-282472.75485849532,-24338.336468190508,24338.336468190508,282472.75485849532,1934215.1147376974,1.0
628296.95196600363,3645566.251970998,-12500.0,-515437.71458730515,105115.28992505229,-57998.191692587832,321133.48089791893,-2371.2543344236146,-25439.085018202459,416330.20923346723,-239938.22161625736,141833.46880897836,-141833.46880897836,239938.22161625736,753491.54838449985,0.0
633296.95196600363,3645566.251970998,-12500.0,-254836.70387345526,58784.140511977654,-18170.964897636619,114119.39135564583,-7226.8240578552304,15518.19214746847,183964.47007528588,-116497.7227668358,78593.776742163027,-78593.776742163027,116497.7227668358,338691.32479319093,0.0
638296.95196600363,3645566.251970998,-12500.0,-144961.66502908061,35046.470300625529,-7135.4512403157387,55240.347130965041,-6167.0947793242894,6713.5970007576307,98099.250419106291,-65929.294437835735,47237.532764743388,-47237.532764743388,65929.294437835735,184526.3544789007,0.0
643296.95196600363,3645566.251970998,-12500.0,-93772.540022803834,22622.702859367968,-2938.9418017349171,33812.981223318326,-4897.1483951769642,-10.673885935275649,60556.796735534605,-43058.102050878704,31785.432628106475,-31785.432628106475,43058.102050878704,116458.41218627802,0.0
648296.95196600363,3645566.251970998,-12500.0,-66351.942401042412,15455.298730827006,-1265.2377532183359,23410.618178362245,-3732.7878170213858,-2460.9249662458719,41469.333255517413,-31015.356300442363,23029.884441307739,-23029.884441307739,31015.356300442363,81008.990063178746,0.0
653296.95196600363,3645566.251970998,-12500.0,-49627.82212699388,10973.414738030193,-606.88479877807504,17077.297997258909,-2782.9294529562449,-2830.2043608382537,30277.334238992662,-23661.503425294533,17411.079881964528,-17411.079881964528,23661.503425294533,59652.243379607753,0.0
658296.95196600363,3645566.251970998,-12500.0,-38397.751301452161,8012.5167212280921,-359.73499652015335,12748.315053041069,-2059.0991397519365,-2478.7315348304187,22960.599013435873,-18647.402556984121,13499.987661466761,-13499.987661466761,18647.402556984121,45427.502202629847,0.0
663296.95196600363,3645566.251970998,-12500.0,-30375.450512906737,5981.6288701196463,-275.50826524913299,9647.7494619371919,-1526.017447577352,-1977.0342163223661,17837.057194519126,-14989.094173563568,10647.306628588518,-10647.306628588518,14989.094173563568,35372.997181829385,0.0
668296.95196600363,3645566.251970998,-12500.0,-24420.537008721043,4549.7042147140737,-252.22570591205911,7383.3207307970242,-1138.7737027567503,-1519.1230890733941,14102.606602728829,-12214.799618689955,8509.1354132270353,-8509.1354132270353,12214.799618689955,28011.134337400032,0.0
673296.95196600363,3645566.251970998,-12500.0,-19888.650728664135,3517.6643871258975,-248.69521173950855,5710.9229634001522,-858.05929640359398,-1151.6321106157652,11312.977156134744,-10062.178456723916,6877.7590709902361,-6877.7590709902361,10062.178456723916,22494.090690514255,0.0
678296.95196600363,3645566.251970998,-12500.0,-16377.904244983354,2759.8470814695957,-249.01650001409138,4464.1067499060264,-653.66747882952654,-871.2658978047499,9192.9323839556873,-8366.3892821838836,5616.2588011529979,-5616.2588011529979,8366.3892821838836,18286.849974725734,0.0
683296.95196600363,3645566.251970998,-12500.0,-13620.054390235697,2194.1730137775689,-247.70958318955601,3525.8035950568114,-503.65712040834978,-661.6529926406572,7558.5662372598154,-7015.0648292091437,4629.6659232387055,-4629.6659232387055,7015.0648292091437,15031.754085392273,0.0
688296.95196600363,3645566.251970998,-12500.0,-11428.008055750954,1765.6256802615501,-243.45506115691953,2812.8187691712483,-392.47649032042159,-505.87838378669568,6281.3381854984964,-5927.7939624542596,3850.1436297014643,-3850.1436297014643,5927.7939624542596,12481.116453648618,0.0
693296.95196600363,3645566.251970998,-12500.0,-9667.4647408777182,1436.5480174645836,-236.46896622395334,2265.7114187966718,-309.19698058810422,-389.97121947390241,5270.1799233866177,-5045.3815597123576,3228.3408389422839,-3228.3408389422839,5045.3815597123576,10459.336918712635,0.0
698296.95196600363,3645566.251970998,-12500.0,-8240.0434686799235,1180.6956121199212,-227.42364723213436,1841.7786879977377,-246.1385842530369,-303.28945899693628,4460.2249170112145,-4323.4634111224268,2727.8734742525494,-2727.8734742525494,4323.4634111224268,8839.6987119152272,0.0
703296.95196600363,3645566.251970998,-12500.0,-7072.5758429603256,979.48401568397207,-217.02718190624239,1510.1457024823621,-197.87877990637972,-238.00240224210353,3804.609081445923,-3728.3811395355583,2321.6304246806862,-2321.6304246806862,3728.3811395355583,7529.4386068278927,0.0
708296.95196600363,3645566.251970998,-12500.0,-6109.9432025986398,819.55841213456245,-205.87973650298667,1248.3178201161836,-160.56014966361226,-188.42899966744528,3268.8727179294387,-3234.338572193612,1989.2096608362808,-1989.2096608362808,3234.338572193612,6459.7646238426651,0.0
713296.95196600363,3645566.251970998,-12500.0,-5310.1732657060884,691.1929386990555,-194.44284001793233,1039.7717282716485,-131.41442505196264,-150.46463422959704,2827.285887874702,-2821.3982795309248,1715.1202374645654,-1715.1202374645654,2821.3982795309248,5579.0716562803664,0.0
718296.95196600363,3645566.251970998,-12500.0,-4640.989221489398,587.21546557867623,-183.05054999790562,872.26533242811479,-108.43585646124444,-121.13933295837994,2460.384037429505,-2474.0303006537802,1487.49835063925,-1487.49835063925,2474.0303006537802,4848.2293727324668,0.0
513296.95196600363,3650566.251970998,-12500.0,-5702.2872304347757,420.66587837675939,-154.1482626942429,-1122.5463000974735,78.675771351121739,-163.18180219674207,3004.2212838061805,-3254.3397357200965,1846.9712769152429,-1846.9712769152429,3254.3397357200965,5921.2826178066034,0.0
518296.95196600363,3650566.251970998,-12500.0,-6585.2685264440497,489.50071161467764,-154.28884805685067,-1352.2820274780438,93.901098736945713,-204.94655695435898,3483.4367489110796,-3761.1750487192585,2150.8300198320794,-2150.8300198320794,3761.1750487192585,6874.9961647547525,0.0
523296.95196600363,3650566.251970998,-12500.0,-7653.7212714503285,573.01041091980971,-150.40855959958697,-1641.9080851275646,112.74296436638578,-259.62810170634583,4067.0282931637603,-4375.2426040540849,2521.5183494520229,-2521.5183494520229,4375.2426040540849,8037.5907075851073,0.0
528296.95196600363,3650566.251970998,-12500.0,-8957.199734994314,674.97696378986996,-140.60449191437303,-2010.3693253750373,136.1775512790791,-331.81765737309769,4784.1084215980218,-5125.4712273326595,2977.4863373592434,-2977.4863373592434,5125.4712273326595,9467.3245547267252,0.0
533296.95196600363,3650566.251970998,-12500.0,-10561.486391580625,800.27721398011658,-122.19409200231516,-2483.5910122685905,165.44552166706373,-427.85351301823835,5673.8048503578048,-6050.3935936949383,3543.3256362294105,-3543.3256362294105,6050.3935936949383,11242.308651954721,0.0
538296.95196600363,3650566.251970998,-12500.0,-12555.022648756709,955.19387245105133,-91.424034536351598,-3097.3526347308939,202.09555451572041,-556.41953893687469,6789.4363370114152,-7202.0290081531002,4252.17670665685,-4252.17670665685,7202.0290081531002,13468.574081328581,0.0
543296.95196600363,3650566.251970998,-12500.0,-15058.494677257393,1147.7724993803286,-43.113233722842949,-3901.4196324754112,247.99358385070917,-729.16727788076867,8204.7938151372473,-8651.7242179156256,5149.2488600398628,-5149.2488600398628,8651.7242179156256,16292.048978330651,0.0
548296.95196600363,3650566.251970998,-12500.0,-18239.641428338793,1388.1478193361395,29.710097679351929,-4965.4899347284108,305.22728824501633,-960.99223347441171,10023.789891096987,-10499.282307287898,6297.0947354957589,-6297.0947354957589,10499.282307287898,19916.822844464914,0.0
553296.95196600363,3650566.251970998,-12500.0,-22337.284155476267,1688.6130749903934,135.96223103960423,-6387.7821641364135,375.74497583472311,-1268.8335669430251,12395.684363204908,-12887.982139849795,7783.7991089154648,-7783.7991089154648,12887.982139849795,24634.102590379291,0.0
558296.95196600363,3650566.251970998,-12500.0,-27703.096079902083,2062.7579254397597,285.81347795106853,-8307.7037695957024,460.35369526886205,-1665.8512664891336,15540.77214795586,-16031.118837421622,9736.4015511070247,-9736.4015511070247,16031.118837421622,30870.983117066215,0.0
563296.95196600363,3650566.251970998,-12500.0,-34880.937934172092,2521.7228304447622,487.41418425453975,-10926.004780535612,556.18769064262221,-2142.6629317352845,19800.023611210563,-20263.362769470208,12344.717344257966,-12344.717344257966,20263.362769470208,39280.455412423747,0.0
568296.95196600363,3650566.251970998,-12500.0,-44773.791345145262,3061.6008824887131,736.38438836297428,-14543.605499678208,650.38405599947839,-2614.6852855909265,25745.7616280699,-26151.123410536708,15908.282153874065,-15908.282153874065,26151.123410536708,50929.721915992181,0.0
573296.95196600363,3650566.251970998,-12500.0,-59032.203052666999,3622.251945722473,985.47240655287715,-19662.270308145922,703.32679605551016,-2786.8954251280952,34453.593142650439,-34755.868937346808,20939.967664014774,-20939.967664014774,34755.868937346808,67753.99717052812,0.0
578296.95196600363,3650566.251970998,-12500.0,-81034.586037938541,3945.7479822523678,1058.2215979746479,-27319.728043994088,597.44738951791476,-1843.5769164111448,48224.548238378411,-48321.285649125282,28416.194762214342,-28416.194762214342,48321.285649125282,93788.661072045128,0.0
583296.95196600363,3650566.251970998,-12500.0,-118482.63684994497,3043.8478597044177,384.46243531999136,-40335.985335238096,-57.174388488375939,2100.2688681964764,72603.529636624793,-72188.615102033684,40395.777997072502,-40395.777997072502,72188.615102033684,138726.58070039778,0.0
588296.95196600363,3650566.251970998,-12500.0,-190304.23699630945,-3048.7754923436537,-3015.6295929074931,-68025.606771273917,-2856.3385174868672,12132.529455912476,122034.52306731071,-120368.53306055084,61345.544152348069,-61345.544152348069,120368.53306055084,228206.87420329868,0.0
593296.95196600363,3650566.251970998,-12500.0,-343371.79574015195,-32068.430424444821,-18457.794977157537,-143831.07610906294,-16187.971011991669,27127.989574273277,236339.29059741,-231787.64153333363,98218.256608997457,-98218.256608997457,231787.64153333363,434041.55394581839,0.0
598296.95196600363,3650566.251970998,-12500.0,-656160.55716585915,-168372.34259980061,-117190.46159414364,-387603.91833591048,-96422.360733414826,-243.28568095063619,532618.44128124765,-495153.46016064822,115757.26258250163,-115757.26258250163,495153.46016064822,964803.80450500618,0.0
603296.95196600363,3650566.251970998,-12500.0,-518264.17074917821,-375270.27592452365,-858332.61182870762,-854700.97481536807,-470627.26128043269,-322517.21900521644,1075049.6943661598,-378350.76981189556,-498368.5230740055,498368.5230740055,378350.76981189556,1870568.2133165677,1.0
608296.95196600363,3650566.251970998,-12500.0,270211.93579012121,276324.89328032907,775117.58901767072,-1226506.5965951369,2887499.0238936539,1646105.9360649281,3212208.2113283966,176640.52169297021,509656.06034292385,-509656.06034292385,-176640.52169297021,5586438.1168188406,1.0
613296.95196600363,3650566.251970998,-12500.0,1461421.8660013431,529060.15230597847,-627921.8424500589,2151798.3291990301,-2769803.2654381962,521350.94789286517,3649151.7273418284,1404977.6531175689,-895085.90636599797,895085.90636599797,-1404977.6531175689,6405529.7732094079,0.0
618296.95196600363,3650566.251970998,-12500.0,-294637.53127843246,440647.71534890827,262335.96791871352,521733.03632023954,-735539.76250151335,170223.32565950695,1026926.61837882,47435.66180097757,339915.01002078119,-339915.01002078119,-47435.66180097757,1813720.886560353,0.0
623296.95196600363,3650566.251970998,-12500.0,-373633.80465533223,-73021.865027099891,-334807.40306602622,340905.07487573405,97659.750338517246,-23996.483002747216,407322.57223179087,-206413.80904924491,-128836.36882453581,128836.36882453581,206413.80904924491,709532.42078457307,0.0
628296.95196600363,3650566.251970998,-12500.0,-364666.9103546103,-109594.97962239709,-124502.81107775081,212667.18586281608,65112.997489867783,16125.10917444213,307208.58174887445,-272372.83230148535,18904.657860757594,-18904.657860757594,272372.83230148535,543749.08383053297,0.0
633296.95196600363,3650566.251970998,-12500.0,-244065.0487315495,-44251.933195510981,-30882.610172728175,105187.88310424997,19216.50874295942,17715.969892809473,172462.29837195083,-174911.94045994809,54407.143684973089,-54407.143684973089,174911.94045994809,313599.95784187265,0.0
638296.95196600363,3650566.251970998,-12500.0,-154491.48180797396,-15156.47364876933,-7342.1106705273005,57568.739776312148,6134.7011688793591,6150.6332132304597,99639.820778894122,-104984.69815520893,44819.736540743812,-44819.736540743812,104984.69815520893,185916.59284491627,0.0
643296.95196600363,3650566.251970998,-12500.0,-103360.04228209989,-4908.5726926451553,-1223.5498189347582,36613.041164196729,2303.3307423168899,-586.58846691279416,63242.814345758197,-67616.496020683524,33269.373937322482,-33269.373937322482,67616.496020683524,120859.70550935587,0.0
648296.95196600363,3650566.251970998,-12500.0,-73572.608075248645,-1206.3395149030837,363.76514989399351,25503.468540291538,912.72037680368942,-2874.317442783688,43625.90576610568,-46898.300482434883,24838.927503705207,-24838.927503705207,46898.300482434883,84828.097024215996,0.0
653296.95196600363,3650566.251970998,-12500.0,-54807.418767718758,189.46367614820039,647.81782843650194,18535.155869593749,317.0843533366392,-3114.5066560378414,31834.304434749771,-34303.237684504908,18899.310561142374,-18899.310561142374,34303.237684504908,62544.888546303504,0.0
658296.95196600363,3650566.251970998,-12500.0,-42108.987542096693,705.34836758180586,560.08612487372716,13755.612973911977,45.360948368452611,-2672.5301411964078,24075.274127803285,-25999.985107724598,14627.320291564334,-14627.320291564334,25999.985107724598,47563.812931650515,0.0
663296.95196600363,3650566.251970998,-12500.0,-33065.617601297061,861.442376795737,392.34339269050633,10349.182602989364,-76.000642550293833,-2109.0821155980425,18652.77479149009,-20202.455902741054,11484.509027120232,-11484.509027120232,20202.455902741054,36953.48434466905,0.0
668296.95196600363,3650566.251970998,-12500.0,-26399.945390153855,865.84427538622401,234.55540667272868,7877.9973959854769,-124.1643233108876,-1609.5123255889262,14716.345448607155,-15994.567824034433,9130.8395291601464,-9130.8395291601464,15994.567824034433,29191.869299372924,0.0
673296.95196600363,3650566.251970998,-12500.0,-21367.658841921948,808.17289301142648,109.3392401454059,6064.7767901900579,-136.7335467958537,-1214.0166346152541,11785.565553216253,-12856.690230354165,7342.8000911326671,-7342.8000911326671,12856.690230354165,23386.985201436233,0.0
678296.95196600363,3650566.251970998,-12500.0,-17499.519425510549,728.73591973595353,17.257117566508562,4720.9152899601859,-132.64433632213192,-914.78052878315907,9562.1886658268941,-10468.830818976538,5967.6418241845313,-5967.6418241845313,10468.830818976538,18970.68619371529,0.0
683296.95196600363,3650566.251970998,-12500.0,-14482.583337568038,645.82642150822028,-47.349067137514204,3714.842182450886,-121.46949885439759,-692.36947919596946,7849.1004667454545,-8621.8902403619613,4898.1197614164876,-4898.1197614164876,8621.8902403619613,15562.028021953625,0.0
688296.95196600363,3650566.251970998,-12500.0,-12099.973128307929,567.45725664252154,-90.923937318093877,2953.8795989343193,-107.97964072415826,-527.83418572559879,6511.0494631718993,-7173.4680084006832,4057.5461480166941,-4057.5461480166941,7173.4680084006832,12897.228091701967,0.0
693296.95196600363,3650566.251970998,-12500.0,-10197.310205368933,496.73500144965095,-119.03080315442011,2372.3400882042752,-94.468104601333337,-405.86437928396288,5452.989301126484,-6023.6944654273948,3390.3320402029012,-3390.3320402029012,6023.6944654273948,10789.541344421763,0.0
698296.95196600363,3650566.251970998,-12500.0,-8662.5154076693125,434.43249986070794,-136.02492840915937,1923.3688544696406,-81.956071574050497,-314.93797054908765,4606.9007581209571,-5100.9714042657579,2855.7256431446513,-2855.7256431446513,5100.9714042657579,9104.5009667735758,0.0
703296.95196600363,3650566.251970998,-12500.0,-7412.9216658268861,380.25057254261372,-145.16508318350074,1573.2938240454723,-70.820797860853759,-246.64290549012657,3923.3274470557085,-4353.0529310580605,2423.5405625135213,-2423.5405625135213,4353.0529310580605,7743.8779692244525,0.0
708296.95196600363,3650566.251970998,-12500.0,-6386.7619174629499,333.44405357424938,-148.83327984797785,1297.7190731739954,-61.123558954903771,-194.91254518266641,3365.8075314287757,-3741.2583032248776,2071.204283630891,-2071.204283630891,3741.2583032248776,6635.0150923300816,0.0
713296.95196600363,3650566.251970998,-12500.0,-5537.3249630593218,293.12875595311135,-148.74748759278955,1078.8077351777547,-52.779950468924454,-155.3832314545196,2907.1024539977325,-3236.5657888857436,1781.6728634665656,-1781.6728634665656,3236.5657888857436,5723.5184094181104,0.0
718296.95196600363,3650566.251970998,-12500.0,-4828.9212529858287,258.42837426542832,-146.13698256732732,903.40065177847828,-45.647356431642855,-124.90958402092369,2526.6290616648384,-2816.9527343460109,1541.9633876485518,-1541.9633876485518,2816.9527343460109,4968.2318166494888,0.0
513296.95196600363,3655566.251970998,-12500.0,-5420.8489706294386,830.81910417235906,-217.59773320655674,-1073.4738389057679,160.42910575475057,-156.91157646371386,2907.0713058446163,-2793.2316991852063,1750.4448476204493,-1750.4448476204493,2793.2316991852063,5744.4149800887408,0.0
518296.95196600363,3655566.251970998,-12500.0,-6238.7902358375441,990.87922325064415,-234.49229417031617,-1289.5096723048905,197.39270331590839,-196.59093216406464,3364.3004210739355,-3195.3845294532698,2030.0704348111244,-2030.0704348111244,3195.3845294532698,6658.1922083634527,0.0
523296.95196600363,3655566.251970998,-12500.0,-7222.9114575688709,1191.7114606559437,-252.86155278896734,-1560.7146499928808,245.12225398360513,-248.3607937448202,3919.5520367583426,-3674.2355452523711,2368.8460551670591,-2368.8460551670591,3674.2355452523711,7769.2509598917532,0.0
528296.95196600363,3655566.251970998,-12500.0,-8415.6922256212965,1446.3422916918735,-272.98043969117282,-1904.0834544405363,307.40914646774598,-316.43333381975663,4599.7607168277482,-4247.6945517559725,2782.2504593476851,-2782.2504593476851,4247.6945517559725,9131.6832850361261,0.0
533296.95196600363,3655566.251970998,-12500.0,-9872.7092321745713,1772.8506249649265,-295.36600003148646,-2342.6478947391815,389.59943785936241,-406.57311082726437,5441.1556269032208,-4938.4737146624211,3290.5317662031575,-3290.5317662031575,4938.4737146624211,10817.631921786604,0.0
538296.95196600363,3655566.251970998,-12500.0,-11667.418639133311,2196.6985571470045,-321.04411370674251,-2907.8271433572386,499.30571218567957,-526.58839069352291,6493.4861166336386,-5775.4801716175189,3920.3706838073635,-3920.3706838073635,5775.4801716175189,12924.435356924314,0.0
543296.95196600363,3655566.251970998,-12500.0,-13898.064958470575,2754.3361681588767,-352.10256506510092,-3642.707712025554,647.46145810720009,-686.79052046878655,7826.5291187917974,-6795.6331642871264,4707.1857422696739,-4707.1857422696739,6795.6331642871264,15585.125067199895,0.0
548296.95196600363,3655566.251970998,-12500.0,-16698.014560203981,3498.9070887633061,-392.84071095169855,-4606.5807473825016,849.86531431038907,-900.03350481329426,9537.7361452048463,-8046.3019434668258,5698.378127042457,-5698.378127042457,8046.3019434668258,18984.248635559634,0.0
553296.95196600363,3655566.251970998,-12500.0,-20252.063512008757,4509.5717651144769,-452.19179410426779,-5881.1605860431209,1129.3861115055074,-1180.2160667248006,11761.302847633604,-9588.805459152918,6958.0399333548676,-6958.0399333548676,9588.805459152918,23382.676347647022,0.0
558296.95196600363,3655566.251970998,-12500.0,-24824.290064149187,5907.3857452566563,-548.91245255470574,-7579.176379354647,1518.9375899271545,-1536.2381670594311,14689.375256650321,-11504.182007676744,8574.2162715605918,-8574.2162715605918,11504.182007676744,29158.977051860951,0.0
563296.95196600363,3655566.251970998,-12500.0,-30810.946868237177,7883.9875438787776,-722.95713032648393,-9857.2988661630425,2065.0319826138475,-1953.696042998236,18613.954606358056,-13904.770459727752,10671.41862333332,-10671.41862333332,13904.770459727752,36885.43422300474,0.0
568296.95196600363,3655566.251970998,-12500.0,-38853.572314584751,10757.985233770127,-1061.1214866565965,-12941.436260586719,2830.954579075767,-2345.4841757716372,24015.000666871103,-16961.955949265397,13435.874219745043,-13435.874219745043,16961.955949265397,47487.552907492085,0.0
573296.95196600363,3655566.251970998,-12500.0,-50108.184442997568,15099.243827678001,-1757.0038949866157,-17199.31797914553,3897.9219152540663,-2429.5003398219019,31789.270137955744,-20978.982728151303,17175.323799055139,-17175.323799055139,20978.982728151303,62631.983921564373,0.0
578296.95196600363,3655566.251970998,-12500.0,-66933.962142918463,22044.033157001104,-3258.582628107702,-23405.868541442444,5369.8480145497597,-1461.6556693279838,43890.739474451933,-26580.405067079875,22475.980212967392,-22475.980212967392,26580.405067079875,85790.622751137023,0.0
583296.95196600363,3655566.251970998,-12500.0,-94702.699950635884,34222.438520203941,-6663.7851313190504,-33772.213968635879,7457.6092086429508,2184.9672440224167,65085.842583018115,-35142.48238257593,30619.98925857251,-30619.98925857251,35142.48238257593,125340.52220633552,0.0
588296.95196600363,3655566.251970998,-12500.0,-146444.94553118173,58914.419902786758,-14971.387847432896,-55849.58212208467,11187.653869689446,10847.371050650538,107846.66550177256,-49333.82443293876,44568.640754193671,-44568.640754193671,49333.82443293876,203696.17976970816,0.0
593296.95196600363,3655566.251970998,-12500.0,-253612.26816944333,120685.74756872343,-38545.657870910014,-117186.94556646732,23289.323030598149,21776.373115593367,207744.01151888372,-70273.419230227024,69930.87463576645,-69930.87463576645,70273.419230227024,386505.26044564811,0.0
598296.95196600363,3655566.251970998,-12500.0,-467512.75091179769,325479.15684213681,-136029.07644324421,-326245.43713248987,93152.047803331356,-16917.354586132064,492279.74543039588,-46893.315628389304,92320.81513609548,-92320.81513609548,46893.315628389304,909232.00138995762,0.0
603296.95196600363,3655566.251970998,-12500.0,161334.2824888849,1124556.7306667988,-1080781.4440626248,-771656.26637126016,668777.23284143454,-525762.96580211737,1604089.948141261,1087002.1714635093,-726935.78580745473,726935.78580745473,-1087002.1714635093,2843155.3725110381,0.0
608296.95196600363,3655566.251970998,-12500.0,1992900.1430100249,289206.97488632338,-163537.02875795847,222998.14722161513,-2083615.4457485413,1481201.3150099744,2258703.2529842849,1474361.602011221,-757971.34258990176,757971.34258990176,-1474361.602011221,4151274.1555041964,1.0
613296.95196600363,3655566.251970998,-12500.0,-419271.72631988325,-584270.21176081395,75389.984036380585,835788.64445337886,-90686.35382355233,-156130.92936891929,1051278.0014740059,-664957.90269956714,132634.84441801783,-132634.84441801783,664957.90269956714,1824330.7457756817,0.0
618296.95196600363,3655566.251970998,-12500.0,-347241.97476191836,-62801.011092448272,201303.18905204782,278068.21757684596,-135749.55872817975,3797.9060627923318,415414.27644284035,-304053.16388718953,257862.8998596996,-257862.8998596996,304053.16388718953,728458.02602989611,0.0
623296.95196600363,3655566.251970998,-12500.0,-161636.52100586935,-23603.665674117561,-101329.56628895985,129035.35628865777,5309.4528462440967,17999.010846238285,159396.7210179253,-93835.802208390436,-22852.932652334253,22852.932652334253,93835.802208390436,277090.0949006165,0.0
628296.95196600363,3655566.251970998,-12500.0,-150728.96357458358,-84066.273296733707,-114943.4294677945,96809.934814547101,36145.604134472596,18945.766448357284,158710.68029898641,-123857.02487278564,-43114.151097433954,43114.151097433954,123857.02487278564,277913.00270138792,0.0
633296.95196600363,3655566.251970998,-12500.0,-139812.87603321124,-69233.15283807971,-55970.734871598681,66800.615063718084,23576.328143732193,11319.997110534423,119232.77745110057,-120535.55071193137,-1774.8255414953164,1774.8255414953164,120535.55071193137,215947.98196688006,0.0
638296.95196600363,3655566.251970998,-12500.0,-111686.70475343402,-43063.181812258059,-23194.490075297159,45277.538050503514,13643.384555360875,2887.9909619869795,81469.321593704211,-93057.79157265168,15746.027921786699,-15746.027921786699,93057.79157265168,151957.78839039177,0.0
643296.95196600363,3655566.251970998,-12500.0,-85485.96214316097,-25776.348150415157,-9535.3245116721755,32108.980026677946,8267.5698363055526,-1682.7708010483457,56670.656088024654,-68337.561015780404,18880.726615058738,-18880.726615058738,68337.561015780404,108249.00331058448,0.0
648296.95196600363,3655566.251970998,-12500.0,-65661.262047855766,-15777.912675598562,-4013.0392851989318,23600.211627745754,5187.2468549979021,-3164.6916231938799,41040.909484391195,-50582.05059517367,17375.98882966804,-17375.98882966804,50582.05059517367,79699.324531773207,0.0
653296.95196600363,3655566.251970998,-12500.0,-51131.920565766857,-9957.8114970777424,-1736.3942366015517,17658.853075686427,3306.1115199288292,-3167.9489750219291,30745.88099030111,-38165.196150415992,14806.320922080535,-14806.320922080535,38165.196150415992,60307.755686625656,0.0
658296.95196600363,3655566.251970998,-12500.0,-40365.661884391302,-6455.4525673513808,-784.03565482073282,13340.942089880056,2127.5826388377409,-2670.9883741121262,23607.94465001682,-29333.570717431561,12273.458192535667,-12273.458192535667,29333.570717431561,46563.05083469332,0.0
663296.95196600363,3655566.251970998,-12500.0,-32254.238405980504,-4278.2461891243629,-388.47719832994579,10157.497641498723,1382.1630000154951,-2101.3698365364071,18466.363170996501,-22911.782261267541,10078.042333772912,-10078.042333772912,22911.782261267541,36523.193737690381,0.0
668296.95196600363,3655566.251970998,-12500.0,-26054.538711512883,-2887.4558426784047,-230.78274885328258,7797.2755114083639,907.25258693777653,-1605.4190648878343,14663.925576376969,-18151.290629619034,8263.8782095728584,-8263.8782095728584,18151.290629619034,29036.731323616063,0.0
673296.95196600363,3655566.251970998,-12500.0,-21258.888092852601,-1978.6086846861933,-174.06155560932234,6039.3519323081855,601.98595642827115,-1213.6370921157329,11797.413124761972,-14564.417582632464,6794.375465210197,-6794.375465210197,14564.417582632464,23366.311456571886,0.0
678296.95196600363,3655566.251970998,-12500.0,-17510.030165765656,-1373.0323676214584,-158.50380545984763,4722.3681731464685,403.6577307979253,-916.61802140510429,9603.1655108070972,-11823.236233462931,5613.0394452877499,-5613.0394452877499,11823.236233462931,19014.271514350919,0.0
683296.95196600363,3655566.251970998,-12500.0,-14550.815714472774,-962.59938699552015,-157.98147306672405,3728.5289660729413,273.28507607676715,-695.19640519038933,7901.2151229630535,-9701.4113264752632,4664.5256252628496,-4664.5256252628496,9701.4113264752632,15633.933081739517,0.0
688296.95196600363,3655566.251970998,-12500.0,-12193.249158086239,-680.19797504447752,-161.36592888015585,2972.2883674282516,186.54593327321544,-530.90854199564797,6565.2628525611781,-8039.5572356524317,3901.207185132705,-3901.207185132705,8039.5572356524317,12978.9207041191,0.0
693296.95196600363,3655566.251970998,-12500.0,-10298.318868381037,-483.26539201655646,-164.24106331364882,2391.6962958687118,128.15400305882426,-408.80280010918557,5504.9720610309978,-6723.6201121479862,3284.2926951485933,-3284.2926951485933,6723.6201121479862,10871.59031196975,0.0
698296.95196600363,3655566.251970998,-12500.0,-8762.2796130015595,-344.29092224015307,-165.15780336973273,1941.8654017356339,88.406510975142069,-317.57332112820626,4654.7783527533147,-5670.8727538446228,2783.0100159465283,-2783.0100159465283,5670.8727538446228,9182.3188081326189,0.0
703296.95196600363,3655566.251970998,-12500.0,-7507.0175059564881,-245.18492730922401,-163.92404265276258,1590.1519914902492,61.073823797321438,-248.92504826037819,3966.4771331693,-4820.5562512251045,2373.2424748432195,-2373.2424748432195,4820.5562512251045,7815.4567046869688,0.0
708296.95196600363,3655566.251970998,-12500.0,-6473.2631999946498,-173.86447629540882,-160.82934331511058,1312.6906058334544,42.107351702723456,-196.84940948523578,3404.2303276971184,-4127.5556795975435,2036.1922840058462,-2036.1922840058462,4127.5556795975435,6699.7178963291954,0.0
713296.95196600363,3655566.251970998,-12500.0,-5615.6630496278913,-122.1406325837719,-156.29970802468992,1091.9088210944653,28.843149414217276,-157.00824456890555,2941.0933800709463,-3558.0002542436505,1757.2096522557486,-1757.2096522557486,3558.0002542436505,5781.4207461634569,0.0
513296.95196600363,3660566.251970998,-12500.0,-4999.348141323394,1187.0932831597845,-329.20937852261972,-999.62629684435819,232.63421449378254,-147.45378186205897,2765.8663257267308,-2269.2211429712688,1565.5898570693362,-1565.5898570693362,2269.2211429712688,5484.5000355646989,0.0
518296.95196600363,3660566.251970998,-12500.0,-5713.9869607676865,1421.5049448452316,-376.75164669438925,-1193.9741196417228,287.93012936946167,-183.85288330840578,3189.1387782832007,-2550.7642045329835,1796.0759365391618,-1796.0759365391618,2550.7642045329835,6335.6372702885092,0.0
523296.95196600363,3660566.251970998,-12500.0,-6562.5221589237508,1716.2535932362841,-436.19718800638981,-1435.6652632535463,359.67763587305029,-230.99467043660829,3700.251313929728,-2873.5446936919379,2069.3296330192343,-2069.3296330192343,2873.5446936919379,7364.7260959559871,0.0
528296.95196600363,3660566.251970998,-12500.0,-7575.0157722462927,2090.5555826890309,-512.10042238416543,-1738.3236801983833,453.74098157060848,-292.45546917213341,4323.416251680097,-3242.6539554372171,2394.1856060383229,-2394.1856060383229,3242.6539554372171,8618.5015562899735,0.0
533296.95196600363,3660566.251970998,-12500.0,-8788.8754126692002,2570.9379312765791,-611.33392264953125,-2119.9165448259646,578.3925227358576,-373.03226894317794,5094.4573792922447,-3662.4291893012078,2781.0351453076955,-2781.0351453076955,3662.4291893012078,10158.376440212136,0.0
538296.95196600363,3660566.251970998,-12500.0,-10250.468681973662,3194.4744809884246,-744.52823297045234,-2604.1314164252099,745.39946125529275,-479.05590277552488,6060.3501146371209,-4135.0022616989991,3241.6611774694711,-3241.6611774694711,4135.0022616989991,12065.749356811704,0.0
543296.95196600363,3660566.251970998,-12500.0,-12016.785393693255,4013.6630287345815,-928.56165137248991,-3222.0543766189385,971.60798004974038,-618.58994112587015,7275.1381392101275,-4657.5583777970833,3788.4954529280631,-3788.4954529280631,4657.5583777970833,14449.472863775094,0.0
548296.95196600363,3660566.251970998,-12500.0,-14156.818013887299,5103.892591719271,-1190.9810515152769,-4014.0299186875809,1281.205290963298,-801.13545699710755,8813.8218692895825,-5217.273185886078,4432.6423251125152,-4432.6423251125152,5217.273185886078,17456.532028497375,0.0
553296.95196600363,3660566.251970998,-12500.0,-16751.954817827376,6575.1107171810509,-1578.0950359582191,-5031.3102893949581,1708.8061124309213,-1035.8524724920426,10781.374186767904,-5782.0315832399347,5179.326340034343,-5179.326340034343,5782.0315832399347,21287.707904022522,0.0
558296.95196600363,3660566.251970998,-12500.0,-19894.124096335119,8590.5745533220943,-2170.3041884939526,-6336.6537632486188,2303.2611492565911,-1325.8743027447217,13324.701066712752,-6283.4315171385533,6018.0311563252835,-6018.0311563252835,6283.4315171385533,26221.782341343824,0.0
563296.95196600363,3660566.251970998,-12500.0,-23679.464991582139,11398.304411991981,-3112.356710089809,-8002.6276320570987,3131.2665594741652,-1653.0926483151316,16654.423213653201,-6585.2385043633976,6901.5379050136808,-6901.5379050136808,6585.2385043633976,32656.59052766025,0.0
568296.95196600363,3660566.251970998,-12500.0,-28192.947333074742,15387.432505124531,-4676.1880317414434,-10107.689553263674,4277.8585084252873,-1941.4535095850149,21088.338461976728,-6422.3965722788726,7700.6609396440417,-7700.6609396440417,6422.3965722788726,41189.130317635929,0.0
573296.95196600363,3660566.251970998,-12500.0,-33468.088099114357,21198.784179474722,-7400.4751991667235,-12739.856293875087,5837.7796032615452,-1978.0745785804811,27153.981715130118,-5271.3614632068848,8100.0826865293102,-8100.0826865293102,5271.3614632068848,52797.614439251935,0.0
578296.95196600363,3660566.251970998,-12500.0,-39336.930552557438,29962.220882197737,-12429.378469666104,-16054.607981157877,7894.9854160182367,-1279.0044594322512,35861.349629675533,-2023.1946351981605,7324.589836803194,-7324.589836803194,2023.1946351981605,69295.196125777016,0.0
583296.95196600363,3660566.251970998,-12500.0,-44681.773813638436,43802.445647143504,-22430.556362214844,-20508.480323674579,10542.153840166004,986.20448342088548,49403.788543366369,6025.4013733132888,3267.4638043685504,-3267.4638043685504,-6025.4013733132888,94422.877823640534,0.0
588296.95196600363,3660566.251970998,-12500.0,-43437.256728357483,66422.983997886986,-44347.586981411492,-27152.547444945725,14231.811294922134,5290.1431860829171,72544.993617824017,26678.983628218335,-10813.393324000539,10813.393324000539,-26678.983628218335,135922.77401484194,0.0
593296.95196600363,3660566.251970998,-12500.0,-4578.6490925852595,97752.097115957775,-97136.564485592942,-33815.936267335375,20471.273666088851,8163.6144001577604,114893.36000819824,83570.931070884923,-59289.706801530534,59289.706801530534,-83570.931070884923,207997.40280167531,0.0
598296.95196600363,3660566.251970998,-12500.0,198950.80222115322,60145.412355520552,-201919.04735165343,6758.1579363692454,11103.909637275381,125.89725404695241,209667.24763092387,209682.34048645609,-208815.13581683629,208815.13581683629,-209682.34048645609,363158.90432734246,0.0
603296.95196600363,3660566.251970998,-12500.0,501191.10467357241,-444705.96436651418,191367.5897658132,266858.51756705635,-355067.78259188886,66617.009297441837,629335.53500305582,-23226.409239410459,-75892.734353149368,75892.734353149368,23226.409239410459,1155575.1646571362,0.0
608296.95196600363,3660566.251970998,-12500.0,204457.01001793123,132607.702460887,1040752.888148101,-41678.713635843444,-796404.59046394331,152163.51554514864,919868.28630457574,-19264.822067819827,711531.09911524248,-711531.09911524248,19264.822067819827,1645176.2240335541,0.0
613296.95196600363,3660566.251970998,-12500.0,273833.37006191525,51513.790213645363,112382.35184539884,-6821.4097458716751,-186400.7637508203,2305.6413113367171,224466.73111140207,179947.51608191145,-3647.4133450669324,3647.4133450669324,-179947.51608191145,410233.65452234173,0.0
618296.95196600363,3660566.251970998,-12500.0,20000.539227476482,-41769.354944430474,21744.076161425932,56543.283031403247,-52753.968855054292,205.49518676210744,83471.320600021718,-19966.664715118051,4735.7196570699352,-4735.7196570699352,19966.664715118051,153635.30315398771,0.0
623296.95196600363,3660566.251970998,-12500.0,-27491.686014980387,-27180.948390453112,-51662.375022956148,46646.846354492918,-4007.6375441585319,7767.6515439174418,60638.550555543072,-23489.388976721984,-31739.576998641107,31739.576998641107,23489.388976721984,107107.72960764522,0.0
628296.95196600363,3660566.251970998,-12500.0,-43660.573189329996,-47772.729110349355,-78055.987120752208,41213.655297433987,17251.280090708504,8180.5821243105593,77337.879585641349,-41244.733861389192,-47971.830325332092,47971.830325332092,41244.733861389192,135973.76571473814,0.0
633296.95196600363,3660566.251970998,-12500.0,-58382.396236940454,-53451.621230118551,-58129.754931936906,35847.591679834695,19077.350556797661,4097.8903380936144,72270.967221431958,-58695.59193190308,-28986.210442588501,28986.210442588501,58695.59193190308,131932.85327736815,0.0
638296.95196600363,3660566.251970998,-12500.0,-61430.324922813466,-44336.891264680802,-34547.291053903195,29635.422687988139,15247.627797967356,-118.46532004634068,58422.76005378439,-59902.990474578502,-9619.5527990980809,9619.5527990980809,59902.990474578502,109832.22621257807,0.0
643296.95196600363,3660566.251970998,-12500.0,-56547.900415621851,-32724.016863211829,-19275.094632259672,23918.123232407524,11120.792011238862,-2454.634645668325,45393.746479806658,-52626.802792446746,1242.0406670205157,-1242.0406670205157,52626.802792446746,87172.044854624837,0.0
648296.95196600363,3660566.251970998,-12500.0,-48958.084804743405,-23245.372135577458,-10749.488132699737,19044.190777913795,7821.6793769952428,-3143.8988791683032,35205.05465420572,-43544.648741590208,5998.3975156669658,-5998.3975156669658,43544.648741590208,68563.564149863611,0.0
653296.95196600363,3660566.251970998,-12500.0,-41247.005568114691,-16385.883465909319,-6142.3728246187502,15011.274823525448,5411.4089899931932,-2967.0461238327002,27526.355826523224,-35232.025895654027,7545.8360931880798,-7545.8360931880798,35232.025895654027,54067.02604649539,0.0
658296.95196600363,3660566.251970998,-12500.0,-34349.718258669265,-11600.029500852354,-3638.156481818854,11759.060767770065,3724.3365583932823,-2482.1852894320664,21736.558019739532,-28323.11526250984,7593.5356140480217,-7593.5356140480217,28323.11526250984,42897.069934215695,0.0
663296.95196600363,3660566.251970998,-12500.0,-28498.774129687685,-8287.6833499543645,-2250.4872961620849,9193.6115478596566,2568.8213992409874,-1963.435305018385,17336.490287788165,-22789.635113582015,7010.6278523481897,-7010.6278523481897,22789.635113582015,34293.012108738294,0.0
668296.95196600363,3660566.251970998,-12500.0,-23658.209988210845,-5987.9904803948366,-1462.2590912419591,7200.3471714051539,1784.086914616383,-1513.1723418379279,13963.182770852691,-18421.470090417795,6215.6750371129301,-6215.6750371129301,18421.470090417795,27643.891673793114,0.0
673296.95196600363,3660566.251970998,-12500.0,-19700.903375568727,-4378.4611808961508,-1001.7904554820939,5664.2333807624655,1251.1096553606567,-1154.1220063427008,11354.307666713692,-14987.480727568167,5400.9951954356038,-5400.9951954356038,14987.480727568167,22478.673814328758,0.0
678296.95196600363,3660566.251970998,-12500.0,-16480.848751809484,-3240.225840080836,-724.29500914999187,4483.4423763190371,887.12567316918626,-878.73721338186681,9318.923322718987,-12284.504853828454,4647.9212846032578,-4647.9212846032578,12284.504853828454,18439.666329360211,0.0
683296.95196600363,3660566.251970998,-12500.0,-13861.818687419083,-2426.0437030370899,-551.2031622657455,3574.4770681278214,636.37751802395871,-671.1570766043759,7716.9958578329424,-10147.84964841528,3984.5517480797776,-3984.5517480797776,10147.84964841528,15257.551123319596,0.0
688296.95196600363,3660566.251970998,-12500.0,-11726.941145659563,-1836.7747225040787,-439.05126474034614,2871.8868814148423,461.82017603365165,-515.62179112496744,6445.1225269770011,-8448.7659450895717,3414.4176808928737,-3414.4176808928737,8448.7659450895717,12730.367704308816,0.0
693296.95196600363,3660566.251970998,-12500.0,-9980.0591667674435,-1405.2815473781061,-363.32580787273162,2325.6701750801831,338.92402290299287,-399.04211934619912,5426.4967538257615,-7088.3149322774625,2930.5786654757176,-2930.5786654757176,7088.3149322774625,10706.756948715078,0.0
698296.95196600363,3660566.251970998,-12500.0,-8543.7944304487046,-1085.7152783193703,-309.933106130966,1898.1424302760529,251.39843968452266,-311.31362828926376,4603.730726355001,-5991.0075973469211,2522.4152803598186,-2522.4152803598186,5991.0075973469211,9073.0302416518425,0.0
703296.95196600363,3660566.251970998,-12500.0,-7356.5950448651447,-846.45508208825527,-270.6136105063315,1561.0690278184309,188.35132410622472,-244.8968077173275,3933.6735418826588,-5099.3313391190713,2178.7804731494589,-2178.7804731494589,5099.3313391190713,7743.43075386073,0.0
708296.95196600363,3660566.251970998,-12500.0,-6369.7525560360264,-665.46036259349353,-240.43258151812472,1293.3158378167507,142.4345876749116,-194.252949215954,3383.6538200365344,-4369.3817316280283,1889.3502515182488,-1889.3502515182488,4369.3817316280283,6652.9030158299911,0.0
713296.95196600363,3660566.251970998,-12500.0,-5544.7781224104638,-527.20097531765168,-216.38291416202438,1079.0303956034995,108.6406628816566,-155.33681292184639,2928.7555613255863,-3767.5098856542168,1645.1048944976933,-1645.1048944976933,3767.5098856542168,5751.7780420512072,0.0
513296.95196600363,3665566.251970998,-12500.0,-4465.0649683317133,1467.7452296512206,-475.19047435865957,-905.51499204066272,291.36446592101919,-135.35154196254345,2587.3403296765455,-1716.8358371767517,1309.3468572526926,-1309.3468572526926,1716.8358371767517,5154.4043110705243,0.0
518296.95196600363,3665566.251970998,-12500.0,-5048.455510433434,1752.5564659248951,-561.8680429354182,-1072.1121523686807,360.1240561949665,-167.53597113132795,2968.1060819477125,-1874.1866379760161,1472.4579796317096,-1472.4579796317096,1874.1866379760161,5925.0210232402178,0.0
523296.95196600363,3665566.251970998,-12500.0,-5725.1809524441142,2107.9818484884436,-673.26413855912335,-1276.0939793503824,448.91765176379107,-208.7374839399327,3432.43231025143,-2037.7292563488591,1656.4077822503914,-1656.4077822503914,2037.7292563488591,6848.7217531085635,0.0
528296.95196600363,3665566.251970998,-12500.0,-6510.1002659309215,2555.1207645536124,-818.89547486664014,-1526.8633024498342,564.61894073930773,-261.72859862467328,4001.5113807273974,-2200.6833857310257,1861.4803209904069,-1861.4803209904069,2200.6833857310257,7962.879023286283,0.0
533296.95196600363,3665566.251970998,-12500.0,-7418.6835611741226,3122.2923279939369,-1012.8022510179325,-1836.1071491847201,716.74571077753592,-330.09473862969321,4696.1338027364618,-2350.8648825817831,2085.6226468466698,-2085.6226468466698,2350.8648825817831,9315.3592511054521,0.0
538296.95196600363,3665566.251970998,-12500.0,-8465.160321216852,3847.6879072763063,-1276.0748042935347,-2218.0468584184323,918.51774624199459,-418.33925582446392,5548.8705062790796,-2467.2066666517585,2322.252828050232,-2322.252828050232,2467.2066666517585,10967.648877216048,0.0
543296.95196600363,3665566.251970998,-12500.0,-9658.6683655987727,4782.9389493928938,-1640.9906999180073,-2689.3178306838945,1188.2757322694422,-531.79414018222872,6602.7539465082691,-2514.0616865207389,2556.3114537888027,-2556.3114537888027,2514.0616865207389,12998.825195170242,0.0
548296.95196600363,3665566.251970998,-12500.0,-10995.67236954211,5997.7455659472389,-2157.9067589293236,-3267.9372488440886,1551.2503888935601,-675.98796618922177,7913.9747963131667,-2431.8509779554624,2757.1491238859453,-2757.1491238859453,2431.8509779554624,15510.488894822123,0.0
553296.95196600363,3665566.251970998,-12500.0,-12445.429573529325,7585.4304458299148,-2906.9423992060019,-3970.2785260275814,2041.403957965108,-854.68915365016358,9555.8577902073193,-2121.6714121055456,2865.6549641258398,-2865.6549641258398,2121.6714121055456,18632.698742986406,0.0
558296.95196600363,3665566.251970998,-12500.0,-13922.465389740151,9668.3941521702945,-4018.1134965244405,-4804.0473325888543,2702.3153860682769,-1064.9769976956916,11624.142296634882,-1419.9375699018815,2770.7953299391379,-2770.7953299391379,1419.9375699018815,22530.951572941336,0.0
563296.95196600363,3665566.251970998,-12500.0,-15234.32301100457,12399.930936091396,-5706.5469597424508,-5753.8860780868399,3584.1848893054353,-1286.2092815292542,14244.512076179015,-56.559245414809993,2266.3585690667587,-2266.3585690667587,56.559245414809993,27414.768096080905,0.0
568296.95196600363,3665566.251970998,-12500.0,-15980.129018368001,15951.685686477133,-8334.6512848100974,-6754.8474384540541,4729.6435580380039,-1458.2320829689156,17585.709695608723,2414.2455843098073,969.78954983962649,-969.78954983962649,-2414.2455843098073,33551.054912434338,0.0
573296.95196600363,3665566.251970998,-12500.0,-15342.577714544674,20453.867752690356,-12520.999239939998,-7648.8274277181763,6131.8655029546699,-1447.4322833962142,21889.445216930973,6729.1513055980886,-1834.2734318444868,1834.2734318444868,-6729.1513055980886,41294.373142363416,0.0
578296.95196600363,3665566.251970998,-12500.0,-11620.502143075722,25776.832270692572,-19316.363789537489,-8117.5633024511153,7630.7474918707831,-1028.6504635695405,27551.992742861334,14103.612421686086,-7504.2403731621762,7504.2403731621762,-14103.612421686086,51172.567876584952,0.0
583296.95196600363,3665566.251970998,-12500.0,-1084.1030650534558,30728.41185886542,-30366.222434640731,-7533.7623840573006,8668.3396820094276,-32.748976554674023,35364.762844544726,26454.691883860844,-18632.884228483443,18632.884228483443,-26454.691883860844,64169.562003522173,0.0
588296.95196600363,3665566.251970998,-12500.0,24638.823199201401,29983.252932415271,-47061.869031700713,-4279.0100893405543,7567.0268806626327,889.99290792112254,47378.519197123082,45817.48307956713,-39634.655048427565,39634.655048427565,-45817.48307956713,83221.89900341841,0.0
593296.95196600363,3665566.251970998,-12500.0,80436.6989656839,3621.6222914075483,-61453.0720728222,7276.005264284132,-1830.014477864421,-1488.6547901763547,71387.310600347759,66562.087196179011,-71827.623532938233,71827.623532938233,-66562.087196179011,124210.77685758594,0.0
598296.95196600363,3665566.251970998,-12500.0,157794.19084192641,-94685.911746270009,-6272.1175403499219,40364.976304156989,-45038.917484171259,-11996.949369344007,139365.38774664837,37609.032507491793,-67903.6766406682,67903.6766406682,-37609.032507491793,256436.25157173394,0.0
603296.95196600363,3665566.251970998,-12500.0,123569.47849105166,-195999.99141777944,288391.63282055815,71359.322034313169,-168409.20648984096,-23784.082769291213,290669.58488324587,-117127.99401349406,149359.06833459559,-149359.06833459559,117127.99401349406,537378.80206749158,0.0
608296.95196600363,3665566.251970998,-12500.0,42981.423019874244,2516.2493083328336,487613.47557207692,11061.708541790767,-237577.82875327169,-26677.464040505809,350483.52025361266,-81412.378141710738,344608.23815130536,-344608.23815130536,81412.378141710738,635010.51133042481,0.0
613296.95196600363,3665566.251970998,-12500.0,102818.05305966204,104169.0299434929,227252.19662887001,-19517.98584274243,-134700.8424536589,-20443.76162646696,208105.98870311718,81833.256985813932,144021.28092249169,-144021.28092249169,-81833.256985813932,366257.66336846579,0.0
618296.95196600363,3665566.251970998,-12500.0,76969.348706432356,47358.246913018113,47204.251555762399,-2676.4080325427012,-51184.322172946253,-6773.6915234896842,81680.810960228482,68763.03885394262,14043.58717665543,-14043.58717665543,-68763.03885394262,141476.65075201661,0.0
623296.95196600363,3665566.251970998,-12500.0,35989.28006117537,9055.4069623177365,-24878.955458759701,7517.808612600842,-11426.69068609663,942.5073957132106,34668.304389965386,34099.559446967636,-29402.760719578382,29402.760719578382,-34099.559446967636,60060.340172477758,0.0
628296.95196600363,3665566.251970998,-12500.0,9084.3752997014471,-16561.065065289135,-51069.009263412401,12908.47954770791,7039.4418030020233,2154.1738973225747,38656.900390530645,6265.8862845669209,-42427.561808782862,42427.561808782862,-6265.8862845669209,68709.072759737028,0.0
633296.95196600363,3665566.251970998,-12500.0,-11190.402404708469,-30528.36987724953,-49047.71522520404,15833.809923367497,13212.724887167904,490.38509859207096,42080.679002648823,-16092.26927541274,-35653.535700173314,35653.535700173314,16092.26927541274,77997.571540239078,0.0
638296.95196600363,3665566.251970998,-12500.0,-24144.209066701489,-32984.293337897449,-36788.01822011036,16456.37898071927,13271.223325282952,-1416.1971092184422,39206.624775905781,-28580.780467375211,-22551.383099001134,22551.383099001134,28580.780467375211,74622.390990876913,0.0
643296.95196600363,3665566.251970998,-12500.0,-29945.345224199798,-29232.059685831933,-24859.507041208715,15460.79313444551,11109.780681584056,-2503.3590828865126,33830.443819214473,-32422.323118468565,-11418.606407644134,11418.606407644134,32422.323118468565,65500.327070283915,0.0
648296.95196600363,3665566.251970998,-12500.0,-30848.803349375299,-23660.807108793018,-16152.169555968818,13626.238690732502,8569.7535172578191,-2769.8404953793629,28206.698866495706,-31273.155223271744,-4102.2394825100801,4102.2394825100801,31273.155223271744,55214.124218159712,0.0
653296.95196600363,3665566.251970998,-12500.0,-29096.983751534099,-18350.032834500093,-10419.812158792114,11527.465406519925,6344.8851979840347,-2554.75361629078,23181.704425983677,-27964.186766820399,105.3719330630538,-105.3719330630538,27964.186766820399,45685.710329062254,0.0
658296.95196600363,3665566.251970998,-12500.0,-26190.493305062715,-13963.930166371927,-6786.2356190108294,9507.1251683262817,4605.9728499186067,-2151.8775670116133,18964.587275004593,-24070.100219987235,2280.4310074750319,-2280.4310074750319,24070.100219987235,37519.382329756219,0.0
663296.95196600363,3665566.251970998,-12500.0,-22976.251830977857,-10558.805795490913,-4503.6563888531291,7727.5309590588722,3319.5421977782676,-1727.6034371768601,15525.650435124788,-20326.444919434034,3251.356123753807,-3251.356123753807,20326.444919434034,30771.603473331688,0.0
668296.95196600363,3665566.251970998,-12500.0,-19879.17047660465,-7988.9359049052782,-3062.1800582801593,6237.0608130356577,2393.218872563742,-1352.9773106295966,12757.1505499546,-17017.788716980416,3551.8383503557425,-3551.8383503557425,17017.788716980416,25294.875966158885,0.0
673296.95196600363,3665566.251970998,-12500.0,-17083.153689157793,-6072.0937324318229,-2139.9798243257578,5024.3958103584964,1733.8756598353827,-1047.5345836225451,10537.673210608848,-14211.441950712335,3500.2504226581959,-3500.2504226581959,14211.441950712335,20884.924754550528,0.0
678296.95196600363,3665566.251970998,-12500.0,-14644.656873463695,-4646.3496046235432,-1539.6054078963723,4053.361085930866,1265.7286813238136,-808.23496013092426,8757.5418876462554,-11880.346787649076,3278.452247940676,-3278.452247940676,11880.346787649076,17341.367694433546,0.0
683296.95196600363,3665566.251970998,-12500.0,-12557.844244075226,-3583.4730923418133,-1140.7731836356572,3281.7954556451714,932.34676334864184,-624.42674982825054,7325.6283230086319,-9963.3269916425215,2986.9441941928235,-2986.9441941928235,9963.3269916425215,14489.771670923208,0.0
688296.95196600363,3665566.251970998,-12500.0,-10789.874507745495,-2786.9773799566865,-869.95186396538656,2670.2338144364408,693.45614027336694,-484.44907589390704,6168.7256993302317,-8392.7267737751426,2679.3050418279417,-2679.3050418279417,8392.7267737751426,12186.568605260523,0.0
693296.95196600363,3665566.251970998,-12500.0,-9299.0729159106213,-2185.9898202053205,-681.77577104009981,2185.0523486566076,520.88748275252988,-378.06620477483199,5228.9814015343864,-7105.9225381052456,2382.6360375459603,-2382.6360375459603,7105.9225381052456,10316.985618492459,0.0
698296.95196600363,3665566.251970998,-12500.0,-8043.7036666888152,-1728.9919721790461,-547.90645985797426,1798.9513611235975,395.09338279910219,-297.06057557657857,4461.0804391767633,-6049.1893262835438,2109.3829600448789,-2109.3829600448789,6049.1893262835438,8790.6429437427669,0.0
703296.95196600363,3665566.251970998,-12500.0,-6985.779911438387,-1378.6414194340657,-450.38880633659778,1490.3372762945794,302.52092991318244,-235.11343467984875,3829.6750541142651,-5178.1638785691375,1864.0674096864072,-1864.0674096864072,5178.1638785691375,7536.8705675460651,0.0
708296.95196600363,3665566.251970998,-12500.0,-6092.3494575885643,-1107.8258040142239,-377.67067963986148,1242.3658129859498,233.74085751107344,-187.46990354946519,3307.2103405525095,-4456.9415246157741,1647.0766398665571,-1647.0766398665571,4456.9415246157741,6500.5248288421999,0.0
713296.95196600363,3665566.251970998,-12500.0,-5335.57562117831,-896.77631976330019,-322.20121781765602,1041.9848798406167,182.1536469608059,-150.58811584744797,2872.1699659351198,-3856.7628495647696,1456.7720388611599,-1456.7720388611599,3856.7628495647696,5638.5366296190496,0.0
513296.95196600363,3670566.251970998,-12500.0,-3852.4793678860242,1659.1626060150793,-638.22784321811332,-796.87957493669853,334.04553266944799,-121.29963494013118,2391.3325721901729,-1170.53334207946,1004.5491425102859,-1004.5491425102859,1170.53334207946,4770.5803632350844,0.0
518296.95196600363,3670566.251970998,-12500.0,-4289.4988202045752,1966.997620312605,-765.91697640470909,-932.08260179023875,410.60785318385859,-148.66477247973864,2740.2504478005385,-1211.8813219855488,1090.8468910404094,-1090.8468910404094,1211.8813219855488,5448.9390915954527,0.0
523296.95196600363,3670566.251970998,-12500.0,-4776.703341121276,2345.6209126072354,-930.53409985595317,-1093.7723574625193,508.43005115480372,-183.12210216622253,3155.7483965574629,-1229.5625274277002,1174.5311480965977,-1174.5311480965977,1229.5625274277002,6252.731020953428,0.0
528296.95196600363,3670566.251970998,-12500.0,-5313.9246958015028,2813.6582508109123,-1145.6656680050605,-1286.9585284184921,634.26642390414781,-226.58032855873441,3653.0448528062961,-1208.1122832774697,1247.5768180399716,-1247.5768180399716,1208.1122832774697,7209.4225604833928,0.0
533296.95196600363,3670566.251970998,-12500.0,-5895.662698984187,3394.727448634218,-1430.8081896761162,-1516.9464698499653,797.14506423820183,-281.34657479726854,4251.2482402700898,-1124.1025649191683,1296.363657494348,-1296.363657494348,1124.1025649191683,8352.87917767625,0.0
538296.95196600363,3670566.251970998,-12500.0,-6506.6934769953959,4118.3517239811536,-1814.2534391360703,-1788.6194383076675,1009.0436992412641,-350.03997436613781,4974.2973267350344,-942.14138020561222,1298.1783296308658,-1298.1783296308658,942.14138020561222,9724.6129629330335,0.0
543296.95196600363,3670566.251970998,-12500.0,-7114.6056988362998,5020.413461840687,-2337.4658828548663,-2104.8809131765138,1285.5808463183675,-435.25533817119839,5852.0785083386691,-608.91748432555369,1215.5370534596109,-1215.5370534596109,608.91748432555369,11374.971420001419,0.0
548296.95196600363,3670566.251970998,-12500.0,-7657.1985657305904,6142.1468485180176,-3061.6762253694792,-2463.5259292389383,1646.4079504932674,-538.68357333054939,6921.6720100541334,-44.495917341333097,986.99344854624064,-986.99344854624064,44.495917341333097,13363.964522428654,0.0
553296.95196600363,3670566.251970998,-12500.0,-8021.3526160612173,7525.3923418652776,-4077.5975294447799,-2851.277729937146,2114.4728657912201,-659.13190647063107,8228.6930251796712,869.95667290288031,512.37888263476282,-512.37888263476282,-869.95667290288031,15761.270027028868,0.0
558296.95196600363,3670566.251970998,-12500.0,-8007.9377619237775,9199.0449069167535,-5518.9836762517898,-3232.9363434902361,2712.1507110518537,-788.500965822475,9828.8528218538158,2308.2335616755108,-370.43104118747192,370.43104118747192,-2308.2335616755108,18645.013049701727,0.0
563296.95196600363,3670566.251970998,-12500.0,-7274.3758544745269,11145.539401764619,-7579.033481037568,-3532.6707791166182,3449.697470839621,-904.49844780682281,11790.695825586687,4516.5900346213621,-1920.5196918822246,1920.5196918822246,-4516.5900346213621,22100.19136270769,0.0
568296.95196600363,3670566.251970998,-12500.0,-5243.0067396574896,13222.816163846721,-10521.551353547553,-3604.1148274497532,4296.2964249900015,-959.96755099768336,14203.701067512431,7822.0636993419748,-4541.403216005926,4541.403216005926,-7822.0636993419748,26223.800130109641,0.0
573296.95196600363,3670566.251970998,-12500.0,-962.42539707754065,14987.315151924447,-14653.483421268853,-3187.6215773511585,5114.1156558133625,-875.76243646455646,17207.085082258192,12596.166369140561,-8826.6511249283922,8826.6511249283922,-12596.166369140561,31167.984617013954,0.0
578296.95196600363,3670566.251970998,-12500.0,7071.3209746608873,15298.301261575845,-20138.300557456572,-1857.5200514093087,5518.0907580664607,-569.6817290866627,21091.667146296328,19063.441641467245,-15525.691914800933,15525.691914800933,-19063.441641467245,37345.050784295767,0.0
583296.95196600363,3670566.251970998,-12500.0,20986.372325407378,11469.861286707343,-26234.133167906741,1039.7196334932814,4588.2871512053889,-117.05694226589723,26643.913155571499,26614.669935091035,-25099.637731788302,25099.637731788302,-26614.669935091035,46256.779067952317,0.0
588296.95196600363,3670566.251970998,-12500.0,42632.324893129749,-2188.1775986570478,-28639.935104632656,6472.7653905471425,263.8083764553719,-195.9226732679696,36183.213460943021,31680.557248173955,-35624.449295928411,35624.449295928411,-31680.557248173955,63259.71121170179,0.0
593296.95196600363,3670566.251970998,-12500.0,68432.169678703547,-34278.378903370976,-12149.606018644743,15567.287524732541,-11884.512474255975,-2624.7359110570901,55718.202016716816,22915.731622151357,-35647.639301166506,35647.639301166506,-22915.731622151357,102432.33274783239,0.0
598296.95196600363,3670566.251970998,-12500.0,76960.289542621496,-81401.945242221685,57004.588451317621,26743.015167090147,-39018.872840317781,-9273.6290461322133,95652.590316598347,-18452.651919748252,7239.5308954383372,-7239.5308954383372,18452.651919748252,180846.54926055283,0.0
603296.95196600363,3670566.251970998,-12500.0,42489.766877795446,-88599.399880356956,186189.247259022,27887.189156217712,-78864.703411577124,-17549.398883863825,149268.61424850658,-73896.999385319505,113078.41545138197,-113078.41545138197,73896.999385319505,278250.62493520789,0.0
608296.95196600363,3670566.251970998,-12500.0,13372.702029656915,-9366.9833341603226,251472.93599376371,9340.9452455586943,-97430.646506256729,-19737.934249501479,167515.20543291513,-54526.86539774327,179513.55034232442,-179513.55034232442,54526.86539774327,307692.80042570306,0.0
613296.95196600363,3670566.251970998,-12500.0,32760.805595652932,56136.580997828016,173532.78747899001,-7270.7836232197178,-74742.364746213279,-13230.92399678093,129093.42109863387,18417.881736437528,122789.91828051684,-122789.91828051684,-18417.881736437528,234047.30360477927,0.0
618296.95196600363,3670566.251970998,-12500.0,46719.393553217182,54458.087959226534,68376.79832980629,-9557.4121952784226,-40449.6206316975,-4762.0609871823835,75294.367245528527,49754.012474945055,40551.079384250734,-40551.079384250734,-49754.012474945055,135328.99130120617,0.0
623296.95196600363,3670566.251970998,-12500.0,40199.526851276023,29438.584228620748,2714.4490700208567,-5532.2119764249201,-14839.804043299811,-202.3672281345338,39210.921715328317,43966.469236433782,-8295.2472355012032,8295.2472355012032,-43966.469236433782,69823.650318052198,0.0
628296.95196600363,3670566.251970998,-12500.0,26058.715044890992,5529.3188379088106,-27823.436652407385,-273.80897781675191,362.28180613910558,557.48788102972662,27506.303406272476,26224.228960612505,-28618.793208638926,28618.793208638926,-26224.228960612505,47664.20697658803,0.0
633296.95196600363,3670566.251970998,-12500.0,10807.010697600208,-10981.062345701594,-35849.457363215668,4285.0408303408158,7592.5867237645953,-340.21646679315251,26912.406623786785,7594.934542100038,-31200.559094470394,31200.559094470394,-7594.934542100038,48690.599422779997,0.0
638296.95196600363,3670566.251970998,-12500.0,-2078.7405282611899,-19153.820448706723,-32463.56006212972,7247.4333470044876,9768.3107350841565,-1393.1101404370172,26486.902128630547,-6623.8587963472382,-25272.605107703483,25272.605107703483,6623.8587963472382,49889.700042079152,0.0
643296.95196600363,3670566.251970998,-12500.0,-10916.552340266186,-21111.322230686001,-25435.527674538855,8567.7894679188794,9337.6621083095852,-2014.9988976946458,24554.471562009436,-15029.014172323094,-17347.410950499027,17347.410950499027,15029.014172323094,47308.988177171792,0.0
648296.95196600363,3670566.251970998,-12500.0,-15824.472755386772,-19659.817725311794,-18594.70710950092,8666.9175640216545,7886.8211718886396,-2172.2259172852505,21750.475317630255,-18683.363965796252,-10508.323791880563,10508.323791880563,18683.363965796252,42465.933276699187,0.0
653296.95196600363,3670566.251970998,-12500.0,-17792.351903959512,-16854.749765129876,-13172.60880249506,8044.5326083436821,6252.0089153714016,-2028.1236769219486,18736.733192406395,-19285.237226694568,-5552.8578217464737,5552.8578217464737,19285.237226694568,36887.40114653093,0.0
658296.95196600363,3670566.251970998,-12500.0,-17889.285352066261,-13830.113759283766,-9235.9555358430352,7093.8058794783274,4790.7639975652401,-1747.6463453402948,15891.656643364962,-18236.908665163635,-2294.6021959928394,2294.6021959928394,18236.908665163635,31454.575899614927,0.0
663296.95196600363,3670566.251970998,-12500.0,-16943.535845036877,-11088.751891532373,-6489.9497144422421,6064.63588898547,3608.5015948269529,-1437.8629222878442,13380.355780609689,-16454.884540523857,-293.30410660579582,293.30410660579582,16454.884540523857,26568.74104242905,0.0
668296.95196600363,3670566.251970998,-12500.0,-15504.395097600376,-8791.776221498083,-4605.1394119756933,5090.9738764155254,2698.9324839199658,-1152.3136812116256,11246.244768804581,-14463.398039841348,860.32286624453627,-860.32286624453627,14463.398039841348,22357.140975114831,0.0
673296.95196600363,3670566.251970998,-12500.0,-13901.818293077809,-6942.581942724074,-3315.133850860771,4231.0737316972991,2017.1383017624823,-910.70079379632841,9466.9070413310474,-12531.15057434484,1472.693525415094,-1472.693525415094,12531.15057434484,18810.236242306059,0.0
678296.95196600363,3670566.251970998,-12500.0,-12317.962329437783,-5484.3057751401493,-2427.8418138697539,3500.342568850263,1512.3648340665036,-715.35064630006332,7992.7067420991289,-10777.861275585361,1752.4918289469451,-1752.4918289469451,10777.861275585361,15859.874520883181,0.0
683296.95196600363,3670566.251970998,-12500.0,-10843.609897275905,-4345.5690659480488,-1811.5914844254282,2892.9122961211401,1140.2223157333651,-561.25220438389272,6773.7981409909817,-9242.8874132981327,1834.8482577007444,-1834.8482577007444,9242.8874132981327,13419.867707721247,0.0
688296.95196600363,3670566.251970998,-12500.0,-9516.4259337275234,-3459.3973057217509,-1378.1470898069203,2394.1169690260613,865.64350603322794,-441.23113881084106,5766.2642546200341,-7925.4733086605875,1804.6206670046386,-1804.6206670046386,7925.4733086605875,11405.260658240673,0.0
693296.95196600363,3670566.251970998,-12500.0,-8344.8857344261469,-2769.4266483230094,-1068.8525921662026,1987.0175238469037,662.26008251957194,-348.26214275049028,4932.3018939429085,-6806.9392782710856,1713.9475567068835,-1713.9475567068835,6806.9392782710856,9740.2567690613032,0.0
698296.95196600363,3670566.251970998,-12500.0,-7322.5207172197252,-2230.6390777659371,-844.70945738220553,1655.4712522523271,510.73861092134933,-276.31634868857321,4240.1233827484966,-5862.3152186369243,1594.2515333177598,-1594.2515333177598,5862.3152186369243,8360.539563719949,0.0
703296.95196600363,3670566.251970998,-12500.0,-6436.0538087524856,-1808.0396710333898,-679.65599195728794,1385.3421685909288,397.07432552667666,-220.53293737716609,3663.5115994911384,-5066.0716557620217,1464.0596203779169,-1464.0596203779169,5066.0716557620217,7212.9986788973256,0.0
708296.95196600363,3670566.251970998,-12500.0,-5669.8637154314765,-1474.8023362921476,-556.13457447510154,1164.7879883642076,311.16801503126248,-177.1192853565168,3181.115199867666,-4394.6876898397659,1333.9654894217563,-1333.9654894217563,4394.6876898397659,6254.4268652636911,0.0
713296.95196600363,3670566.251970998,-12500.0,-5008.3260670648069,-1210.4956159362541,-462.19892833492742,984.13327961712264,245.73590297856362,-143.1677597982694,2775.674734291722,-3827.5964862828714,1209.7370186533028,-1209.7370186533028,3827.5964862828714,5449.9560868111548,0.0
513296.95196600363,3675566.251970998,-12500.0,-3198.9846734076359,1756.8503707772934,-800.15878315168618,-680.00639323738972,359.6376481223208,-106.06560995707152,2198.3069986225796,-660.76643044839841,676.62583154546667,-676.62583154546667,660.76643044839841,4351.5460624035386,0.0
518296.95196600363,3675566.251970998,-12500.0,-3487.6781166008664,2060.8033212752739,-964.28369165688889,-782.70662863011842,438.27862717922966,-128.35814498367722,2502.2282206437817,-603.68231390109099,685.89133387146489,-685.89133387146489,603.68231390109099,4932.6002533279752,0.0
523296.95196600363,3675566.251970998,-12500.0,-3786.224023517314,2426.727339586972,-1174.3070805605375,-901.23275472131763,537.19242893842886,-155.79990843186496,2859.8962368920907,-501.500977594792,671.44131829674541,-671.44131829674541,501.500977594792,5611.517478343867,0.0
528296.95196600363,3675566.251970998,-12500.0,-4082.1128630820235,2867.4501791339667,-1445.803608197667,-1036.6423043464456,662.06223437381277,-189.4778129107051,3282.3529507067674,-334.41739031487498,619.01294442624237,-619.01294442624237,334.41739031487498,6406.7321553220727,0.0
533296.95196600363,3675566.251970998,-12500.0,-4353.6308036650653,3397.3156817779309,-1800.2666088993954,-1188.7202396194857,820.0431755592266,-230.51682428447555,3783.013992016477,-74.533684638247195,507.06328876862563,-507.06328876862563,74.533684638247195,7339.8751604326499,0.0
538296.95196600363,3675566.251970998,-12500.0,-4564.5141636258222,4030.9924944106629,-2267.3910743328806,-1354.6594295972136,1019.8717594224152,-279.85238186545024,4378.116275732621,317.2129060498707,303.16511768766378,-303.16511768766378,-317.2129060498707,8435.9426717069,0.0
543296.95196600363,3675566.251970998,-12500.0,-4655.7324084365819,4780.5425708076336,-2888.0341915472604,-1526.7499003817752,1271.601276905031,-337.73604654326118,5087.2338197865256,894.92221677924977,-41.249424522564709,41.249424522564709,-894.92221677924977,9723.2454514428082,0.0
548296.95196600363,3675566.251970998,-12500.0,-4533.0650017507833,5649.0223114964028,-3717.6639598080997,-1688.43518314843,1585.4040860247001,-402.7494664122579,5933.9443225314244,1732.0553907997273,-598.29396653672586,598.29396653672586,-1732.0553907997273,11233.158031826008,0.0
553296.95196600363,3675566.251970998,-12500.0,-4048.8782815332734,6617.358863843273,-4829.3069792776823,-1807.7973194043841,1968.2657268571422,-469.97281134809037,6946.9808969593387,2924.8347354422731,-1473.3440775542749,1473.3440775542749,-2924.8347354422731,13000.216621640782,0.0
558296.95196600363,3675566.251970998,-12500.0,-2976.8490003819006,7618.4849339942539,-6312.825795823991,-1827.2924908112545,2416.1978507003382,-527.86771968489973,8162.9508663526822,4590.8165739556234,-2815.8082231174967,2815.8082231174967,-4590.8165739556234,15064.891735037934,0.0
563296.95196600363,3675566.251970998,-12500.0,-980.77290528233334,8488.0759588220681,-8261.7605406080129,-1648.8121721058499,2897.4193968578675,-553.71434464239121,9633.8148623475536,6852.9138659697501,-4825.2822829963816,4825.2822829963816,-6852.9138659697501,17486.787318666575,0.0
568296.95196600363,3675566.251970998,-12500.0,2413.2055619148141,8874.4676932262464,-10725.116376504795,-1115.0169696859832,3318.4136649442908,-509.10076029864172,11447.749911398008,9786.4273428211836,-7735.2079039761384,7735.2079039761384,-9786.4273428211836,20391.054487984835,0.0
573296.95196600363,3675566.251970998,-12500.0,7808.1169099543986,8084.76989160414,-13568.641864721174,6.285295167660041,3460.2584555333374,-342.50446957762017,13784.405629283085,13280.874495053687,-11724.714088976552,11724.714088976552,-13280.874495053687,24107.579188749489,0.0
578296.95196600363,3675566.251970998,-12500.0,15797.630009552326,4859.2363709120982,-16118.414599768359,2014.785954973381,2870.4218308017062,-19.280767466602995,17045.949639984112,16724.014020021285,-16634.431277913354,16634.431277913354,-16724.014020021285,29525.038970504891,0.0
583296.95196600363,3675566.251970998,-12500.0,26464.201020893219,-2816.2636157971742,-16337.976606812294,5203.9045271996429,706.61628470067444,382.73751826547726,22105.630257573932,18378.582005890712,-21212.976937686835,21212.976937686835,-18378.582005890712,38761.572768008198,0.0
588296.95196600363,3675566.251970998,-12500.0,38078.720776381517,-17262.930472080105,-9285.9437555080185,9636.5335211270758,-4410.0545902679705,497.74557654562318,30575.070600185427,14516.394065806169,-21496.826671714,21496.826671714,-14516.394065806169,55737.700391190287,0.0
593296.95196600363,3675566.251970998,-12500.0,44961.037357719862,-38179.510355629442,14188.762057731141,14602.822879940306,-14232.422968992871,-392.93940594159284,44620.781589491489,-280.23269540014735,-8813.0436765216673,8813.0436765216673,280.23269540014735,85021.814896983269,0.0
598296.95196600363,3675566.251970998,-12500.0,38111.663956343269,-55346.711002421274,62394.108712632049,17666.273066788075,-29400.638253009023,-2746.2198508350521,65711.519121660531,-26767.798094098147,27085.228081610101,-27085.228081610101,26767.798094098147,126374.01851872174,0.0
603296.95196600363,3675566.251970998,-12500.0,17585.177214276384,-46904.81993762745,122225.92531817898,14854.002898881899,-45602.310857512901,-5418.0872025406079,87279.29182249037,-47526.614410250535,78917.969661721203,-78917.969661721203,47526.614410250535,165489.38941249828,0.0
608296.95196600363,3675566.251970998,-12500.0,4199.7305309927542,-7541.4752268162792,149334.61653890816,5526.5759471755209,-52720.168846541485,-5910.0539527264336,94253.145295594761,-36026.959471748545,107643.071772993,-107643.071772993,36026.959471748545,176731.78711810801,0.0
613296.95196600363,3675566.251970998,-12500.0,11317.922899118474,30234.321772472573,120412.30799512628,-4157.66636545865,-45521.401055894625,-3543.9194140483178,80941.286612096286,-115.03639274518355,88085.800225422397,-88085.800225422397,115.03639274518355,150846.27219518766,0.0
618296.95196600363,3675566.251970998,-12500.0,24211.90775123299,41196.426117620227,65623.627573234029,-8769.6254047752118,-30170.66873988754,-584.95463089730151,57357.647134553794,27541.77298003744,44638.725079514668,-44638.725079514668,-27541.77298003744,106816.0051700944,0.0
623296.95196600363,3675566.251970998,-12500.0,29259.292198342449,31872.350119150015,18757.442864565262,-8377.664693485438,-14888.697538098846,882.72512034493525,36372.624191444076,35112.197408954686,7446.7512868473295,-7446.7512868473295,-35112.197408954686,67384.180733640475,0.0
628296.95196600363,3675566.251970998,-12500.0,25833.324589140997,16056.899643582883,-9813.8429297212642,-5265.8564539170429,-3608.7869296536337,775.05812087329912,24653.419685499946,28971.720878257271,-14146.298547073726,14146.298547073726,-28971.720878257271,43601.730336867207,0.0
633296.95196600363,3675566.251970998,-12500.0,17700.644345135599,1861.2764188979206,-22503.642238049357,-1496.7638477479063,3091.0530083030458,-35.931895245753338,20457.042055038917,17375.166925994483,-22297.74840004724,22297.74840004724,-17375.166925994483,35548.026444399933,0.0
638296.95196600363,3675566.251970998,-12500.0,8461.3809683410873,-7673.6801459693506,-24993.419336893297,1664.0225898992023,6155.4200278619064,-840.12417356538015,19151.038813394887,5863.00400522775,-22065.50826381896,22065.50826381896,-5863.00400522775,34542.615215884514,0.0
643296.95196600363,3675566.251970998,-12500.0,467.34241346230021,-12532.183387721994,-22440.733205958553,3743.4215644996516,6902.1396829427567,-1342.716234719061,18080.029573000695,-2920.2356607559832,-18032.21549815304,18032.21549815304,2920.2356607559832,33804.08782284418,0.0
648296.95196600363,3675566.251970998,-12500.0,-5317.5225447949242,-13996.57146709502,-18218.618022843555,4791.3312198116528,6437.3243377161434,-1528.1250267517455,16608.125382958304,-8457.4935831307994,-13142.866602434686,13142.866602434686,8457.4935831307994,31789.702959122042,0.0
653296.95196600363,3675566.251970998,-12500.0,-8902.4299872228021,-13476.957530849524,-14032.174338153025,5076.4815460860718,5487.8620125981161,-1491.1408360677995,14843.551094993123,-11300.903480742625,-8802.4243587252386,8802.4243587252386,11300.903480742625,28841.056474760961,0.0
658296.95196600363,3675566.251970998,-12500.0,-10737.671461302953,-12024.250847703679,-10523.274371508805,4888.7826299567751,4452.6057634774525,-1335.6619005375123,13004.459713643602,-12281.129266488955,-5446.3721376665953,5446.3721376665953,12281.129266488955,25521.627942081963,0.0
663296.95196600363,3675566.251970998,-12500.0,-11355.222574787429,-10278.171119254075,-7804.3653846202278,4455.6432576365996,3513.432805590624,-1136.9650485757718,11249.294702966634,-12127.872107293861,-3048.4732827473708,3048.4732827473708,12127.872107293861,22231.758946947692,0.0
668296.95196600363,3675566.251970998,-12500.0,-11206.404376755932,-8572.5431038730658,-5779.7446827850545,3927.5634568251808,2731.1996976192299,-938.59600978228218,9663.0637779064127,-11365.387879260657,-1423.1215509965186,1423.1215509965186,11365.387879260657,19190.563503317611,0.0
673296.95196600363,3675566.251970998,-12500.0,-10620.862795818906,-7053.1323917712261,-4300.9466488204798,3392.302396471126,2108.5912709694526,-761.04452190776874,8281.2334847173315,-10329.576715136584,-366.26987609486878,366.26987609486878,10329.576715136584,16490.778619664288,0.0
678296.95196600363,3675566.251970998,-12500.0,-9818.5987015870014,-5763.6559614743383,-3228.7436082778777,2894.808193922267,1625.1845540210415,-611.11102496436718,7108.6322898623312,-9218.3056276290299,293.62743347236483,-293.62743347236483,9218.3056276290299,14150.993533070292,0.0
683296.95196600363,3675566.251970998,-12500.0,-8936.9919160555582,-4698.4862881348363,-2451.3501806516088,2453.9177145734052,1254.6936247940698,-488.61807703634207,6116.2308359943772,-8138.9991743822575,685.55647304827698,-685.55647304827698,8138.9991743822575,12151.570606409754,0.0
688296.95196600363,3675566.251970998,-12500.0,-8056.7078278103909,-3831.7100989685705,-1885.0819076383229,2073.9264966041223,972.35770395926102,-390.41383665521215,5274.3813432037541,-7143.8785156732974,900.99396292214215,-900.99396292214215,7143.8785156732974,10456.265588191556,0.0
693296.95196600363,3675566.251970998,-12500.0,-7221.7114596336041,-3131.8331552579752,-1469.4430479914986,1751.7944958246705,757.43725263201873,-312.4821365710369,4561.3918094035953,-6253.2952448348078,1002.6404635833151,-1002.6404635833151,6253.2952448348078,9024.1300031275878,0.0
698296.95196600363,3675566.251970998,-12500.0,-6453.248538251014,-2568.5306704060004,-1161.444932491265,1481.3105548869937,593.53107118796538,-250.92841521716127,3958.0514193352451,-5470.2140594393186,1032.5600538569397,-1032.5600538569397,5470.2140594393186,7815.5121400507132,0.0
703296.95196600363,3675566.251970998,-12500.0,-5759.0546930047258,-2115.2732764736984,-930.7536668975514,1255.3410149224226,468.06020857397868,-202.36499956056002,3447.1850980703935,-4788.8008664277859,1018.5566319438494,-1018.5566319438494,4788.8008664277859,6794.6999911403227,0.0
708296.95196600363,3675566.251970998,-12500.0,-5139.1929604016022,-1749.9602933376577,-755.98493519878332,1066.9526333775455,371.5352366656532,-164.00237274632087,3013.8506494760522,-4199.3277428857036,978.79109315186133,-978.79109315186133,4199.3277428857036,5930.7757343886879,0.0
513296.95196600363,3680566.251970998,-12500.0,-2540.6529415143359,1764.9420417635042,-944.52076513543386,-561.04514188784151,368.58141990707986,-90.409601443536459,1997.7965252395213,-211.08194252619438,350.25086515763081,-350.25086515763081,211.08194252619438,3916.2930291732791,0.0
518296.95196600363,3680566.251970998,-12500.0,-2690.6165944789664,2041.8987296791513,-1135.3913764852696,-632.43148732552459,444.16004510177709,-107.70337765766313,2257.2695825605711,-79.011995117526595,290.31930210745497,-290.31930210745497,79.011995117526595,4401.471214934475,0.0
523296.95196600363,3680566.251970998,-12500.0,-2817.0187025613627,2365.5378273784377,-1376.2212312382378,-710.17572594641251,537.26677461510508,-128.3403311570915,2558.8629981636168,109.87877722337782,190.80101436374645,-190.80101436374645,-109.87877722337782,4959.5736534776051,0.0
528296.95196600363,3680566.251970998,-12500.0,-2899.1869040285928,2741.2142000989015,-1682.0168277530972,-792.24602441792911,651.89852659107703,-152.70534310521992,2910.3022785658832,375.43999425168221,34.296898331121383,-34.296898331121383,-375.43999425168221,5601.9970561469181,0.0
533296.95196600363,3680566.251970998,-12500.0,-2905.8811007572031,3172.1948069746359,-2072.3371444863878,-874.3681895139714,792.54411951021348,-180.95299904319327,3320.8031550494743,743.77971557257479,-203.71718484518493,203.71718484518493,-743.77971557257479,6341.5359931875446,0.0
538296.95196600363,3680566.251970998,-12500.0,-2790.5270105652758,3656.7902449250091,-2572.2480642128148,-948.52141931468941,963.73957970335061,-212.704094433775,3801.4356382812002,1248.5675071852436,-557.50529043337974,557.50529043337974,-1248.5675071852436,7192.4917436608685,0.0
543296.95196600363,3680566.251970998,-12500.0,-2484.6808528415863,4183.1163200916662,-3212.8293904424895,-1000.574536121805,1168.9676247954744,-246.49618801187222,4365.7557366669662,1931.7785297169619,-1074.2090115222579,1074.2090115222579,-1931.7785297169619,8171.1500016817399,0.0
548296.95196600363,3680566.251970998,-12500.0,-1889.565307057446,4719.7963783719697,-4030.1582007767693,-1006.6846499741046,1408.2612711673949,-278.83449699075544,5031.0863913044268,2842.6207852691741,-1816.953557519133,1816.953557519133,-2842.6207852691741,9297.5150197153907,0.0
553296.95196600363,3680566.251970998,-12500.0,-866.29692348316973,5199.9328479032793,-5060.3013495970627,-928.07799361951515,1673.3479162576339,-302.65152961908535,5821.3581590983758,4031.9376389120716,-2866.1896497509779,2866.1896497509779,-4031.9376389120716,10600.635425967454,0.0
558296.95196600363,3680566.251970998,-12500.0,772.45568581252769,5494.5000328983797,-6324.9322463410117,-704.1327376431957,1938.3269287798425,-305.04221548938233,6773.5546115799925,5536.6176481134125,-4314.8084334896639,4314.8084334896639,-5536.6176481134125,12133.170690503383,0.0
563296.95196600363,3680566.251970998,-12500.0,3261.6366176849942,5370.7303765321167,-7796.3705803077019,-244.7912332839575,2142.7161216124323,-264.54573893313909,7951.9351700985408,7343.7174868261736,-6246.6691056010841,6246.6691056010841,-7343.7174868261736,14007.449269278528,0.0
568296.95196600363,3680566.251970998,-12500.0,6855.4263068794717,4433.9914273572485,-9320.1734597696832,573.75694197485234,2162.7153864961151,-149.54540073478958,9477.1330144720523,9316.8870124365876,-8676.4447975760177,8676.4447975760177,-9316.8870124365876,16474.540426494874,0.0
573296.95196600363,3680566.251970998,-12500.0,11733.37061053212,2066.5201396175544,-10457.136123813798,1900.0064882067977,1767.6183524791027,77.577921262650392,11577.33109878187,11061.57925450537,-11408.525176736199,11408.525176736199,-11061.57925450537,20065.970211404845,0.0
578296.95196600363,3680566.251970998,-12500.0,17775.894972429513,-2575.8562743433422,-10194.504556631526,3864.2827968907095,566.67587995693566,441.03273444580122,14653.83744707265,11717.346532649268,-13749.522729879109,13749.522729879109,-11717.346532649268,25761.292513140088,0.0
583296.95196600363,3680566.251970998,-12500.0,24139.882164953135,-10329.32175603515,-6522.2663987510687,6471.004880727447,-2021.7204807952885,906.42316569839954,19306.099756609718,9751.5514313604126,-14028.503625665648,14028.503625665648,-9751.5514313604126,35007.736824229854,0.0
588296.95196600363,3680566.251970998,-12500.0,28715.603933198112,-21174.646913645411,3848.0225207272979,9400.7096720961126,-6686.456372932148,1322.771856781829,26193.122695614107,3115.6906679055246,-9115.5154432590025,9115.5154432590025,-3115.6906679055246,49314.43512750946,0.0
593296.95196600363,3680566.251970998,-12500.0,28156.433268299505,-32444.519931987008,24526.336258725234,11764.932357935373,-13842.713261138631,1437.9777154863909,35628.029859240276,-9336.8189451839662,5059.5512165813961,-5059.5512165813961,9336.8189451839662,69123.849271621555,0.0
598296.95196600363,3680566.251970998,-12500.0,20140.084367962776,-37251.488441697336,55316.470433628834,12079.308504267176,-22787.175391243087,1123.3647281925339,47083.667771041393,-24467.633451039583,29881.882624057238,-29881.882624057238,24467.633451039583,91795.798250098655,1.0
603296.95196600363,3680566.251970998,-12500.0,8024.4467556053332,-27717.253435448638,86075.443865609923,9035.1978274339763,-30840.260989857343,692.20460681071279,57055.78961485529,-32688.308774221812,57618.945972331268,-57618.945972331268,32688.308774221812,110095.48874810788,0.0
608296.95196600363,3680566.251970998,-12500.0,1004.4687428428172,-4917.2496325762049,99101.670945333186,3087.1101861589386,-34174.438414876779,728.69428528352955,60137.536667073909,-24965.546029802303,72042.292299398687,-72042.292299398687,24965.546029802303,115130.3406444258,0.0
613296.95196600363,3680566.251970998,-12500.0,4201.9823428388017,18015.411552520243,85871.062208947478,-3160.6064545015524,-30920.811701297429,1326.3520812613422,54416.111359314091,-4843.1299241988017,63730.787485035704,-63730.787485035704,4843.1299241988017,103850.28253008428,0.0
618296.95196600363,3680566.251970998,-12500.0,12737.709324648262,29132.944253395453,55999.142561310458,-7079.819232227569,-22879.662385154723,1882.1049597701826,42930.690347134201,14571.365530982999,40096.668770439654,-40096.668770439654,-14571.365530982999,82012.306707988202,0.0
623296.95196600363,3680566.251970998,-12500.0,19222.22241044803,27506.344980598678,24970.840023730008,-7891.6587495351851,-13532.282209456469,1850.6040436359801,30879.996218342494,24550.650809107254,14913.024328067006,-14913.024328067006,-24550.650809107254,58657.330163263876,0.0
628296.95196600363,3680566.251970998,-12500.0,20551.561280017908,18773.623094752864,1869.0897147797084,-6386.5176666225943,-5534.5335325403967,1254.0381559995014,22118.520477492464,24826.842675976113,-3481.3252830292859,3481.3252830292859,-24826.842675976113,40404.288086317785,0.0
633296.95196600363,3680566.251970998,-12500.0,17444.104271940323,8545.0242142156894,-11494.360930451296,-3836.2612788146839,17.164836003910885,446.13388576726516,17183.691663177226,19144.292998486453,-13383.800899413787,13383.800899413787,-19144.292998486453,29961.216483064825,0.0
638296.95196600363,3680566.251970998,-12500.0,11992.028406337626,78.54289755437928,-17064.602738228419,-1269.4233784144333,3180.1782706258155,-261.3488526307051,14886.897143072183,11401.029272397049,-16573.29597308291,16573.29597308291,-11401.029272397049,25953.508819291786,0.0
643296.95196600363,3680566.251970998,-12500.0,6129.5655666753491,-5536.7800531833154,-17739.522938065402,759.08161388779581,4543.835745078989,-731.35598810050578,13707.906351421603,4179.3250385808442,-15712.828630788654,15712.828630788654,-4179.3250385808442,24671.388923392467,0.0
648296.95196600363,3680566.251970998,-12500.0,1058.6857976172898,-8513.4599211015193,-15962.224810188794,2095.5430862866733,4777.8189895944497,-963.14820019649619,12722.849059701979,-1358.3456129145798,-13026.639847176035,13026.639847176035,1358.3456129145798,23632.167055711878,0.0
653296.95196600363,3680566.251970998,-12500.0,-2741.7605402720978,-9566.0798422514872,-13319.524245732946,2816.6645774320164,4416.4319587006548,-1017.4255035797115,11644.854183986752,-5026.3541877840671,-9920.8153600252645,9920.8153600252645,5026.3541877840671,22134.748412897705,0.0
658296.95196600363,3680566.251970998,-12500.0,-5267.8951857133661,-9429.2346678043468,-10655.823890309477,3083.633536794528,3810.6738353061005,-963.7831667702427,10477.266043933279,-7116.7961118913663,-7097.9069736431211,7097.9069736431211,7116.7961118913663,20237.75917829452,0.0
663296.95196600363,3680566.251970998,-12500.0,-6738.4412278022892,-8666.186645557309,-8330.8040676478304,3057.4379725213889,3159.1246849939789,-857.28483500881896,9295.2007803793131,-8057.2073745242778,-4810.4352345074276,4810.4352345074276,8057.2073745242778,18159.871005758559,0.0
668296.95196600363,3680566.251970998,-12500.0,-7428.1614050016251,-7644.9043073381545,-6441.2201724178931,2864.8112892666409,2557.9659301138477,-733.78273700405896,8165.4828303511758,-8240.5458233089812,-3077.394602786801,3077.394602786801,8240.5458233089812,16086.220385361183,0.0
673296.95196600363,3680566.251970998,-12500.0,-7585.7270512590712,-6578.7877185100342,-4963.6607324251509,2593.0093112908125,2043.6062366431497,-613.3286789626294,7129.3177570875141,-7968.5099366260129,-1821.2987176981219,1821.2987176981219,7968.5099366260129,14133.254920972475,0.0
678296.95196600363,3680566.251970998,-12500.0,-7405.930831411164,-5577.5857765396022,-3832.0008244245328,2296.5186015256591,1621.5492772146222,-505.35813263090074,6206.5437314339479,-7450.3044380144065,-940.04042775787548,940.04042775787548,7450.3044380144065,12359.909544699911,0.0
683296.95196600363,3680566.251970998,-12500.0,-7029.0004293430866,-4688.4796696281574,-2973.9143211077753,2006.4148593443626,1283.4669011467433,-413.05531559142304,5409.7180342078454,-6821.0982887601103,-338.45906130582898,338.45906130582898,6821.0982887601103,10786.59883511557,0.0
688296.95196600363,3680566.251970998,-12500.0,-6550.1607894674717,-3923.9860768065701,-2325.3718703091486,1738.5293500292664,1016.3035803854561,-336.32911974854898,4730.8517165439562,-6163.1566342341939,61.165420124690172,-61.165420124690172,6163.1566342341939,9411.0302435742451,0.0
693296.95196600363,3680566.251970998,-12500.0,-6031.0900977368819,-3279.1320152085937,-1834.6180125132059,1499.4396701741293,806.65464178381865,-273.60762168265308,4142.7512606239507,-5523.4475438887766,318.16288580505216,-318.16288580505216,5523.4475438887766,8219.0645062874846,0.0
698296.95196600363,3680566.251970998,-12500.0,-5509.9325403561043,-2741.3013936983757,-1461.7248661459105,1290.4642785935532,642.58472419277814,-222.82381797063209,3633.6972559733972,-4926.5057950581313,476.09131467660609,-476.09131467660609,4926.5057950581313,7191.4553082855164,0.0
703296.95196600363,3680566.251970998,-12500.0,-5008.98581199412,-2295.5286813310086,-1176.6561255306819,1110.1596884462356,514.16881093772906,-181.90750133318531,3194.2027095285298,-4383.1725833687888,566.16606228412911,-566.16606228412911,4383.1725833687888,6307.7181622666694,0.0
708296.95196600363,3680566.251970998,-12500.0,-4540.225845558979,-1927.1384529705883,-957.11372933475729,955.80865442904951,413.45592861345028,-149.0004960592091,2815.1892353327707,-3896.27931842004,610.41180609893127,-610.41180609893127,3896.27931842004,5548.1920992133555,0.0
518296.95196600363,3685566.251970998,-12500.0,-1938.1918950084355,1927.3553120045324,-1263.3583834865217,-488.50167727898963,430.96622797699547,-87.652709570542925,2016.1397651470288,344.87426264479552,-68.936375435173659,68.936375435173659,-344.87426264479552,3879.2115847960345,0.0
523296.95196600363,3685566.251970998,-12500.0,-1919.8264237986689,2188.2598314946663,-1516.8660905124168,-530.26565423831312,513.03678191050358,-102.07396510306491,2266.8555669065349,585.76281110994591,-233.21916310690477,233.21916310690477,-585.76281110994591,4328.1320885667292,0.0
528296.95196600363,3685566.251970998,-12500.0,-1829.3474464578605,2475.1368962045408,-1831.1547969768612,-566.65072376310138,610.83799417612556,-118.12584059349422,2555.6578018551691,902.6104906268996,-463.60722490795558,463.60722490795558,-902.6104906268996,4836.6239968205728,0.0
533296.95196600363,3685566.251970998,-12500.0,-1632.6713490575607,2780.9837506710192,-2220.634526959615,-590.96704660027228,726.02120959599654,-135.25980721286425,2889.3617888100111,1315.3634126550971,-782.90908409429153,782.90908409429153,-1315.3634126550971,5412.8572194663902,0.0
538296.95196600363,3685566.251970998,-12500.0,-1282.7407548855469,3090.2232227495124,-2701.3824964932346,-592.55824468349124,858.96700495547725,-152.21453045753407,3276.6558031688214,1846.7984456301392,-1220.4494368424535,1220.4494368424535,-1846.7984456301392,6067.1025286541635,0.0
543296.95196600363,3685566.251970998,-12500.0,-715.89293727413281,3372.8057536021042,-3289.1366744649936,-554.87778355663636,1007.1824435425054,-166.49809603784269,3729.316644712691,2520.4488282896259,-1812.4543297995822,1812.4543297995822,-2520.4488282896259,6814.0676764627542,0.0
548296.95196600363,3685566.251970998,-12500.0,151.39364945113991,3575.0134004320275,-3994.3645523663808,-452.90519717483937,1162.3813532260813,-173.58232388817899,4264.6251194339975,3355.4565521364984,-2600.5164893036253,2600.5164893036253,-3355.4565521364984,7678.3182838426792,0.0
553296.95196600363,3685566.251970998,-12500.0,1423.3744785876411,3605.7613763629083,-4811.5451728797862,-250.01462673941504,1305.3727666214413,-165.73240731041403,4910.0869315176769,4355.6598767578798,-3625.4946244262969,3625.4946244262969,-4355.6598767578798,8706.0663582336892,0.0
558296.95196600363,3685566.251970998,-12500.0,3219.1612911212974,3317.73293946064,-5697.5554688319417,105.02927731360862,1397.5233373868848,-130.50430671020231,5712.2098101027132,5488.5892274009211,-4911.6913169531244,4911.6913169531244,-5488.5892274009211,9988.7157069241166,0.0
563296.95196600363,3685566.251970998,-12500.0,5651.5804386283116,2485.2032078994994,-6530.7428549258602,679.00254903384314,1367.405656258609,-49.288333002804144,6751.2705508376348,6648.3743165313335,-6432.0561148861125,6432.0561148861125,-6648.3743165313335,11703.858858284468,1.0
568296.95196600363,3685566.251970998,-12500.0,8776.2458878613161,787.83543586176461,-7038.9133392800059,1548.6920801308058,1092.0652363521415,102.91105159652956,8161.8839849082933,7596.9534528242657,-8039.8670801119042,8039.8670801119042,-7596.9534528242657,14170.781278267013,0.0
573296.95196600363,3685566.251970998,-12500.0,12491.220340097287,-2172.737818653181,-6686.1116187723683,2780.7598855423921,375.90453576691061,353.85774456604946,10151.618550604246,7886.7256875167632,-9349.9335404041321,9349.9335404041321,-7886.7256875167632,17891.549916242202,0.0
578296.95196600363,3685566.251970998,-12500.0,16375.132224771469,-6763.6174450139151,-4530.5849491620729,4385.3603718015056,-1060.3717995002596,722.71061281651282,12996.177392995012,6799.4145285266286,-9567.8393602929264,9567.8393602929264,-6799.4145285266286,23518.69677994333,0.0
583296.95196600363,3685566.251970998,-12500.0,19503.00576634442,-13018.626946088076,854.22324442722072,6234.8918060227306,-3549.9753629463307,1198.9142081783405,16977.143483362619,3412.4228639647872,-7337.0976346630569,7337.0976346630569,-3412.4228639647872,31691.487500671683,0.0
588296.95196600363,3685566.251970998,-12500.0,20423.967994918388,-20066.350604314583,11124.412417916696,7962.8295394054512,-7356.2010817660812,1720.7123931771964,22229.938847865913,-2979.973123374486,-857.20804585575092,857.20804585575092,2979.973123374486,42695.408004929377,0.0
593296.95196600363,3685566.251970998,-12500.0,17699.242544601006,-25494.69662591588,27108.176210396392,8917.6812903978625,-12406.643555236871,2183.0659400782151,28524.835123424644,-11872.170187686119,11226.858875515321,-11226.858875515321,11872.170187686119,55906.695890766947,0.0
598296.95196600363,3685566.251970998,-12500.0,11293.136582856132,-25565.934819456375,46810.4979696593,8324.2316682574656,-17947.88316154058,2502.4890498530613,35167.469462824913,-20369.178512556471,27866.153874625314,-27866.153874625314,20369.178512556471,69181.559300896217,0.0
603296.95196600363,3685566.251970998,-12500.0,3918.3055505663606,-17524.367725860182,64045.671891033388,5762.5900308196915,-22444.294692059917,2690.957430172537,40368.779764115854,-23560.173686469461,43898.701218914102,-43898.701218914102,23560.173686469461,78884.571326382094,0.0
608296.95196600363,3685566.251970998,-12500.0,-48.92912509013297,-3028.6273267519746,70895.36054203946,1713.8554299541677,-24169.747709173775,2814.7122342592734,41874.699594699639,-18017.072739352352,51848.561119414095,-51848.561119414095,18017.072739352352,81406.347669213312,0.0
613296.95196600363,3685566.251970998,-12500.0,1639.9981120254472,11708.034674092327,63744.138446776211,-2478.7896446153336,-22326.290682472441,2850.3107253176959,38927.44813546072,-5619.7282881454303,47624.259536067511,-47624.259536067511,5619.7282881454303,75553.165836821499,0.0
618296.95196600363,3685566.251970998,-12500.0,7061.7456724440235,20636.596775244951,46277.139244146943,-5426.1616212309764,-17622.030359142544,2665.5766297521955,32675.35027635163,7604.5795698085913,33924.401365052356,-33924.401365052356,-7604.5795698085913,63459.560553153162,0.0
623296.95196600363,3685566.251970998,-12500.0,12410.776035993342,21970.410127169591,25859.450986988941,-6497.0080311715137,-11698.047260105579,2184.0898145812594,25450.929369707708,16435.180032774122,17251.144616955447,-17251.144616955447,-16435.180032774122,49073.927705705086,0.0
628296.95196600363,3685566.251970998,-12500.0,15111.846376736343,17722.779485378025,8397.6620386739796,-5919.7036675014842,-6118.1799340606858,1491.520975623293,19280.79442139166,19258.361492443368,3034.1531186404854,-3034.1531186404854,-19258.361492443368,36039.699632238189,0.0
633296.95196600363,3685566.251970998,-12500.0,14683.112480346614,11067.346233963513,-3585.3293145284392,-4369.9128045471352,-1789.9079195149086,764.77033723573265,14902.949212098516,17298.860761861884,-6363.0406837119499,6363.0406837119499,-17298.860761861884,26599.773930039282,0.0
638296.95196600363,3685566.251970998,-12500.0,11974.798648545124,4503.3838907419276,-10196.674740798739,-2532.0331488944221,1056.4537012339351,152.39636128851365,12269.07541645777,12762.534579857478,-11032.655187580447,11032.655187580447,-12762.534579857478,21275.493147236823,0.0
643296.95196600363,3685566.251970998,-12500.0,8203.9704460871071,-659.71571542992012,-12771.122539855856,-870.858762514403,2617.3468230840967,-278.44975800071882,10820.974141904102,7576.0364012072641,-12222.832464140189,12222.832464140189,-7576.0364012072641,18924.027012407078,0.0
648296.95196600363,3685566.251970998,-12500.0,4369.9719845487552,-4081.2587232899523,-12836.357434671359,398.90070209326814,3251.1488866846248,-530.1121946350346,9912.0956382080076,2933.8637446281573,-11356.026927979408,11356.026927979408,-2933.8637446281573,17830.126901867985,0.0
653296.95196600363,3685566.251970998,-12500.0,1065.6805363578358,-5966.870399669504,-11614.630884297369,1243.7161865424507,3307.4916376049296,-640.76831277564474,9145.9458144757191,-653.25670455024283,-9552.9696068601224,9552.9696068601224,653.25670455024283,16921.394219298702,0.0
658296.95196600363,3685566.251970998,-12500.0,-1475.5614950420311,-6719.5499570915863,-9907.1336010912819,1725.3398209845889,3054.750812875609,-656.71537396267865,8376.9055087045945,-3124.733993852818,-7525.3633310341047,7525.3633310341047,3124.733993852818,15844.495328681831,0.0
663296.95196600363,3685566.251970998,-12500.0,-3252.453915395783,-6738.2799529253962,-8162.1626490512317,1936.8372481460335,2670.1532702319,-617.64812475813835,7588.1322357107947,-4642.0475026677905,-5646.9191085865732,5646.9191085865732,4642.0475026677905,14589.036692478596,0.0
668296.95196600363,3685566.251970998,-12500.0,-4377.4846839350057,-6336.9773981032849,-6590.4336509797995,1967.2164673270238,2257.3104989291883,-552.05598670899349,6804.8232095641533,-5435.2715590212538,-4069.0792483371911,4069.0792483371911,5435.2715590212538,13242.528003302315,0.0
673296.95196600363,3685566.251970998,-12500.0,-4997.9085269762627,-5732.2436740417297,-5264.6121391138749,1887.3697152085508,1869.5161144531241,-477.97004324172525,6055.7310292087132,-5723.1158451151596,-2819.4468332083243,2819.4468332083243,5723.1158451151596,11893.44677045963,0.0
678296.95196600363,3685566.251970998,-12500.0,-5253.7871631279158,-5059.8052253765072,-4187.0426389629383,1747.9743862730243,1529.3890266969991,-405.56883637761229,5361.1638785728237,-5682.2594717364145,-1867.4961547610862,1867.4961547610862,5682.2594717364145,10604.695987063556,0.0
683296.95196600363,3685566.251970998,-12500.0,-5261.0221136558575,-4397.4302979058466,-3329.7644799791442,1582.5289714643536,1242.6003141004419,-339.84254414005852,4731.991800523796,-5442.8425454168619,-1162.2064377663446,1162.2064377663446,5442.8425454168619,9412.8231113695947,0.0
688296.95196600363,3685566.251970998,-12500.0,-5108.1164442001163,-3785.0193494359833,-2655.6800976388668,1411.7129010967381,1006.43447419984,-282.66578564236477,4175.1475728822243,-5094.9296280247654,-650.91105595912768,650.91105595912768,5094.9296280247654,8334.3837764577584,0.0
693296.95196600363,3685566.251970998,-12500.0,-4859.1161109232071,-3239.4121517742515,-2128.5234532038276,1247.3780761440255,814.69025065955191,-234.20404201720424,3701.6093456088915,-4697.8764368256052,-287.25630791655703,287.25630791655703,4697.8764368256052,7372.7597983952037,0.0
698296.95196600363,3685566.251970998,-12500.0,-4558.5104084286641,-2764.2958582864903,-1716.7878108120151,1095.63738690471,660.2668731770458,-193.78493679023947,3285.5080373790183,-4289.0500960779154,-33.524610358771952,33.524610358771952,4289.0500960779154,6523.4954141197295,0.0
703296.95196600363,3685566.251970998,-12500.0,-4236.1319988709547,-2356.4370756215417,-1394.6885629300732,959.05632141395085,536.40491692253579,-160.40132562733766,2918.1881799553266,-3890.7910539026279,139.62385158961774,-139.62385158961774,3890.7910539026279,5778.0072701614872,0.0
708296.95196600363,3685566.251970998,-12500.0,-3911.2778902052778,-2009.3951857611362,-1141.8134140325535,838.11622529357169,437.18782722736023,-132.98102465948199,2595.2481977695202,-3515.5209728272753,254.38789796864558,-254.38789796864558,3515.5209728272753,5125.9462333524798,0.0
518296.95196600363,3690566.251970998,-12500.0,-1259.7371699019272,1739.707873983715,-1339.2234508586678,-356.44477063537545,402.50049270677488,-68.955685222677019,1788.0245696392114,662.48385163671628,-372.98022215734318,372.98022215734318,-662.48385163671628,3386.1273497307925,0.0
523296.95196600363,3690566.251970998,-12500.0,-1129.494785329751,1927.3143474954879,-1587.0496338400887,-368.46703853754718,470.22989563233523,-77.999327064749394,1995.4520962806164,923.68346316474958,-578.62614764272371,578.62614764272371,-923.68346316474958,3743.0455654659008,0.0
528296.95196600363,3690566.251970998,-12500.0,-912.79907573465289,2115.837974392914,-1885.1648836547838,-368.47652474607554,547.5140030153409,-87.056257370575565,2232.8695817362377,1250.9057273196922,-850.20024747174512,850.20024747174512,-1250.9057273196922,4143.3345446891763,0.0
533296.95196600363,3690566.251970998,-12500.0,-578.01013468231076,2290.5761705830305,-2241.0277498169808,-348.85123701045899,633.48875827287441,-95.142639766783702,2506.3605574880025,1655.9176467485499,-1205.414204264951,1205.414204264951,-1655.9176467485499,4594.6750606227451,0.0
538296.95196600363,3690566.251970998,-12500.0,-84.543382523202055,2426.7906936404497,-2659.9068237060292,-298.44864405596354,725.13469012257951,-100.52196169771588,2824.532432082734,2148.9623445383563,-1664.4642244232839,1664.4642244232839,-2148.9623445383563,5109.2285590506835,0.0
543296.95196600363,3690566.251970998,-12500.0,617.86722243537349,2484.5810693954427,-3141.078541425069,-201.33593004004737,815.54674211264967,-100.27416327205682,3200.3313208249701,2734.9782532208346,-2248.0390392500603,2248.0390392500603,-2734.9782532208346,5708.0936391175192,0.0
548296.95196600363,3690566.251970998,-12500.0,1588.0358821905982,2401.9158627555921,-3670.6854096911616,-35.381938192938982,891.12117971005489,-89.684395866387277,3654.1918548784779,3406.6793854742145,-2972.4434366366922,2972.4434366366922,-3406.6793854742145,6429.6094406860566,0.0
553296.95196600363,3690566.251970998,-12500.0,2888.0814042129987,2086.0445711555526,-4208.9679222883788,228.90114272839253,927.17220603815292,-61.447877734992332,4219.1485033992467,4132.7268567867904,-3839.3784343832613,3839.3784343832613,-4132.7268567867904,7343.4157774727692,0.0
558296.95196600363,3690566.251970998,-12500.0,4570.2657557285956,1404.9524070751079,-4668.6011113488839,628.33395811114519,881.51100994563694,-4.7951573022599305,4948.1921276645662,4838.9701186262355,-4816.5134476388266,4816.5134476388266,-4838.9701186262355,8570.6904115371126,0.0
563296.95196600363,3690566.251970998,-12500.0,6650.2770942130546,183.85497861905634,-4880.4116822168244,1203.9785244407287,685.95713257970215,95.109829428271894,5922.7287428587588,5381.6904932484185,-5803.6735556402118,5803.6735556402118,-5381.6904932484185,10305.489813937082,0.0
568296.95196600363,3690566.251970998,-12500.0,9060.6007956409048,-1781.7402086988923,-4544.8360037770944,1991.7339781876892,237.19128338487735,256.69564719112913,7257.9451973873238,5516.1106536697462,-6580.0462783632629,6580.0462783632629,-5516.1106536697462,12822.997606986452,0.0
573296.95196600363,3690566.251970998,-12500.0,11582.036208048139,-4674.5205767547241,-3176.9718684147329,3002.1578195242105,-608.26039511966258,499.04892879932231,9097.0011405346741,4875.1731203524005,-6735.1510306180526,6735.1510306180526,-4875.1731203524005,16455.675385095354,0.0
578296.95196600363,3690566.251970998,-12500.0,13769.368964871144,-8533.4370937028361,-78.65334055806909,4185.9357297564447,-2024.0258417435161,834.94779752548015,11583.533766977265,2997.2428562150353,-5610.0624774157195,5610.0624774157195,-2997.2428562150353,21523.607536711137,0.0
583296.95196600363,3690566.251970998,-12500.0,14929.31700295155,-13037.854503563367,5579.6306657955602,5388.5653516221828,-4170.5804308322195,1259.8059745860976,14802.819601639014,-526.7231512018725,-2326.7790143699767,2326.7790143699767,526.7231512018725,28208.413799162623,0.0
588296.95196600363,3690566.251970998,-12500.0,14268.87984721682,-17244.120379724263,14429.395969810994,6316.1722694920372,-7099.6628601208731,1741.0786086816124,18689.987944822831,-5712.2136941184881,3948.3317958261205,-3948.3317958261205,5712.2136941184881,36358.757968120975,0.0
593296.95196600363,3690566.251970998,-12500.0,11337.170615190511,-19494.379734019283,26230.444889266404,6561.0718484703921,-10611.884219915119,2218.2900501384333,22942.339338162659,-11692.674887355359,13370.417765772349,-13370.417765772349,11692.674887355359,45253.125481295152,0.0
598296.95196600363,3690566.251970998,-12500.0,6666.7331479442137,-17898.484492044408,39084.006835076783,5742.9026549128403,-14139.565680926973,2620.8403471311253,27037.882404312775,-16459.053385645195,24569.411973581751,-24569.411973581751,16459.053385645195,53462.114465085499,0.0
603296.95196600363,3690566.251970998,-12500.0,2042.7500695089955,-11566.522041025857,49356.131550786296,3754.6774461612931,-16802.41342601701,2891.7874067893827,30005.691824881145,-17487.774653016746,34369.097773027301,-34369.097773027301,17487.774653016746,59073.813991729956,0.0
608296.95196600363,3690566.251970998,-12500.0,-311.44058637414821,-1820.0449481753897,53168.074643653927,957.18069691305743,-17740.578695401022,2992.7554070894735,30789.160198566209,-13385.875683266082,39025.278578676203,-39025.278578676203,13385.875683266082,60424.664941474897,0.0
613296.95196600363,3690566.251970998,-12500.0,682.12510125208871,8073.9585585791247,48825.723130597871,-1899.7075546395545,-16578.932197995076,2892.7693671162397,29055.223562804691,-5253.7344598508862,36573.893054285312,-36573.893054285312,5253.7344598508862,56984.565240364536,0.0
618296.95196600363,3690566.251970998,-12500.0,4155.9139346404399,14847.964965080426,37969.663310593853,-4043.3201295489316,-13653.427270056685,2576.7159464321403,25331.843366422145,3839.0167027795196,28157.571169465518,-28157.571169465518,-3839.0167027795196,49688.447858763204,0.0
623296.95196600363,3690566.251970998,-12500.0,8108.7123560100654,17061.936320261801,24323.324150130517,-5049.7582047906471,-9802.7338445008882,2076.1427491628642,20779.250332590433,10850.336578952842,17031.007786280741,-17031.007786280741,-10850.336578952842,40437.992843864689,0.0
628296.95196600363,3690566.251970998,-12500.0,10812.841220867271,15317.137162590459,11475.029444224143,-4950.6405620364649,-5930.7488010747775,1476.9787771789186,16461.248742304502,14287.296892414211,6479.8826946633117,-6479.8826946633117,-14287.296892414211,31251.733735847891,0.0
633296.95196600363,3690566.251970998,-12500.0,11550.601977492979,11265.721045476648,1540.6930873744243,-4082.5405234727777,-2672.2480003931655,885.33282841596997,12946.626468358974,14314.485054841152,-1518.1640617563853,1518.1640617563853,-14314.485054841152,23650.822841236815,0.0
638296.95196600363,3690566.251970998,-12500.0,10510.842806055041,6563.4130363367822,-4921.322355980029,-2860.8452551758,-297.88750817194813,383.97678023605681,10460.237404274845,12017.127310936925,-6435.4655736624954,6435.4655736624954,-12017.127310936925,18397.835679514126,0.0
643296.95196600363,3690566.251970998,-12500.0,8332.4423762960068,2333.3078044883227,-8353.6150033467438,-1621.2697132706896,1207.0866319157458,12.018440863537458,8895.8513761457561,8636.0537956542776,-8689.9076066978723,8689.9076066978723,-8636.0537956542776,15408.069019974007,0.0
648296.95196600363,3690566.251970998,-12500.0,5699.9333258638935,-902.77441831429451,-9592.8238955883735,-563.61314551433395,2009.324574856862,-230.06323604938845,7938.2249375916535,5132.5823835309438,-9070.0826516085017,9070.0826516085017,-5132.5823835309438,13923.269190066192,0.0
653296.95196600363,3690566.251970998,-12500.0,3129.2723282794682,-3061.999963373672,-9468.5125382020105,233.92971433996425,2316.8108326664956,-364.28975838572734,7273.3648411505737,2071.1970744575619,-8350.5678245304225,8350.5678245304225,-2071.1970744575619,13087.878131078653,0.0
658296.95196600363,3690566.251970998,-12500.0,917.36522367124473,-4296.7716618644108,-8625.1409934354542,773.20035363649072,2315.3333769680839,-420.08245498532989,6708.3850964101439,-317.66612070707197,-7121.8102716136191,7121.8102716136191,317.66612070707197,12383.382044123882,0.0
663296.95196600363,3690566.251970998,-12500.0,-819.81336925773519,-4839.9704417167522,-7491.6767526165468,1095.7655348026021,2144.700301131179,-424.8735654624337,6163.3587621876668,-2018.4655579945832,-5763.7189593764188,5763.7189593764188,2018.4655579945832,11618.174941326817,0.0
668296.95196600363,3690566.251970998,-12500.0,-2083.0166026580882,-4916.9860479792824,-6319.3800630485011,1254.9764517474032,1898.3886346517393,-400.13469665574843,5621.0784787335724,-3123.8015471769713,-4485.445406014861,4485.445406014861,3123.8015471769713,10769.166986760712,0.0
673296.95196600363,3690566.251970998,-12500.0,-2932.9142172993579,-4709.2126547371827,-5236.2920149111305,1300.7735053497711,1632.9627957890302,-360.83797155816745,5088.8719289653554,-3762.4954368413023,-3380.5744366968952,3380.5744366968952,3762.4954368413023,9871.7464466630991,0.0
678296.95196600363,3690566.251970998,-12500.0,-3451.3073476839281,-4347.4582070060005,-4294.676059232057,1273.5632541990831,1379.2300100743169,-316.50313829588004,4579.2798423549129,-4060.2803510661934,-2474.334619622211,2474.334619622211,4060.2803510661934,8969.724574157297,0.0
683296.95196600363,3690566.251970998,-12500.0,-3719.1709837077951,-3918.7698476033233,-3504.8256625763634,1203.2351929381723,1151.6352432085744,-272.66225462673464,4102.577748893149,-4122.9486859291683,-1756.5880213244293,1756.5880213244293,4122.9486859291683,8098.0251086444441,0.0
688296.95196600363,3690566.251970998,-12500.0,-3806.5810933067655,-3477.1235220343879,-2856.4428267764497,1110.5127644032664,955.03823671457383,-232.18897781665163,3664.9878092876124,-4032.287219831419,-1202.1054314453238,1202.1054314453238,4032.287219831419,7279.4264097670894,0.0
693296.95196600363,3690566.251970998,-12500.0,-3769.6683274215889,-3053.4871886640167,-2330.9566126743794,1009.0003414601152,789.14185585491032,-196.30908980821465,3269.4851957463779,-3848.036924998999,-781.74819270593093,781.74819270593093,3848.036924998999,6526.2229160690877,0.0
698296.95196600363,3690566.251970998,-12500.0,-3651.1612591741696,-2663.7752556122928,-1908.0445281524962,907.15786837743769,651.18935152664847,-165.29719964217088,2930.0762911886309,-3612.0132285527484,-467.94994757697077,467.94994757697077,3612.0132285527484,5843.071192584136,0.0
703296.95196600363,3690566.251970998,-12500.0,-3482.3956573545943,-2314.5531539976951,-1568.7221119897893,809.91126509004141,537.50194175536876,-138.92326201310394,2631.7607693947275,-3352.4319368517486,-236.93623663045946,236.93623663045946,3352.4319368517486,5229.5986572767515,0.0
518296.95196600363,3695566.251970998,-12500.0,-673.29440772287251,1503.2684297800645,-1360.8009941178398,-239.8903240631104,363.03033398794042,-52.130718668018979,1579.9259237329366,878.08797289122833,-611.49964445104786,611.49964445104786,-878.08797289122833,2938.2012952204382,0.0
523296.95196600363,3695566.251970998,-12500.0,-464.78383528324088,1615.9412748748584,-1586.9880120210753,-228.9155219653546,414.96095498244051,-56.754939075650341,1752.8963401072581,1133.8980575378389,-835.66139290633669,835.66139290633669,-1133.8980575378389,3223.5546945235001,0.0
528296.95196600363,3695566.251970998,-12500.0,-166.91866220093061,1708.5307657863261,-1848.9306627727683,-202.13082802668276,470.67137762530342,-60.252551227133118,1951.2649435512812,1440.404896282743,-1118.318617202204,1118.318617202204,-1440.404896282743,3544.6231242529552,0.0
533296.95196600363,3695566.251970998,-12500.0,246.21144430950804,1761.9119504092837,-2146.854888988657,-152.10654893263342,527.39325622450815,-61.434106700712015,2181.559270869765,1801.2412558136677,-1470.4192486117806,1470.4192486117806,-1801.2412558136677,3911.7818650473082,0.0
538296.95196600363,3695566.251970998,-12500.0,805.15756045636351,1747.367116157166,-2475.7752933557053,-68.686444064901451,579.79601654280714,-58.414214358740729,2453.5830700506631,2215.4349443308938,-1901.6794380625051,1901.6794380625051,-2215.4349443308938,4342.7496882665073,0.0
543296.95196600363,3695566.251970998,-12500.0,1543.7282900682521,1623.0329485089753,-2820.9264527078662,61.64311815800545,618.42080530521048,-48.289222435575766,2782.4119267101487,2673.1679713044746,-2417.1444695834784,2417.1444695834784,-2673.1679713044746,4868.0144157976192,0.0
548296.95196600363,3695566.251970998,-12500.0,2495.2368356275583,1329.9546246411142,-3150.2810267082141,256.1768812287674,627.37653525876681,-26.722087322447077,3191.2808634913554,3149.1370273190541,-3010.8533996652304,3010.8533996652304,-3149.1370273190541,5538.8090994932381,0.0
553296.95196600363,3695566.251970998,-12500.0,3684.6669692421087,788.82168983028794,-3402.8688961529606,535.75704382012771,581.14418859038778,12.531225131049078,3715.2293529998606,3592.8644135149661,-3654.9697820701958,3654.9697820701958,-3592.8644135149661,6436.7975955671591,0.0
558296.95196600363,3695566.251970998,-12500.0,5114.4932053710836,-100.06668998958621,-3471.7131094857932,923.05187382389113,440.55060368297052,78.033049885021356,4404.6313040449395,3915.9575718149913,-4282.4694364124662,4282.4694364124662,-3915.9575718149913,7682.0018617147934,0.0
563296.95196600363,3695566.251970998,-12500.0,6741.9716271539728,-1448.514659752143,-3181.4654609093122,1438.0071323023121,148.56963849998678,180.73419616210646,5326.6043353544555,3978.3318096932094,-4762.1586537632602,4762.1586537632602,-3978.3318096932094,9432.8579926215571,0.0
568296.95196600363,3695566.251970998,-12500.0,8447.8275932992765,-3355.180509824293,-2264.8171628594655,2088.6933299999628,-372.1239550679727,333.19476626012477,6561.1921921263438,3579.9729175161933,-4868.0559807403424,4868.0559807403424,-3579.9729175161933,11872.400841500505,0.0
573296.95196600363,3695566.251970998,-12500.0,10002.91061360708,-5851.7736215032928,-350.87170736148511,2856.0248670809774,-1215.7530705103045,547.24220101731828,8188.7309238114067,2472.9753794008766,-4253.7841580879522,4253.7841580879522,-2472.9753794008766,15177.058519262619,0.0
578296.95196600363,3695566.251970998,-12500.0,11053.294960465744,-8812.1362802481872,3005.4440286380554,3673.0390545552441,-2477.4037775163947,829.4611544390043,10265.081497317136,418.87397571982638,-2459.3089728944133,2459.3089728944133,-418.87397571982638,19464.384538842005,0.0
583296.95196600363,3695566.251970998,-12500.0,11163.912229125142,-11835.870753444127,8206.0473976799331,4405.2408836617788,-4216.4851308134557,1174.8213060388571,12783.181299289503,-2680.7823963400697,1000.7516759706726,-1000.7516759706726,2680.7823963400697,24714.423174987314,0.0
588296.95196600363,3695566.251970998,-12500.0,9969.4414239951857,-14167.691552998484,15360.907926933693,4847.9949561451758,-6397.3219366877056,1560.6949915563341,15626.757205182292,-6580.7060543555126,6412.1942552523433,-6412.1942552523433,6580.7060543555126,30668.668104949978,0.0
593296.95196600363,3695566.251970998,-12500.0,7438.3948518941097,-14780.155258300641,23936.043515048012,4764.2526016098245,-8822.7691143523334,1945.418360087983,18547.09480113602,-10501.919300031552,13504.564260831603,-13504.564260831603,10501.919300031552,36741.576448200249,0.0
598296.95196600363,3695566.251970998,-12500.0,4126.4881062389832,-12750.009675178339,32495.983561234189,3976.2194247150833,-11105.477243814536,2274.6161505400692,21196.410301629297,-13163.639103825542,21135.628117172124,-21135.628117172124,13163.639103825542,42022.713530568792,0.0
603296.95196600363,3695566.251970998,-12500.0,1151.2966099594041,-7867.5876189204018,38892.900283682109,2484.5762456438624,-12735.36334494702,2493.5103058059753,22998.611537063014,-13244.065725445875,27372.694325264234,-27372.694325264234,13244.065725445875,45457.205027195378,0.0
608296.95196600363,3695566.251970998,-12500.0,-297.79301437368451,-1070.7231251025939,41093.22290209194,537.15539088215212,-13259.240176000916,2559.3507148836902,23418.895165173093,-10159.760406195463,30218.100332307054,-30218.100332307054,10159.760406195463,46204.401188867327,0.0
613296.95196600363,3695566.251970998,-12500.0,329.00287822540912,5795.4878225415159,38245.96587742363,-1431.1405637740604,-12490.336486010583,2451.0457920939589,22303.071238074881,-4592.9569229387453,28660.261356351202,-28660.261356351202,4592.9569229387453,44007.621730875537,0.0
618296.95196600363,3695566.251970998,-12500.0,2599.2334449389791,10868.949027490245,31169.561195204144,-2975.8710279990732,-10605.115102994383,2177.092128048248,19932.87516643526,1772.038114383533,23243.823080222857,-23243.823080222857,-1772.038114383533,39330.363968379053,0.0
623296.95196600363,3695566.251970998,-12500.0,5422.1859382862112,13140.894217176463,21858.942784562681,-3823.9658496692869,-8055.7344209856865,1778.5841687715381,16936.697339224786,7137.1868423769292,15692.968933967732,-15692.968933967732,-7137.1868423769292,33165.250246792042,0.0
628296.95196600363,3695566.251970998,-12500.0,7705.1398617759942,12698.732093491968,12476.144214696616,-3945.3384363941559,-5368.6307604401181,1320.0958310787153,13890.09830619169,10389.145188232931,7974.8390508934453,-7974.8390508934453,-10389.145188232931,26663.297018173238,0.0
633296.95196600363,3695566.251970998,-12500.0,8819.3747528665244,10366.143366899047,4564.2811877708364,-3500.2273577984342,-2963.0347303871276,869.58447675011473,11180.471240860599,11330.414837654145,1525.5636855501625,-1525.5636855501625,-11330.414837654145,20807.262416108191,0.0
638296.95196600363,3695566.251970998,-12500.0,8679.1647209633702,7163.8129965607468,-1193.6902566117681,-2728.8439780115627,-1069.3051352405623,478.86202307160579,9046.326903047302,10427.162108665119,-3012.4641547106935,3012.4641547106935,-10427.162108665119,16232.328519704171,0.0
643296.95196600363,3695566.251970998,-12500.0,7564.353137537355,3926.7108468737088,-4806.6546700391755,-1855.2648724601552,258.01471381346556,174.60242902786169,7540.9111729596298,8407.6321762541538,-5648.8401591034226,5648.8401591034226,-8407.6321762541538,13153.497566863132,0.0
648296.95196600363,3695566.251970998,-12500.0,5888.6543047257701,1161.5280438354287,-6666.347978941365,-1037.6945371665133,1079.9266142201109,-39.432441893582833,6555.7211983556281,5953.4306182902374,-6755.53320683728,6755.53320683728,-5953.4306182902374,11363.087111357336,0.0
653296.95196600363,3695566.251970998,-12500.0,4032.8271239332694,-926.24012531607912,-7281.1995437928681,-360.81123922737078,1509.1445238966194,-174.34463962211856,5906.245698130494,3553.0320279392763,-6812.0956765830779,6812.0956765830779,-3553.0320279392763,10387.699856071238,0.0
658296.95196600363,3695566.251970998,-12500.0,2268.4864342423512,-2335.2060564395424,-7116.1453634859781,148.60291174521342,1664.5276962855082,-247.68818242276336,5427.4015185754124,1482.0930578071675,-6251.6539744641977,6251.6539744641977,-1482.0930578071675,9773.7835137488655,0.0
663296.95196600363,3695566.251970998,-12500.0,749.05764377408809,-3169.3988260015212,-6527.3955486141613,499.704442417954,1647.1745807124689,-277.47926832221049,5017.0990842750307,-151.76556460115762,-5399.131876874997,5399.131876874997,151.76556460115762,9249.5910149540105,0.0
668296.95196600363,3695566.251970998,-12500.0,-465.82768760538391,-3567.0736443146238,-5756.3859032106147,718.80496721665259,1532.6760125633141,-279.04738003853379,4628.9820219505264,-1348.0675839073899,-4467.2410520537387,4467.2410520537387,1348.0675839073899,8705.3108720914079,0.0
673296.95196600363,3695566.251970998,-12500.0,-1377.5438093145037,-3660.2729946699797,-4950.487719848782,836.81688514048585,1372.4341691639383,-264.01170307886412,4249.4821315389454,-2161.6066671634053,-3578.3248504577077,3578.3248504577077,2161.6066671634053,8119.6538736553575,0.0
678296.95196600363,3695566.251970998,-12500.0,-2020.1743228323487,-3557.4075745082741,-4190.0459031016935,882.4141389788482,1198.630169098082,-240.46075831841895,3879.6108851201247,-2667.1506332344179,-2791.856233650873,2791.856233650873,2667.1506332344179,7506.5988216745818,0.0
683296.95196600363,3695566.251970998,-12500.0,-2440.7280494942843,-3339.5561210146452,-3512.1715114718381,879.1921089765998,1029.7311861659955,-213.6330659200994,3524.8106052982371,-2939.2584720913505,-2128.1831938560467,2128.1831938560467,2939.2584720913505,6888.5433884383046,0.0
688296.95196600363,3695566.251970998,-12500.0,-2687.3080456138468,-3063.3498146252041,-2928.3773486123823,845.14648322228891,875.15810988823557,-186.68470328853445,3190.4106787031669,-3042.8072544445145,-1585.7906557920119,1585.7906557920119,3042.8072544445145,6285.4525836838448,0.0
693296.95196600363,3695566.251970998,-12500.0,-2803.1217156418693,-2766.1052552588671,-2436.3532847083616,793.26482350095432,738.7514470701152,-161.35514200075525,2880.085342953194,-3029.9785559346669,-1152.5342350567921,1152.5342350567921,3029.9785559346669,5711.7087042494322,0.0
698296.95196600363,3695566.251970998,-12500.0,-2824.1846768127239,-2471.0040085993987,-2027.2387158122151,732.50581501909539,621.13727686561231,-138.4752413817879,2595.6844962688592,-2940.6014887966071,-812.32584046699913,812.32584046699913,2940.6014887966071,5176.1476059053293,0.0
523296.95196600363,3700566.251970998,-12500.0,69.504820362902137,1284.1045898718594,-1524.1347708747571,-113.20360176811157,352.96626536465936,-38.644849852310259,1543.8735488668231,1234.8644534543134,-1004.9346302227412,1004.9346302227412,-1234.8644534543134,2781.7272358553982,0.0
528296.95196600363,3700566.251970998,-12500.0,409.41094883003052,1291.6595923029629,-1736.3696669553258,-68.458340030627951,388.09598316742489,-37.976746794895114,1714.9407166427202,1500.3239450228593,-1274.3920380946365,1274.3920380946365,-1500.3239450228593,3052.1472724690097,0.0
533296.95196600363,3700566.251970998,-12500.0,852.02394213949435,1243.3126369626227,-1962.1441024172941,0.095785389178284303,418.16701621966774,-34.244161242812169,1917.0634065793818,1796.1769071037456,-1594.3818554748032,1594.3818554748032,-1796.1769071037456,3372.3842435595261,0.0
538296.95196600363,3700566.251970998,-12500.0,1417.1725844415994,1110.726744952934,-2188.3679610669014,100.83847973494643,436.6396909220968,-25.638465747001192,2161.3178273345875,2113.16801484394,-1965.0155707340259,1965.0155707340259,-2113.16801484394,3766.0486152998565,0.0
543296.95196600363,3700566.251970998,-12500.0,2123.1819272220782,855.84638700016308,-2390.5354552817471,244.13691918838902,433.16512009322145,-9.5470621963849087,2464.023814725339,2432.1114574607423,-2378.5586388276656,2378.5586388276656,-2432.1114574607423,4270.2184164123682,0.0
548296.95196600363,3700566.251970998,-12500.0,2982.2327173044537,429.70925640671572,-2526.2695495368848,442.11614958343483,391.94049008794087,17.695964491213907,2848.5503856115297,2718.7480918722927,-2813.2519856437607,2813.2519856437607,-2718.7480918722927,4939.9514377343648,0.0
553296.95196600363,3700566.251970998,-12500.0,3992.6415546291964,-226.8065923479754,-2526.4682217540835,707.68467246774674,289.71966060112777,61.043806309015196,3346.7951763157198,2917.4133249527376,-3224.1244559082197,3224.1244559082197,-2917.4133249527376,5851.0105739438904,0.0
558296.95196600363,3700566.251970998,-12500.0,5127.2786032083823,-1177.962933248868,-2284.373035491893,1052.2379812454626,93.794288229201825,126.84836090776028,3999.4070593327069,2944.6410665601552,-3530.5145810186032,3530.5145810186032,-2944.6410665601552,7098.3260034584146,1.0
563296.95196600363,3700566.251970998,-12500.0,6318.319276769791,-2480.2184016977594,-1644.6149959122365,1481.2989846348009,-239.23700602548328,222.65142878648186,4853.5108793789241,2685.6998575420512,-3601.4821618764026,3601.4821618764026,-2685.6998575420512,8788.3433799298164,0.0
568296.95196600363,3700566.251970998,-12500.0,7441.1509480333389,-4156.7470990508746,-397.82183263935133,1987.4342075085706,-762.27095293029333,356.35560708183425,5956.6015580343637,2000.1317263529941,-3243.662984846073,3243.662984846073,-2000.1317263529941,11024.28210750763,0.0
573296.95196600363,3700566.251970998,-12500.0,8305.3066780268437,-6155.929244780179,1707.9111387483097,2540.5133721315169,-1531.3996927659759,534.4306283291703,7345.3229131591934,746.06998944811698,-2202.1455161592421,2202.1455161592421,-746.06998944811698,13882.69331700673,0.0
578296.95196600363,3700566.251970998,-12500.0,8667.4019283879461,-8296.903483874612,4920.8991140254147,3077.3227113124908,-2591.1929184288842,758.97174098239338,9028.2841130782945,-1165.3249361361386,-192.82150977993717,192.82150977993717,1165.3249361361386,17378.693998836843,0.0
583296.95196600363,3700566.251970998,-12500.0,8285.8264808831191,-10221.126313894503,9386.2304171559354,3495.9274305765557,-3949.445450478403,1023.9633307733941,10963.996448191663,-3681.2093277176182,3011.2152875479633,-3011.2152875479633,3681.2093277176182,21419.843167053939,0.0
588296.95196600363,3700566.251970998,-12500.0,7028.4970524660721,-11392.827608538137,14991.046407092395,3663.8244172739046,-5544.4124219700543,1312.0081706610376,13041.016101472091,-6505.0673391671608,7429.604112046125,-7429.604112046125,6505.0673391671608,25758.109021574885,0.0
593296.95196600363,3700566.251970998,-12500.0,5009.6460125047906,-11206.146482090377,21202.111370687748,3448.9217696305814,-7217.4581293490146,1593.5659281669959,15084.138661392137,-9045.24554622293,12697.616335849129,-12697.616335849129,9045.24554622293,29964.541420569018,0.0
598296.95196600363,3700566.251970998,-12500.0,2673.6462249488432,-9225.0050199034613,27011.633068495634,2773.0817746645444,-8714.1532123847737,1830.4625248373063,16860.880169594613,-10508.653307167911,17972.033183953783,-17972.033183953783,10508.653307167911,33462.687507344803,0.0
603296.95196600363,3700566.251970998,-12500.0,714.32061542060137,-5477.6151301441523,31127.787101521346,1668.500762209067,-9735.0065310190294,1983.6513817216714,18002.405038404311,-10188.615141352329,22066.355933752326,-22066.355933752326,10188.615141352329,35646.331353649235,0.0
608296.95196600363,3700566.251970998,-12500.0,-204.88111194824802,-609.4622563702834,32427.938757152104,300.40130779386982,-10031.971331695608,2023.0305511828849,18228.473173403821,-7843.0951736392835,23861.56572661415,-23861.56572661415,7843.0951736392835,36062.000567959614,0.0
613296.95196600363,3700566.251970998,-12500.0,210.03787275293425,4282.3858116608089,30462.125430770349,-1072.1255668028709,-9508.2475472029928,1936.1658170876176,17465.265719572624,-3910.9498697491981,22808.452118516376,-22808.452118516376,3910.9498697491981,34577.94823668991,0.0
618296.95196600363,3700566.251970998,-12500.0,1726.6586231509282,8089.3225632655631,25674.750506849137,-2186.3080120047271,-8262.2226475746902,1733.0023994636219,15877.815126093617,630.38971358376693,19191.33416881568,-19191.33416881568,-630.38971358376693,31445.245106018061,0.0
623296.95196600363,3700566.251970998,-12500.0,3728.0998820745617,10129.621559339213,19189.363419362489,-2867.4260560031516,-6547.2980074963998,1444.268797610222,13834.16287433005,4691.6617972682043,13969.778002384744,-13969.778002384744,-4691.6617972682043,27215.306315132919,0.0
628296.95196600363,3700566.251970998,-12500.0,5531.824782554133,10322.700351431786,12323.917242775708,-3072.6131665762141,-4674.6260632527919,1113.1780885292353,11658.2210983069,7495.5385360167211,8333.8731937795528,-8333.8731937795528,-7495.5385360167211,22565.958535679671,0.0
633296.95196600363,3700566.251970998,-12500.0,6662.3641272550922,9064.8846239713494,6147.0754181748216,-2874.2788743268807,-2915.3899089811057,783.50919440568384,9601.8069427708288,8765.2563702166735,3272.6874147531157,-3272.6874147531157,-8765.2563702166735,18127.230402079738,0.0
638296.95196600363,3700566.251970998,-12500.0,6951.989530495197,6962.1691171662396,1267.0704712507388,-2407.4610583940662,-1444.5135537544982,489.32450412317218,7856.1018154925205,8658.784740322224,-643.97796825206615,643.97796825206615,-8658.784740322224,14366.888225478093,0.0
643296.95196600363,3700566.251970998,-12500.0,6488.5883796511516,4591.1333446171893,-2150.3067108559007,-1815.0840212718977,-333.07211290433759,250.07126565427089,6512.5590801557846,7574.3354720043062,-3260.8791843567651,3260.8791843567651,-7574.3354720043062,11537.227854751238,0.0
648296.95196600363,3700566.251970998,-12500.0,5497.6952474044128,2368.6913566842177,-4241.6973105161487,-1212.1757348469614,427.59663814433145,71.26393864953441,5560.3492823360721,5959.0167393850434,-4708.8879128567451,4708.8879128567451,-5959.0167393850434,9656.1121763556093,0.0
653296.95196600363,3700566.251970998,-12500.0,4232.9284399556464,525.34637591918215,-5288.7261153161417,-672.73650953200809,891.86997906884346,-51.536563462230149,4914.5247179736562,4187.1398562288578,-5255.2721216033406,5255.2721216033406,-4187.1398562288578,8532.01828263883,0.0
658296.95196600363,3700566.251970998,-12500.0,2907.8309041582847,-860.56051807837378,-5599.8363105007784,-232.66162444937456,1130.5823459647804,-128.04317253227694,4465.0590732670298,2513.5478763587398,-5190.1414874360235,5190.1414874360235,-2513.5478763587398,7873.2117543055274,0.0
663296.95196600363,3700566.251970998,-12500.0,1669.5125031626039,-1808.8397528917951,-5444.2200596065977,100.00729972886887,1212.0646039632329,-169.48255299756514,4119.9982330648791,1077.8845618606697,-4763.1064527109847,4763.1064527109847,-1077.8845618606697,7426.8421771887652,0.0
668296.95196600363,3700566.251970998,-12500.0,600.19303903971149,-2388.660555060284,-5027.2627579897189,333.90392447295829,1192.9205419782381,-186.26663157359192,3821.8415035299663,-67.767737141281259,-4160.4172817293802,4160.4172817293802,67.767737141281259,7041.43181612644,0.0
673296.95196600363,3700566.251970998,-12500.0,-268.27437604448198,-2684.3866637132041,-4490.8759262888298,485.41204761968174,1115.5485461567021,-186.92119273797704,3542.5417397059732,-927.17531467482831,-3506.3659581818661,3506.3659581818661,927.17531467482831,6651.204386867943,0.0
678296.95196600363,3700566.251970998,-12500.0,-937.21175228157176,-2776.0019090111546,-3924.9405461540159,572.79145637109582,1009.3279568183018,-177.85466273074601,3272.1758251395836,-1533.6973160509824,-2875.3469115670332,2875.3469115670332,1533.6973160509824,6239.4677900994602,0.0
683296.95196600363,3700566.251970998,-12500.0,-1426.467003716587,-2730.349132304535,-3381.338216429519,612.94122552028273,893.25596122426919,-163.57312744531478,3009.6967620500764,-1932.1749720542546,-2306.1453587563924,2306.1453587563924,1932.1749720542546,5811.2344567995833,0.0
688296.95196600363,3700566.251970998,-12500.0,-1763.9235217760756,-2598.9707199303634,-2886.4213844239098,619.99999459465437,778.75482597679729,-147.06452365712553,2757.3719821930245,-2168.1321680872102,-1814.3995330484131,1814.3995330484131,2168.1321680872102,5378.2598363265442,0.0
693296.95196600363,3700566.251970998,-12500.0,-1978.924630732839,-2419.3281982504036,-2450.5770049424564,605.04524787085188,672.07708877303787,-130.19640023726035,2518.0147677076825,-2282.3108874022801,-1401.9777936898836,1401.9777936898836,2282.3108874022801,4952.2679632400068,0.0
698296.95196600363,3700566.251970998,-12500.0,-2098.6744436097038,-2217.3368172967116,-2074.9096774637483,576.34942018330935,576.14098371831324,-114.05597855252852,2293.8480167703656,-2308.5860495185757,-1063.3801755588643,1063.3801755588643,2308.5860495185757,4542.4894240999602,0.0
528296.95196600363,3705566.251970998,-12500.0,830.15305066548558,894.26192514946695,-1566.1594495609652,34.315127082277243,306.0101262297984,-20.109499898003019,1523.2138256182257,1462.7776673180269,-1333.6897355598758,1333.6897355598758,-1462.7776673180269,2666.7091280198156,0.0
533296.95196600363,3705566.251970998,-12500.0,1266.2259393162581,768.19207350167369,-1715.0621101330553,111.87087706894768,313.57613272865098,-13.16569766872882,1708.5158518847243,1685.8967761597974,-1603.386094133647,1603.386094133647,-1685.8967761597974,2968.7672247078904,0.0
538296.95196600363,3705566.251970998,-12500.0,1797.6746841796219,552.83742464275656,-1838.8050636221919,218.11320110112428,304.96832826653491,-1.2660008547487864,1937.0518092373682,1904.0595585682347,-1896.3144228995045,1896.3144228995045,-1904.0595585682347,3355.1432129341601,0.0
543296.95196600363,3705566.251970998,-12500.0,2430.4718854288753,217.17250561022982,-1907.7774616672916,360.28919028732895,270.17502067287762,17.780728489504181,2224.6017968716833,2093.8433309913048,-2196.0713042067769,2196.0713042067769,-2093.8433309913048,3863.2279765626527,0.0
548296.95196600363,3705566.251970998,-12500.0,3161.9306375895044,-275.07961595565575,-1876.3579655599042,545.97225559986452,194.98677691991244,46.882662850788222,2591.8287887769875,2219.3317311261653,-2472.1376802016021,2472.1376802016021,-2219.3317311261653,4541.8815760296366,0.0
553296.95196600363,3705566.251970998,-12500.0,3974.5370253212468,-962.4148299487772,-1677.2975521908404,781.85329165332178,59.985076461692451,89.742256680915446,3064.1740132895911,2228.9921089257923,-2673.3450243640282,2673.3450243640282,-2228.9921089257923,5449.9589299365116,1.0
558296.95196600363,3705566.251970998,-12500.0,4828.1199446084293,-1878.6185789675826,-1216.3091300004392,1071.562116393517,-160.09250969943841,150.80245594991814,3670.5214761321945,2054.1320548394433,-2720.5111730073604,2720.5111730073604,-2054.1320548394433,6652.064051604224,0.0
563296.95196600363,3705566.251970998,-12500.0,5651.6275771570945,-3039.9591468088674,-369.37669387342544,1412.2239244243522,-495.91337300236336,234.93458538119646,4440.0919286108392,1611.603010706167,-2500.3051640803333,2500.3051640803333,-1611.603010706167,8211.2178184539753,0.0
568296.95196600363,3705566.251970998,-12500.0,6337.7816709031958,-4424.9735936501429,1012.4512976812682,1789.7163561428983,-980.9229509561452,346.70567236009111,5397.030623748713,814.88158076958962,-1864.7784833980677,1864.7784833980677,-814.88158076958962,10177.658549388148,0.0
573296.95196600363,3705566.251970998,-12500.0,6746.6432479368605,-5947.6576524566599,3083.4543269320648,2173.2780134769387,-1645.0958844038009,489.08154320079581,6552.2423955119375,-401.58005063349617,-644.06998812529594,644.06998812529594,401.58005063349617,12572.419372617629,0.0
578296.95196600363,3705566.251970998,-12500.0,6726.4314874726851,-7430.4448393835673,5960.4556336027363,2511.3692528731958,-2503.8618080336405,661.56257101071697,7892.620464300845,-2041.8462346360898,1318.0668531685178,-1318.0668531685178,2041.8462346360898,15365.130679661226,0.0
583296.95196600363,3705566.251970998,-12500.0,6158.5279092136789,-8592.2988155650783,9652.9207695724126,2732.2596537293389,-3542.4875534669113,858.06349390399384,9369.6237342113982,-3996.7238447067807,4099.0192143401182,-4099.0192143401182,3996.7238447067807,18448.679869936823,0.0
588296.95196600363,3705566.251970998,-12500.0,5023.7265112172508,-9075.6951275489737,13976.841360604287,2753.7002162422855,-4699.5298872592821,1065.2912319723123,10894.370974824187,-6000.7148701892111,7608.7727081806916,-7608.7727081806916,6000.7148701892111,21618.923777940661,0.0
593296.95196600363,3705566.251970998,-12500.0,3466.4119065107261,-8533.6682679668502,18488.934959546044,2504.3059023819242,-5857.5051432482687,1262.697862378564,12355.92310077454,-7634.4980435356792,11510.473457301114,-11510.473457301114,7634.4980435356792,24573.443500826746,0.0
598296.95196600363,3705566.251970998,-12500.0,1811.8483370958322,-6771.4561908488786,22500.340271033579,1953.3565544684066,-6851.6228557293725,1424.9134812761674,13576.587548102701,-8410.7083215545572,15209.279080221106,-15209.279080221106,8410.7083215545572,26944.524217709044,0.0
603296.95196600363,3705566.251970998,-12500.0,493.6705454173831,-3888.0011667874978,25218.188113263528,1137.1061909875186,-7503.3779927180685,1526.6954826059257,14320.661251623684,-7944.6269824609408,17965.461428117029,-17965.461428117029,7944.6269824609408,28371.792345011094,0.0
608296.95196600363,3705566.251970998,-12500.0,-104.74859860131927,-325.55324899037942,25996.87748539255,164.87613216723585,-7672.8645160496135,1549.1919087804747,14438.890868317892,-6142.815645528909,19127.146984177609,-19127.146984177609,6142.815645528909,28598.56506115921,0.0
613296.95196600363,3705566.251970998,-12500.0,179.97402334281455,3237.1375641481973,24588.821206300046,-805.23449092110093,-7308.2946340582776,1485.4052542576851,13894.010929615251,-3295.3172777983482,18383.420483995054,-18383.420483995054,3295.3172777983482,27554.451510322691,0.0
618296.95196600363,3705566.251970998,-12500.0,1215.3607749941159,6115.4888049479623,21251.301121266421,-1613.877697153069,-6466.8712023693715,1342.7055156590118,12786.248094737581,5.0633242131771112,15893.53099374132,-15893.53099374132,-5.0633242131771112,25384.568810470722,0.0
623296.95196600363,3705566.251970998,-12500.0,2640.130912626149,7850.8494820048718,16644.462429789244,-2148.6414031763516,-5295.2007559968533,1141.1888654148649,11349.276642779701,3080.704065211271,12214.556745607846,-12214.556745607846,-3080.704065211271,22410.594713264876,0.0
628296.95196600363,3705566.251970998,-12500.0,4025.6074982721202,8323.3383775513594,11586.808905308684,-2370.1909346121638,-3980.4298088449891,908.35200076532567,9774.0619029895643,5399.7520771414111,8079.5994010838494,-8079.5994010838494,-5399.7520771414111,19044.10696354611,0.0
633296.95196600363,3705566.251970998,-12500.0,5032.3421970546678,7714.4166310849914,6805.1992104880474,-2308.5262641139866,-2697.1481420740756,672.18842146740303,8219.338526275209,6705.7623231503931,4157.1790588136828,-4157.1790588136828,-6705.7623231503931,15691.789854845143,0.0
638296.95196600363,3705566.251970998,-12500.0,5490.9931137993926,6376.3154085858096,2783.757727650016,-2038.1391937766375,-1571.4413944847645,455.34824087825376,6825.3417110246155,7016.1617913801765,898.6986746304915,-898.6986746304915,-7016.1617913801765,12684.505492449249,0.0
643296.95196600363,3705566.251970998,-12500.0,5398.7832455708558,4691.2294377013613,-265.40793832781742,-1647.7776140662472,-669.40861049928424,272.09554617675127,5679.5071847940926,6533.685280937998,-1497.2408980930218,1497.2408980930218,-6533.685280937998,10239.149722341077,0.0
648296.95196600363,3705566.251970998,-12500.0,4865.1173846414413,2974.6493197895779,-2347.3596651927296,-1217.0144820532805,-4.9507527440564711,128.21982888762042,4808.2478648194829,5536.1759367029363,-3036.7509301161108,3036.7509301161108,-5536.1759367029363,8442.8858067260044,0.0
653296.95196600363,3705566.251970998,-12500.0,4046.4826791102951,1435.5970158683583,-3598.5314578799462,-804.17728888699423,443.28562464943894,22.905202556229863,4184.3684646503443,4290.2675095989653,-3850.0000761421516,3850.0000761421516,-4290.2675095989653,7251.7264373347889,0.0
658296.95196600363,3705566.251970998,-12500.0,3096.0564067951395,179.80820612909079,-4208.6379688897623,-444.16556567594,714.44176496323325,-48.719158550564913,3747.4404819926694,3004.3547659275828,-4116.4918549376343,4116.4918549376343,-3004.3547659275828,6518.9471636398548,0.0
663296.95196600363,3705566.251970998,-12500.0,2135.8672495110113,-765.44363453318488,-4367.1069036679346,-152.20223306758683,852.10660544246866,-93.279900563583467,3430.4734995650988,1815.4880126665405,-4013.6022315619603,4013.6022315619603,-1815.4880126665405,6063.5920860775277,0.0
668296.95196600363,3705566.251970998,-12500.0,1248.1511517674435,-1421.8644324855404,-4234.8720429840769,70.232577214158141,896.24142561054464,-117.53501800366756,3179.8138685437616,797.06822742104009,-3689.7140426338592,3689.7140426338592,-797.06822742104009,5738.4834616500339,0.0
673296.95196600363,3705566.251970998,-12500.0,478.61842847852188,-1835.3058907120021,-3934.940202267223,229.70427615520012,879.51290464986607,-127.45550988078492,2961.4520677628825,-24.842817704987738,-3255.6699465564329,3255.6699465564329,24.842817704987738,5454.8919965026089,0.0
678296.95196600363,3705566.251970998,-12500.0,-155.05684407974601,-2058.6414649533235,-3553.9510401528701,336.44803926787898,826.54646935187009,-127.85402299131688,2757.8122819974296,-654.55638335885601,-2786.9062026411038,2786.9062026411038,654.55638335885601,5171.9265608997421,0.0
683296.95196600363,3705566.251970998,-12500.0,-653.94492701825629,-2141.8277555614586,-3148.6266067783931,401.50031582245816,754.73863094469277,-122.35718310294246,2561.8149307254725,-1112.9293594118412,-2330.2358234075105,2330.2358234075105,1112.9293594118412,4877.185821368721,0.0
688296.95196600363,3705566.251970998,-12500.0,-1029.9804122048124,-2127.2716781296899,-2753.3384375582264,435.08827325473686,675.6781419131795,-113.55309980233096,2371.9166432209618,-1427.6705635996709,-1911.5575408317109,1911.5575408317109,1427.6705635996709,4571.9270460732814,0.0
693296.95196600363,3705566.251970998,-12500.0,-1300.1946615351826,-2048.5346878644987,-2386.9125491733807,445.90353338859467,596.62661969664634,-103.20094601237489,2188.9508764522056,-1627.3431672768406,-1542.6580776297183,1542.6580776297183,1627.3431672768406,4262.4414552897497,0.0
528296.95196600363,3710566.251970998,-12500.0,1116.6150893899014,535.58862289295212,-1358.0608212523919,109.60512289499643,228.88142036605646,-6.2748728205934015,1371.5845346899414,1358.2583731124878,-1315.8092532889868,1315.8092532889868,-1358.2583731124878,2379.0501196359724,0.0
533296.95196600363,3710566.251970998,-12500.0,1522.3766334479053,355.94476062087745,-1432.8948860881674,189.10237087552821,218.69496980660568,2.5197188028340611,1547.1070125674705,1510.3484587488049,-1526.6641993475603,1526.6641993475603,-1510.3484587488049,2680.0851756732773,0.0
538296.95196600363,3710566.251970998,-12500.0,1997.0230325930838,90.315178585446958,-1463.5140462425511,292.71947236641603,190.07987835600926,15.977012568374738,1765.8122337711568,1638.7928555860535,-1737.4773597037938,1737.4773597037938,-1638.7928555860535,3071.5293655930495,0.0
543296.95196600363,3710566.251970998,-12500.0,2537.932847660667,-284.24409525866753,-1419.1565903693795,425.02729836221471,134.11087130052633,35.838899954421805,2041.3820257856028,1719.8686944112408,-1927.2332281217493,1927.2332281217493,-1719.8686944112408,3585.5693157182645,0.0
548296.95196600363,3710566.251970998,-12500.0,3133.5590720237924,-791.62125909260146,-1256.1793452994334,590.0604076484326,38.894592201244379,64.298799963997141,2390.2072949228577,1720.7419969226039,-2062.5446175095076,2062.5446175095076,-1720.7419969226039,4259.8071712948995,0.0
553296.95196600363,3710566.251970998,-12500.0,3759.2178871316123,-1452.7867061522745,-915.24629694300688,790.179142625086,-110.76632044731575,103.99002514481371,2830.5950623687822,1598.7490416721321,-2093.7497550145845,2093.7497550145845,-1598.7490416721321,5134.8611287965559,0.0
558296.95196600363,3710566.251970998,-12500.0,4372.6850631228117,-2279.0213073612185,-319.91356528004837,1024.31869515673,-333.2062022350878,157.86073717178223,3381.1142750799572,1302.7931001389713,-1951.6554017341239,1951.6554017341239,-1302.7931001389713,6250.5461345858366,0.0
563296.95196600363,3710566.251970998,-12500.0,4911.0467249314297,-3261.5215084079737,621.24282731786775,1285.5888983878399,-648.73636225944472,228.86151000039465,4057.8367653924324,778.71651159649332,-1546.9133292306758,1546.9133292306758,-778.71651159649332,7640.2212129028112,0.0
568296.95196600363,3710566.251970998,-12500.0,5291.4050146344953,-4357.5750302850201,2005.7235141428264,1558.4475519614548,-1076.8509655256512,319.36726477255695,4870.2427227140861,-19.124165315135656,-775.30301854707545,775.30301854707545,19.124165315135656,9322.5967739923635,0.0
573296.95196600363,3710566.251970998,-12500.0,5419.1213371257527,-5475.6134562231109,3917.5801275769541,1816.1500134571693,-1631.1796119792907,430.29191965711482,5815.7529957474499,-1108.4314574254172,466.76172206101535,-466.76172206101535,1108.4314574254172,11290.552845742415,0.0
578296.95196600363,3710566.251970998,-12500.0,5207.2454766472811,-6464.9593766607941,6394.5737223590659,2019.8398510629736,-2312.0111669714693,559.95554486504113,6873.4748382704001,-2452.6397720055425,2252.6620071969714,-2252.6620071969714,2452.6397720055425,13497.683352382304,0.0
583296.95196600363,3710566.251970998,-12500.0,4607.9509294939126,-7120.0756406236242,9384.0682570690151,2121.2150005318726,-3097.3438355227463,702.9435585015076,7999.4586934555246,-3934.1114305956125,4582.1048573066073,-4582.1048573066073,3934.1114305956125,15845.405005539482,0.0
588296.95196600363,3710566.251970998,-12500.0,3649.800632580273,-7210.5744484094112,12699.069737838696,2070.5736693833992,-3935.2311664965441,849.40553460457102,9132.9679576549388,-5340.7237718958868,7332.9993449893764,-7332.9993449893764,5340.7237718958868,18176.08658312543,0.0
593296.95196600363,3710566.251970998,-12500.0,2464.778955154095,-6542.2880877943435,15997.324248097741,1830.4559984300622,-4742.0049339402276,985.35729717232164,10201.036963546188,-6384.5624448228218,10230.35297285963,-10230.35297285963,6384.5624448228218,20279.421867495883,0.0
598296.95196600363,3710566.251970998,-12500.0,1282.7254251684997,-5038.171743637934,18811.423144731933,1391.8433040604245,-5411.156621779448,1094.4026073297578,11051.113558724828,-6765.5993001570259,12861.483072477198,-12861.483072477198,6765.5993001570259,21917.91089122706,0.0
603296.95196600363,3710566.251970998,-12500.0,378.15252962462171,-2806.1133464901059,20644.684300568064,786.28926712978807,-5834.5300290653113,1160.8100131447159,11546.335503149678,-6271.3437113653445,14757.036315458216,-14757.036315458216,6271.3437113653445,22871.071263906695,0.0
608296.95196600363,3710566.251970998,-12500.0,-20.495398144650764,-150.81489921024428,21113.086430943418,86.356723247792445,-5931.0996316330466,1173.2163300844713,11603.506640556827,-4873.451480069255,15524.591670283444,-15524.591670283444,4873.451480069255,22988.046034874202,0.0
613296.95196600363,3710566.251970998,-12500.0,180.57676848756509,2493.8977096527401,20075.950708082826,-609.23880088674616,-5672.4072851118763,1127.73323488499,11202.460148494751,-2767.9165916793099,14981.921562089607,-14981.921562089607,2767.9165916793099,22230.152582081049,0.0
618296.95196600363,3710566.251970998,-12500.0,902.16964401403118,4691.8272990391361,17689.875638014524,-1201.5055911462064,-5092.8634491909625,1029.248276028256,10403.184048606725,-327.54411559704749,13223.348877795486,-13223.348877795486,327.54411559704749,20685.555695033894,0.0
623296.95196600363,3710566.251970998,-12500.0,1925.7958153524789,6132.1352342527371,14357.074471427501,-1617.3174943146969,-4279.7319551024702,890.33672036017117,9363.9806638155205,2015.1032386647084,10584.324159321921,-10584.324159321921,-2015.1032386647084,18549.546009472091,0.0
628296.95196600363,3710566.251970998,-12500.0,2978.6544933120713,6700.3807075672084,10596.530601925288,-1824.9896921315296,-3347.7060563590162,728.16089631577177,8207.5316233339163,3896.8079609010288,7525.8300261125205,-7525.8300261125205,-3896.8079609010288,16079.154634773891,0.0
633296.95196600363,3710566.251970998,-12500.0,3823.8986621839554,6471.958942358362,6901.3193676238488,-1834.7145191572151,-2409.5951780477135,560.53233264273683,7029.2501215069105,5108.00284536256,4498.3821921337912,-4498.3821921337912,-5108.00284536256,13540.257221794838,0.0
638296.95196600363,3710566.251970998,-12500.0,4317.6392675625148,5648.6831712711819,3637.8569811979119,-1686.9352096551033,-1554.0439733775715,402.50264236830679,5928.229181678932,5609.2821072838633,1841.8572474699079,-1841.8572474699079,-5609.2821072838633,11163.97026826882,0.0
643296.95196600363,3710566.251970998,-12500.0,4420.7279185642756,4478.0627291407018,1008.6637823744906,-1435.8848049948324,-835.44764777123794,264.38898195106981,4976.3977816254765,5493.8805912701064,-254.6487066199611,254.6487066199611,-5493.8805912701064,9119.9775907901367,0.0
648296.95196600363,3710566.251970998,-12500.0,4176.632592698491,3187.7813353215402,-931.97445612534955,-1134.9785514533603,-275.04183734586877,151.39623031393069,4209.8038604099829,4927.0496326223656,-1741.0018793940894,1741.0018793940894,-4927.0496326223656,7504.2897996691272,0.0
653296.95196600363,3710566.251970998,-12500.0,3675.3828356302893,1949.2865311117039,-2234.5743149800514,-827.57356701130095,131.2649768272519,64.415926824778978,3629.3091453843695,4089.6744043638782,-2665.9333994852432,2665.9333994852432,-4089.6744043638782,6334.9424058327886,0.0
658296.95196600363,3710566.251970998,-12500.0,3019.9539161604939,868.48968234447273,-3006.4578212308033,-543.40720188174146,403.0173458579323,1.3725471402340987,3208.0191702645398,3140.284308845733,-3131.4508574531674,3131.4508574531674,-3140.284308845733,5556.4578471184177,0.0
663296.95196600363,3710566.251970998,-12500.0,2303.2275408771579,-5.9933625280782117,-3373.0229313371005,-299.17321862178193,566.50124785578612,-41.412631520940401,2904.4419480243978,2197.3481948995377,-3255.7099713924472,3255.7099713924472,-2197.3481948995377,5063.5742981079675,0.0
668296.95196600363,3710566.251970998,-12500.0,1596.5988646003746,-667.10121739818908,-3452.7998397410415,-101.25586140855636,648.57909825049251,-68.141182116602437,2676.8434611955045,1336.9144498423584,-3149.1230809097569,3149.1230809097569,-1336.9144498423584,4742.3248892103056,0.0
673296.95196600363,3710566.251970998,-12500.0,947.52643234812842,-1133.1437332361929,-3344.9898325885197,50.957620788988457,673.14626166398057,-82.831434624697508,2492.6670519227914,598.95167658529567,-2902.6063033108858,2902.6063033108858,-598.95167658529567,4503.7447954713825,0.0
678296.95196600363,3710566.251970998,-12500.0,382.33170255451233,-1434.7477763869465,-3125.8202387888036,162.12177858414398,659.63073317546923,-88.946744075744462,2330.9725583273748,-3.1045255145813826,-2584.4164435643465,2584.4164435643465,3.1045255145813826,4293.6708177984992,0.0
683296.95196600363,3710566.251970998,-12500.0,-88.819758946047358,-1605.9057079786667,-2849.9863312887346,238.71026734296649,622.80742554517622,-89.26507254073185,2180.4088110481539,-473.00137837805335,-2241.9098343990659,2241.9098343990659,473.00137837805335,4085.8568165585402,0.0
688296.95196600363,3710566.251970998,-12500.0,-466.73548594437216,-1678.7019567354453,-2554.3739103260691,287.5547795358255,573.31251011338679,-85.895947351936357,2035.9470566072014,-824.10640465218728,-1905.4473198605929,1905.4473198605929,824.10640465218728,3871.2496605748674,0.0
533296.95196600363,3715566.251970998,-12500.0,1654.8973836016953,14.580088248684426,-1138.9604747836388,238.25015209302248,136.26895852503088,13.669831711284811,1422.0493470183578,1301.6082639370729,-1392.0579131699078,1392.0579131699078,-1301.6082639370729,2478.0129026515724,0.0
538296.95196600363,3715566.251970998,-12500.0,2062.5275317248925,-274.43402984803163,-1091.0581980002848,334.22659494797335,94.104201263510149,27.457281673320551,1632.2613692984123,1354.9898050739687,-1525.1428211015129,1525.1428211015129,-1354.9898050739687,2873.4085230670098,0.0
543296.95196600363,3715566.251970998,-12500.0,2508.0613098287868,-656.11541502724685,-957.51721806846899,452.05000142808132,25.540356764254973,46.73486505871675,1894.6054631373199,1351.5948198168578,-1618.0332370993244,1618.0332370993244,-1351.5948198168578,3383.032541664295,0.0
548296.95196600363,3715566.251970998,-12500.0,2975.82544820262,-1143.8918361847343,-699.81123179694828,593.26035652529515,-78.843097901126654,73.088431389446413,2221.026010563096,1264.0675788970857,-1638.5825276391815,1638.5825276391815,-1264.0675788970857,4033.2082011158832,0.0
553296.95196600363,3715566.251970998,-12500.0,3439.7967393263689,-1745.5919323566716,-269.19265124794163,757.51382035647248,-230.32849673551749,108.31015794042058,2623.656579374619,1059.9697187461561,-1543.0390239139997,1543.0390239139997,-1059.9697187461561,4849.831497319351,0.0
558296.95196600363,3715566.251970998,-12500.0,3861.7240084457117,-2457.8424916207969,392.31033440021372,941.32077430025447,-441.5196930156942,154.25867050600692,3113.3432201990577,704.52896026874691,-1275.5391011458057,1275.5391011458057,-704.52896026874691,5855.3771862605436,0.0
563296.95196600363,3715566.251970998,-12500.0,4191.0197431814122,-3258.6352252378019,1347.6134528845073,1136.5308939904485,-725.02950723407298,212.59370847233572,3697.4912531633927,166.44353108601911,-770.41082765314241,770.41082765314241,-166.44353108601911,7064.6141298958819,0.0
568296.95196600363,3715566.251970998,-12500.0,4368.1192091294861,-4098.9462354755524,2655.1711104920355,1328.8382767225037,-1091.0829192924691,284.35471851673867,4377.1773393149342,-572.36344174424676,40.69056787020736,-40.69056787020736,572.36344174424676,8478.7349890923269,0.0
573296.95196600363,3715566.251970998,-12500.0,4333.1646990946501,-4895.7450843895549,4352.8927296805659,1496.861612984748,-1543.8604656094053,369.38601666032343,5143.7036637653,-1503.0699767729766,1214.7942829959361,-1214.7942829959361,1503.0699767729766,10078.064668212095,0.0
578296.95196600363,3715566.251970998,-12500.0,4041.062859470559,-5530.5524505592284,6435.4154526729508,1612.6474379838453,-2076.799296757893,465.6785109282722,5975.3894632188021,-2574.4595961620512,2775.9935456126864,-2775.9935456126864,2574.4595961620512,11814.365866474318,0.0
583296.95196600363,3715566.251970998,-12500.0,3481.5306431374725,-5859.0039519765587,8828.2552653378207,1644.5574419903098,-2667.7784725631877,568.79340341712816,6838.2143108091241,-3680.8669871003603,4688.6553050394014,-4688.6553050394014,3680.8669871003603,13604.915351988504,0.0
588296.95196600363,3715566.251970998,-12500.0,2698.6550469918957,-5735.9336577622271,11367.431819405498,1563.1342208737296,-3275.9982955540931,671.62654105216131,7701.4174912384451,-4661.9073289852222,6833.1309061103566,-6833.1309061103566,4661.9073289852222,15331.596719738924,0.0
593296.95196600363,3715566.251970998,-12500.0,1800.2844469079271,-5055.4741799454678,13797.580865231084,1349.4572432607956,-3842.9583110176004,764.79665329188595,8486.3238796810947,-5322.6480850643302,8996.8484874102378,-8996.8484874102378,5322.6480850643302,16848.500175520534,0.0
598296.95196600363,3715566.251970998,-12500.0,946.73054134968902,-3796.5801558235444,15800.969369746523,1003.8457540185408,-4299.5080391335941,837.82627379467067,9085.0137302673465,-5477.2709461824234,10894.49849247211,-10894.49849247211,5477.2709461824234,18000.012527171308,0.0
603296.95196600363,3715566.251970998,-12500.0,314.45498986187761,-2055.3062562157224,17060.237894757713,551.35312468684276,-4578.9767605076895,881.01715344348122,9420.1496835083672,-5007.2426492319009,12222.875389458053,-12222.875389458053,5007.2426492319009,18647.804630418854,0.0
608296.95196600363,3715566.251970998,-12500.0,43.349980939733399,-43.697272572722774,17340.277357185663,40.563674519336082,-4633.2875396319914,887.58046717956529,9442.5443489457812,-3912.0219457363919,12738.940999812447,-12738.940999812447,3912.0219457363919,18700.442594452386,0.0
613296.95196600363,3715566.251970998,-12500.0,188.79234850072407,1953.1736319700176,16559.007875907835,-465.50660223907403,-4446.436283789546,855.35269756398918,9140.6945454869601,-2326.6499265286211,12332.675983487174,-12332.675983487174,2326.6499265286211,18136.252653565691,0.0
618296.95196600363,3715566.251970998,-12500.0,701.51112498025077,3649.6509393595293,14815.679807360148,-903.92837456700795,-4039.7498609586592,787.4685726081816,8549.546256515996,-492.9002534899646,11062.549201733915,-11062.549201733915,492.9002534899646,17010.989995765718,0.0
623296.95196600363,3715566.251970998,-12500.0,1445.4420857396578,4832.5043237644104,12363.233985959985,-1226.4761692247064,-3466.5523483139173,691.71123284761097,7776.2981491724568,1306.3171280666247,9137.134858420839,-9137.134858420839,-1306.3171280666247,15447.27638858076,0.0
628296.95196600363,3715566.251970998,-12500.0,2244.1119127393868,5405.546761935525,9537.708066215564,-1408.9857453826046,-2798.5036407090729,578.76027878902846,6914.8927808907547,2821.3428387752078,6852.4562143448729,-6852.4562143448729,-2821.3428387752078,13609.803119293969,0.0
633296.95196600363,3715566.251970998,-12500.0,2933.3508097648382,5393.0243072896055,6675.2824841959764,-1452.8441697641656,-2109.1053482731609,459.95480178653384,6016.6750701578994,3889.6841322080795,4513.6217998209022,-4513.6217998209022,-3889.6841322080795,11675.03308459148,0.0
638296.95196600363,3715566.251970998,-12500.0,3399.4730227711952,4909.0051139580719,4046.8511554379711,-1379.6119025015662,-1460.0188840066955,345.28202057769198,5150.0519790567605,4454.4438759107088,2370.5332990243423,-2370.5332990243423,-4454.4438759107088,9804.3023029934411,0.0
643296.95196600363,3715566.251970998,-12500.0,3593.4941837326396,4111.6231232096752,1825.5517079854087,-1222.1097095342209,-893.46353281651443,242.09131432195068,4370.7284948274173,4550.3299241602208,584.24069000698842,-584.24069000698842,-4550.3299241602208,8125.5311276397824,0.0
648296.95196600363,3715566.251970998,-12500.0,3524.163718021427,3160.6430537018514,86.154660828253441,-1015.5478402048774,-430.94632082492296,154.67448028763303,3713.3629765471233,4271.4214739209974,-775.78753105527721,775.78753105527721,-4271.4214739209974,6723.7771723470769,0.0
653296.95196600363,3715566.251970998,-12500.0,3239.1781884085981,2189.0004942491514,-1174.8142626524177,-791.02987903972667,-76.504725288948805,84.549384291695887,3190.247620224302,3736.0927173944715,-1713.6497682052445,1713.6497682052445,-3736.0927173944715,5637.4123267293944,0.0
658296.95196600363,3715566.251970998,-12500.0,2804.1889928853429,1290.333676919304,-2011.1807698550256,-572.160556978297,177.97265392201595,31.141547904650277,2793.6499558815267,3059.3612374888157,-2280.7975928684114,2280.7975928684114,-3059.3612374888157,4857.6062176464338,0.0
663296.95196600363,3715566.251970998,-12500.0,2285.8428288448044,518.96218062701837,-2501.0516484427321,-374.30713782726031,347.34433721510567,-7.4308797790458572,2501.5180472982202,2336.3867501671134,-2551.1622798221874,2551.1622798221874,-2336.3867501671134,4334.2854993027458,0.0
668296.95196600363,3715566.251970998,-12500.0,1741.1998618610617,-103.01310881271193,-2727.3392694330837,-205.56966440145405,448.87208114173154,-33.666392437113288,2285.6314542006371,1636.1473250398378,-2602.4996568194711,2602.4996568194711,-1636.1473250398378,3993.7454947232545,0.0
673296.95196600363,3715566.251970998,-12500.0,1213.100018235988,-576.1487203751002,-2765.8067344581368,-68.522623726917004,499.30768497186267,-50.173821325688145,2119.3749816575705,1002.1569277564436,-2504.9975056356698,2504.9975056356698,-1002.1569277564436,3762.8398207065334,0.0
678296.95196600363,3715566.251970998,-12500.0,729.78196305852248,-914.62772968043748,-2679.3780198919744,37.943366491489918,513.28694332791088,-59.358849762575169,1982.3112733472176,456.90566344986712,-2315.9781055541484,2315.9781055541484,-456.90566344986712,3585.9655518819868,0.0
683296.95196600363,3715566.251970998,-12500.0,306.90636975222617,-1139.1651588665411,-2516.7593676342767,117.04896141542532,502.70085327997157,-63.268887829823925,1861.0996734888872,7.4979013970973938,-2078.7908696283394,2078.7908696283394,-7.4979013970973938,3428.8750816340003,0.0
538296.95196600363,3720566.251970998,-12500.0,2034.6793842603518,-548.0939738100451,-741.44661702449821,351.24192736688451,16.948731812356495,34.469576431036423,1523.4455229154962,1078.0776706326321,-1288.3555701404496,1288.3555701404496,-1078.0776706326321,2725.2661999038669,0.0
543296.95196600363,3720566.251970998,-12500.0,2390.6078666748308,-915.01284979911838,-542.98124010581137,452.86408146444506,-57.509666190027517,52.337915462327445,1769.8390300676981,1013.7389524310593,-1301.7844426246784,1301.7844426246784,-1013.7389524310593,3217.274221204364,0.0
548296.95196600363,3720566.251970998,-12500.0,2746.6059682783061,-1362.3109881618921,-223.83618708777206,570.34653852864506,-163.25889354332227,75.866250107494949,2070.1663522682525,869.16837702481178,-1235.1962897743015,1235.1962897743015,-869.16837702481178,3827.0901481574174,0.0
553296.95196600363,3720566.251970998,-12500.0,3078.6555215036747,-1888.9525929038457,253.82181298009954,701.86135043054242,-308.2972806826416,106.22393216983335,2431.8617939864253,621.49474161587023,-1052.5779038398923,1052.5779038398923,-621.49474161587023,4570.0990672498792,0.0
558296.95196600363,3720566.251970998,-12500.0,3354.9991179940243,-2483.2411550821525,931.47999703167045,842.98114581948187,-500.8441375458512,144.51879684661887,2860.4853556156381,249.21952522192518,-711.46852344772583,711.46852344772583,-249.21952522192518,5457.4549440389837,0.0
563296.95196600363,3720566.251970998,-12500.0,3537.5290523435783,-3118.0177775886496,1849.5262796728778,985.8105290199012,-748.15455659001043,191.59223743809869,3358.1384168209793,-262.67265211303413,-166.40070890922439,166.40070890922439,262.67265211303413,6492.8786691449613,0.0
568296.95196600363,3720566.251970998,-12500.0,3585.8012957291708,-3746.1990186971816,3039.045365385959,1118.3181551952996,-1054.6785875965597,247.72905941449588,3921.526643495632,-915.40761381940229,624.20163707037,-624.20163707037,915.40761381940229,7668.6065248053155,0.0
573296.95196600363,3720566.251970998,-12500.0,3464.3996264838365,-4298.4814742861709,4509.8600967031352,1224.2459358315825,-1419.590008885536,312.30021210032999,4539.9538454830408,-1687.6033201311432,1687.0019197094869,-1687.0019197094869,1687.6033201311432,8960.8584587312253,0.0
578296.95196600363,3720566.251970998,-12500.0,3153.5183461285073,-4685.8170081962326,6235.8538799203643,1284.0729054186759,-1833.9899369540021,383.39688998611274,5194.5160885415216,-2526.9745045106943,3019.1289981160348,-3019.1289981160348,2526.9745045106943,10325.722205762813,0.0
583296.95196600363,3720566.251970998,-12500.0,2660.9755611067635,-4809.3546089739157,8140.773148549315,1277.4541214602075,-2278.4827496183839,457.56256206029099,5868.8593585799408,-3346.1797704579167,4572.6153270535178,-4572.6153270535178,3346.1797704579167,11696.891081087801,0.0
588296.95196600363,3720566.251970998,-12500.0,2031.7487184554286,-4579.1724810835649,10090.180528369277,1187.2260900558454,-2722.2139733436179,529.76715932083164,6534.4303362841829,-4027.4083340923717,6243.2354831403609,-6243.2354831403609,4027.4083340923717,12987.078723266246,0.0
593296.95196600363,3720566.251970998,-12500.0,1349.600206586706,-3939.7401631054222,11896.511194902911,1004.4151340764172,-3124.570246071919,593.75909876374533,7110.7836313548751,-4439.3120455620156,7870.9086203061106,-7870.9086203061106,4439.3120455620156,14094.695479939115,0.0
598296.95196600363,3720566.251970998,-12500.0,726.10416423522054,-2895.3622127418857,13342.364479931995,732.88423266900702,-3440.2827807143749,642.85227951098784,7537.7105263942622,-4465.9179389990659,9257.7498173721742,-9257.7498173721742,4465.9179389990659,14916.254370230921,0.0
603296.95196600363,3720566.251970998,-12500.0,276.53932915165564,-1525.2673990245187,14221.102979512974,391.73781323497047,-3627.5295602360293,671.05787927759127,7767.706316214807,-4040.8235830579647,10204.392666170173,-10204.392666170173,4040.8235830579647,15362.998432649345,0.0
608296.95196600363,3720566.251970998,-12500.0,88.699519881015306,21.210558830224908,14385.111836045098,13.882064628661421,-3657.1337446867251,674.30282164578375,7770.4252629798229,-3174.4074640975273,10556.49324006912,-10556.49324006912,3174.4074640975273,15378.040173026648,0.0
613296.95196600363,3720566.251970998,-12500.0,196.08978985324629,1552.1526631108288,13785.43378084888,-359.59777597096149,-3519.9133576366398,651.37466626400146,7539.1479991078768,-1961.3658262002828,10245.887513505049,-10245.887513505049,1961.3658262002828,14949.09251797302,0.0
618296.95196600363,3720566.251970998,-12500.0,566.99939832195059,2875.8847411338188,12487.124608654372,-687.81495320507395,-3229.4478806505194,604.27350976677872,7094.6123122876197,-562.73632443392398,9310.2209196862095,-9310.2209196862095,562.73632443392398,14112.613879710278,0.0
623296.95196600363,3720566.251970998,-12500.0,1114.3956560922209,3844.076347701623,10653.763596806517,-938.4886269965391,-2819.1318931808491,537.8347657194372,6503.0225596249647,832.23495897553858,7882.9218837679518,-7882.9218837679518,-832.23495897553858,12947.878403254263,0.0
628296.95196600363,3720566.251970998,-12500.0,1722.0995391813269,4379.9967701640771,8507.4044566451339,-1093.6394419985056,-2334.6103865946134,458.74309673220654,5851.1608088910416,2050.1506217396236,6158.0228777294978,-6158.0228777294978,-2050.1506217396236,11562.921982955242,0.0
633296.95196600363,3720566.251970998,-12500.0,2276.1075505410067,4484.2305070500161,6279.334403232634,-1151.0892281289412,-1824.3066086244658,374.25513239755594,5161.1324171133274,2967.9308955262095,4344.0366494960508,-4344.0366494960508,-2967.9308955262095,10076.739913578598,0.0
638296.95196600363,3720566.251970998,-12500.0,2689.6669649147952,4220.0923294552858,4167.8859975414953,-1122.0266018156044,-1331.0099797201142,291.00451439344442,4478.3454994903668,3528.3837372960816,2622.9088895778532,-2622.9088895778532,-3528.3837372960816,8602.5341114371549,0.0
643296.95196600363,3720566.251970998,-12500.0,2915.6672947801335,3687.7807989222169,2313.3819999522671,-1026.1851640506361,-886.50637011079755,214.17000065830723,3844.7529917515476,3736.5434039520915,1124.6093235119376,-1124.6093235119376,-3736.5434039520915,7235.315707033018,0.0
648296.95196600363,3720566.251970998,-12500.0,2946.2015849107552,2997.529063929695,791.87958685742592,-886.52628482158423,-509.75783591270437,147.11254247342492,3290.0057862550284,3643.0824530654204,-80.246734712898615,80.246734712898615,-3643.0824530654204,6044.7291769216608,0.0
653296.95196600363,3720566.251970998,-12500.0,2803.4389438222556,2248.9744787606792,-376.80697599169821,-724.87759905406097,-207.96411178174583,91.429812404942467,2829.6478217334989,3323.1743587753858,-973.67698485689243,973.67698485689243,-3323.1743587753858,5071.8685017698681,0.0
658296.95196600363,3720566.251970998,-12500.0,2527.1320671410544,1519.5007859908947,-1213.7141986965037,-559.19720776217105,20.714631852890861,47.282158940886951,2465.5640985711379,2857.5126317348754,-1576.0819516334182,1576.0819516334182,-2857.5126317348754,4328.1507411606217,0.0
663296.95196600363,3720566.251970998,-12500.0,2162.9826440141264,860.77734098023006,-1764.0500248458134,-402.45398834639963,183.93977207426374,13.831104112967861,2188.2526443305837,2318.9874901214548,-1930.4433735819864,1930.4433735819864,-2318.9874901214548,3796.1653896959256,0.0
668296.95196600363,3720566.251970998,-12500.0,1754.1251851785673,300.94755436521382,-2083.0803745647181,-262.72120135455816,292.29278116029178,-10.333166223716614,1980.8555141033316,1765.6210160152355,-2088.8424842571835,2088.8424842571835,-1765.6210160152355,3435.3968003326404,0.0
673296.95196600363,3720566.251970998,-12500.0,1336.2269763134896,-150.32105640307046,-2226.1374827336258,-143.97076743302262,357.08199964460061,-26.846117277658028,1824.1285891465391,1238.5827574974869,-2102.9135469354201,2102.9135469354201,-1238.5827574974869,3194.5485319356794,0.0
678296.95196600363,3720566.251970998,-12500.0,935.64835062767122,-496.08355165395386,-2242.7147390538194,-47.134428738589804,388.92814873498537,-37.327973625918546,1700.7030071056959,763.50534477084352,-2018.2550322397462,2018.2550322397462,-763.50534477084352,3025.7164060241557,0.0
543296.95196600363,3725566.251970998,-12500.0,2222.7575040902093,-1080.8764028173978,-185.42383203192881,436.53719385839315,-118.32420447193903,54.194816067286652,1657.902495100026,718.62407762587827,-1000.4085703867536,1000.4085703867536,-718.62407762587827,3065.6625221123104,0.0
548296.95196600363,3725566.251970998,-12500.0,2485.8419386353648,-1477.3260729518772,167.63953428273132,532.20814289974521,-220.2688971764122,74.673159855250063,1930.0254605278146,541.85420679109131,-872.13246308929286,872.13246308929286,-541.85420679109131,3625.0501607300325,0.0
553296.95196600363,3725566.251970998,-12500.0,2714.6687341305915,-1925.1958042279643,660.17277415954004,635.50479298532798,-354.11141572156652,100.31194955576167,2250.3881912735287,278.26059583792966,-635.33591312753356,635.33591312753356,-278.26059583792966,4288.5370417618833,0.0
558296.95196600363,3725566.251970998,-12500.0,2884.390577171981,-2408.9687437342891,1320.2198365026513,741.93524834399511,-524.90382481929635,131.72548585840255,2621.1472210335155,-83.779512003982973,-259.35338137946769,259.35338137946769,83.779512003982973,5060.1901204608621,0.0
563296.95196600363,3725566.251970998,-12500.0,2967.6950658676064,-2901.188250517188,2171.5786519964486,844.55908805342926,-736.3690025751165,169.26427986118344,3041.3815897636055,-548.59134726580066,285.48415477185677,-285.48415477185677,548.59134726580066,5937.5396760779431,0.0
568296.95196600363,3725566.251970998,-12500.0,2938.4984273273631,-3360.5143712874537,3227.3397164468915,933.78513628648875,-989.58119109498807,212.82392376903169,3505.8628151746952,-1108.1521081206715,1022.0665502887447,-1022.0665502887447,1108.1521081206715,6908.8975596270357,0.0
573296.95196600363,3725566.251970998,-12500.0,2777.5532612561924,-3731.8868218291045,4481.5674889820857,997.64076629093086,-1281.3782213735915,261.63124678616862,4004.1495593211121,-1736.8150159125603,1958.4834220887828,-1958.4834220887828,1736.8150159125603,7950.6782394237525,0.0
578296.95196600363,3725566.251970998,-12500.0,2479.4353116041061,-3950.2702032655693,5900.3207421554034,1022.7581674061583,-1602.775843404351,314.05038055938115,4525.0006625669967,-2387.3864992063582,3078.6636985576397,-3078.6636985576397,2387.3864992063582,9025.3842492557014,0.0
583296.95196600363,3725566.251970998,-12500.0,2059.3821160468051,-3949.1395406411202,7414.4184254485053,996.22930907180557,-1937.8551702127315,367.47442232880655,5066.7720634724292,-2990.818933936986,4333.8331121190931,-4333.8331121190931,2990.818933936986,10081.149164474049,0.0
588296.95196600363,3725566.251970998,-12500.0,1557.4544618042264,-3673.6969004215116,8917.4211702965731,908.24384584461836,-2263.743200784103,418.37939948841057,5573.411130100495,-3461.8773060716039,5638.1929735938747,-5638.1929735938747,3461.8773060716039,11053.805847813514,0.0
593296.95196600363,3725566.251970998,-12500.0,1037.118154532076,-3096.7550017018161,10272.374041954326,755.05669531953663,-2552.2598116396634,462.60266889927897,5999.5574505290433,-3712.0322726848599,6872.6281846472912,-6872.6281846472912,3712.0322726848599,11872.148658518963,0.0
598296.95196600363,3725566.251970998,-12500.0,576.30170975364501,-2232.9046825146097,11329.185914716671,541.45774239709613,-2773.4599085938999,495.85778653027,6307.8673752167824,-3668.3252539917935,7898.9543380587656,-7898.9543380587656,3668.3252539917935,12466.328776318478,0.0
603296.95196600363,3725566.251970998,-12500.0,251.53966445454142,-1145.2877816522237,11950.898737876178,281.75266889221717,-2900.6524590002928,514.41674182080931,6467.5817681617427,-3293.681717653395,8583.8322182235224,-8583.8322182235224,3293.681717653395,12778.230465826678,0.0
608296.95196600363,3725566.251970998,-12500.0,119.16807942825709,59.589580440698917,12042.734295233178,-1.4830148872215321,-2915.7551327896181,515.81016010114615,6459.4252634447184,-2601.7996266110076,8827.0176268526502,-8827.0176268526502,2601.7996266110076,12771.644822239012,0.0
613296.95196600363,3725566.251970998,-12500.0,199.90004856184407,1249.7100254968666,11574.954548674432,-280.9224642083654,-2813.4098177594492,499.35248639179605,6279.4550241257557,-1660.1670633181793,8585.3035829189757,-8585.3035829189757,1660.1670633181793,12439.580016492335,0.0
618296.95196600363,3725566.251970998,-12500.0,472.71751751146684,2293.6268281939228,10591.437699341364,-529.4498219155106,-2602.4781484983068,466.3286621041496,5940.7472398223144,-578.59908290863859,7883.7205714938882,-7883.7205714938882,578.59908290863859,11806.565416700969,0.0
623296.95196600363,3725566.251970998,-12500.0,880.57447358086165,3086.6531133129929,9200.6476818226984,-725.12546390846467,-2304.3598019536657,419.77563749968658,5479.3727678933683,513.65465077117324,6809.8285283009263,-6809.8285283009263,-513.65465077117324,10925.189208424965,0.0
628296.95196600363,3725566.251970998,-12500.0,1345.6252801685407,3568.9873976207496,7552.1904982900287,-854.70641294936161,-1948.6844404834694,363.92261847594466,4975.5053778249739,1494.6872976879611,5493.3282067624923,-5493.3282067624923,-1494.6872976879611,9867.8715513150619,0.0
633296.95196600363,3725566.251970998,-12500.0,1788.1946657046526,3731.1682468104473,5806.9523766571383,-914.87003874630034,-1567.7556361549978,303.45355128756449,4440.754168857713,2272.1354282611355,4078.3145817381965,-4078.3145817381965,-2272.1354282611355,8716.1384078045849,0.0
638296.95196600363,3725566.251970998,-12500.0,2143.1680897387214,3607.3228970776308,4109.84211777776,-911.16028041324648,-1191.345837005925,242.79236883912301,3900.8658451350084,2795.1210767618668,2696.9835984553638,-2696.9835984553638,-2795.1210767618668,7550.0691068467058,0.0
643296.95196600363,3725566.251970998,-12500.0,2369.6462236983234,3260.5593296825418,2571.4475100220666,-855.37454792848018,-843.01252801928126,185.56684420280081,3386.9795471445327,3054.7838864709684,1451.3038289688075,-1451.3038289688075,-3054.7838864709684,6439.9087857964587,0.0
648296.95196600363,3725566.251970998,-12500.0,2452.9392864326082,2766.1753614702843,1260.7205368878535,-762.39534997450858,-538.40636862971314,134.32786740921608,2923.1717123204776,3076.093698540205,405.13695669977346,-405.13695669977346,-3076.093698540205,5440.7366326693837,0.0
653296.95196600363,3725566.251970998,-12500.0,2400.5846352203803,2197.2915701092197,207.07934929744334,-647.33448048095227,-285.36779134878884,90.51372062995371,2524.6093554750123,2905.4012299106039,-414.44265797310345,414.44265797310345,-2905.4012299106039,4589.8192946883191,0.0
658296.95196600363,3725566.251970998,-12500.0,2235.2186069245063,1615.312623982659,-591.58875108341465,-523.49531043953743,-85.228684658149206,54.59284299008867,2197.3245765929869,2597.8778090324117,-1009.9048270019871,1009.9048270019871,-2597.8778090324117,3905.5598872487276,0.0
663296.95196600363,3725566.251970998,-12500.0,1986.9681382974904,1065.526513411774,-1158.6852362161501,-401.28318777737832,65.337809977716717,26.301157676289669,1939.0319901645221,2207.5415535817615,-1403.6523654567659,1403.6523654567659,-2207.5415535817615,3387.2855487197253,0.0
668296.95196600363,3725566.251970998,-12500.0,1687.1189851511797,576.78672213578932,-1529.1754356249601,-287.92259615461171,172.45296794955124,4.8992318182939787,1740.9597949369913,1780.8940067928631,-1628.7745566790875,1628.7745566790875,-1780.8940067928631,3016.598449171619,0.0
548296.95196600363,3730566.251970998,-12500.0,2219.4678120718936,-1516.0543399438484,478.42464699131807,486.47180086076384,-255.67458535883065,71.025227775143506,1797.1429721061947,279.58704180238652,-558.24864469078557,558.24864469078557,-279.58704180238652,3421.6722181729638,0.0
553296.95196600363,3730566.251970998,-12500.0,2370.0922276490769,-1888.6193239411753,963.2296235032095,566.35807961199828,-376.07716598549405,92.372636672696984,2077.8719417809862,18.532156674814019,-292.682902946593,292.682902946593,-18.532156674814019,4006.2533352786236,0.0
558296.95196600363,3730566.251970998,-12500.0,2464.1287320288729,-2274.8020041530799,1584.848323571385,645.41529890517268,-524.71958400828601,117.86680523847949,2395.9205404471081,-317.76022832852493,91.062013896201108,-91.062013896201108,317.76022832852493,4670.6427870766875,0.0
563296.95196600363,3730566.251970998,-12500.0,2482.8237433760082,-2649.4119251249663,2355.5231340039581,717.87998404809468,-703.11081530604179,147.58127532218407,2748.8072347939978,-727.15196303216112,611.03263233179814,-611.03263233179814,727.15196303216112,5409.2129887635856,0.0
568296.95196600363,3730566.251970998,-12500.0,2410.2718145432186,-2978.0340841716725,3277.2187365880591,776.36412377194881,-910.49915839344317,181.23779461736123,3130.7848031331246,-1197.3162108343436,1277.7615387269161,-1277.7615387269161,1197.3162108343436,6209.1830976504898,0.0
573296.95196600363,3730566.251970998,-12500.0,2237.4151285732614,-3218.2890724718254,4336.1168255953371,812.23686090776619,-1142.8937833727991,218.08290907599752,3533.769464832581,-1702.826163077629,2088.7367698521657,-2088.7367698521657,1702.826163077629,7049.1265982770155,0.0
578296.95196600363,3730566.251970998,-12500.0,1966.4474906059429,-3323.5837738848959,5497.3959804397264,816.46705846813359,-1392.2115060217373,256.79127902864053,3965.2194660409441,-2203.6991648433154,3022.674055304959,-3022.674055304959,2203.6991648433154,7898.1308503550235,0.0
583296.95196600363,3730566.251970998,-12500.0,1614.5002028515976,-3249.7330298972511,6701.9491375955949,780.95756623019463,-1645.8480018476821,295.43446711238886,4391.826311857797,-2646.722205909356,4035.1432240463159,-4035.1432240463159,2646.722205909356,8716.1445630566959,0.0
588296.95196600363,3730566.251970998,-12500.0,1215.0691530958761,-2963.9970034765693,7867.0584767785585,700.24752038621216,-1887.0121267538254,331.55496681561948,4777.6949939247334,-2970.6774049429364,5057.6017270794309,-5057.6017270794309,2970.6774049429364,9456.0036481078296,0.0
593296.95196600363,3730566.251970998,-12500.0,815.68876014604143,-2454.8979185276703,8892.7592167367457,573.26048573831019,-2096.0844474360433,362.3722455957377,5095.902055040644,-3115.7124642721928,6001.7891231707099,-6001.7891231707099,3115.7124642721928,10067.382808223007,0.0
598296.95196600363,3730566.251970998,-12500.0,471.14999327439375,-1740.074391805608,9674.3681263687449,404.60855754251605,-2253.026514401899,385.11573395138424,5321.2351593922967,-3035.5930178355543,6770.3670614373477,-6770.3670614373477,3035.5930178355543,10502.452299340352,0.0
603296.95196600363,3730566.251970998,-12500.0,233.06931907080613,-869.05803746802826,10119.581767060747,204.92997931141224,-2340.5163498847687,397.4382915936273,5433.2314935173617,-2709.9159549109322,7272.6994867575777,-7272.6994867575777,2709.9159549109322,10722.450023639054,0.0
608296.95196600363,3730566.251970998,-12500.0,138.33592339994851,81.218912884934085,10166.312196832479,-10.079634185410155,-2347.126276938814,397.82275307320674,5419.3707810074575,-2152.3921244603598,7442.3434221887628,-7442.3434221887628,2152.3921244603598,10703.859742927523,0.0
613296.95196600363,3730566.251970998,-12500.0,199.99950308320089,1018.169643036141,9796.2274999700476,-221.90076202996738,-2269.6858279980547,385.87807106983672,5277.3547408297782,-1411.8454373559398,7251.3497851830689,-7251.3497851830689,1411.8454373559398,10442.727559222845,0.0
618296.95196600363,3730566.251970998,-12500.0,403.76615692051541,1849.8592657371662,9039.6623105844574,-412.2018200218497,-2114.1093169586011,362.44004080864215,5015.9200947833888,-564.74742297364674,6716.8281263618483,-6716.8281263618483,564.74742297364674,9955.9701593797108,0.0
623296.95196600363,3730566.251970998,-12500.0,711.4011552674134,2501.339567896171,7970.1725759360534,-565.84497713825749,-1894.4079539444735,329.44355561633841,4655.2689747733266,298.92238584175857,5897.5760631116555,-5897.5760631116555,-298.92238584175857,9279.2877990626184,0.0
628296.95196600363,3730566.251970998,-12500.0,1069.8398620683579,2926.4477279475218,6690.4078558495357,-673.09739242110879,-1630.1683319919114,289.59970927030417,4253.0818691118093,1092.3500387480829,4881.910133250607,-4881.910133250607,-1092.3500387480829,8462.1963864710251,0.0
633296.95196600363,3730566.251970998,-12500.0,1422.9024982513497,3112.2966048443286,5313.6355757563342,-730.55466586582736,-1343.2296051734513,245.96497394337058,3834.7387144497961,1746.3453638050894,3770.6276269758482,-3770.6276269758482,-1746.3453638050894,7561.4306660956963,0.0
638296.95196600363,3730566.251970998,-12500.0,1722.0403432618118,3076.3315665918171,3945.9800183219322,-740.72543562980036,-1054.4246819015298,201.50832700133475,3405.6342603527546,2218.1260089863372,2660.0102354357032,-2660.0102354357032,-2218.1260089863372,6634.1842930494931,0.0
643296.95196600363,3730566.251970998,-12500.0,1933.4879333534918,2858.0657836225037,2673.3351499561245,-710.61395337618148,-781.08998129957467,158.76701602745473,2988.5911278271474,2493.2864879331942,1628.8938874024193,-1628.8938874024193,-2493.2864879331942,5732.4403083363222,0.0
648296.95196600363,3730566.251970998,-12500.0,2040.8649467238533,2508.6269436458365,1554.7281968751158,-649.83368571696496,-535.69228238434096,119.64131930078238,2602.6614020643829,2582.0215509778409,731.77431940468671,-731.77431940468671,-2582.0215509778409,4899.0641254026832,0.0
653296.95196600363,3730566.251970998,-12500.0,2043.8044396646992,2080.9717003755868,621.75905648115224,-568.7624859934067,-325.55102366266556,85.332034494689822,2261.2498561698822,2511.9347031274083,-2.2101276559094458,2.2101276559094458,-2511.9347031274083,4165.6383602657415,0.0
658296.95196600363,3730566.251970998,-12500.0,1954.0655391494729,1622.588729604485,-117.58564064047937,-477.09050353130255,-153.39319865967823,56.393180962154247,1971.6791874998935,2319.9295768847037,-565.96148360608061,565.96148360608061,-2319.9295768847037,3551.5349966236672,0.0
663296.95196600363,3730566.251970998,-12500.0,1790.7321836336832,1171.2995446774351,-672.88354692627297,-382.90572391735049,-18.376623888684037,32.855451782517413,1735.4059175041516,2045.0706039184388,-968.81665010902395,968.81665010902395,-2045.0706039184388,3063.5749794153385,0.0
553296.95196600363,3735566.251970998,-12500.0,2056.1371140741567,-1805.4884983136258,1179.0241172942467,499.20277763669424,-381.02160471787454,83.602252370267308,1914.430453566745,-171.63206174384572,-19.447037291716228,19.447037291716228,171.63206174384572,3727.2769964103509,0.0
558296.95196600363,3735566.251970998,-12500.0,2097.9991056264257,-2108.7695561462629,1750.9413489484484,557.1102489530939,-508.68585680739142,104.14898283720012,2185.7471401400398,-474.62508610914904,354.27291508509632,-354.27291508509632,474.62508610914904,4295.582936209109,0.0
563296.95196600363,3735566.251970998,-12500.0,2076.4391309621574,-2388.979686234185,2437.0301843389166,607.33259649024001,-657.83348171603973,127.57186932809026,2481.1485561106488,-827.8047575123145,835.80169762502294,-835.80169762502294,827.8047575123145,4915.009537224315,0.0
568296.95196600363,3735566.251970998,-12500.0,1982.4590966893948,-2618.438130636494,3232.856774240533,644.30858078755864,-826.83852259884895,153.5379216466485,2795.3128180351523,-1217.5263339272228,1427.911783590996,-1427.911783590996,1217.5263339272228,5573.1828435235966,0.0
573296.95196600363,3735566.251970998,-12500.0,1813.1291648138415,-2765.2150450196136,4121.4726413728295,661.90650032311737,-1011.6730807635317,181.38310600804846,3135.1411444168693,-1620.7222676645285,2122.5930239698787,-2122.5930239698787,1620.7222676645285,6251.5378767619295,0.0
578296.95196600363,3735566.251970998,-12500.0,1574.2546737284702,-2796.3823638534222,5070.5582022090848,654.08577115591356,-1205.4801384882892,210.06849371457875,3486.9216976773878,-2004.735924572622,2897.7016159814548,-2897.7016159814548,2004.735924572622,6925.1025918220485,0.0
583296.95196600363,3735566.251970998,-12500.0,1282.2214715913849,-2682.9353967633697,6031.2722938054048,615.8262307543813,-1398.4804993474588,238.1832322769192,3820.1384205919735,-2329.1568388208411,3714.9582458212303,-3714.9582458212303,2329.1568388208411,7563.139970025677,0.0
588296.95196600363,3735566.251970998,-12500.0,964.11777814573907,-2405.8611802088649,6939.9421378288771,544.21386654145431,-1578.3933130436101,264.01428953814963,4116.1943274521091,-2550.1315545357988,4520.4899324337894,-4520.4899324337894,2550.1315545357988,8130.8857917794903,0.0
593296.95196600363,3735566.251970998,-12500.0,655.39566802996876,-1962.1753151221269,7723.3842632719379,439.46752325236287,-1731.4789892170611,285.6931675005456,4356.2155485468111,-2627.0114322063673,5248.8729027479148,-5248.8729027479148,2627.0114322063673,8592.4411701708814,0.0
598296.95196600363,3735566.251970998,-12500.0,394.89954939396546,-1369.2441481100882,8307.8017470585564,305.61990082198389,-1844.1666405252968,301.41094873887403,4522.7366993281494,-2530.3219633888348,5830.8774958382055,-5830.8774958382055,2530.3219633888348,8914.599174312516,0.0
603296.95196600363,3735566.251970998,-12500.0,217.96872267322118,-665.67659843319348,8630.0055451856369,150.5759696863565,-1905.032596696198,309.67051818815958,4601.8802473307742,-2249.19632402558,6203.9431331210553,-6203.9431331210553,2249.19632402558,9071.0648104020347,0.0
608296.95196600363,3735566.251970998,-12500.0,149.20921714820392,92.261334924083144,8648.5791176126077,-14.605935880377494,-1906.7227501703871,309.52622152776439,4585.3608248778482,-1796.0473411026032,6323.2100430196788,-6323.2100430196788,1796.0473411026032,9046.2891908872771,0.0
613296.95196600363,3735566.251970998,-12500.0,196.9808026661938,838.48847385253259,8352.0905779637324,-177.15345311880361,-1847.3403803389308,300.75335212926211,4471.8601667528237,-1206.6909847089623,6170.2661768252437,-6170.2661768252437,1206.6909847089623,8838.079310536903,0.0
618296.95196600363,3735566.251970998,-12500.0,351.33885362148123,1507.5461164879544,7761.9728450555385,-324.44990884675536,-1730.9155419741815,283.90372411281737,4267.4588849125021,-535.3928879142486,5757.0936600279783,-5757.0936600279783,535.3928879142486,8458.3612872147078,0.0
623296.95196600363,3735566.251970998,-12500.0,586.1285274194388,2045.0313465893025,6929.1313682144364,-445.89643077304186,-1566.8063917432894,260.22948153947453,3985.1976014919942,154.09400440449508,5124.0056066151901,-5124.0056066151901,-154.09400440449508,7931.8756365955314,0.0
628296.95196600363,3735566.251970998,-12500.0,864.57678827635391,2415.3951927729272,5925.2171785585169,-534.32376112460599,-1368.1891095721476,231.49401238867287,3655.4330892789317,799.14311443776637,4332.1965901563417,-4332.1965901563417,-799.14311443776637,7293.1070883748998,0.0
633296.95196600363,3735566.251970998,-12500.0,1146.6670598525677,2605.4224110306636,4830.9559436125455,-586.66498767499411,-1150.0281699231264,199.71586527622617,3324.4943136006909,1347.796089873272,3453.0583822774261,-3453.0583822774261,-1347.796089873272,6582.1305457573208,0.0
638296.95196600363,3735566.251970998,-12500.0,1396.2362651493577,2623.1177650988679,3724.4590190534159,-603.82840313703662,-927.01173346983762,166.90372617019028,2981.3731439083281,1765.102710476755,2557.0755738798839,-2557.0755738798839,-1765.102710476755,5840.2190527894309,0.0
643296.95196600363,3735566.251970998,-12500.0,1586.1475071546799,2493.0303595875248,2671.9896715243672,-589.92948031296635,-711.87619128355152,134.83529720320018,2642.0797696029103,2035.3520609997572,1704.7859488667068,-1704.7859488667068,-2035.3520609997572,5105.9975479585364,0.0
648296.95196600363,3735566.251970998,-12500.0,1700.7572863993869,2249.7463905728546,1722.4983463482326,-551.16489368244925,-514.35651380543527,104.91122910021627,2321.4973681341735,2160.5523908155537,941.22294626081896,-941.22294626081896,-2160.5523908155537,4412.5962032276238,0.0
653296.95196600363,3735566.251970998,-12500.0,1735.7901604661606,1931.3080945951569,906.05114330029528,-494.62948333794509,-340.80800538582662,78.093143368352145,2030.9224570803071,2156.3626686430057,294.08502089161709,-294.08502089161709,-2156.3626686430057,3785.9276906842579,0.0
658296.95196600363,3735566.251970998,-12500.0,1696.3407967352966,1573.8352849199318,235.35622722990712,-427.3067478403612,-194.38411787222734,54.914239283964996,1777.5919708759382,2046.9480990493926,-225.05599882670731,225.05599882670731,-2046.9480990493926,3243.8648895563197,0.0
563296.95196600363,3740566.251970998,-12500.0,1738.921219390742,-2135.7087140633466,2444.9255556580447,512.53786558445097,-606.93528057492381,109.67833199998103,2238.2112586426815,-873.50896905553736,982.50816204404737,-982.50816204404737,873.50896905553736,4458.7081852980455,0.0
568296.95196600363,3740566.251970998,-12500.0,1637.1451830760907,-2291.0744944982571,3127.1272580575665,534.66664539581893,-744.31658593190377,129.72126288754828,2505.100197945213,-1193.5724933421682,1501.7016342587369,-1501.7016342587369,1193.5724933421682,5000.5101642532145,0.0
573296.95196600363,3740566.251970998,-12500.0,1479.2988187909261,-2372.1866837466328,3870.4097675653115,540.57869116715892,-891.4008668988439,150.82262611591131,2792.4931427481765,-1513.4642086419226,2092.7456871780423,-2092.7456871780423,1513.4642086419226,5549.8708094454714,0.0
578296.95196600363,3740566.251970998,-12500.0,1272.5285900153654,-2356.017586667454,4646.3280493221082,526.26708926302445,-1042.5629003443653,172.18401353741027,3073.2912482610877,-1807.097976988515,2734.819128715179,-2734.819128715179,1807.097976988515,6086.8516388262533,0.0
583296.95196600363,3740566.251970998,-12500.0,1031.3811213096917,-2223.7649907084578,5415.2983747541202,488.66406292312661,-1190.3002671653819,192.77882582261432,3334.955035605748,-2044.0364402968326,3395.9606975969864,-3395.9606975969864,2044.0364402968326,6587.9102487761011,0.0
588296.95196600363,3740566.251970998,-12500.0,777.36594239314638,-1964.8846689922289,6128.506202562693,426.3291981922618,-1325.6296089326263,211.41002272851313,3563.9774895513324,-2192.8567838140721,4034.1806071730675,-4034.1806071730675,2192.8567838140721,7027.3027768456122,0.0
593296.95196600363,3740566.251970998,-12500.0,536.92639646404393,-1580.7905635504899,6732.1095765251512,340.05098461598254,-1438.8588625814734,226.81228418206297,3746.7867191221289,-2225.8104667026646,4600.8316856864585,-4600.8316856864585,2225.8104667026646,7379.1750245261801,0.0
598296.95196600363,3740566.251970998,-12500.0,337.85465910336791,-1087.2001527868101,7173.5192161214436,233.19516452287374,-1520.685327837386,237.79120294088298,3871.0953902953324,-2124.0300971125753,5046.1783585480634,-5046.1783585480634,2124.0300971125753,7620.165806719976,1.0
603296.95196600363,3740566.251970998,-12500.0,204.69463660939158,-514.17508887299368,7408.8407434994087,111.65220616919559,-1563.4593243938843,243.37890354583161,3927.3382959778646,-1882.1100085616561,5326.4114197827275,-5326.4114197827275,1882.1100085616561,7732.1583260730922,0.0
608296.95196600363,3740566.251970998,-12500.0,154.1394488175907,96.637542773560924,7409.9882360384208,-16.685186803722999,-1562.3679341178367,242.97709300298555,3909.9423421012157,-1510.7681195173616,5410.7275576330248,-5410.7275576330248,1510.7681195173616,7704.7046375763948,0.0
613296.95196600363,3740566.251970998,-12500.0,191.62298643746811,697.31414616383142,7169.7764029440386,-142.86322654301767,-1516.2684338687452,236.45617764937521,3818.175699228927,-1036.6215857962293,5286.7983470278923,-5286.7983470278923,1036.6215857962293,7536.6413529744204,0.0
618296.95196600363,3740566.251970998,-12500.0,310.0852875158123,1240.4836233602448,6703.640598545785,-258.05313278658696,-1427.9589119956004,224.18614835674174,3656.3905497632877,-498.83881491804777,4963.1937546834743,-4963.1937546834743,498.83881491804777,7236.5393770249066,0.0
623296.95196600363,3740566.251970998,-12500.0,491.29707908386899,1686.1326245451262,6047.4689751626393,-354.72881920624218,-1303.8070528001538,206.99047016666321,3433.6221883838539,56.670327639776133,4468.0832710165105,-4468.0832710165105,-56.670327639776133,6821.8691396106206,0.0
628296.95196600363,3740566.251970998,-12500.0,709.37386560360528,2006.8422992395363,5252.0833415785219,-427.58375365113909,-1152.8248842255468,186.03332783024283,3163.6221681033794,584.15417728475427,3844.5653825073132,-3844.5653825073132,-584.15417728475427,6317.05833469767,0.0
633296.95196600363,3740566.251970998,-12500.0,935.50526188392985,2190.4090124985951,4375.7202671716013,-474.01276829370249,-985.4034279344005,162.66470008853898,2893.9989504411537,1044.4030653473717,3143.8328789970019,-3143.8328789970019,-1044.4030653473717,5750.8172028784174,0.0
638296.95196600363,3740566.251970998,-12500.0,1142.6873936820862,2239.5869177808013,3476.255993691303,-494.10922771997508,-811.98950451010182,138.25637705245884,2617.8425118479608,1409.2928218171955,2417.8352995716014,-2417.8352995716014,-1409.2928218171955,5153.2508282967692,0.0
643296.95196600363,3740566.251970998,-12500.0,1309.4234536339438,2169.4474735260724,2604.701336773599,-490.250157732405,-641.95455761051096,114.05877875563181,2340.7838628167269,1663.8233131506643,1712.9627974357134,-1712.9627974357134,-1663.8233131506643,4553.2219977616523,0.0
648296.95196600363,3740566.251970998,-12500.0,1421.8107095379939,2003.3231451758195,1800.9190426697151,-466.42225632877472,-482.81898244813141,91.099168150900837,2074.3841284248006,1805.7118907197182,1065.7528208037702,-1065.7528208037702,-1805.7118907197182,3976.2925840523553,0.0
573296.95196600363,3745566.251970998,-12500.0,1215.7186475980805,-2034.7721398793312,3604.7058220272179,442.82589894836212,-783.44153442247898,125.55156225683518,2490.4775783090513,-1395.6758354779993,2022.484452041502,-2022.484452041502,1395.6758354779993,4934.6366032377437,0.0
578296.95196600363,3745566.251970998,-12500.0,1038.6973814272042,-1989.4801430113403,4240.061979518282,425.46158875923965,-901.83711330499182,141.54996043374453,2715.4857919176434,-1619.7790432778138,2554.3202117402379,-2554.3202117402379,1619.7790432778138,5364.9586879475564,0.0
583296.95196600363,3745566.251970998,-12500.0,839.91736871192757,-1851.2152211885455,4858.1563971812593,390.25123591110378,-1015.6461467810232,156.74814429628691,2922.3222146149051,-1792.2245040909611,3090.882896334183,-3090.882896334183,1792.2245040909611,5761.1279340926958,0.0
588296.95196600363,3745566.251970998,-12500.0,636.29206100477563,-1614.6028713986848,5421.5872624550366,336.59253406163054,-1118.279970136655,170.30580762202982,3100.9308565537526,-1890.4506264754214,3599.5600867698818,-3599.5600867698818,1890.4506264754214,6103.968898134236,0.0
593296.95196600363,3745566.251970998,-12500.0,447.59919226062897,-1283.1540538313682,5890.500707252344,265.46925929078589,-1202.8463311375276,181.35864913678714,3241.4392262031265,-1895.4169216259379,4044.0062005081218,-4044.0062005081218,1895.4169216259379,6374.6823162956753,0.0
598296.95196600363,3745566.251970998,-12500.0,293.91321520693509,-870.50462645964853,6227.0188427359217,179.62256300739261,-1262.8918783107247,189.10874730743151,3335.0898912933826,-1795.0267627551771,4388.1276018721237,-4388.1276018721237,1795.0267627551771,6556.6270094149131,0.0
603296.95196600363,3745566.251970998,-12500.0,192.51237804999994,-400.10573977855256,6400.2309965418426,83.463146026106841,-1293.2194606301925,192.92173415751984,3375.1932639295314,-1586.983176459343,4600.8271269795378,-4600.8271269795378,1586.983176459343,6637.1402927552572,0.0
608296.95196600363,3745566.251970998,-12500.0,154.89933759713108,96.860553903453123,6390.8034684351551,-17.304761480158255,-1290.6298260089334,192.41358923164327,3357.9457105446531,-1280.3159808152959,4660.6230257810039,-4660.6230257810039,1280.3159808152959,6609.0992336107502,0.0
613296.95196600363,3745566.251970998,-12500.0,184.6507292942423,585.12787301042567,6194.2021394881867,-116.30837143805584,-1254.4325996238956,187.509560002737,3282.9659351686287,-895.0463400171318,4559.1390409115902,-4559.1390409115902,895.0463400171318,6471.9430058275084,0.0
618296.95196600363,3745566.251970998,-12500.0,276.66307895660503,1029.9002927361553,5821.7331974347708,-207.27337615716635,-1186.6039503066845,178.46157414741725,3153.4345243432585,-459.88633049679243,4302.619188798546,-4302.619188798546,459.88633049679243,6231.93692083516,0.0
623296.95196600363,3745566.251970998,-12500.0,418.01089976274386,1401.3794394477759,5299.1313368456194,-284.78367319296473,-1091.5528536550096,165.8199739005421,2975.8142696724581,-8.3953074203518554,3911.0937556377526,-3911.0937556377526,8.3953074203518554,5901.6330269772052,0.0
628296.95196600363,3745566.251970998,-12500.0,590.20385324814072,1678.3344934453883,4662.984582843068,-344.88633061586853,-975.53972311238783,150.3647406076341,2759.2352158956669,425.59488034434867,3415.3796277601932,-3415.3796277601932,-425.59488034434867,5498.6055133429927,0.0
633296.95196600363,3745566.251970998,-12500.0,772.27323930893704,1850.0515169780515,3955.809340250099,-385.43474882221932,-845.87474182935,133.01042676858634,2529.7483834670975,812.30792655677953,2852.6326214982491,-2852.6326214982491,-812.30792655677953,5043.7029265229312,0.0
638296.95196600363,3745566.251970998,-12500.0,943.9624959333529,1916.4525763421957,3220.811303901261,-406.13339753628509,-710.05733598376742,114.70320982419861,2305.9954183874124,1129.2788058800606,2261.4345110391741,-2261.4345110391741,-1129.2788058800606,4559.1181360060409,0.0
593296.95196600363,3750566.251970998,-12500.0,378.94579996423226,-1049.0096724119758,5174.1805518202054,208.99445444547052,-1011.4568136721176,146.05309188139063,2819.7592769978,-1622.2586881676289,3565.5093064839912,-3565.5093064839912,1622.2586881676289,5537.7545204096796,0.0
598296.95196600363,3750566.251970998,-12500.0,259.15032840229679,-702.42684640209882,5432.9450933609223,139.58015747240626,-1055.9533878968625,151.5800088637379,2890.8975180570465,-1526.7495462924005,3833.8513411028198,-3833.8513411028198,1526.7495462924005,5676.2700214669439,0.0
603296.95196600363,3750566.251970998,-12500.0,181.08729631893962,-313.37261351792375,5561.2698989505016,62.834569343138774,-1077.6205841814865,154.20231024774969,2919.5159230835443,-1347.6848607453364,3996.832989469206,-3996.832989469206,1347.6848607453364,5734.281461425252,0.0
608296.95196600363,3750566.251970998,-12500.0,152.79710579386671,94.550797065601714,5545.6641897967793,-17.070197424446057,-1074.3013176818088,153.67010174928669,2902.9851525699573,-1092.5739402803563,4039.2591554711225,-4039.2591554711225,1092.5739402803563,5706.8705868284533,0.0
613296.95196600363,3750566.251970998,-12500.0,176.65931125284459,495.0410686045463,5383.2655063227739,-95.533942557608796,-1045.5788240528402,149.94044975600528,2841.1304814243963,-776.64613614758059,3955.3613426663514,-3955.3613426663514,776.64613614758059,5593.8232874461892,0.0
618296.95196600363,3750566.251970998,-12500.0,248.92406022664568,862.18688119063268,5082.4862231405687,-168.0331844535867,-992.87170053049533,143.18754133657842,2736.3177143400858,-421.24916404387068,3749.7671737990863,-3749.7671737990863,421.24916404387068,5399.7939016033624,0.0
598296.95196600363,3550566.251970998,-17500.0,400.71978868449708,1390.9537726277204,4150.3565896791961,369.65261247755768,1164.8601061407905,242.68198661614863,2506.2832725239232,232.9592079842912,3070.5437985596363,-3070.5437985596363,-232.9592079842912,4996.2205715892314,0.0
603296.95196600363,3550566.251970998,-17500.0,257.58592841070703,1126.8668133509921,4641.0272279001601,296.11317181266912,1283.9744550491891,264.31936429325526,2673.485442297484,-141.55429327107845,3450.8667467422474,-3450.8667467422474,141.55429327107845,5310.6867752305316,0.0
608296.95196600363,3550566.251970998,-17500.0,146.3886480823592,792.24617411769555,5031.317548125684,205.57987562303427,1378.665278679043,281.53659498394762,2808.5458334970472,-520.01750221973748,3738.9322555941571,-3738.9322555941571,520.01750221973748,5561.7004884594899,0.0
613296.95196600363,3550566.251970998,-17500.0,80.341198847240406,405.89742246507279,5296.0973661577891,102.5709194572558,1443.2121902388485,293.35528286492803,2903.5329043302918,-876.08419864559346,3913.8614358216846,-3913.8614358216846,876.08419864559346,5736.9733035632125,0.0
618296.95196600363,3550566.251970998,-17500.0,67.84715225280938,-7.8492243445984062,5419.0393762908789,-7.1513276292032923,1473.8696219866931,299.12895151016028,2954.004139040358,-1184.7546584818667,3963.4685329760368,-3963.4685329760368,1184.7546584818667,5828.2355277391098,0.0
623296.95196600363,3550566.251970998,-17500.0,111.17162932102497,-421.8979537979817,5394.6695466982683,-117.18904453597591,1469.3138150512202,298.61679805493537,2958.1482941655026,-1425.4905434281427,3885.9152979354403,-3885.9152979354403,1425.4905434281427,5831.977580857023,0.0
628296.95196600363,3550566.251970998,-17500.0,206.12849716208385,-809.622344423497,5228.9115687311505,-221.2216044069915,1430.7710821045237,292.00646952851594,2916.8016188641673,-1584.6688861120881,3689.8644120491745,-3689.8644120491745,1584.6688861120881,5749.6937369788702,0.0
633296.95196600363,3550566.251970998,-17500.0,342.84873588455747,-1147.9594626129183,4938.0107300808304,-313.69264790241607,1361.8002863611302,279.88102961043376,2833.2637971953163,-1656.9013471265494,3393.0928862453188,-3393.0928862453188,1656.9013471265494,5587.5726009532382,0.0
638296.95196600363,3550566.251970998,-17500.0,507.43632283996129,-1419.8010274541593,4546.1116617087082,-390.35338010614566,1267.785133693626,263.13888956631854,2712.8821748904084,-1645.030736013008,3019.8935715596663,-3019.8935715596663,1645.030736013008,5355.715390142208,0.0
643296.95196600363,3550566.251970998,-17500.0,684.11914585061629,-1615.2998981051796,4082.0070012542615,-448.57806275206281,1155.239155819665,242.88194790837051,2562.4622757810748,-1558.9148876263662,2597.8185403975085,-2597.8185403975085,1558.9148876263662,5067.0096998138442,0.0
648296.95196600363,3550566.251970998,-17500.0,857.4324765300363,-1731.9965441725667,3575.7063074564699,-487.42665527960366,1031.0586967123645,220.29324515865972,2389.6119185479356,-1413.3706592287799,2154.4077489521155,-2154.4077489521155,1413.3706592287799,4735.8541307194291,0.0
583296.95196600363,3555566.251970998,-17500.0,1033.3718102035459,1933.1056504340531,2515.0511830031319,559.85940800264666,821.37347133179219,193.50474811770857,2196.7838540367534,1355.3493185578786,1713.958685290967,-1713.958685290967,-1355.3493185578786,4280.2041216714379,0.0
588296.95196600363,3555566.251970998,-17500.0,865.31806887320033,1941.6284451547956,3236.8952322772734,551.02859889913111,1007.7325082066911,229.37225034689456,2425.5570036685913,1093.0791202763967,2302.4147452157258,-2302.4147452157258,-1093.0791202763967,4775.3779890461683,0.0
593296.95196600363,3555566.251970998,-17500.0,673.52373890573813,1848.6102161284,3961.6676531378712,515.9546708373781,1192.9585604165172,264.73192345878095,2649.1287340880035,748.26724798334703,2889.941979647564,-2889.941979647564,-748.26724798334703,5257.6919565947155,0.0
598296.95196600363,3555566.251970998,-17500.0,477.03904032069539,1646.9786022838148,4648.6101703454642,453.30912981275287,1367.2264469863471,297.81254782163006,2862.083901612305,337.35204450513379,3439.3859296387172,-3439.3859296387172,-337.35204450513379,5704.7165935730836,0.0
603296.95196600363,3555566.251970998,-17500.0,297.73224380957254,1339.5775687166783,5254.11116033901,364.12916731232758,1520.1549595271861,326.76090265238179,3064.8304746670492,-114.27582371140466,3911.6261413989678,-3911.6261413989678,114.27582371140466,6093.967938609685,0.0
608296.95196600363,3555566.251970998,-17500.0,157.31684542960852,940.29093392525749,5736.5803660406636,252.04090438692273,1641.9153246474896,349.83150650392258,3231.4398703086517,-574.49045596113046,4270.2832444965543,-4270.2832444965543,574.49045596113046,6404.8283407980998,0.0
613296.95196600363,3555566.251970998,-17500.0,73.974083482536983,473.42954545573559,6061.7470619872929,123.09483354052732,1724.4211050097999,365.58834614242193,3348.0730049307758,-1008.1426496222014,4486.6844224388042,-4486.6844224388042,1008.1426496222014,6620.50543222124,0.0
618296.95196600363,3555566.251970998,-17500.0,59.288895649641418,-28.745823780611477,6207.3586911428174,-14.809793298880535,1762.3790039127516,373.08236548874231,3408.3741521212141,-1381.6712680464268,4544.0795760318424,-4544.0795760318424,1381.6712680464268,6729.7162358759997,0.0
623296.95196600363,3555566.251970998,-17500.0,116.23381219979562,-530.02236664382622,6166.2790757553239,-152.83540947412828,1753.9876921675714,371.97088105723105,3409.8934904530047,-1667.7021551632388,4440.1625427168883,-4440.1625427168883,1667.7021551632388,6727.814941325566,0.0
628296.95196600363,3555566.251970998,-17500.0,238.71110274047689,-994.98177586391853,5947.2665090274459,-282.28464879723305,1701.1277371569145,362.55243710198499,3353.9159215573777,-1848.6433732074011,4187.2805695683319,-4187.2805695683319,1848.6433732074011,6617.1378397363733,0.0
633296.95196600363,3555566.251970998,-17500.0,412.76192747950972,-1393.5156632525081,5573.2958031536245,-395.63630035668928,1609.0129321464992,345.7126105033862,3245.154031513101,-1918.5313087116051,3810.3021819830196,-3810.3021819830196,1918.5313087116051,6406.5299163897753,0.0
638296.95196600363,3555566.251970998,-17500.0,619.11007372546237,-1704.1941759861786,5077.8223114269867,-487.33853873537174,1485.3785897409571,322.79116988767544,3091.0915770629222,-1882.8208463109052,3342.6475939381089,-3342.6475939381089,1882.8208463109052,6110.1144851134422,0.0
643296.95196600363,3555566.251970998,-17500.0,836.3888420283954,-1915.9324848522101,4499.9401160082671,-554.23410585072065,1339.4121626037922,295.40422571635207,2901.1190023427243,-1756.3752144976406,2821.4614243823389,-2821.4614243823389,1756.3752144976406,5745.6235682693823,0.0
648296.95196600363,3555566.251970998,-17500.0,1044.3003562450997,-2027.8444014435695,3879.3839763154292,-595.58271461668664,1180.6218085029573,265.25159668382679,2685.6099734095569,-1560.2661155489918,2282.8905108511681,-2282.8905108511681,1560.2661155489918,5332.4950167271909,0.0
653296.95196600363,3555566.251970998,-17500.0,1226.0925876952231,-2047.6238730832317,3252.336022413263,-612.74506036252774,1017.8597795578827,233.94636819001312,2455.5120607134227,-1318.2102905192596,1758.3431700905212,-1758.3431700905212,1318.2102905192596,4890.1045017004717,0.0
658296.95196600363,3555566.251970998,-17500.0,1370.013915488139,-1989.0372080685188,2648.5558291054335,-608.64741874761432,858.62038165400668,202.88727919546494,2226.0713299139288,-1053.3570213317141,1272.162260187519,-1272.162260187519,1053.3570213317141,4436.3186651413835,0.0
573296.95196600363,3560566.251970998,-17500.0,1472.0123024579289,1845.112092683255,1088.2107939035263,594.64684405282537,494.37079751580717,142.111479036356,1949.7817602740449,1893.389507362112,507.29218151907355,-507.29218151907355,-1893.389507362112,3662.3571403240048,0.0
578296.95196600363,3560566.251970998,-17500.0,1390.9204122973247,2070.8354127991593,1806.7210951775594,643.99881006864837,695.17626291841395,183.6812875920505,2201.5297523098166,1829.6492087340303,1087.7432832994878,-1087.7432832994878,-1829.6492087340303,4206.1120761279481,0.0
583296.95196600363,3560566.251970998,-17500.0,1248.0107952283472,2219.4347284432606,2614.7590968537988,670.84869337392684,916.73270509286272,228.84067389818247,2471.5349704575724,1656.1401172228796,1746.42466765116,-1746.42466765116,-1656.1401172228796,4790.4738487991735,0.0
588296.95196600363,3560566.251970998,-17500.0,1051.9408435078894,2263.8025905567024,3482.3137511160794,668.72427012136632,1151.0012684147327,276.00182658311007,2749.982254544449,1367.1502869802234,2455.397549604796,-2455.397549604796,-1367.1502869802234,5393.051984523323,0.0
593296.95196600363,3560566.251970998,-17500.0,819.72548026948618,2181.9457488790849,4366.6459633692848,632.59116365108105,1386.9762333846097,323.0553517161473,3025.1224074704842,968.44175106959779,3175.109036498151,-3175.109036498151,-968.44175106959779,5986.9241929728723,0.0
598296.95196600363,3560566.251970998,-17500.0,575.82842170247864,1961.4643763440581,5214.7281631848491,559.88743702934653,1611.3260665970611,367.49411461920698,3286.3869530340139,479.08889570888596,3856.9798200446526,-3856.9798200446526,-479.08889570888596,6542.2320627152367,0.0
603296.95196600363,3560566.251970998,-17500.0,349.49573208667596,1603.3979753025174,5968.1650358128927,451.38508036696828,1809.5927644264789,406.63219071978313,3532.5083427499039,-68.760207274411187,4448.3386200726145,-4448.3386200726145,68.760207274411187,7028.4747311515093,0.0
608296.95196600363,3560566.251970998,-17500.0,170.53785884539184,1124.3368163472815,6570.1440965168849,311.6345661477352,1967.8341479661251,437.89699062787474,3739.4353518851804,-632.69568022316344,4899.1822109270634,-4899.1822109270634,632.69568022316344,7417.2979969176458,0.0
613296.95196600363,3560566.251970998,-17500.0,64.307183150236213,555.92448938427003,6973.2990095924379,148.80585709697411,2074.4535700062447,459.15036919391304,3883.9717724087582,-1165.288990646565,5169.5930970876716,-5169.5930970876716,1165.288990646565,7685.4251254991523,0.0
618296.95196600363,3560566.251970998,-17500.0,47.015270876789941,-58.569876615371804,7146.8630179541569,-26.137737094029713,2121.856153730962,468.97826250539504,3956.567761590492,-1620.8979709132707,5236.2018071877574,-5236.2018071877574,1620.8979709132707,7817.2360364222459,0.0
623296.95196600363,3560566.251970998,-17500.0,122.61411754721169,-670.1260839283924,7081.4106224792476,-200.82110959804436,2107.5534297174731,466.88510166867951,3953.8087901075914,-1962.5648595572422,5096.0832341394207,-5096.0832341394207,1962.5648595572422,7806.4843702600347,0.0
628296.95196600363,3560566.251970998,-17500.0,282.1116160070091,-1231.0632047798817,6790.0239887260586,-363.12035122411311,2034.4611667748766,453.35105193245488,3877.6729126779642,-2167.3881378240458,4767.0727598120884,-4767.0727598120884,2167.3881378240458,7656.8303415905793,0.0
633296.95196600363,3560566.251970998,-17500.0,505.50548372119897,-1701.7267402444411,6305.5881354924331,-502.74835267758266,1910.3159463164366,429.73787523569001,3734.9702917277014,-2229.1173821828825,4284.3988222492653,-4284.3988222492653,2229.1173821828825,7381.0546907212301,0.0
638296.95196600363,3560566.251970998,-17500.0,765.75891246862625,-2055.2966028319579,5675.010436393839,-612.43101551416271,1746.3795197650602,398.07060777490523,3536.3380732393507,-2157.5369115085728,3694.5715762160648,-3694.5715762160648,2157.5369115085728,6999.1779152276913,0.0
643296.95196600363,3560566.251970998,-17500.0,1033.7060629239529,-2279.8449687504708,4951.8159767392472,-688.46821572391718,1555.7397373602455,360.7443488259201,3294.9339091283091,-1975.0860864059657,3048.0637719389861,-3048.0637719389861,1975.0860864059657,6535.8414773468166,0.0
648296.95196600363,3560566.251970998,-17500.0,1282.6580486634682,-2377.6032048517809,4188.8636249563633,-730.65278797569545,1351.5972011062006,320.22150870848088,3025.3872980574406,-1711.8517678334338,2392.4848543139915,-2392.4848543139915,1711.8517678334338,6017.5036232120665,0.0
653296.95196600363,3560566.251970998,-17500.0,1491.765530132242,-2362.0925981565115,3432.5378970406946,-741.67587971859268,1145.8478564747143,278.77297393115924,2745.5400116222195,-1400.2611229939371,1767.4909297522213,-1767.4909297522213,1400.2611229939371,5469.8890614824013,0.0
658296.95196600363,3560566.251970998,-17500.0,1647.7035510572464,-2254.1432399622881,2719.157056660878,-726.2371947310744,948.14649778718376,238.29740773332148,2475.180122522434,-1070.5896669706688,1202.0097115368533,-1202.0097115368533,1070.5896669706688,4916.0190618250435,0.0
663296.95196600363,3560566.251970998,-17500.0,1744.7576713375927,-2077.8223251568038,2073.6656257676159,-690.08999579600277,765.49061235340218,200.22962139557887,2215.9242077372155,-747.92464226644267,713.69287894404704,-713.69287894404704,747.92464226644267,4374.9733696867306,0.0
668296.95196600363,3560566.251970998,-17500.0,1783.73270475049,-1857.0167415685817,1510.1759875551809,-639.19948238142513,602.24676515013289,165.52817306371196,1970.4731456336676,-450.71376393264541,310.05301086858242,-310.05301086858242,450.71376393264541,3861.3616035130567,0.0
568296.95196600363,3565566.251970998,-17500.0,1729.7039444029981,1658.4640734940799,210.31949426518847,597.44635106633064,290.63807947959316,111.98577225122108,1904.5493131248361,2129.329749044708,-245.46562814785523,245.46562814785523,-2129.329749044708,3470.3533699765771,0.0
573296.95196600363,3565566.251970998,-17500.0,1739.4733344284703,2015.0214369226458,893.35847838115876,686.97447003436309,498.03686461647612,158.22030587715923,2165.1816139150305,2216.7914412868299,292.62327822834516,-292.62327822834516,-2216.7914412868299,4027.3077741912152,0.0
578296.95196600363,3565566.251970998,-17500.0,1669.4940397261228,2323.3142872664644,1719.409888168437,759.48797219036624,741.73951908665128,211.33097158300075,2461.7147047608951,2190.2588431747527,957.45662255466425,-957.45662255466425,-2190.2588431747527,4666.4636381756491,0.0
583296.95196600363,3565566.251970998,-17500.0,1517.2615908494492,2545.8072137601775,2672.0344074854806,805.27278028179603,1016.4253828679208,270.10705410616254,2786.1517915196937,2027.0938194979869,1733.6935579996391,-1733.6935579996391,-2027.0938194979869,5368.1684391828949,0.0
588296.95196600363,3565566.251970998,-17500.0,1290.6959924540165,2644.337105038981,3716.9279992715851,814.7821656266176,1312.2932486021498,332.4947089327506,3126.4469676165472,1714.7929621406968,2589.280680710564,-2589.280680710564,-1714.7929621406968,6104.5128300470133,0.0
593296.95196600363,3565566.251970998,-17500.0,1009.7089175203253,2585.9687035210895,4801.1102919302512,780.09929187138721,1614.9890688808139,395.60466429659101,3467.2946863969091,1256.0163945527827,3474.9661583728366,-3474.9661583728366,-1256.0163945527827,6840.4751534910383,0.0
598296.95196600363,3565566.251970998,-17500.0,705.60235377373249,2349.7647401186573,5855.4635458488092,696.56871039794146,1906.3446946224624,455.86783927251236,3792.7928667119049,672.10832803094513,4327.1067518553446,-4327.1067518553446,-672.10832803094513,7536.0329683927421,0.0
603296.95196600363,3565566.251970998,-17500.0,417.70713360774636,1933.0151147035324,6801.1930505294604,564.24901301468606,2166.0341778464394,509.35288294721624,4095.3305797182743,3.6497533301271687,5074.2279018863446,-5074.2279018863446,-3.6497533301271687,8149.365458152769,0.0
608296.95196600363,3565566.251970998,-17500.0,187.39503060694733,1355.1221480278728,7559.7868698262,388.77352549300485,2374.0249849575343,552.21958170164805,4353.941622655796,-692.96815125820967,5646.7851598486232,-5646.7851598486232,692.96815125820967,8640.9556994026025,0.0
613296.95196600363,3565566.251970998,-17500.0,50.520735001948161,657.53249221917292,8064.8439518343885,181.26157767487791,2513.4340600862574,581.23806206828192,4534.8117787532774,-1352.9838172466343,5988.3970749254686,-5988.3970749254686,1352.9838172466343,8978.048999979088,0.0
618296.95196600363,3565566.251970998,-17500.0,30.141012447158626,-101.00737069794607,8273.1343794094973,-42.870635935639655,2573.1779451981547,594.26687012756042,4622.9279730787657,-1913.4456454195952,6065.9109472693644,-6065.9109472693644,1913.4456454195952,9138.6512835397334,0.0
623296.95196600363,3565566.251970998,-17500.0,131.58791292483787,-853.2176107862856,8172.0418410590164,-266.04032307893198,2549.7672195270238,590.57872571651149,4613.373347063146,-2323.7591558686408,5875.5785155507974,-5875.5785155507974,2323.7591558686408,9114.2355306899044,0.0
628296.95196600363,3565566.251970998,-17500.0,341.41963733132127,-1534.0719979015309,7781.318821155256,-471.11062404730956,2447.7726911285072,570.95322353285212,4509.1998724693476,-2553.8599434063922,5443.5252619152707,-5443.5252619152707,2553.8599434063922,8910.5453581039928,0.0
633296.95196600363,3565566.251970998,-17500.0,630.57188709178831,-2090.8824869898231,7148.7030555844412,-643.86349964442104,2278.8494732317654,537.51507910542375,4320.4145476307713,-2597.9112523398235,4820.36920910972,-4820.36920910972,2597.9112523398235,8546.3304456611986,0.0
638296.95196600363,3565566.251970998,-17500.0,960.68231783147905,-2490.2169783425443,6340.7182847440754,-774.76081470098859,2059.6006332499601,493.36250200682957,4062.3807631315958,-2472.8402524059529,4071.5758919994587,-4071.5758919994587,2472.8402524059529,8050.3131178755384,0.0
643296.95196600363,3565566.251970998,-17500.0,1291.6571946714917,-2720.327856903255,5431.2982563516789,-859.66829707038301,1808.8710290797746,442.08474943439262,3754.0230346319495,-2212.6429254302279,3266.2834169606263,-3266.2834169606263,2212.6429254302279,7457.1448509505262,0.0
648296.95196600363,3565566.251970998,-17500.0,1588.4229777830117,-2789.1994132182913,4491.0078479474178,-899.5320469742262,1545.1013956225345,387.27565308458128,3417.6328567547848,-1860.4412729841363,2467.3174841266145,-2467.3174841266145,1860.4412729841363,6803.12976905501,0.0
653296.95196600363,3565566.251970998,-17500.0,1825.4247790177212,-2719.5323061953682,3579.0689973640197,-899.2814538109252,1284.2796950540792,332.14094850278383,3080.4399745346691,-1460.5603700094503,1724.360033267712,-1724.360033267712,1460.5603700094503,6122.5538378163455,0.0
658296.95196600363,3565566.251970998,-17500.0,1988.3721253494593,-2542.4464002836612,2739.0774466325593,-866.35420041816963,1038.7302317237404,279.24749576655864,2754.1817273371926,-1052.3134733038132,1070.8972031439498,-1070.8972031439498,1052.3134733038132,5445.0349689048599,0.0
663296.95196600363,3565566.251970998,-17500.0,2073.5887401800628,-2291.5224272552687,1998.2092982742874,-809.22575635953831,816.73737576378153,230.42160250560886,2442.6466797261237,-666.29646176211077,524.50253336062701,-524.50253336062701,666.29646176211077,4794.0540410497306,0.0
668296.95196600363,3565566.251970998,-17500.0,2085.8071933626502,-1998.2201830676602,1368.9906827041696,-736.21008606258135,622.8221715927275,186.77122035645837,2152.0503706671234,-323.14171536577038,89.378285123911212,-89.378285123911212,323.14171536577038,4186.5610161251752,0.0
673296.95196600363,3565566.251970998,-17500.0,2035.3300535648332,-1689.0441002543748,852.46102487736709,-654.64990243548607,458.41196219149009,148.78905610146296,1887.013328354084,-34.136026468556821,-240.05541575276263,240.05541575276263,34.136026468556821,3633.3757224128362,0.0
678296.95196600363,3565566.251970998,-17500.0,1935.2873875348357,-1384.3236611422585,441.71828755947746,-570.49434112369443,322.66265907904551,116.49402692248979,1649.9428887027962,197.06959290410498,-475.49854603497158,475.49854603497158,-197.06959290410498,3140.0709121303425,0.0
558296.95196600363,3570566.251970998,-17500.0,1664.0501606064006,821.82002809717642,-1122.5978253690928,412.66274815222158,-103.13484996581738,30.635326518226407,1669.3805722761244,1836.5365401370691,-1295.2100278491457,1295.2100278491457,-1836.5365401370691,2906.9993737531563,0.0
563296.95196600363,3570566.251970998,-17500.0,1862.4375844502497,1253.1218005692356,-720.77118901464962,537.73344130176247,42.699823869373802,67.949262123114522,1865.1985769120761,2154.735709709224,-1019.218296085463,1019.218296085463,-2154.735709709224,3292.6436575952916,0.0
568296.95196600363,3570566.251970998,-17500.0,2000.0625616208438,1713.0246248340659,-153.10027886941469,665.95791809363891,235.71546971964506,115.18449873185223,2110.4828251650183,2416.4100764510754,-597.69004330728285,597.69004330728285,-2416.4100764510754,3798.8118426205815,0.0
573296.95196600363,3570566.251970998,-17500.0,2055.0494485919189,2171.616634078619,598.94542830533794,788.34172808211747,479.65539668460781,172.86269794812381,2408.2519233486978,2583.9515752983802,-12.902778436169228,12.902778436169228,-2583.9515752983802,4429.9682327624623,0.0
578296.95196600363,3570566.251970998,-17500.0,2009.8022249509361,2588.0037625131536,1541.3555060581657,893.2516018019536,774.60766849458275,240.72342462476749,2756.2257546897677,2618.0072752270912,741.00635988036754,-741.00635988036754,-2618.0072752270912,5177.5862897409233,0.0
583296.95196600363,3570566.251970998,-17500.0,1855.7547837109269,2912.4555255753744,2661.1662386174448,967.13019448044201,1115.4484437454769,317.44056050360945,3146.0663016886901,2483.3132258329083,1651.9613268961136,-1651.9613268961136,-2483.3132258329083,6019.9637751557029,0.0
588296.95196600363,3570566.251970998,-17500.0,1598.109674222618,3091.4971557684844,3920.897788949012,995.93262773117999,1490.5796157572192,400.40917549547066,3563.3132726334406,2156.2745273227438,2684.8175667264431,-2684.8175667264431,-2156.2745273227438,6922.7904602158851,0.0
593296.95196600363,3570566.251970998,-17500.0,1259.1714694687582,3076.019514730915,5255.7669047769532,967.2614920810297,1881.4259571094799,485.68711516787039,3988.196076040464,1633.0326010687616,3779.0749362286579,-3779.0749362286579,-1633.0326010687616,7840.5433869736653,0.0
598296.95196600363,3570566.251970998,-17500.0,878.6459631478848,2831.4558748530098,6575.7202885235283,872.93163776099163,2263.1605038426469,568.17158193691671,4398.2981307361188,935.91192792481047,4851.3812349081063,-4851.3812349081063,-935.91192792481047,8719.230945497291,0.0
603296.95196600363,3570566.251970998,-17500.0,509.64245822104414,2347.8995614415194,7773.6898451510624,711.42999838458059,2606.9513178164307,642.05510995319639,4777.030583499477,115.73696082790002,5804.0498176853289,-5804.0498176853289,-115.73696082790002,9500.8918672481959,0.0
608296.95196600363,3570566.251970998,-17500.0,210.19964615277752,1647.1559126594548,8739.8833793929953,489.55217486553261,2883.6363149901608,701.53380687881884,5102.7830775265338,-752.0357716548051,6539.1870788096267,-6539.1870788096267,752.0357716548051,10129.67994742345,0.0
613296.95196600363,3570566.251970998,-17500.0,31.787734407912232,783.79112594054925,9379.7792752935056,222.53843105316665,3068.2356695781791,741.65527400745816,5331.5094616523629,-1577.8750967979418,6975.9068784766587,-6975.9068784766587,1577.8750967979418,10558.73041782636,0.0
618296.95196600363,3570566.251970998,-17500.0,7.7804510035342842,-161.39420053891268,9631.5685328414129,-67.633115536361089,3144.2806481236562,759.12307985546829,5439.4270912439806,-2273.6276255666676,7066.3237686932916,-7066.3237686932916,2273.6276255666676,10756.505934293051,0.0
623296.95196600363,3570566.251970998,-17500.0,145.49408566989274,-1094.6629639354539,9478.0908297715505,-355.58744517275346,3106.7915028997181,752.8521214853746,5419.223385101338,-2768.9674816607667,6805.5603018627635,-6805.5603018627635,2768.9674816607667,10711.146847043516,0.0
628296.95196600363,3570566.251970998,-17500.0,424.53246491278185,-1926.0861910308652,8949.5692903790496,-616.74085602603304,2963.0329222615342,724.12341111771184,5275.6579871598888,-3024.1020617478553,6232.4919045792321,-6232.4919045792321,3024.1020617478553,10431.740408635675,0.0
633296.95196600363,3570566.251970998,-17500.0,802.0266249411593,-2585.0439038555555,8116.3336824551825,-831.23324140895124,2730.8391340919816,676.29915029952122,5023.7072280104121,-3035.0864316548282,5420.9461077238975,-5420.9461077238975,3035.0864316548282,9946.2130317468382,0.0
638296.95196600363,3570566.251970998,-17500.0,1222.8937032057877,-3030.271191975055,7073.9246016251473,-986.5958813809558,2435.0309250583655,614.18152489676243,4686.0722925319287,-2830.6791329309035,4464.2046290000353,-4464.2046290000353,2830.6791329309035,9296.3734037525082,0.0
643296.95196600363,3570566.251970998,-17500.0,1631.6767290962475,-3252.416189005507,5925.2972774264636,-1078.6309274901166,2103.0178489401228,543.20362994673746,4291.1574586721699,-2462.6118797827048,3457.6558869285464,-3457.6558869285464,2462.6118797827048,8531.4981695503357,0.0
648296.95196600363,3570566.251970998,-17500.0,1982.4758528031389,-3269.6739754983919,4764.8245712342668,-1110.568290956146,1760.692761930492,468.64445680665517,3873.9713190675984,-1992.8879196673527,2484.1659060835996,-2484.1659060835996,1992.8879196673527,7701.7961049070309,0.0
653296.95196600363,3570566.251970998,-17500.0,2244.7937806985369,-3119.0783330306144,3667.4796260478788,-1091.0601460626335,1429.4822425143361,395.03255927210375,3461.8390836108092,-1481.9376655526494,1605.1047515405776,-1605.1047515405776,1481.9376655526494,6853.0814100346952,0.0
658296.95196600363,3570566.251970998,-17500.0,2404.875084832262,-2846.5849786786821,2684.178243885704,-1031.7406080905903,1124.8636506893154,325.80775510924082,3063.8073241084439,-980.1841699124177,857.54957170296007,-857.54957170296007,980.1841699124177,6023.2698890924994,0.0
663296.95196600363,3570566.251970998,-17500.0,2463.5271373963265,-2498.4833594265328,1842.4029742679234,-944.98351817115315,856.21855971435036,263.23422857562957,2689.2846783719951,-523.87743612786153,256.41039092524227,-256.41039092524227,523.87743612786153,5240.8013247820436,0.0
668296.95196600363,3570566.251970998,-17500.0,2432.0260910723409,-2115.4766251609008,1150.2187425188515,-842.23546005635706,627.6177534717383,208.50238933867584,2346.1553986957147,-134.6527206778392,-200.59625991054767,200.59625991054767,134.6527206778392,4524.6520981359745,0.0
673296.95196600363,3570566.251970998,-17500.0,2327.6152398864597,-1729.631274491484,601.70736626565804,-733.03308700772232,439.0718554998129,161.93875049675785,2038.9976941970544,178.44184156625766,-527.10530598535206,527.10530598535206,-178.44184156625766,3885.4076208405613,0.0
678296.95196600363,3570566.251970998,-17500.0,2169.6155592047303,-1363.6695532848044,182.32845626131859,-624.62433882754544,287.86641860503158,123.25130296613317,1769.3586870601323,415.77058320660296,-742.77584793400058,742.77584793400058,-415.77058320660296,3326.8686891588377,0.0
683296.95196600363,3570566.251970998,-17500.0,1976.6180276903558,-1031.7982473255252,-126.64481607185463,-522.02273832868491,169.73863277176633,91.760156654415553,1536.4589602962021,583.80669078906328,-869.17503615101862,869.17503615101862,-583.80669078906328,2847.7766689030427,0.0
553296.95196600363,3575566.251970998,-17500.0,1477.4373485581764,211.19647962314056,-1813.7398839840107,266.1101877106982,-331.33032587014407,-19.648610699899635,1711.3889448676584,1472.5661927004508,-1807.5436938889993,1807.5436938889993,-1472.5661927004508,2970.1067035870128,0.0
558296.95196600363,3575566.251970998,-17500.0,1794.0425533229793,643.63091662074362,-1596.0928550833892,405.95338262288084,-227.19615316833688,11.87409999173245,1871.4692973960464,1906.9918263206928,-1706.6329337833831,1706.6329337833831,-1906.9918263206928,3243.3595389841003,0.0
563296.95196600363,3575566.251970998,-17500.0,2077.2031039228987,1149.6220578804828,-1216.5884379345484,562.57063201731387,-72.105899780534841,55.10626360790711,2079.6007761400356,2332.5562005938546,-1467.397011445466,1467.397011445466,-2332.5562005938546,3634.2152442649817,0.0
568296.95196600363,3575566.251970998,-17500.0,2297.0791545703337,1711.0170270399101,-637.33255292693048,729.1926409705427,143.58703082308361,111.85893760126056,2347.7970686506628,2710.0656715749528,-1053.9123211374015,1053.9123211374015,-2710.0656715749528,4172.9340885369429,0.0
573296.95196600363,3575566.251970998,-17500.0,2421.8737399611382,2294.7017383702564,174.13046393683672,894.97585259760751,427.38587999759136,183.38013181367583,2684.0625210916201,2990.4522683527794,-435.22828429837296,435.22828429837296,-2990.4522683527794,4876.4263675558022,0.0
578296.95196600363,3575566.251970998,-17500.0,2422.853078788617,2850.9683248980455,1236.6515069100626,1044.8075133009904,782.42841897019287,269.90398929103674,3089.6068440359859,3118.6777209624365,406.7608450679495,-406.7608450679495,-3118.6777209624365,5743.1650191912649,0.0
583296.95196600363,3575566.251970998,-17500.0,2281.2455958063128,3314.8802176186914,2545.645111488805,1159.9493268518611,1204.9478336680977,370.16163911233065,3557.0257904900968,3041.1670246730073,1467.9145154542705,-1467.9145154542705,-3041.1670246730073,6751.6573080733733,0.0
588296.95196600363,3575566.251970998,-17500.0,1995.9482317404395,3612.0609638958499,4063.4070719103106,1219.8329182721184,1681.9186972232583,480.95765068506529,4069.6601279233041,2716.6336151638347,2712.7647398721251,-2712.7647398721251,-2716.6336151638347,7860.8679523618102,0.0
593296.95196600363,3575566.251970998,-17500.0,1589.9751850634368,3669.6145222525861,5712.561657998579,1205.1146536743738,2189.654346177801,596.95973199651701,4602.2938177138949,2128.7996986262579,4068.7184756895776,-4068.7184756895776,-2128.7996986262579,9011.9068830950491,0.0
598296.95196600363,3575566.251970998,-17500.0,1112.8596301129778,3431.3027381381921,7376.2683955489083,1101.6907209876692,2694.2330131698586,710.85869400247145,5124.0656802382446,1297.8711946088174,5427.0556993306509,-5427.0556993306509,-1297.8711946088174,10131.591566317673,0.0
603296.95196600363,3575566.251970998,-17500.0,636.43075476561239,2873.9629320884142,8908.1955483121765,904.86455527196904,3154.4275944186679,814.00660248594875,5606.9264692375609,286.48514500066176,6653.4727122143076,-6653.4727122143076,-286.48514500066176,11138.731035293016,0.0
608296.95196600363,3575566.251970998,-17500.0,242.95852974678735,2020.2290435578077,10152.937010211537,622.43270082500624,3527.2121722658771,897.52499294598169,6022.3068367695359,-803.91208916985033,7608.4694482520126,-7608.4694482520126,803.91208916985033,11953.213453490065,0.0
613296.95196600363,3575566.251970998,-17500.0,7.4999448974409963,942.1752005693188,10973.733227615721,275.40157126831434,3774.9938146824061,953.70857395741893,6315.0084858893815,-1847.9532046643317,8174.069436734143,-8174.069436734143,1847.9532046643317,12506.781917226313,0.0
618296.95196600363,3575566.251970998,-17500.0,-20.70700867952705,-247.53423442747777,11280.499595235489,-104.44265436629166,3872.8191662038234,977.39852058411475,6448.5159400210705,-2720.1508076814089,8279.7255822508305,-8279.7255822508305,2720.1508076814089,12753.290470750746,0.0
623296.95196600363,3575566.251970998,-17500.0,168.57553129467061,-1416.145615450532,11049.464372197421,-479.86131471787525,3813.4419854274465,966.94882214967731,6411.729962269781,-3321.1042110498797,7918.9627152618705,-7918.9627152618705,3321.1042110498797,12675.896655997298,0.0
628296.95196600363,3575566.251970998,-17500.0,543.88549894311961,-2437.3937660229094,10327.569777522469,-815.02700349720374,3608.5865397779876,924.49048547083601,6212.203071910797,-3597.7257216738826,7150.6287659811469,-7150.6287659811469,3597.7257216738826,12289.132670863388,0.0
633296.95196600363,3575566.251970998,-17500.0,1040.9648324454097,-3215.824865418062,9220.0996283522618,-1081.9068662465984,3286.0005278958129,855.41859236596372,5872.8453686196035,-3550.9377511116627,6084.154159458637,-6084.154159458637,3550.9377511116627,11635.284080335896,1.0
638296.95196600363,3575566.251970998,-17500.0,1579.7604792589802,-3701.5137392199222,7866.1016232643578,-1264.3523806011558,2883.3362308525493,767.27245767435613,5428.2276590072015,-3229.2117734220815,4854.1580951090782,-4854.1580951090782,3229.2117734220815,10776.179973231247,0.0
643296.95196600363,3575566.251970998,-17500.0,2083.2160507734402,-3891.9837397573215,6410.0338646775645,-1359.0257760484212,2440.8570834493526,668.35324545925164,4922.6423657528112,-2711.6876705561663,3593.0687730723384,-3593.0687730723384,2711.6876705561663,9782.7326509424875,0.0
648296.95196600363,3575566.251970998,-17500.0,2491.8682736674468,-3823.125534393263,4977.9718868915888,-1373.4736886573291,1995.032964699393,566.45128597882206,4402.4225282512389,-2087.6833176510486,2409.7052843883625,-2409.7052843883625,2087.6833176510486,8724.8698528072528,0.0
653296.95196600363,3575566.251970998,-17500.0,2771.0151945006378,-3554.1434065904477,3663.3358379274637,-1322.4795224158147,1574.3551743323017,467.94509249019643,3891.3619704003249,-1439.0546987238331,1378.0083378714035,-1378.0083378714035,1439.0546987238331,7663.8038852153813,0.0
658296.95196600363,3575566.251970998,-17500.0,2910.5653729861565,-3152.072179893687,2522.8827123021169,-1224.0479450213058,1197.7279769928837,377.37327085657972,3404.4818712633073,-829.16544244829174,535.82774767710021,-535.82774767710021,829.16544244829174,6647.5935145762005,0.0
663296.95196600363,3575566.251970998,-17500.0,2919.8937742932167,-2679.6888803751162,1580.4681961987219,-1096.0369778795921,874.95410489551375,297.42166372326636,2955.1495568959645,-298.97276793577294,-109.26655592045196,109.26655592045196,298.97276793577294,5709.7755946894358,0.0
668296.95196600363,3575566.251970998,-17500.0,2820.665394384685,-2188.3352336466323,834.97920330524096,-953.93529268366592,608.49195230432622,229.19236625140081,2551.9382574322503,131.43302648463916,-570.95717426664532,570.95717426664532,-131.43302648463916,4870.3211576716794,0.0
673296.95196600363,3575566.251970998,-17500.0,2639.9792898682281,-1715.2676485410477,269.21029354388708,-809.79957574841478,395.66610188507747,172.60330869285036,2198.5144361407938,458.28785555266603,-875.05789220748215,875.05789220748215,-458.28785555266603,4137.9127295717926,1.0
678296.95196600363,3575566.251970998,-17500.0,2405.1255854928318,-1284.2141447590936,-142.37345715308015,-672.09235185595787,230.75405139597467,126.79947364511416,1894.6502891022415,688.75613286340752,-1052.1023349432894,1052.1023349432894,-688.75613286340752,3512.6873258541696,0.0
683296.95196600363,3575566.251970998,-17500.0,2140.3031910615296,-907.67736267927626,-427.87258708570045,-546.07761748521,106.65139819282837,90.504881777452198,1637.407427932209,836.05760603815531,-1132.251821563648,1132.251821563648,-836.05760603815531,2988.8656723816011,0.0
688296.95196600363,3575566.251970998,-17500.0,1865.054499341835,-589.82368419546799,-614.25343579213643,-434.47133506389218,16.034143765568309,62.286322703963535,1422.1947036036181,915.74670455115699,-1142.3621645093049,1142.3621645093049,-915.74670455115699,2556.9643583672546,0.0
548296.95196600363,3580566.251970998,-17500.0,1062.9655994061707,-475.96592548675545,-2317.830071427466,67.625455602021489,-538.07331679950551,-73.552538656265,1821.5110919109466,873.36196556869368,-2114.0794362774632,2114.0794362774632,-873.36196556869368,3231.2592315150732,0.0
553296.95196600363,3580566.251970998,-17500.0,1468.4567059102385,-108.91565722928824,-2302.4605269233639,203.94532556865661,-488.90172087091554,-51.971852516380565,1954.2892597816974,1365.8374485043732,-2198.95839844079,2198.95839844079,-1365.8374485043732,3416.9508560326112,0.0
558296.95196600363,3580566.251970998,-17500.0,1882.4906786139256,365.01125031726747,-2156.3398720571404,369.7615664243213,-392.59781847295949,-18.312099335570991,2121.0566516767581,1904.7254682556916,-2178.8691082516902,2178.8691082516902,-1904.7254682556916,3677.0168227938543,0.0
563296.95196600363,3580566.251970998,-17500.0,2275.4607498749574,945.98536807185712,-1829.5453949965154,562.91635385451116,-234.64233309969504,30.531608961425839,2338.9621070246894,2460.3617526220282,-2007.1212270281351,2007.1212270281351,-2460.3617526220282,4059.0386628462106,0.0
568296.95196600363,3580566.251970998,-17500.0,2608.8522182669867,1619.9814076684509,-1267.5359774648336,776.79890198628686,0.0012957587225208567,97.605185106749175,2626.7092767802933,2987.0973370663055,-1632.1809374429981,1632.1809374429981,-2987.0973370663055,4613.1819426093425,0.0
573296.95196600363,3580566.251970998,-17500.0,2838.0121485404497,2353.1534044183745,-417.90091903703706,998.98606823265061,324.74219387173144,185.3968432680845,3000.2123396386287,3422.8397259002422,-1004.1787557183095,1004.1787557183095,-3422.8397259002422,5378.0050047283075,0.0
578296.95196600363,3580566.251970998,-17500.0,2918.2051813388739,3087.4799866675407,758.81652399938741,1210.3843739599386,748.18482334135467,295.1468999580552,3467.5655992302873,3692.4068255284583,-85.380416741529416,85.380416741529416,-3692.4068255284583,6367.9841718274356,0.0
583296.95196600363,3580566.251970998,-17500.0,2814.2028226179336,3740.0172472983195,2274.5759143802288,1385.485361193437,1270.1124820208859,426.02630792771834,4025.0086149557851,3716.3114126159126,1135.8118061188572,-1135.8118061188572,-3716.3114126159126,7567.5169769172117,0.0
588296.95196600363,3580566.251970998,-17500.0,2512.3931957553168,4208.5076463454452,4097.6953616558631,1494.3979414723335,1877.2928484101897,574.33741542929454,4654.863871843535,3425.6790852064928,2629.5254946262198,-2629.5254946262198,-3425.6790852064928,8930.2081698917664,0.0
593296.95196600363,3580566.251970998,-17500.0,2032.5326644477395,4385.4090438568237,6139.4842010611183,1507.074719496783,2540.3115363686816,732.98438231928901,5325.7190584547998,2781.8744728722208,4312.1645660444283,-4312.1645660444283,-2781.8744728722208,10380.841327057777,0.0
598296.95196600363,3580566.251970998,-17500.0,1434.5479658921754,4180.1583679313162,8249.8383043562844,1399.5276466941782,3213.018268918031,891.51090200076021,5995.6618285457735,1796.4464493737728,6043.3083995720881,-6043.3083995720881,-1796.4464493737728,11819.970005843272,0.0
603296.95196600363,3580566.251970998,-17500.0,815.352727779367,3545.7485845443898,10228.011231596498,1160.8881387633151,3836.0780914943989,1036.9591914662444,6621.5424717817032,544.25249711720198,7637.5990453133745,-7637.5990453133745,-544.25249711720198,13132.700096628841,0.0
608296.95196600363,3580566.251970998,-17500.0,292.67960368910343,2501.6079552802694,11851.389969600692,799.2027999504794,4345.1590525363172,1155.5979736110276,7160.1975954956897,-838.03981320676303,8893.8325118208304,-8893.8325118208304,838.03981320676303,14202.31368251154,0.0
613296.95196600363,3580566.251970998,-17500.0,-22.216199825588888,1142.911508319572,12918.60825170709,343.5094504389337,4682.653773588504,1235.2673136960643,7540.1621083171076,-2172.60216439752,9636.8584825508278,-9636.8584825508278,2172.60216439752,14927.417872427337,0.0
618296.95196600363,3580566.251970998,-17500.0,-55.163661383956942,-370.966713725597,13295.56479251886,-159.52964062142968,4809.9446963838564,1267.7637099373042,7707.2926000868811,-3277.5905347418839,9760.4579090036132,-9760.4579090036132,3277.5905347418839,15238.96141324915,0.0
623296.95196600363,3580566.251970998,-17500.0,208.50085567943125,-1848.6144353225898,12948.603635931424,-654.27560198208857,4716.2509729546518,1250.5489357185522,7644.694433310784,-4009.8839492986635,9255.7832454297641,-9255.7832454297641,4009.8839492986635,15112.435568498489,0.0
628296.95196600363,3580566.251970998,-17500.0,719.35615049494243,-3109.7977715125653,11951.882513671955,-1087.6282008988762,4420.8195719280648,1187.2122496583197,7364.6582518135583,-4298.1383915712313,8213.6118196988064,-8213.6118196988064,4298.1383915712313,14571.396665140826,0.0
633296.95196600363,3580566.251970998,-17500.0,1379.4008559020328,-4024.5339656337123,10465.84496058418,-1419.6297321930808,3967.6233090044179,1086.5325256499016,6903.1817025978953,-4154.0275251513458,6799.0469463300842,-6799.0469463300842,4154.0275251513458,13681.123523194616,0.0
638296.95196600363,3580566.251970998,-17500.0,2070.8752881587125,-4534.7306448691297,8695.6247544621474,-1629.781915136025,3414.6357605353323,960.48364206608369,6314.541282490396,-3659.1195722982743,5208.8806634350913,-5208.8806634350913,3659.1195722982743,12534.570875481897,0.0
643296.95196600363,3580566.251970998,-17500.0,2686.5248307078787,-4653.5178615833502,6845.2245004694305,-1717.6613458179586,2821.5547498790734,821.85110182814503,5665.3942364262221,-2935.173633665022,3627.7917810160779,-3627.7917810160779,2935.173633665022,11235.065182704862,0.0
648296.95196600363,3580566.251970998,-17500.0,3150.8522249280495,-4446.9588244724173,5082.1046672466555,-1698.7489098557883,2239.7442535992004,682.15226877241059,5007.9744709900015,-2110.7875015927211,2197.1474400047409,-2197.1474400047409,2110.7875015927211,9880.5279813187062,0.0
653296.95196600363,3580566.251970998,-17500.0,3427.8731317210777,-4008.1684335448858,3519.4573027542647,-1597.8324070572739,1706.509982968875,550.30273398532711,4370.4412650305212,-1295.4637502472851,1002.174502704096,-1002.174502704096,1295.4637502472851,8552.4450128496464,0.0
658296.95196600363,3580566.251970998,-17500.0,3517.1327385750492,-3433.4533988508383,2215.3156801103178,-1442.4468288541107,1243.8381490295762,432.1334055182117,3775.4122796892239,-566.14967292477684,75.239486014216027,-75.239486014216027,566.14967292477684,7310.6093516850005,0.0
663296.95196600363,3580566.251970998,-17500.0,3443.1044817947695,-2805.9973662151506,1182.6645086382657,-1257.9537317278407,860.34803134149081,330.58863312205432,3238.8056154508763,34.621830459853868,-591.37714279734701,591.37714279734701,-34.621830459853868,6192.7773393916168,0.0
668296.95196600363,3580566.251970998,-17500.0,3243.2151758814471,-2188.1672160832609,403.88580431206617,-1064.7892982354701,554.81916730318062,246.3241050345286,2768.5801279106468,493.06327432709838,-1029.9940416619206,1029.9940416619206,-493.06327432709838,5217.5679679985897,0.0
673296.95196600363,3580566.251970998,-17500.0,2957.9057627650982,-1620.5858596556163,-155.44564028050499,-877.59313609322646,319.91548292136491,178.42971655447843,2366.0350567918067,815.41671369940468,-1283.9407335843903,1283.9407335843903,-815.41671369940468,4388.7812515369969,0.0
678296.95196600363,3580566.251970998,-17500.0,2624.0762950741746,-1125.2208938061908,-535.90678642500927,-705.60064408610697,145.3121283072152,125.0950952464454,2027.7464884223059,1019.4117638038882,-1397.8531084968686,1397.8531084968686,-1019.4117638038882,3699.863731313771,0.0
683296.95196600363,3580566.251970998,-17500.0,2271.7666361653673,-710.05520879610106,-777.27946035865045,-553.66623722401278,19.927379188119421,84.126475337345425,1747.3895294161211,1127.5395553452252,-1411.9561859202843,1411.9561859202843,-1127.5395553452252,3137.7701135820776,0.0
688296.95196600363,3580566.251970998,-17500.0,1923.2419675288672,-373.75130631975713,-914.78013068428731,-423.45400146599155,-66.703352130906367,53.297237395742258,1517.2105554311336,1162.5514059720226,-1359.4908856525335,1359.4908856525335,-1162.5514059720226,2685.9777102016583,0.0
693296.95196600363,3580566.251970998,-17500.0,1593.5402912514917,-109.51915448556937,-977.55946062570092,-314.52504031436865,-123.72598292227099,30.554230073156045,1329.1117619146789,1144.9095952282312,-1266.2149723804025,1266.2149723804025,-1144.9095952282312,2326.7084008443794,0.0
543296.95196600363,3585566.251970998,-17500.0,433.65412201104976,-1147.7274828415264,-2582.0043179984041,-165.04544349920309,-699.58156884950495,-125.8803398784179,1982.7233200107084,95.839655097906416,-2170.2841541784233,2170.2841541784233,-95.839655097906416,3636.166670088111,0.0
548296.95196600363,3585566.251970998,-17500.0,872.20837464869498,-904.0559272255008,-2751.14794170287,-52.805704592233127,-710.34817732999295,-117.42604329412163,2112.6778242218006,569.15711574497095,-2415.4533513177212,2415.4533513177212,-569.15711574497095,3807.4124339720597,0.0
553296.95196600363,3585566.251970998,-17500.0,1365.5507766183077,-542.23240381703647,-2840.9844496961055,97.163719645381235,-685.35267037907897,-98.304025533753659,2258.9448792194694,1136.8578067728383,-2607.8043668455975,2607.8043668455975,-1136.8578067728383,3999.9434812789968,0.0
558296.95196600363,3585566.251970998,-17500.0,1894.0742507365785,-43.052472637344643,-2801.4646413665137,288.58782336465379,-607.94739373914251,-64.505560181871317,2434.9364455190098,1788.0688295228351,-2701.8391098062416,2701.8391098062416,-1788.0688295228351,4248.7341797035106,0.0
563296.95196600363,3585566.251970998,-17500.0,2424.9550680638749,604.48772215726149,-2568.8111798118466,521.87846605711047,-457.99287732958595,-11.398914553351062,2660.9960219482127,2495.1409336493389,-2638.4140736217496,2638.4140736217496,-2495.1409336493389,4609.7179768982578,0.0
568296.95196600363,3585566.251970998,-17500.0,2910.8299530819659,1395.6317224118998,-2067.7695796073335,791.93732621608581,-212.98427654200364,65.921157901889316,2963.2715283173916,3208.3381518341344,-2346.7753536763771,2346.7753536763771,-3208.3381518341344,5155.3120727548849,0.0
573296.95196600363,3585566.251970998,-17500.0,3291.4373707640539,2300.7275853937472,-1218.5526718047909,1085.7131196632522,149.41491561292577,171.97352718392514,3368.9294015981463,3852.3999206094732,-1751.213692561493,1751.213692561493,-3852.3999206094732,5956.9832663017278,0.0
578296.95196600363,3585566.251970998,-17500.0,3500.0416737579781,3256.3477408445178,49.757753211404292,1380.1064973584191,647.05317154076727,309.87103494345922,3898.2313454729806,4327.7193662037389,-784.04856854363106,784.04856854363106,-4327.7193662037389,7060.8902029914234,0.0
583296.95196600363,3585566.251970998,-17500.0,3475.9579030216037,4160.0892026936926,1778.6552520687906,1641.2050147342102,1287.1697489210942,479.98328356324799,4556.3440103952471,4519.3803891476027,594.47638878545899,-594.47638878545899,-4519.3803891476027,8470.049035127302,0.0
588296.95196600363,3585566.251970998,-17500.0,3182.7882317090553,4873.8732712808669,3954.3818733155686,1826.1097012683269,2059.2068532713497,678.48614756452844,5327.8884686259198,4316.5669366784405,2371.4272670183746,-2371.4272670183746,-4316.5669366784405,10138.448587017754,0.0
593296.95196600363,3585566.251970998,-17500.0,2628.8499946740721,5240.4944312869957,6482.7200432464579,1888.4508491548518,2928.3313547960779,896.19623912717475,6175.4773024199567,3641.9499421893083,4457.5755445786326,-4457.5755445786326,-3641.9499421893083,11972.647361943789,0.0
598296.95196600363,3585566.251970998,-17500.0,1882.6076355420614,5115.3833687226024,9174.579680811421,1787.8272690204215,3832.4598789243378,1118.2484686150792,7043.0991498108888,2485.5583171374851,6675.0702406180735,-6675.0702406180735,-2485.5583171374851,13837.790761248601,0.0
603296.95196600363,3585566.251970998,-17500.0,1073.6456157252865,4409.2665811874549,11754.421535968735,1501.7032228330679,4685.8442239728311,1325.1552165161725,7866.9881472277348,931.64941957086967,8767.9530315397624,-8767.9530315397624,-931.64941957086967,15569.764127444412,0.0
608296.95196600363,3585566.251970998,-17500.0,371.74828259069369,3129.2524582421611,13899.708229772001,1036.2788802591642,5391.0405898404433,1495.4828506578792,8579.4688589836169,-836.15025306088864,10442.681721804885,-10442.681721804885,836.15025306088864,16995.731346520923,0.0
613296.95196600363,3585566.251970998,-17500.0,-55.380243558076572,1400.2316428497613,15308.385396130685,431.63000769468817,5858.0798982887836,1609.7955823484456,9081.5331334828625,-2562.3813645740729,11434.305755099249,-11434.305755099249,2562.3813645740729,17961.817660251065,0.0
618296.95196600363,3585566.251970998,-17500.0,-93.446328524080656,-548.95614935642413,15776.035385365938,-242.6935467593662,6025.7860333410972,1654.8504841614167,9293.820967088679,-3978.389275167644,11578.961273724603,-11578.961273724603,3978.389275167644,18362.011826236852,0.0
623296.95196600363,3585566.251970998,-17500.0,279.15781236726053,-2436.7961764364063,15253.733046356512,-901.93894920251603,5877.7045581872426,1626.6756847066586,9190.847277903531,-4873.7857413743968,10864.043953481867,-10864.043953481867,4873.7857413743968,18159.621172726671,0.0
628296.95196600363,3585566.251970998,-17500.0,983.22468528407512,-4001.3123768123692,13860.929709065629,-1465.9783997616441,5446.0476043183298,1531.3897871920885,8793.2646193531509,-5152.11058612546,9432.5563115129735,-9432.5563115129735,5152.11058612546,17393.497259420801,0.0
633296.95196600363,3585566.251970998,-17500.0,1866.4715811215776,-5064.487360333309,11846.963269779826,-1877.3663295634808,4801.9016601154844,1383.4608356299943,8159.2490132479479,-4847.3269337173742,7538.4612423622884,-7538.4612423622884,4847.3269337173742,16166.61952276575,0.0
638296.95196600363,3585566.251970998,-17500.0,2753.6410423177335,-5564.0370371847239,9518.7749799047106,-2111.1433032968489,4035.929244099782,1202.0979556785962,7375.0738525248553,-4097.158858590572,5473.2181766990143,-5473.2181766990143,4097.158858590572,14621.326790651894,0.0
643296.95196600363,3585566.251970998,-17500.0,3495.8930849774342,-5545.3613528784344,7165.6584437032789,-2174.1186522218804,3237.3368496634107,1007.1016511166954,6533.3809412428818,-3089.9133703071693,3494.7089828316603,-3494.7089828316603,3089.9133703071693,12910.037341418301,0.0
648296.95196600363,3585566.251970998,-17500.0,4001.0295717904041,-5125.3429723707113,5007.0992394130735,-2096.0991074957969,2478.1111828189664,815.46668785083705,5694.6667255302009,-2009.9146143487267,1782.6535897012989,-1782.6535897012989,2009.9146143487267,11170.331531218799,0.0
653296.95196600363,3585566.251970998,-17500.0,4239.1820002374825,-4448.0838789640029,3173.4308937355468,-1917.9914935058778,1805.7087167440586,639.46595962763104,4898.5008133965785,-1000.3638666717181,427.28657494376733,-427.28657494376733,1000.3638666717181,9509.5507906640214,0.0
658296.95196600363,3585566.251970998,-17500.0,4230.2534747450227,-3649.0750269466153,1713.6336656830547,-1681.2673851232478,1243.4240539510686,486.26021831240126,4174.2348245798848,-149.30015623119039,-556.78759871128284,556.78759871128284,149.30015623119039,7999.636805816217,0.0
663296.95196600363,3585566.251970998,-17500.0,4023.7490166339394,-2834.7851132767883,617.42796259019678,-1421.1087856740021,795.42703024597142,358.59075676598712,3538.4663372494783,506.27569564834607,-1205.3449118061608,1205.3449118061608,-506.27569564834607,6679.5572746233529,0.0
668296.95196600363,3585566.251970998,-17500.0,3679.8035749300343,-2076.6187303871302,-160.04465752460052,-1163.470369441319,453.35525698322999,255.98927928872695,2996.2125358615285,966.95685989252866,-1579.3547724146686,1579.3547724146686,-966.95685989252866,5561.890904264691,0.0
673296.95196600363,3585566.251970998,-17500.0,3255.7624906358965,-1414.238811755338,-677.96006586725844,-925.02953534634878,202.300532523708,176.0319633585344,2544.0140957455947,1255.7742301369094,-1745.9284927461181,1745.9284927461181,-1255.7742301369094,4640.4889310584877,0.0
678296.95196600363,3585566.251970998,-17500.0,2798.9673453412761,-863.102219972988,-996.26323137617544,-714.724327683718,25.237052575917239,115.37215603752182,2173.1452748696925,1405.6541937338941,-1766.7491594922269,1766.7491594922269,-1405.6541937338941,3897.4139373579192,0.0
683296.95196600363,3585566.251970998,-17500.0,2344.3986701132035,-422.58378167311389,-1168.2623395718881,-535.82534998188873,-94.215245492202058,70.461870262851633,1872.2688400351899,1450.9110700528302,-1692.7156569904262,1692.7156569904262,-1450.9110700528302,3308.427710476939,0.0
688296.95196600363,3585566.251970998,-17500.0,1915.313756955959,-82.819434692771679,-1237.6669459892948,-387.9012851461523,-170.37415381354779,37.983437138771336,1629.3854776241812,1422.4607082111961,-1562.7226095848073,1562.7226095848073,-1422.4607082111961,2847.0215358542814,0.0
693296.95196600363,3585566.251970998,-17500.0,1525.3048259086831,170.31905004389117,-1238.3255479884158,-268.39261614512418,-214.99459925895442,15.060114697828951,1433.1273342081381,1345.7646760779155,-1404.6999292797843,1404.6999292797843,-1345.7646760779155,2487.2738759746567,0.0
698296.95196600363,3585566.251970998,-17500.0,1180.7328178699327,352.00512478260987,-1195.3254321740367,-173.73535227681595,-237.30535488348468,-0.67899665736267056,1273.5038751430357,1240.4756651401901,-1237.5896416035323,1237.5896416035323,-1240.4756651401901,2205.7877573285982,0.0
538296.95196600363,3590566.251970998,-17500.0,-354.0517365738512,-1711.1711023668408,-2597.5819933795974,-407.00003073211627,-799.23118533575121,-171.4556455698675,2158.9516154953717,-765.31301812151366,-1978.6073616538442,1978.6073616538442,765.31301812151366,4083.3818537100028,0.0
543296.95196600363,3590566.251970998,-17500.0,47.135977807000671,-1624.4240617713021,-2902.3171172650459,-336.91944602470483,-865.12069460267776,-177.59068316784652,2312.1213664388165,-388.3845807369122,-2328.076958772107,2328.076958772107,388.3845807369122,4311.5033424350358,0.0
548296.95196600363,3590566.251970998,-17500.0,539.98342489144693,-1433.7506319160095,-3185.9904380816347,-228.00665077592987,-911.79835610896407,-176.15912372288506,2471.3342969709229,109.7339992694524,-2681.5114891093581,2681.5114891093581,-109.7339992694524,4532.5958795988327,0.0
553296.95196600363,3590566.251970998,-17500.0,1121.7863590098591,-1107.0231141507907,-3410.2107613787152,-71.258596257096286,-924.08629547874489,-162.96991897906523,2641.6053601732833,739.90270745212979,-3006.258682454536,3006.258682454536,-739.90270745212979,4756.114503844934,0.0
558296.95196600363,3590566.251970998,-17500.0,1777.4351987010673,-611.4670829985937,-3518.566992817659,141.4160204577669,-881.18901055003357,-132.57405453984995,2834.3330225996651,1501.5853332262732,-3252.1723752323505,3252.1723752323505,-1501.5853332262732,5009.1431442207131,0.0
563296.95196600363,3590566.251970998,-17500.0,2474.3506061446815,80.241560359878136,-3433.4382315190364,415.02537416300407,-756.21261957705383,-78.284328138393832,3070.475588872172,2374.9374016891597,-3348.2288586973955,3348.2288586973955,-2374.9374016891597,5346.8787878916346,0.0
568296.95196600363,3590566.251970998,-17500.0,3158.1988018004231,980.13822668515718,-3055.6271390688071,748.32187415082888,-516.78673357404625,7.499588082303779,3382.3236493889285,3311.5486960230119,-3201.8895844397812,3201.8895844397812,-3311.5486960230119,5858.6531855782578,0.0
573296.95196600363,3590566.251970998,-17500.0,3751.6846503520596,2071.3338725344606,-2269.7905027356023,1129.7769526072479,-127.638273948323,132.48824212270065,3810.6568950892179,4225.9113966204386,-2704.1760043662111,2704.1760043662111,-4225.9113966204386,6656.8144726797073,0.0
578296.95196600363,3590566.251970998,-17500.0,4159.6499986132358,3292.2376307693353,-959.29178867802784,1533.3758124747271,443.96467980889474,303.06794512711826,4394.9028988076379,4991.543104772175,-1744.0269096218954,1744.0269096218954,-4991.543104772175,7841.9828511163096,0.0
583296.95196600363,3590566.251970998,-17500.0,4283.839990251714,4523.111217394644,966.54071616329281,1915.6738223718758,1219.3300001727093,522.20127242394517,5158.5535999061467,5447.4940242119374,-234.7755339909495,234.7755339909495,-5447.4940242119374,9461.5664513433203,0.0
588296.95196600363,3590566.251970998,-17500.0,4048.8383971559556,5582.6887078679911,3532.9891238313139,2216.3199300624387,2196.5099017422913,786.8879910833499,6096.2705576927301,5421.2285917943718,1847.7673368975215,-1847.7673368975215,-5421.2285917943718,11486.216746486874,0.0
593296.95196600363,3590566.251970998,-17500.0,3435.9632797891245,6244.4817981358356,6655.1348009751409,2364.5097938790668,3337.8836795972934,1085.7972057402849,7167.7443345004876,4770.6961800695872,4422.7375534701741,-4422.7375534701741,-4770.6961800695872,13806.871999385874,0.0
598296.95196600363,3590566.251970998,-17500.0,2514.7129250973712,6279.861165029145,10103.300108360019,2292.8126901346191,4561.7946610078607,1398.0665921925915,8300.1887245434591,3440.2334589560105,7272.9229916619352,-7272.9229916619352,-3440.2334589560105,16242.480505167207,0.0
603296.95196600363,3590566.251970998,-17500.0,1454.858518581925,5525.4529574295784,13501.20170204647,1957.0075459194952,5744.3277226137097,1694.3922286901754,9401.4843254218649,1513.0360965519976,10046.681889189987,-10046.681889189987,-1513.0360965519976,18556.930913519427,0.0
608296.95196600363,3590566.251970998,-17500.0,502.33571323050609,3956.6353081069633,16376.788299552267,1356.4144032944857,6736.0920492197065,1941.0979500515039,10364.589091331323,-766.86709701540622,12311.443129687177,-12311.443129687177,766.86709701540622,20489.948659018813,0.0
613296.95196600363,3590566.251970998,-17500.0,-85.779629700650872,1734.3930837794176,18267.918405152985,545.79898526571867,7393.7173785347331,2106.7903500975249,11042.539788140828,-3028.1869571977768,13658.392895404959,-13658.392895404959,3028.1869571977768,21802.363290856316,0.0
618296.95196600363,3590566.251970998,-17500.0,-128.93698514862947,-807.65489177090194,18854.577432169601,-369.58228093584387,7617.7591289188185,2169.8214595480072,11317.2374860123,-4865.5883419845877,13827.776639237069,-13827.776639237069,4865.5883419845877,22326.599625585401,0.0
623296.95196600363,3590566.251970998,-17500.0,405.85729476606338,-3246.2310148767156,18063.198766878955,-1257.9052471055747,7382.3068630023108,2123.90091785511,11150.432501056181,-5962.4207550863648,12800.47032078238,-12800.47032078238,5962.4207550863648,22005.764856811707,0.0
628296.95196600363,3590566.251970998,-17500.0,1388.7877210269987,-5192.7754307339665,16090.547871516656,-1995.8968186972629,6742.4711103073205,1979.5735722938568,10578.022346531263,-6187.7508064616286,10807.133867234405,-10807.133867234405,6187.7508064616286,20905.346204588481,0.0
633296.95196600363,3590566.251970998,-17500.0,2578.3852736382119,-6402.8811343473753,13332.692150717074,-2500.4523834723018,5815.7306146083583,1760.9373333942892,9696.4454274370291,-5620.589383251141,8246.8603350148842,-8246.8603350148842,5620.589383251141,19191.926378549786,0.0
638296.95196600363,3590566.251970998,-17500.0,3711.0751600814178,-6822.3641439361345,10255.602790028495,-2743.8202001161608,4746.1778334703267,1499.0364241248585,8641.5726686834041,-4495.1123600978663,5556.888194690715,-5556.888194690715,4495.1123600978663,17087.975988523682,0.0
643296.95196600363,3590566.251970998,-17500.0,4582.6696218049683,-6560.3732435414831,7269.6286159974488,-2748.8720004740408,3667.8328323551718,1224.5893431472814,7537.896778408377,-3103.6286158593894,3095.8100118594675,-3095.8100118594675,3103.6286158593894,14821.027358767824,0.0
648296.95196600363,3590566.251970998,-17500.0,5089.0466181120446,-5818.2544918757676,4654.7643136007882,-2570.8948149229077,2680.2414875370669,962.47844069046243,6463.3181562984828,-1707.3235823163945,1082.6740403550903,-1082.6740403550903,1707.3235823163945,12584.153139744503,0.0
653296.95196600363,3590566.251970998,-17500.0,5222.531263675437,-4814.7416208854111,2546.7216433905378,-2276.3017438031702,1840.6093107706083,729.1570518899789,5471.8318599643635,-485.99671718797504,-403.90471214533886,403.90471214533886,485.99671718797504,10515.718825005803,0.0
658296.95196600363,3590566.251970998,-17500.0,5041.5575200501926,-3734.5685815815241,964.97316489135312,-1926.1988373975382,1168.8011316801819,532.74143770748151,4597.3041618413581,470.56084566596712,-1389.3303273209312,1389.3303273209312,-470.56084566596712,8696.9773472732631,0.0
663296.95196600363,3590566.251970998,-17500.0,4634.7234533615911,-2706.7375593783099,-143.84394271303123,-1567.6708301169972,658.46436009965146,374.75520796119662,3853.3243010457954,1144.6412269806165,-1956.6566048104719,1956.6566048104719,-1144.6412269806165,7160.885177565332,0.0
668296.95196600363,3590566.251970998,-17500.0,4092.7112595289141,-1805.0797332737632,-866.37500931406635,-1231.7452518430732,288.636514115799,252.42307892718114,3237.8357791708022,1563.7661963040628,-2208.1186713515244,2208.1186713515244,-1563.7661963040628,5905.2934123257573,0.0
673296.95196600363,3590566.251970998,-17500.0,3492.1531423078991,-1060.093254520013,-1295.0183973276908,-935.41175156462953,32.821237542617069,160.75010073098431,2738.8788846299426,1776.5724869870182,-2240.7495427600898,2240.7495427600898,-1776.5724869870182,4905.7996298530234,0.0
678296.95196600363,3590566.251970998,-17500.0,2889.6506886825719,-473.45965746954181,-1512.6952249359497,-685.24671089203525,-135.22600002045112,94.044885272869507,2339.5411202699788,1836.0535234711053,-2134.7466394191192,2134.7466394191192,-1836.0535234711053,4126.121312545959,0.0
683296.95196600363,3590566.251970998,-17500.0,2322.2192045161605,-30.607288338497856,-1586.7266073836549,-481.06977769863141,-238.50981585159758,46.855757897608243,2021.6006433653774,1790.1630045557233,-1950.483851869383,1950.483851869383,-1790.1630045557233,3525.7083497480994,0.0
688296.95196600363,3590566.251970998,-17500.0,1810.7828734639345,290.23313081335652,-1568.1755117714874,-318.90118347682579,-295.72264405346226,14.43904852562927,1767.893354053067,1677.8747647074388,-1730.1866886847333,1730.1866886847333,-1677.8747647074388,3065.0603955317815,0.0
693296.95196600363,3590566.251970998,-17500.0,1364.4746956018928,512.33986156293213,-1493.8404271806003,-193.04493382796971,-321.2771228444094,-7.0853576680621222,1563.6082795659265,1528.56666881315,-1501.4621830806004,1501.4621830806004,-1528.56666881315,2709.1924790323701,0.0
698296.95196600363,3590566.251970998,-17500.0,984.56103421093849,657.38752294341396,-1389.1358519439948,-97.400926216956421,-325.85983688580819,-20.757332772943496,1396.7625930954428,1363.0702136741504,-1281.0747978970628,1281.0747978970628,-1363.0702136741504,2429.4589183946478,0.0
533296.95196600363,3595566.251970998,-17500.0,-1211.081198616949,-2095.3487067462684,-2399.9954325998747,-631.50743376521575,-831.12170853331418,-206.17837296748337,2312.677376192009,-1599.5560625649291,-1587.3010213643638,1587.3010213643638,1599.5560625649291,4478.6430340481229,0.0
538296.95196600363,3595566.251970998,-17500.0,-914.34275279839733,-2166.3437816796363,-2774.5713835885886,-614.88090371228736,-938.86563900955105,-226.31740959804301,2505.0497031252612,-1376.3438540432971,-1970.2598389641685,1970.2598389641685,1376.3438540432971,4803.2792607428819,0.0
543296.95196600363,3595566.251970998,-17500.0,-509.57677597140054,-2167.8208378935774,-3178.2813268851019,-565.98841662438144,-1045.2211103283926,-243.12168261263935,2704.0182789655687,-1033.0984801521899,-2403.3571354378728,2403.3571354378728,1033.0984801521899,5122.587621935726,0.0
548296.95196600363,3595566.251970998,-17500.0,18.031893247289606,-2065.0577929694323,-3591.236272337751,-472.94535834166925,-1139.5709650322542,-253.04649838248179,2908.4339593828672,-542.11653573967192,-2873.1536343593916,2873.1536343593916,542.11653573967192,5429.7508718266845,0.0
553296.95196600363,3595566.251970998,-17500.0,676.57574237766983,-1815.0212775892369,-3977.4603724103881,-322.06804524621333,-1205.2434168990021,-250.94130334116034,3119.5492815542566,121.95931832163319,-3351.2119989251651,3351.2119989251651,-121.95931832163319,5723.2479828799896,0.0
558296.95196600363,3595566.251970998,-17500.0,1461.1961173145407,-1368.4227762451721,-4278.1712724080089,-99.089986256688277,-1217.5965302578088,-229.68550210439486,3344.2445317695488,975.37177889152531,-3787.2853803983235,3787.2853803983235,-975.37177889152531,6015.7834859626846,0.0
563296.95196600363,3595566.251970998,-17500.0,2346.0018677161484,-675.50666862485764,-4404.6868137614329,208.35483777673636,-1142.3315348197341,-179.97493533394197,3600.0136779200629,2014.7734941875924,-4102.0152125681643,4102.0152125681643,-2014.7734941875924,6349.3464600246316,0.0
568296.95196600363,3595566.251970998,-17500.0,3275.262487387799,302.51933830007914,-4233.1974362792425,606.53161628030387,-934.86745398148173,-90.481290860837831,3920.770505352556,3202.9937937206942,-4181.3723873734762,4181.3723873734762,-3202.9937937206942,6814.2333727384685,0.0
573296.95196600363,3595566.251970998,-17500.0,4156.6971254929849,1574.9280885465503,-3605.5784455710468,1089.4978244371518,-542.13073084118446,51.303521295377493,4359.5948501569701,4452.7744352487471,-3877.0217723906253,3877.0217723906253,-4452.7744352487471,7558.0362113226256,0.0
578296.95196600363,3595566.251970998,-17500.0,4861.8705540537367,3096.2340346026967,-2342.5551793578406,1631.6087228281619,91.423484302724944,257.18647897201856,4981.5952936737212,5613.3247863902543,-3018.8892369475798,3018.8892369475798,-5613.3247863902543,8758.097542250498,0.0
583296.95196600363,3595566.251970998,-17500.0,5240.4023256030232,4738.9805632403613,-276.408340940676,2180.4605130760378,1011.8016697621363,535.12279260265814,5843.1627312979981,6468.6206337602271,-1446.9582871715934,1446.9582871715934,-6468.6206337602271,10551.065417188825,0.0
588296.95196600363,3595566.251970998,-17500.0,5153.8055051212214,6275.7128123881657,2692.4315079374178,2653.8129360097719,2236.9374912568078,884.94305561519354,6965.2236346815898,6759.4321719720756,933.76585815367389,-933.76585815367389,-6759.4321719720756,12964.097838420348,0.0
593296.95196600363,3595566.251970998,-17500.0,4528.6464932558802,7387.5956857738738,6519.9813528621407,2945.3896377657925,3734.1164662468595,1293.8076298144547,8314.7076027433213,6239.2683059073061,4080.8675488900226,-4080.8675488900226,-6239.2683059073061,15888.92042097734,0.0
598296.95196600363,3595566.251970998,-17500.0,3416.0976935396225,7717.6347283079895,10946.120891451164,2943.8838470648193,5400.4893984511264,1733.0962708082386,9802.4162240539426,4763.1285075596288,7746.9145178945264,-7746.9145178945264,-4763.1285075596288,19088.940616163582,0.0
603296.95196600363,3595566.251970998,-17500.0,2029.5579265054996,6973.9518071482598,15464.365020473691,2565.3104912989729,7058.1907999960304,2158.9758854485563,11298.20459867434,2386.0275365084553,11455.829716825498,-11455.829716825498,-2386.0275365084553,22223.33734231587,0.0
608296.95196600363,3595566.251970998,-17500.0,724.74137855376,5060.11949827237,19378.695254098042,1790.7995811980309,8475.8215774585569,2518.3958840709993,12631.347209583393,-576.23545944688885,14565.579961670379,-14565.579961670379,576.23545944688885,24893.421117449816,0.0
613296.95196600363,3595566.251970998,-17500.0,-97.933747512529564,2175.200597656265,21967.253376114852,693.2842492950623,9419.9970647148257,2760.303833850528,13570.977590795237,-3579.0063579208245,16432.279755514581,-16432.279755514581,3579.0063579208245,26717.408444017383,0.0
618296.95196600363,3595566.251970998,-17500.0,-145.35930928498465,-1187.1980980208641,22713.494704215012,-565.5913242118296,9724.2017441450243,2848.9945979112554,13935.117716032641,-5996.611861084918,16631.201204277433,-16631.201204277433,5996.611861084918,27421.053236429434,0.0
623296.95196600363,3595566.251970998,-17500.0,635.21234480497208,-4374.537250694194,21501.835999917988,-1776.0397084781484,9346.0042477440111,2774.4460452889039,13665.598248725859,-7339.225078164327,15130.632726464864,-15130.632726464864,7339.225078164327,26912.260864874035,0.0
628296.95196600363,3595566.251970998,-17500.0,2025.6096466628096,-6797.1075675865923,18664.942746474357,-2744.3491559043014,8382.1253516758588,2554.985394281136,12826.793800862648,-7429.038359428896,12312.788709645081,-12312.788709645081,7429.038359428896,25304.458742428262,0.0
633296.95196600363,3595566.251970998,-17500.0,3634.3902667749367,-8120.5961959222986,14847.854129936055,-3350.0527171041972,7031.6468633838749,2231.0354149800846,11582.216314977544,-6435.6647517528163,8820.0878648956405,-8820.0878648956405,6435.6647517528163,22875.327883029207,0.0
638296.95196600363,3595566.251970998,-17500.0,5061.9879427300739,-8330.3827079181592,10768.236113535966,-3569.0665952888576,5527.4632978543477,1852.9249776790809,10144.792577089376,-4761.2188407220401,5316.3082785001225,-5316.3082785001225,4761.2188407220401,19980.744524870857,0.0
643296.95196600363,3595566.251970998,-17500.0,6035.9204923526713,-7658.4294314115177,7004.1511029446901,-3458.0948786515573,4071.1436368574855,1468.1319001897932,8685.2362690056798,-2859.622258844488,2292.9992163232309,-2292.9992163232309,2859.622258844488,16964.001651980598,0.0
648296.95196600363,3595566.251970998,-17500.0,6458.5359954975847,-6443.9704923001582,3894.0340428580512,-3117.049511312774,2796.4719715528281,1112.5043933036525,7308.8071690808938,-1092.2175407181126,-4.9770620288190912,4.9770620288190912,1092.2175407181126,14093.609978352662,0.0
653296.95196600363,3595566.251970998,-17500.0,6376.2618192222608,-5009.9806725062972,1548.1002177685884,-2651.5123198790725,1765.2140411269343,807.13562223725751,6083.3333387688817,331.97264016809072,-1547.2785185817729,1547.2785185817729,-331.97264016809072,11540.228913969186,0.0
658296.95196600363,3595566.251970998,-17500.0,5914.8047977855394,-3596.015324340302,-80.654051084260587,-2148.5294261797726,983.38490935006712,559.8440747480505,5041.5480331721765,1344.0372638375652,-2436.7753661983211,2436.7753661983211,-1344.0372638375652,9383.9936522487315,0.0
663296.95196600363,3595566.251970998,-17500.0,5219.4893219277219,-2344.2978607456353,-1117.8997951085914,-1667.579505862579,423.62986520265184,368.98467618254517,4186.7081099841598,1969.3288162495239,-2830.2084670471277,2830.2084670471277,-1969.3288162495239,7636.6490804494551,0.0
668296.95196600363,3595566.251970998,-17500.0,4417.9443254876214,-1316.6077862857646,-1709.5197074277478,-1242.0572593144948,44.393734392259596,227.56125944660258,3502.7534484611933,2279.7934186011762,-2884.4904717603604,2884.4904717603604,-2279.7934186011762,6266.0277289095275,0.0
673296.95196600363,3595566.251970998,-17500.0,3604.7966213578161,-520.84729397750255,-1988.5906547205493,-885.53690564930264,-197.42555975313593,126.49187032770341,2963.856580553942,2359.4131749313005,-2730.1658223188183,2730.1658223188183,-2359.4131749313005,5216.5489285697931,0.0
678296.95196600363,3595566.251970998,-17500.0,2840.8629780383944,64.906188514890459,-2062.0524101022988,-598.77298438057278,-339.87003118489361,56.706346551399541,2541.5375696449355,2284.8164707519036,-2463.9494306511142,2463.9494306511142,-2284.8164707519036,4424.2947093402108,0.0
683296.95196600363,3595566.251970998,-17500.0,2159.2365494222522,475.18720017158131,-2009.0673000546963,-375.46869641674402,-413.51948896206682,10.231637767511593,2209.1793752116328,2117.3522583218282,-2151.437255959363,2151.437255959363,-2117.3522583218282,3827.3499449262486,0.0
688296.95196600363,3595566.251970998,-17500.0,1573.1765562007251,746.69000858648928,-1884.7958207724653,-206.28670036781796,-441.47069508751144,-19.418431701682721,1944.3411344855385,1901.9765315681566,-1833.671179192454,1833.671179192454,-1901.9765315681566,3372.2057941956555,0.0
693296.95196600363,3595566.251970998,-17500.0,1083.229946004446,912.87849942671517,-1725.7912569118528,-81.295849680614253,-440.39340939894333,-37.25184774104622,1729.4425374772331,1669.3652147603716,-1534.0861022099807,1534.0861022099807,-1669.3652147603716,3016.6753267851586,0.0
698296.95196600363,3595566.251970998,-17500.0,682.6850968591973,1001.8264186858435,-1555.1423351696033,8.7265075762151358,-421.89358921533722,-46.992792223247193,1551.4277314894268,1439.0594113136206,-1264.3599512840303,1264.3599512840303,-1439.0594113136206,2729.9428231778047,0.0
703296.95196600363,3595566.251970998,-17500.0,361.33017222821388,1035.8675389106654,-1386.6644303799808,71.729507230115885,-393.80298957361947,-51.333203315718102,1400.9488563853633,1222.5304587079597,-1028.7973762902109,1028.7973762902109,-1222.5304587079597,2490.8201990585585,0.0
528296.95196600363,3600566.251970998,-17500.0,-2036.8735540720936,-2266.9407804502812,-2055.624154934103,-815.82779100082053,-800.50022199987939,-227.7741876279556,2416.4941076359946,-2307.0239960172967,-1075.341105367716,1075.341105367716,2307.0239960172967,4758.4978805312267,0.0
533296.95196600363,3600566.251970998,-17500.0,-1891.3483989813044,-2466.3577681815273,-2435.4222679150139,-854.89344878145994,-932.02769839036898,-259.49997474499401,2651.0324459097928,-2261.9952990495849,-1425.3520015760064,1425.3520015760064,2261.9952990495849,5185.9530445467462,0.0
538296.95196600363,3600566.251970998,-17500.0,-1645.7955482749962,-2639.3075362176664,-2876.2646812918565,-874.13582570387814,-1077.3040240024375,-292.41161288552985,2900.5556102047503,-2123.1611205772965,-1850.9804652390303,1850.9804652390303,2123.1611205772965,5628.7587032518823,0.0
543296.95196600363,3600566.251970998,-17500.0,-1273.6926051418441,-2758.3030524103606,-3376.5796707872037,-862.01765503524859,-1231.7382650701065,-324.26390773589372,3162.3240782566927,-1856.1406956496187,-2356.9827629219612,2356.9827629219612,1856.1406956496187,6076.6403670403379,0.0
548296.95196600363,3600566.251970998,-17500.0,-747.63322372243749,-2784.2093846852049,-3925.0253694905673,-803.30360523681202,-1385.9562399556689,-351.27119828778223,3432.8734728897434,-1420.5142780056042,-2939.9554150367931,2939.9554150367931,1420.5142780056042,6516.6173070677969,0.0
553296.95196600363,3600566.251970998,-17500.0,-43.642722890988466,-2664.1295385937865,-4493.6340854720147,-678.89888193428772,-1523.2904555447089,-367.47266188215946,3709.1847693394079,-772.67290309706004,-3581.6119040586918,3581.6119040586918,772.67290309706004,6935.6297213545377,0.0
558296.95196600363,3600566.251970998,-17500.0,851.40078983711237,-2331.0318401471118,-5028.1846724641036,-466.56020927383605,-1616.5805179856482,-364.01719633507975,3991.5401848526139,127.61459118004359,-4239.1667962391693,4239.1667962391693,-127.61459118004359,7327.6717644052051,0.0
563296.95196600363,3600566.251970998,-17500.0,1928.5328807203903,-1707.3916386135181,-5436.0425908185825,-143.23231581290639,-1624.6084694058811,-328.52064600444595,4289.2305020935582,1305.0288003837841,-4833.0136740305707,4833.0136740305707,-1305.0288003837841,7709.3569515183071,0.0
568296.95196600363,3600566.251970998,-17500.0,3141.9577823247014,-716.19735641460818,-5573.3227576401414,310.03086197687003,-1489.0888675412496,-244.80306681727544,4629.9378321477097,2749.3163247547864,-5233.5275365395673,5233.5275365395673,-2749.3163247547864,8147.9459589503231,0.0
573296.95196600363,3600566.251970998,-17500.0,4393.3942432807362,696.71607024220225,-5236.2937379845289,899.65014726485219,-1134.1060048703011,-93.518818780255728,5070.9261326721235,4388.8164185376336,-5251.9157324038097,5251.9157324038097,-4388.8164185376336,8797.650081537593,0.0
578296.95196600363,3600566.251970998,-17500.0,5522.0765949788611,2526.3359885296122,-4166.4322625993354,1607.438449042133,-471.0910186638331,145.63382753809566,5703.185927742561,6061.3626801091668,-4644.5349190071192,4644.5349190071192,-6061.3626801091668,9912.0181228203473,0.0
583296.95196600363,3600566.251970998,-17500.0,6311.7473479124274,4660.7364233245571,-2082.9587612316095,2376.579270422646,586.7244782388143,489.46336301459871,6633.2309367427724,7494.4815373966276,-3144.3740217532222,3144.3740217532222,-7494.4815373966276,11774.473851154406,0.0
588296.95196600363,3600566.251970998,-17500.0,6528.5378493752032,6835.4224552766063,1243.0089274756497,3100.6664219197278,2097.1887883347276,944.41653672498921,7938.3705763680091,8315.669444033123,-533.30259429218722,533.30259429218722,-8315.669444033123,14553.70027743233,0.0
593296.95196600363,3600566.251970998,-17500.0,5998.0952973178782,8618.0759876606026,5869.3369153358508,3624.5776755935844,4050.3857897761486,1498.2856181742441,9619.5003650241906,8117.4277821744254,3242.7299266066998,-3242.7299266066998,-8117.4277821744254,18196.943258704316,0.0
598296.95196600363,3600566.251970998,-17500.0,4710.9631982275296,9462.0527276921275,11542.953412380341,3767.5236837274851,6327.54673342964,2113.2505919572181,11581.971718474051,6590.0471509893332,7941.1872619557935,-7941.1872619557935,-6590.0471509893332,22415.604403064932,0.0
603296.95196600363,3600566.251970998,-17500.0,2913.388823888135,8855.9931396650227,17603.238454235772,3373.679104967031,8678.0763524179365,2724.5528284441107,13648.684668496029,3698.9581591547239,12937.662863600173,-12937.662863600173,-3698.9581591547239,26720.01715358191,0.0
608296.95196600363,3600566.251970998,-17500.0,1113.5735160061975,6550.6024367320133,23021.637522639528,2381.4497603657051,10741.089452552442,3248.8628939599871,15543.739048601139,-170.58498860063446,17277.616303802643,-17277.616303802643,170.58498860063446,30489.354970226002,0.0
613296.95196600363,3600566.251970998,-17500.0,-56.326841472572674,2768.6896388496234,26646.510648275515,882.18618775442565,12127.908406124654,3603.012615209142,16887.575501982177,-4216.3823505853006,19925.723918914464,-19925.723918914464,4216.3823505853006,33095.433517511025,0.0
618296.95196600363,3600566.251970998,-17500.0,-105.96504511364378,-1750.0096661042332,27614.059142715403,-872.65825090069598,12549.72269721538,3727.8958767568138,17386.079201985198,-7448.6000183765627,20162.33351790555,-20162.33351790555,7448.6000183765627,34070.25581279114,0.0
623296.95196600363,3600566.251970998,-17500.0,1054.2949765014928,-5970.1131208161323,25731.484244723586,-2540.4819603229944,11933.180992125466,3607.5549963909775,16946.843135538958,-9084.1941393922134,17928.21505667008,-17928.21505667008,9084.1941393922134,33256.079891016889,0.0
628296.95196600363,3600566.251970998,-17500.0,3047.1114863889961,-8972.0615776801387,21578.908269693282,-3809.3971651520187,10453.346707797664,3274.0051381352623,15688.908095130442,-8882.9731391462046,13877.003924555189,-13877.003924555189,8882.9731391462046,30856.438307559685,0.0
633296.95196600363,3600566.251970998,-17500.0,5222.2103131089289,-10305.934081193023,16237.879722648941,-4505.8018546947187,8457.8814849453065,2795.2155177060449,13897.141585204266,-7198.5668129943751,9071.7750842445166,-9071.7750842445166,7198.5668129943751,27351.802667487227,0.0
638296.95196600363,3600566.251970998,-17500.0,6972.1628551747754,-10072.042063617822,10828.729322659117,-4627.9360176872869,6329.9449560716594,2252.5508914183165,11910.752777880329,-4729.7819555709839,4529.8497516481975,-4529.8497516481975,4729.7819555709839,23326.924744412667,0.0
643296.95196600363,3600566.251970998,-17500.0,7955.3490051008584,-8735.195295133195,6149.0529897005499,-4301.7892434088371,4370.6866810407819,1718.5474622977727,9971.4669483692596,-2177.0041381725296,902.16495808827108,-902.16495808827108,2177.0041381725296,19303.64415886057,0.0
648296.95196600363,3600566.251970998,-17500.0,8129.8410918636191,-6852.9612214835297,2562.5735076303004,-3703.7294678608332,2749.5056493167158,1243.3933511594259,8218.1507251939784,-16.553684419928572,-1590.2905429702396,1590.2905429702396,16.553684419928572,15646.096827394773,1.0
653296.95196600363,3600566.251970998,-17500.0,7654.7450474641464,-4881.5494981004176,86.347879770456686,-2996.4012989170005,1516.3006231122361,852.12433090307434,6724.8217565474151,1546.0811216212223,-3038.0543834384398,3038.0543834384398,-1546.0811216212223,12545.624353368947,0.0
658296.95196600363,3600566.251970998,-17500.0,6763.8219447604597,-3105.6488067729624,-1454.2023553082352,-2297.1154788674285,642.71375863676451,549.37106615813104,5509.7303021192638,2508.5516874514128,-3679.0546381047384,3679.0546381047384,-2508.5516874514128,10054.324433623307,0.0
663296.95196600363,3600566.251970998,-17500.0,5676.1304164684107,-1654.7527791142529,-2295.2030150476862,-1673.8115381201289,63.725062969991754,326.95026198935938,4552.2411597212813,2975.6429073490172,-3774.6712247882224,3774.6712247882224,-2975.6429073490172,8133.1128438759688,0.0
668296.95196600363,3600566.251970998,-17500.0,4555.7688628840215,-552.59136867978418,-2658.2218256736792,-1155.314289477328,-293.35685344523853,170.80372158510113,3811.6965782820489,3084.2980154712959,-3545.6052608745504,3545.6052608745504,-3084.2980154712959,6694.3993726878143,0.0
673296.95196600363,3600566.251970998,-17500.0,3506.2514267336155,234.54192243303336,-2719.4291468021997,-745.10115073399413,-493.52406005100494,65.793559568378896,3241.9594203382512,2961.2435447181215,-3152.5617524245226,3152.5617524245226,-2961.2435447181215,5633.641108547843,0.0
678296.95196600363,3600566.251970998,-17500.0,2581.4211717808703,763.36727548097497,-2605.4582277135487,-433.01514016131807,-588.42967955638642,-1.6874859943880343,2800.4257616077994,2706.1581144544398,-2700.6154483926985,2700.6154483926985,-2706.1581144544398,4850.498814462685,0.0
683296.95196600363,3600566.251970998,-17500.0,1800.6057724525833,1093.5507239929429,-2400.9826434126576,-203.31163111179177,-616.16286274443507,-42.697693418633747,2452.2707410821013,2389.6134841358025,-2252.0593821599687,2252.0593821599687,-2389.6134841358025,4261.0851705458572,0.0
688296.95196600363,3600566.251970998,-17500.0,1162.0728491098134,1278.0915769391979,-2159.309465020141,-39.390500548712048,-603.35291888110044,-65.657240458285472,2171.31325571655,2057.5340406278792,-1839.7631210312104,1839.7631210312104,-2057.5340406278792,3802.427375943651,0.0
693296.95196600363,3600566.251970998,-17500.0,652.92884055951492,1360.0176651481702,-1912.0425989275914,73.836451852882703,-567.85284066247164,-76.691638741278339,1938.9698124228448,1737.3860852468886,-1477.96605687953,1477.96605687953,-1737.3860852468886,3431.1279482825294,0.0
698296.95196600363,3600566.251970998,-17500.0,255.58880939424245,1372.3424091427844,-1676.5797164030555,149.03256460413212,-521.19699886090848,-80.107921769840829,1742.507130483059,1443.8869604627075,-1169.9702993471296,1169.9702993471296,-1443.8869604627075,3119.116375486085,0.0
703296.95196600363,3600566.251970998,-17500.0,-48.392598457065098,1339.415036959929,-1461.4354185491468,196.31421384472094,-470.56227924743121,-78.853272563047483,1573.3297297057406,1183.4930552455867,-913.19652068790822,913.19652068790822,-1183.4930552455867,2848.9608524104492,0.0
708296.95196600363,3600566.251970998,-17500.0,-276.28754533735747,1278.6585115950124,-1269.8110730682954,223.49964238832908,-420.21803883890175,-74.897263309549729,1425.6133562890477,957.62412318601469,-702.30409029313546,702.30409029313546,-957.62412318601469,2610.0271393348112,0.0
523296.95196600363,3605566.251970998,-17500.0,-2742.7487390695319,-2233.348422380122,-1641.613134080586,-945.50088719141979,-721.14963815774775,-236.01597401950013,2457.8112761452558,-2819.7364634841028,-530.06847684853392,530.06847684853392,2819.7364634841028,4893.0131604450589,0.0
528296.95196600363,3605566.251970998,-17500.0,-2765.3866197167354,-2513.1974506775,-1977.621791657923,-1033.8752631908562,-858.06216102110432,-275.73131247151076,2726.3925279058735,-2942.8655541599701,-800.15519963808197,800.15519963808197,2942.8655541599701,5405.7085162355243,0.0
533296.95196600363,3605566.251970998,-17500.0,-2715.9477092727025,-2805.8358348134102,-2385.7553401107411,-1117.4493576836178,-1018.5583595882254,-320.60951746161891,3021.8360243176216,-3013.088753554036,-1148.9011360584416,1148.9011360584416,3013.088753554036,5960.9023187514413,0.0
538296.95196600363,3605566.251970998,-17500.0,-2565.3051461773061,-3096.4356571423427,-2877.1116635069352,-1187.8102677466918,-1203.6300186637391,-369.98514465363417,3342.9424024097702,-2999.895969354634,-1592.636957023188,1592.636957023188,2999.895969354634,6553.1492426073064,0.0
543296.95196600363,3605566.251970998,-17500.0,-2277.5437926260715,-3359.9564914754001,-3460.1525425177892,-1232.4004116774095,-1411.7182658994589,-422.07983737827556,3687.0349409667961,-2862.3837635900763,-2146.9212102016345,2146.9212102016345,2862.3837635900763,7172.0846647179569,0.0
548296.95196600363,3605566.251970998,-17500.0,-1810.8234760811181,-3556.8889544335775,-4136.3195499471476,-1233.2747200147282,-1636.577180378491,-473.31612502168798,4049.3651054589459,-2547.9740828031031,-2822.5614499959761,2822.5614499959761,2547.9740828031031,7801.2599820133973,0.0
553296.95196600363,3605566.251970998,-17500.0,-1120.6170842536785,-3628.4097182678693,-4892.510935563535,-1165.9828310853504,-1864.0023233008408,-517.36455191741618,4423.2249610122453,-1992.9378055787545,-3618.464364860105,3618.464364860105,1992.9378055787545,8418.1134752780436,0.0
558296.95196600363,3605566.251970998,-17500.0,-167.00073645995124,-3492.0817136317933,-5689.0779709027656,-999.14443998383354,-2067.1451444945419,-543.93238212862911,4801.5129735398441,-1126.8231572376101,-4509.8881450358067,4509.8881450358067,1126.8231572376101,8997.3334302052263,0.0
563296.95196600363,3605566.251970998,-17500.0,1072.0032361215435,-3040.6648932111048,-6442.2236663353196,-695.7534349810719,-2200.3931410836226,-537.42650885850253,5181.4294473825967,116.01412713577474,-5430.8827066047143,5430.8827066047143,-116.01412713577474,9522.3204729496665,0.0
568296.95196600363,3605566.251970998,-17500.0,2579.4534575137386,-2148.8101829751317,-7001.0890594515777,-217.84552873175127,-2192.5064656057411,-475.86604045673982,5574.9644901935153,1773.7061469299597,-6251.1176869615065,6251.1176869615065,-1773.7061469299597,10013.287833501368,0.0
573296.95196600363,3605566.251970998,-17500.0,4271.6346361510532,-694.99568209780853,-7123.6228076752868,463.35419961051616,-1941.1687073628984,-330.80011012063619,6027.6015689263404,3819.5270242793185,-6751.1639275916177,6751.1639275916177,-3819.5270242793185,10582.340251155219,0.0
578296.95196600363,3605566.251970998,-17500.0,5969.7357543794215,1392.7626942629129,-6462.7322721737082,1349.9763216231515,-1313.4610291886661,-69.42522665813398,6641.4431232356901,6110.8790219070552,-6607.7711306507108,6607.7711306507108,-6110.8790219070552,11507.313430258548,0.0
583296.95196600363,3605566.251970998,-17500.0,7387.0688767214033,4063.0149408806146,-4585.0366630401768,2393.0696391192823,-159.57851161704201,339.64845071118839,7580.8873759394119,8336.7447254064864,-5411.4191395958387,5411.4191395958387,-8336.7447254064864,13244.092970810074,0.0
588296.95196600363,3605566.251970998,-17500.0,8158.2811067537805,7049.4688598645862,-1053.6981634601484,3466.7607631721107,1651.528884640687,915.97217221389428,9024.8170206014584,9994.2955883258655,-2747.0211408032596,2747.0211408032596,-9994.2955883258655,16245.570724382645,0.0
593296.95196600363,3605566.251970998,-17500.0,7938.189489565656,9801.4769517507502,4398.8207684836516,4354.8602045342786,4169.808227469025,1652.9255199405984,11069.68837545619,10443.782327208846,1638.2163676669325,-1638.2163676669325,-10443.782327208846,20665.163509772276,0.0
598296.95196600363,3605566.251970998,-17500.0,6573.9897069070466,11508.081624268254,11620.834968754825,4771.2314899177636,7283.8452351155956,2503.5429162344303,13657.590297446552,9088.4836470957198,7595.7083037589027,-7595.7083037589027,-9088.4836470957198,26217.304996944313,1.0
603296.95196600363,3605566.251970998,-17500.0,4297.1332389057152,11292.585500429064,19805.082558104878,4433.0365846313589,10654.924136640082,3374.3020253895365,16566.799937928226,5676.4687202942387,14358.349568041946,-14358.349568041946,-5676.4687202942387,32214.351712134176,1.0
608296.95196600363,3605566.251970998,-17500.0,1809.9923270062241,8592.2704215000049,27443.164859578184,3183.8969255082957,13720.142689885406,4135.6688080331651,19344.767879929692,615.7488408423651,20519.234342888383,-20519.234342888383,-615.7488408423651,37675.903663531084,0.0
613296.95196600363,3605566.251970998,-17500.0,118.11847475171894,3591.0433157847801,32660.696521731574,1120.9798136346544,15816.284077846023,4652.7306717109213,21342.932584694965,-4920.6152103033946,24381.667184967191,-24381.667184967191,4920.6152103033946,41532.339351364324,0.0
618296.95196600363,3605566.251970998,-17500.0,69.263514567977211,-2594.4829314534568,33952.271423819948,-1361.3472153150012,16419.758388069647,4827.662366907145,22056.515786697633,-9325.7545340923843,24674.955942122986,-24674.955942122986,9325.7545340923843,42942.414219530008,0.0
623296.95196600363,3605566.251970998,-17500.0,1828.7936810294545,-8264.7323239908928,30969.12412134956,-3686.0481141022556,15393.378136500249,4635.0926353769473,21326.308615398095,-11295.622651530506,21271.998736374844,-21271.998736374844,11295.622651530506,41614.951853488354,0.0
628296.95196600363,3605566.251970998,-17500.0,4721.7359933839116,-11937.005920192763,24761.612754762144,-5335.4196867658975,13066.63097719998,4131.0382016209351,19380.672808563417,-10510.484853430376,15333.650565034482,-15333.650565034482,10510.484853430376,37932.440884333715,0.0
633296.95196600363,3605566.251970998,-17500.0,7637.5145885082193,-13032.510980490628,17207.508460866899,-6064.7559259605696,10070.514582136388,3429.6531646591989,16736.391834347029,-7706.3684081189012,8677.3938643807014,-8677.3938643807014,7706.3684081189012,32767.189398277395,0.0
638296.95196600363,3605566.251970998,-17500.0,9660.2137558485283,-11943.43906531653,10074.118510679982,-5944.156086200348,7047.5823347340593,2661.2682954313836,13952.867180277104,-4113.6175773811483,2868.3691358555593,-2868.3691358555593,4113.6175773811483,27110.789119011817,0.0
643296.95196600363,3605566.251970998,-17500.0,10423.643199589827,-9569.215307175089,4407.1871930216839,-5239.1523055082362,4437.6776153074725,1934.2205534741622,11376.439607614851,-790.85283278252291,-1298.9751281680083,1298.9751281680083,790.85283278252291,21756.069156678899,0.0
648296.95196600363,3605566.251970998,-17500.0,10055.674066218071,-6793.3299262233186,485.19836455166757,-4252.2458189965082,2427.5652062652484,1315.418915754783,9172.4829583641786,1695.8815784138462,-3758.8591293931768,3758.8591293931768,-1695.8815784138462,17167.109895803838,0.0
653296.95196600363,3605566.251970998,-17500.0,8925.3188884335104,-4211.2113946769123,-1899.8726448212205,-3221.0335912166374,1014.8134339696376,830.47670455371053,7395.9128643549584,3231.2471441955768,-4853.0604806877272,4853.0604806877272,-3231.2471441955768,13509.279772737884,0.0
658296.95196600363,3605566.251970998,-17500.0,7420.8018981641762,-2106.5600225172398,-3139.5214442852257,-2288.6670433435306,99.924965810526786,475.26331266312093,6022.0005894669766,3959.0805147359574,-5030.8605421311031,5030.8605421311031,-3959.0805147359574,10745.721612672494,0.0
663296.95196600363,3605566.251970998,-17500.0,5838.951210698292,-543.0130796274417,-3619.6320736485518,-1518.1208706116481,-443.4933421351775,229.83091084518847,4983.6113317113359,4110.0571957197599,-4682.7672344802313,4682.7672344802313,-4110.0571957197599,8732.778387084074,0.0
668296.95196600363,3605566.251970998,-17500.0,4363.0324320057452,532.8562003105061,-3643.5756704751379,-920.03253099991127,-730.84510108624693,69.305597731719757,4202.2709654528353,3902.490912677074,-4087.7049187957523,4087.7049187957523,-3902.490912677074,7290.9029497866086,0.0
673296.95196600363,3605566.251970998,-17500.0,3083.154566195501,1218.3190480285521,-3421.5206742117284,-477.57528417234715,-852.67564220905672,-29.698577308531025,3607.0337258668642,3504.3516728756795,-3419.9719621263112,3419.9719621263112,-3504.3516728756795,6250.6688860944869,0.0
678296.95196600363,3605566.251970998,-17500.0,2027.0844690828212,1613.9811871534109,-3086.8537273910824,-163.31216636613232,-873.85615118884039,-86.334830786129345,3142.378847939679,3029.5009437495501,-2776.0789734473883,2776.0789734473883,-3029.5009437495501,5476.9244525614085,0.0
683296.95196600363,3605566.251970998,-17500.0,1186.8753365286136,1806.1675127478582,-2718.2161356227821,51.316041654943412,-838.03309340883209,-115.02379064438949,2768.7808296890016,2547.6885442744251,-2201.8207817928514,2201.8207817928514,-2547.6885442744251,4874.6453431746813,0.0
688296.95196600363,3605566.251970998,-17500.0,537.45137741737437,1862.1299120512817,-2358.473123340033,191.58565642971388,-773.16162933972589,-126.01970790908379,2459.7430476702039,2097.2915329341872,-1712.9948942643073,1712.9948942643073,-2097.2915329341872,4383.0635129070688,0.0
693296.95196600363,3605566.251970998,-17500.0,47.951009544460923,1831.2104455267051,-2028.5367690374053,278.04364048857627,-696.36440249986958,-126.31414522337607,2198.0357584423023,1696.2943983281173,-1309.2537756055651,1309.2537756055651,-1696.2943983281173,3965.7282311489494,0.0
698296.95196600363,3605566.251970998,-17500.0,-312.11808141555849,1748.11440605348,-1736.5649549589084,326.54671225505376,-617.63262628510597,-120.51637442313894,1972.4920593366382,1350.3741475112593,-982.5833350254137,982.5833350254137,-1350.3741475112593,3601.486768145227,0.0
703296.95196600363,3605566.251970998,-17500.0,-569.99893351747028,1636.4480202396296,-1483.7319997662262,348.91467986080278,-542.43310060726287,-111.57517406287754,1775.7222702882982,1058.3384434621767,-722.13056389663791,722.13056389663791,-1058.3384434621767,3278.0709484642803,0.0
708296.95196600363,3605566.251970998,-17500.0,-748.68507260584079,1511.7844915252542,-1267.6877631427917,353.74184277814572,-473.45520298511946,-101.31972841978335,1602.6369326740326,815.555319740909,-516.750646379513,516.750646379513,-815.555319740909,2988.1075022791219,0.0
523296.95196600363,3610566.251970998,-17500.0,-3447.501070910726,-2342.2225829312624,-1492.2755819642366,-1141.1937015210945,-738.30448960253295,-276.17391279720374,2733.8504552560739,-3366.1099589658588,-195.4185105312763,195.4185105312763,3366.1099589658588,5447.9200249579872,0.0
528296.95196600363,3610566.251970998,-17500.0,-3591.9851011471287,-2690.2993209869505,-1824.241965837555,-1275.8530163843452,-893.01187358427421,-327.95280877172638,3054.3988019931594,-3611.4057531389135,-429.04800652171161,429.04800652171161,3611.4057531389135,6082.5814097860848,0.0
533296.95196600363,3610566.251970998,-17500.0,-3678.9972671985593,-3075.9468830109258,-2239.0761135076232,-1416.0116834208209,-1079.965844345772,-388.55156105272789,3418.9014055760949,-3826.8678217891438,-747.03504064141612,747.03504064141612,3826.8678217891438,6786.8267338658688,0.0
538296.95196600363,3610566.251970998,-17500.0,-3676.0537107830341,-3491.0157344714225,-2755.4961586488444,-1554.554390197437,-1303.6138318684216,-458.25821626228418,3825.587414253137,-3982.5765492148894,-1173.1711431110969,1173.1711431110969,3982.5765492148894,7559.7080503673133,0.0
543296.95196600363,3610566.251970998,-17500.0,-3539.7532194907762,-3917.4473245134363,-3393.305376820168,-1679.5130594115658,-1566.8583217911964,-536.32250234176342,4272.6463614965878,-4034.9974164900223,-1734.6330707154796,1734.6330707154796,4034.9974164900223,8394.5699751156717,0.0
548296.95196600363,3610566.251970998,-17500.0,-3214.4326504778837,-4321.5504461061046,-4170.114097525362,-1771.9874658410465,-1868.8627160447329,-620.09779909846748,4755.8655189509673,-3923.1007690885535,-2459.3992616653222,2459.3992616653222,3923.1007690885535,9276.2284954869392,0.0
553296.95196600363,3610566.251970998,-17500.0,-2632.744855274269,-4646.2467005476938,-5094.5446749395733,-1803.7045855111824,-2201.2900552940455,-703.73804280000741,5266.9063412666237,-3565.1365180142902,-3370.2120777016062,3370.2120777016062,3565.1365180142902,10177.930235701222,0.0
558296.95196600363,3610566.251970998,-17500.0,-1720.4306952382535,-4801.6892308517063,-6153.5609586878627,-1734.6941746609423,-2542.2560789757013,-776.35996493065966,5792.6934558123894,-2858.2833302814151,-4472.6317995466734,4472.6317995466734,2858.2833302814151,11059.586337788876,0.0
563296.95196600363,3610566.251970998,-17500.0,-408.80096525078989,-4656.2475058744358,-7290.8202456509489,-1512.2252332531191,-2847.2940263192354,-819.71009039831301,6317.1882196993702,-1685.3864993586044,-5733.9365232188684,5733.9365232188684,1685.3864993586044,11871.259366902035,0.0
568296.95196600363,3610566.251970998,-17500.0,1340.5281290212881,-4033.1259906071455,-8373.1443854722329,-1073.2737513209086,-3037.1955172012076,-805.70772708731909,6829.1009539859278,64.241209218786025,-7049.779738397202,7049.779738397202,-64.241209218786025,12571.46232771062,0.0
573296.95196600363,3610566.251970998,-17500.0,3494.9460473916074,-2723.2095873789067,-9145.2550697257902,-354.21517116869728,-2984.2861406149441,-694.84183875563394,7342.0511419075337,2450.6813378262227,-8198.6232450142725,8198.6232450142725,-2450.6813378262227,13179.952698441424,0.0
578296.95196600363,3610566.251970998,-17500.0,5896.2333983239505,-531.16002869729152,-9182.3303665321437,687.47323311065384,-2502.3902489661828,-437.28741285788999,7934.6063139655062,5408.1193438597384,-8793.5113414083316,8793.5113414083316,-5408.1193438597384,13893.390364141062,0.0
583296.95196600363,3610566.251970998,-17500.0,8208.8240393192755,2625.9978979647176,-7869.3578886919649,2035.8499370864572,-1351.8134076866429,20.549872676675214,8802.6848153688807,8642.7455275388002,-8260.2411341380957,8260.2411341380957,-8642.7455275388002,15248.182004998944,0.0
588296.95196600363,3610566.251970998,-17500.0,9912.1780403109915,6562.7161369948844,-4463.773114755305,3566.4006370172397,722.56548543851056,721.38249417479005,10265.13636660834,11539.021526889113,-5897.8891071139496,5897.8891071139496,-11539.021526889113,18109.222483971695,0.0
593296.95196600363,3610566.251970998,-17500.0,10399.719185204818,10652.024646782576,1685.8189264722523,5001.0006142728644,3901.0465714346992,1673.8505109289858,12634.037429167114,13156.750826168522,-1091.7795302513186,1091.7795302513186,-13156.750826168522,23175.804069282691,0.0
598296.95196600363,3610566.251970998,-17500.0,9230.8871489344874,13752.342154157133,10730.020652905254,5906.1021361230696,8144.3080002112711,2825.9486467896768,16014.862155358314,12432.794316699847,6292.5354758398262,-6292.5354758398262,-12432.794316699847,30395.536288858479,0.0
603296.95196600363,3610566.251970998,-17500.0,6494.0130047197736,14406.474986308658,21815.707537897568,5782.6462879231012,13035.120941961452,4048.1154808873171,20190.696252753012,8652.8310492725541,15439.063777144351,-15439.063777144351,-8652.8310492725541,38870.447972290021,0.0
608296.95196600363,3610566.251970998,-17500.0,3087.6590833171795,11431.632232815202,32789.825465867056,4271.5348626101995,17707.887907924251,5143.475507012603,24413.974399214385,2083.6257719244677,24333.210839205502,-24333.210839205502,-2083.6257719244677,47041.209877737667,0.0
613296.95196600363,3610566.251970998,-17500.0,601.34654123823714,4779.4078581143722,40556.125337895654,1421.195942782412,21002.741061321376,5895.072570571092,27537.095151402686,-5614.31089598779,30157.920842164338,-30157.920842164338,5614.31089598779,53017.273033079146,0.0
618296.95196600363,3610566.251970998,-17500.0,552.62425425136803,-3877.5538391643504,42364.25111094131,-2152.8333415961274,21913.74923293346,6139.4796557599402,28626.543886135616,-11767.349623301696,30562.163093430896,-30562.163093430896,11767.349623301696,55185.841863460504,0.0
623296.95196600363,3610566.251970998,-17500.0,3281.6424187705334,-11633.615614524364,37512.490402262258,-5438.969534004349,20152.319903159994,5834.2911642086146,27372.320433395504,-14086.353520477533,25231.767558698142,-25231.767558698142,14086.353520477533,52952.864286448726,0.0
628296.95196600363,3610566.251970998,-17500.0,7530.5280027702365,-15991.12635672863,27993.606073999457,-7539.2536363524605,16372.38565836638,5078.170493544163,24235.452845081403,-12158.696685951321,16327.180015924992,-16327.180015924992,12158.696685951321,47082.574735896997,0.0
633296.95196600363,3610566.251970998,-17500.0,11340.458422639813,-16296.214253567941,17209.217736578521,-8129.8352803046382,11782.005248028763,4064.5389448341589,20210.153707617763,-7545.0577008817791,7080.0466436501274,-7080.0466436501274,7545.0577008817791,39262.085596390025,0.0
638296.95196600363,3610566.251970998,-17500.0,13376.920035842995,-13649.535363555355,7951.0930404821147,-7482.9203268543715,7480.6120265882419,2999.9588540625059,16259.146069780707,-2436.3217169225427,-127.31770486914706,127.31770486914706,2436.3217169225427,31234.719968263773,0.0
643296.95196600363,3610566.251970998,-17500.0,13429.887540440046,-9739.6809388194324,1420.8300879015821,-6141.0784468435349,4072.0224472291052,2039.7937076844141,12862.426302642029,1650.4652366413827,-4524.1418958517197,4524.1418958517197,-1650.4652366413827,24179.20998426251,0.0
648296.95196600363,3610566.251970998,-17500.0,12033.675987896711,-5876.4875349262566,-2471.4510436192109,-4599.3287827422018,1684.8314740471412,1265.3695389941606,10161.793797694545,4205.1090865500037,-6498.5549523285581,6498.5549523285581,-4205.1090865500037,18593.98411610055,0.0
653296.95196600363,3610566.251970998,-17500.0,9901.2276164999603,-2720.3486111861812,-4385.0554181767584,-3171.54861211961,176.96933373969566,694.1149390188915,8126.7177384637616,5386.2796470217354,-6846.9176153708731,6846.9176153708731,-5386.2796470217354,14484.626163335506,0.0
658296.95196600363,3610566.251970998,-17500.0,7598.1737214478517,-438.24587741020855,-5032.1032441849738,-1999.1098819512015,-680.74683495580962,303.72249910161656,6635.7039879845588,5598.1350693313907,-6301.2725171294223,6301.2725171294223,-5598.1350693313907,11599.901882374026,0.0
663296.95196600363,3610566.251970998,-17500.0,5464.0281983412642,1059.0243388020929,-4965.4283033774745,-1110.0162261134408,-1103.8276256364513,55.381622319772703,5545.0723772617457,5236.5954199988746,-5372.6549615447193,5372.6549615447193,-5236.5954199988746,9609.0628318453528,0.0
668296.95196600363,3610566.251970998,-17500.0,3653.3189768057091,1948.0529143248837,-4549.6961731663341,-474.86377975047225,-1258.3658693436339,-90.745118674295199,4730.1402437685956,4597.1268206065079,-4362.0297428555541,4362.0297428555541,-4597.1268206065079,8210.1480063648705,0.0
673296.95196600363,3610566.251970998,-17500.0,2203.3130054780004,2406.0485088098844,-4000.9102414342433,-43.783329254990221,-1259.028757246313,-168.08954587047688,4099.4952233490003,3868.732251797876,-3421.5436063804968,3421.5436063804968,-3868.732251797876,7178.5545046287352,0.0
678296.95196600363,3610566.251970998,-17500.0,1089.7076777281952,2578.0020248645774,-3435.7203953894505,233.96877308428472,-1179.3626556749336,-201.70069747838593,3592.8033319531073,3158.2298839169248,-2613.0781033440876,2613.0781033440876,-3158.2298839169248,6370.1063902615515,0.0
683296.95196600363,3610566.251970998,-17500.0,262.67405682500288,2570.9808483290194,-2910.5721767931991,401.76595482861705,-1063.8822994553157,-209.00355201489447,3172.5188795983954,2517.859890932491,-1949.7768910043171,1949.7768910043171,-2517.859890932491,5701.3010871383267,0.0
688296.95196600363,3610566.251970998,-17500.0,-333.09243286001146,2459.2027740008507,-2447.9927154364818,493.50181467361068,-938.08548664614193,-201.48547189566858,2815.7065049923604,1967.1033039047722,-1421.5656285519437,1421.5656285519437,-1967.1033039047722,5126.6108991551218,0.0
693296.95196600363,3610566.251970998,-17500.0,-748.74737748024404,2291.8193061737907,-2052.677473480891,534.25990742281635,-815.64265241679755,-186.39805728862945,2508.0865098551658,1507.4679475535124,-1009.3721350412518,1009.3721350412518,-1507.4679475535124,4621.597300507171,0.0
698296.95196600363,3610566.251970998,-17500.0,-1027.6272302586478,2100.1454673730755,-1720.7561440985232,541.93920938836902,-703.17339551868656,-168.1383725368604,2240.3175263608491,1131.6463194605903,-692.38904267653572,692.38904267653572,-1131.6463194605903,4172.6695425177468,0.0
703296.95196600363,3610566.251970998,-17500.0,-1204.6358766672447,1903.3560765666291,-1444.8583415968017,528.97593513986453,-603.2632246543983,-149.25633608204151,2005.8620636860339,828.80197853633365,-451.38674775040579,451.38674775040579,-828.80197853633365,3771.5484776362287,0.0
708296.95196600363,3610566.251970998,-17500.0,-1307.0035528248291,1712.6219492041589,-1216.7317138835713,503.82579168630116,-516.29914890345981,-131.144331207226,1799.816351708638,587.41571170840314,-269.93459848101566,269.93459848101566,-587.41571170840314,3412.4894843743309,0.0
518296.95196600363,3615566.251970998,-17500.0,-3892.5316803785431,-2017.5750663598001,-1049.0309271423087,-1178.4303613348281,-595.86525436339298,-263.82379729946723,2685.7283546645085,-3530.1178023983825,315.46866696679672,-315.46866696679672,3530.1178023983825,5327.0884950764394,0.0
523296.95196600363,3615566.251970998,-17500.0,-4197.2578381418161,-2362.4057751650093,-1289.5929494392717,-1346.0046632375111,-730.05033658531954,-317.60464445308099,3019.5638347833906,-3894.1147402838183,203.24670431725872,-203.24670431725872,3894.1147402838183,6000.2068229750803,0.0
528296.95196600363,3615566.251970998,-17500.0,-4492.484294477902,-2765.7357511842074,-1597.392861771888,-1534.403124034598,-897.0072931480712,-382.81333317687393,3400.4937633039667,-4275.6250368529709,31.995642336402398,-31.995642336402398,4275.6250368529709,6767.4222900410668,0.0
533296.95196600363,3615566.251970998,-17500.0,-4757.1343765996335,-3232.7309451985961,-1992.3757248413922,-1742.5830087120446,-1104.3086571421586,-461.3795001975372,3837.2485828224699,-4660.3777448241508,-220.59833477025177,220.59833477025177,4660.3777448241508,7638.1020188163247,0.0
538296.95196600363,3615566.251970998,-17500.0,-4959.4919249239865,-3764.7994716974235,-2499.6644472709618,-1966.5508098748726,-1360.4173755223244,-555.0318164023339,4338.8281737730749,-5023.7985541124681,-583.82187810825053,583.82187810825053,5023.7985541124681,8619.2300018513524,0.0
543296.95196600363,3615566.251970998,-17500.0,-5053.4034991033004,-4355.7223160249177,-3149.7987808028802,-2197.4075418101133,-1673.8924701349267,-664.76172321525758,4907.4316324354731,-5326.0260817990284,-1094.9642181650106,1094.9642181650106,5326.0260817990284,9712.7826482003566,0.0
548296.95196600363,3615566.251970998,-17500.0,-4974.0314553088347,-4985.3065836535579,-3977.6058972743003,-2418.4910930115821,-2051.5675829475435,-789.85779890586264,5541.2145401332473,-5505.3203394013235,-1799.2211682981192,1799.2211682981192,5505.3203394013235,10911.685793283163,0.0
553296.95196600363,3615566.251970998,-17500.0,-4634.1455774453334,-5609.5117546745068,-5018.0188900185894,-2601.4629321154612,-2494.9009030598172,-926.28873061900038,6233.6689808687861,-5470.1680032838249,-2746.7887397877926,2746.7887397877926,5470.1680032838249,12194.063903976985,0.0
558296.95196600363,3615566.251970998,-17500.0,-3923.2120741318008,-6146.0924483662275,-6295.7608031816189,-2701.4531941862779,-2993.2547657447894,-1064.1802947788369,6970.0774872691181,-5091.5610508143236,-3984.0159236481272,3984.0159236481272,5091.5610508143236,13515.98571737095,0.0
563296.95196600363,3615566.251970998,-17500.0,-2713.8101891280376,-6455.8783269632195,-7803.7557110283751,-2652.1208217008202,-3512.4181877737688,-1184.2284727511285,7724.7291453483831,-4199.5208239649546,-5533.3280255397622,5533.3280255397622,4199.5208239649546,14804.736650964454,0.0
568296.95196600363,3615566.251970998,-17500.0,-883.08745772786779,-6323.1239848891037,-9462.8052249818265,-2363.0036098398409,-3976.5715248723527,-1253.2588399523429,8461.7821621073199,-2592.6395843699524,-7354.2152845969304,7354.2152845969304,2592.6395843699524,15959.606200511846,0.0
573296.95196600363,3615566.251970998,-17500.0,1639.9914136782427,-5446.0370457363233,-11054.504997964228,-1724.1935149534145,-4243.0319195351012,-1220.0148984802784,9147.4975469163564,-76.509600513831174,-9276.9802483158783,9276.9802483158783,76.509600513831174,16879.869174138159,0.0
578296.95196600363,3615566.251970998,-17500.0,4792.1907568101033,-3462.5201032852156,-12126.269334668021,-626.98038095464494,-4073.3164513903175,-1013.7630541381528,9790.839841967756,3446.2911192913525,-10907.97674944225,10907.97674944225,-3446.2911192913525,17568.089367062079,0.0
583296.95196600363,3615566.251970998,-17500.0,8264.2049250357468,-53.561753515707935,-11892.894755435407,988.26616980832398,-3113.9402230519054,-550.13126509114909,10537.570427029827,7815.8176496501064,-11530.902934173386,11530.902934173386,-7815.8176496501064,18394.516155342659,0.0
588296.95196600363,3615566.251970998,-17500.0,11407.275291199601,4830.4109088524992,-9215.1379117327324,3049.7808011723919,-917.22697749044221,250.47544744990353,11805.767883668457,12402.091214979469,-10084.328055663407,10084.328055663407,-12402.091214979469,20496.438375999514,0.0
593296.95196600363,3615566.251970998,-17500.0,13270.727616997414,10628.686972564257,-2808.7687004022323,5251.230634420609,2950.5691676391234,1428.7791884913588,14283.484324980054,15950.714802570394,-5365.2154431754579,5365.2154431754579,-15950.714802570394,25614.843027171541,0.0
598296.95196600363,3615566.251970998,-17500.0,12911.22077683818,15871.002016654782,8155.935327926406,6984.3449928451328,8673.8321199850725,2941.7331780712175,18569.107210640068,16713.936793085122,3393.5809777195473,-3393.5809777195473,-16713.936793085122,34674.357878457602,0.0
603296.95196600363,3615566.251970998,-17500.0,10000.118467179745,18252.565663414873,23096.975480636058,7408.0125344739245,15851.328707126291,4625.5991221306704,24666.165666176017,13095.947731070914,15623.276842608137,-15623.276842608137,-13095.947731070914,46783.551677572257,0.0
608296.95196600363,3615566.251970998,-17500.0,5488.9052350797256,15429.427088171442,39137.419256657355,5747.1404501877705,23213.870551285527,6196.4907360701118,31363.263167166104,4793.3219420777514,28632.496627554436,-28632.496627554436,-4793.3219420777514,59488.283394595062,0.0
613296.95196600363,3615566.251970998,-17500.0,1793.4328460855895,6599.6638558122731,51163.446795482167,1818.6522041303995,28694.970033089339,7308.5233088723926,36567.201123868523,-6059.0161973407648,37760.259351160545,-37760.259351160545,6059.0161973407648,69327.682055899917,1.0
618296.95196600363,3615566.251970998,-17500.0,1717.8419554557872,-5851.2851404055691,53896.03246523362,-3460.0216645935939,30210.836276366692,7668.2221994948759,38393.233314389334,-14941.900648613551,38440.660780273582,-38440.660780273582,14941.900648613551,72967.131399267062,0.0
623296.95196600363,3615566.251970998,-17500.0,6062.7416158396345,-16710.368534161858,45732.205949639159,-8212.6323117285028,27046.358427593892,7181.3235340571964,36135.812023156606,-17551.718193256635,29793.021964183969,-29793.021964183969,17551.718193256635,69029.789447862931,0.0
628296.95196600363,3615566.251970998,-17500.0,12357.891220691392,-21510.857147848987,30682.881240800401,-10764.061284012485,20602.157572535052,6030.896694306748,30793.461326875153,-13389.411635991397,16084.090919971775,-16084.090919971775,13389.411635991397,59168.157755175998,0.0
633296.95196600363,3615566.251970998,-17500.0,17015.135643519538,-19842.234934676995,15231.283425183894,-10769.433126574484,13376.410987970179,4571.1185802331775,24433.938307465978,-5890.3743763346911,3333.3991567525836,-3333.3991567525836,5890.3743763346911,46922.355502832193,0.0
638296.95196600363,3615566.251970998,-17500.0,18293.905119857442,-14503.409609067699,3674.3224601068932,-9057.484100442729,7278.3121229303224,3132.4814545819672,18778.055205560169,1040.0169831532446,-5017.8648883205969,5017.8648883205969,-1040.0169831532446,35468.711363963521,0.0
643296.95196600363,3615566.251970998,-17500.0,16686.36730940135,-8520.612562033426,-3137.5955349771743,-6704.8357172850556,2991.7949814501026,1918.2322875550121,14396.192225004297,5520.1029775744337,-8838.7149333511879,8838.7149333511879,-5520.1029775744337,26416.734238777848,0.0
648296.95196600363,3615566.251970998,-17500.0,13553.360878917592,-3575.1748202261197,-6278.2615892014392,-4446.6152378883753,362.78041633794061,1005.1349567295969,11232.000139238648,7533.3190072476391,-9559.1565716037003,9559.1565716037003,-7533.3190072476391,19998.928958252069,0.0
653296.95196600363,3615566.251970998,-17500.0,10055.683471918637,-123.08441848587462,-7167.3420916585646,-2611.1008844729076,-1055.8787743841376,382.83340668414291,9021.2917244583914,7824.8706137694171,-8663.1108213564075,8663.1108213564075,-7824.8706137694171,15730.369568749813,0.0
658296.95196600363,3615566.251970998,-17500.0,6859.5746053005623,1999.7859508469064,-6892.1760497282876,-1263.0728860061336,-1698.6974985094628,-3.2197157926017437,7467.105495223851,7165.0388173613728,-7156.4237627953944,7156.4237627953944,-7165.0388173613728,12933.420511965356,0.0
663296.95196600363,3615566.251970998,-17500.0,4233.4099109739682,3140.522619923348,-6121.6164454514728,-343.97086229533511,-1889.5121733617125,-218.63054446782533,6331.9265662290345,6101.6483654193835,-5583.5325331224049,5583.5325331224049,-6101.6483654193835,11027.266316005309,0.0
668296.95196600363,3615566.251970998,-17500.0,2214.9457619292493,3628.6885444305963,-5215.1429716315079,242.66949207258162,-1840.2490757493615,-321.3830050665581,5458.7319163895527,4956.938241326885,-4185.7256866084717,4185.7256866084717,-4956.938241326885,9624.5722758779375,0.0
673296.95196600363,3615566.251970998,-17500.0,736.18708095777902,3715.9606992617396,-4343.9560243530441,590.49801030719038,-1678.5160474151858,-355.2615764629694,4754.7116818952572,3893.1261122765782,-3038.7360276726204,3038.7360276726204,-3893.1261122765782,8507.5144778378472,0.0
678296.95196600363,3615566.251970998,-17500.0,-304.85181660963246,3575.2111061709456,-3576.6026583808994,775.68705233906508,-1476.1632059528531,-350.18981972076818,4167.6470693513202,2975.9972685373318,-2139.934965896367,2139.934965896367,-2975.9972685373318,7566.1563860195693,0.0
683296.95196600363,3615566.251970998,-17500.0,-1009.4238061618015,3317.6347459925723,-2930.3129904139946,854.81142664625111,-1270.918482923583,-325.2086870639074,3667.9016594901286,2219.5076249804797,-1455.8977078873188,1455.8977078873188,-2219.5076249804797,6747.6052810529018,0.0
688296.95196600363,3615566.251970998,-17500.0,-1464.3465367205026,3011.2295923081679,-2399.0896039657832,867.61122521249524,-1080.7521664289084,-291.74501105645572,3237.5719293074817,1612.888331907817,-945.65909934238903,945.65909934238903,-1612.888331907817,6025.7492902835129,0.0
693296.95196600363,3615566.251970998,-17500.0,-1738.7518816737022,2695.5982705510096,-1968.1258352704208,840.95056831942838,-912.75073084812061,-256.27431257882898,2864.7563557291014,1135.7015741047176,-570.80198081282924,570.80198081282924,-1135.7015741047176,5386.1005623970877,0.0
698296.95196600363,3615566.251970998,-17500.0,-1885.3566549092423,2392.4347794065147,-1620.7060154690469,792.4539488820626,-768.32298907823815,-222.21436110910284,2540.7096061776265,765.52448711861246,-298.96578350239736,298.96578350239736,-765.52448711861246,4818.9286703503958,0.0
703296.95196600363,3615566.251970998,-17500.0,-1943.2658593361602,2112.5131994657208,-1341.2134213153483,733.37738362455036,-646.14211738758411,-191.17403725983542,2258.4923033552536,481.48755923113436,-104.35759801164059,104.35759801164059,-481.48755923113436,4316.4341602495406,0.0
708296.95196600363,3615566.251970998,-17500.0,-1940.9444499075444,1860.1629896905026,-1116.2081972695744,670.70623523635697,-543.74571342005129,-163.73664087499904,2012.3321763059807,265.61319003655149,32.939743215290406,-32.939743215290406,-265.61319003655149,3871.7008644143589,0.0
713296.95196600363,3615566.251970998,-17500.0,-1898.824931761842,1636.0580446484894,-934.60691156422229,608.62121744137335,-458.36805756738318,-139.93357470771312,1797.3118986005534,103.06629341470203,128.01471598409131,-128.01471598409131,-103.06629341470203,3478.3733868408904,0.0
518296.95196600363,3620566.251970998,-17500.0,-4512.7082843589815,-1910.9325350429167,-843.52969826693004,-1338.1782167218269,-556.89808082945433,-294.3571731730101,2904.53479133053,-3893.9823658982614,686.50724667694408,-686.50724667694408,3893.9823658982614,5747.7850277282359,0.0
523296.95196600363,3620566.251970998,-17500.0,-4958.0075967581688,-2272.5577328925883,-1045.2156013895692,-1550.8887596311436,-691.4287011860547,-358.52655637060064,3293.7457639601598,-4365.7617310086453,648.25894718521226,-648.25894718521226,4365.7617310086453,6527.7790381521845,0.0
528296.95196600363,3620566.251970998,-17500.0,-5426.9681792812489,-2708.1828321874364,-1308.8190965507688,-1798.2306384353819,-862.36033002362217,-437.95270499359282,3744.6085362909589,-4887.2291198627099,564.34256139587706,-564.34256139587706,4887.2291198627099,7432.2659285168565,0.0
533296.95196600363,3620566.251970998,-17500.0,-5905.1538682710161,-3230.8753028451601,-1655.6665864584343,-2083.384887592395,-1079.8270275470684,-536.01002021042621,4267.0688037273048,-5453.1718736922185,412.79732859260821,-412.79732859260821,5453.1718736922185,8479.679356456294,0.0
538296.95196600363,3620566.251970998,-17500.0,-6367.427553579957,-3853.3037296964426,-2114.474222595441,-2407.6302756667201,-1356.2994840441504,-656.36815388975435,4873.0749472313382,-6049.7541214489738,162.67591266631052,-162.67591266631052,6049.7541214489738,9688.5234586604074,0.0
543296.95196600363,3620566.251970998,-17500.0,-6772.6694261444445,-4584.8778288169487,-2723.3584741349787,-2768.3506178502635,-1706.4823524566405,-802.54832958377528,5575.9450116405815,-6648.8716403109629,-228.89692424259692,228.89692424259692,6648.8716403109629,11074.982797091019,0.0
548296.95196600363,3620566.251970998,-17500.0,-7056.6725226335993,-5426.2418078462706,-3531.5835546006465,-3155.7831422955724,-2146.3949719596453,-976.97756870520948,6385.0805168333427,-7199.6787799366693,-819.79589231510181,819.79589231510181,7199.6787799366693,12648.624971769823,0.0
553296.95196600363,3620566.251970998,-17500.0,-7123.3101963245963,-6359.32739800125,-4599.7796865575137,-3547.9624396133231,-2690.726549344623,-1179.189232897279,7302.0613844204991,-7616.4480545661936,-1684.93845947613,1684.93845947613,7616.4480545661936,14405.133981685114,0.0
558296.95196600363,3620566.251970998,-17500.0,-6835.2180966075548,-7330.4078498364588,-5995.7257869665273,-3903.3548755979041,-3346.8335685452976,-1402.6968288407884,8318.2076424959523,-7762.505938719949,-2914.4656638491156,2914.4656638491156,7762.505938719949,16314.825626786576,0.0
563296.95196600363,3620566.251970998,-17500.0,-6007.7884317216203,-8223.1577023365498,-7779.6295143275911,-4151.1254427416397,-4102.6535697558684,-1630.0469034486505,9408.1432651291179,-7432.0112785025403,-4601.9953514251492,4601.9953514251492,7432.0112785025403,18306.078172457197,0.0
568296.95196600363,3620566.251970998,-17500.0,-4415.3866309617442,-8820.0481118098123,-9967.3755860028323,-4180.4064412099806,-4904.4452231297919,-1825.8911756059429,10521.332737341228,-6336.6468972389275,-6811.29173655668,6811.29173655668,6336.6468972389275,20245.365079508018,0.0
573296.95196600363,3620566.251970998,-17500.0,-1827.2208559320391,-8757.0937210692664,-12452.611438048407,-3833.2836021566336,-5619.3575818647178,-1929.0187469961022,11577.421744800018,-4115.7525488649244,-9501.969204002884,9501.969204002884,4115.7525488649244,21924.904679865838,0.0
578296.95196600363,3620566.251970998,-17500.0,1899.6546104144477,-7496.198440390981,-14863.631502202283,-2912.6709146356839,-5979.7234771749418,-1846.5473902784313,12482.558104981495,-408.5162182270451,-12389.9564227626,12389.9564227626,408.5162182270451,23098.578789281801,0.0
583296.95196600363,3620566.251970998,-17500.0,6643.3755084329623,-4379.7364588487726,-16347.317146876525,-1226.0485406828971,-5516.3947761027757,-1456.546689833807,13214.586452327743,4950.5808970781773,-14735.053362176575,14735.053362176575,-4950.5808970781773,23691.888063075257,0.0
588296.95196600363,3620566.251970998,-17500.0,11775.189859249282,1114.7237154941345,-15352.606715206908,1305.8560628182477,-3517.5535058535943,-627.34597910591219,14074.895079938538,11563.361657648064,-15128.069079394041,15128.069079394041,-11563.361657648064,24479.581859830447,0.0
593296.95196600363,3620566.251970998,-17500.0,16006.698560925446,8811.5206382679535,-9670.7937872546445,4460.2186093674454,896.80253903980383,740.35051547194985,16117.394446643499,18009.895815262724,-11530.462525710222,11530.462525710222,-18009.895815262724,28203.112650946474,1.0
598296.95196600363,3620566.251970998,-17500.0,17649.359121680165,17096.7067709679,2827.7971716948514,7500.5451424995481,8450.6675427161244,2651.0298229787199,21105.924951787689,21688.310703705942,-1984.0711678480147,1984.0711678480147,-21688.310703705942,38499.843361194384,0.0
603296.95196600363,3620566.251970998,-17500.0,15503.980571231492,22596.741252688167,22543.293826038447,9121.6223662335142,19077.347824766617,4951.1721382164433,30040.407080202276,19531.262055807212,13840.872235420513,-13840.872235420513,-19531.262055807212,55753.77969951355,0.0
608296.95196600363,3620566.251970998,-17500.0,10090.53400393449,21015.185382766791,46149.673913098442,7764.4308393958154,31147.578117884732,7297.0482157375754,41120.55821258013,9777.7630148543722,32854.892736194888,-32854.892736194888,-9777.7630148543722,76322.237292502177,0.0
613296.95196600363,3620566.251970998,-17500.0,4642.9725255305812,9570.6139605096341,65509.799290240851,2467.4183999905049,41012.491745616149,9150.0643255673094,50471.645164034169,-5550.5213923209485,47682.390278668216,-47682.390278668216,5550.5213923209485,93754.359653679858,0.0
618296.95196600363,3620566.251970998,-17500.0,4399.3710358644748,-8917.4537062511336,70102.217726658651,-5667.6401373818062,43970.204801611653,9841.5372214760318,53940.457758880293,-18943.251409640026,49130.345148751279,-49130.345148751279,18943.251409640026,100617.99805394538,0.0
623296.95196600363,3620566.251970998,-17500.0,11539.494599316753,-24594.179484308515,55764.13246010794,-12870.439765237592,37875.955708684625,8991.7071120857672,49628.766566310449,-21592.659009956144,34476.940585452794,-34476.940585452794,21592.659009956144,93221.85639257,0.0
628296.95196600363,3620566.251970998,-17500.0,20860.800537935011,-28797.77903473374,31189.225129121238,-15598.239916994458,26080.709150204719,7023.5024034811158,39900.973455764659,-12995.398839432308,12808.407432534599,-12808.407432534599,12995.398839432308,75495.20734048076,0.0
633296.95196600363,3620566.251970998,-17500.0,25523.469198717768,-22686.898401393963,9411.9858307748764,-13880.575955111088,14326.631223881432,4794.7586538220739,29471.69487867671,-1133.9936759026768,-4114.6321281554319,4114.6321281554319,1133.9936759026768,55616.035389303048,1.0
638296.95196600363,3620566.251970998,-17500.0,24120.735276543091,-13072.733436187582,-3690.9802997321522,-10118.408577271275,5851.948246686723,2867.542572519691,21432.519512273979,7290.0690448098258,-12237.600481692392,12237.600481692392,-7290.0690448098258,39454.702160506291,0.0
643296.95196600363,3620566.251970998,-17500.0,19243.695099416451,-4819.0316073800714,-9299.7767667764492,-6315.7939780710121,860.45894505537115,1416.1545970787033,16050.778035022277,10952.88200322034,-13828.253911130447,13828.253911130447,-10952.88200322034,28552.569274484227,0.0
648296.95196600363,3620566.251970998,-17500.0,13578.592474780511,662.86175411075908,-10530.93579335418,-3311.0742453372914,-1642.8955624076643,432.10193965415817,12590.46698892512,11305.799934317498,-12235.185019333132,12235.185019333132,-11305.799934317498,21896.323757546405,0.0
653296.95196600363,3620566.251970998,-17500.0,8557.5629640130683,3725.1933662213587,-9765.1317246333747,-1222.0467107945578,-2658.7614000926346,-164.61189478319972,10307.193982876626,10014.011436613098,-9652.4980326997611,9652.4980326997611,-10014.011436613098,17869.027837217014,0.0
658296.95196600363,3620566.251970998,-17500.0,4638.9377668059233,5131.955985633741,-8319.6341522341809,105.30810120083468,-2879.5482382974237,-478.50315340278843,8687.6729337999059,8165.5966967879485,-7120.0996791457965,7120.0996791457965,-8165.5966967879485,15222.27452849359,0.0
663296.95196600363,3620566.251970998,-17500.0,1802.6884758471156,5539.9449967522633,-6804.377420102951,878.36377239291301,-2719.4621062795991,-607.77464251882054,7444.6943445372854,6319.148373734909,-5008.525967011693,5008.525967011693,-6319.148373734909,13255.899206626698,0.0
668296.95196600363,3620566.251970998,-17500.0,-141.13681852542285,5400.436336206546,-5456.5557004463044,1278.5732881782774,-2406.1827790395128,-628.4570196107079,6434.5325302873607,4707.2452081096162,-3379.3873448882005,3379.3873448882005,-4707.2452081096162,11647.677081405755,0.0
673296.95196600363,3620566.251970998,-17500.0,-1408.9336534015818,4992.9378783082548,-4340.0761033415647,1442.3116575859949,-2056.0652160946765,-592.12536560136061,5586.8366362530005,3393.4572265818556,-2176.6181249550586,2176.6181249550586,-3393.4572265818556,10264.708496979252,0.0
678296.95196600363,3620566.251970998,-17500.0,-2189.5424255619532,4479.4482202628515,-3447.0262544468883,1464.0477565556771,-1723.40914997962,-530.51063029937927,4864.72078821791,2364.821939650908,-1313.3556242228274,1313.3556242228274,-2364.821939650908,9053.0078758898417,0.0
683296.95196600363,3620566.251970998,-17500.0,-2630.790183682479,3948.4255695046495,-2744.9266071977063,1405.8092245060761,-1429.7702196388354,-461.58551618875066,4245.8190544258814,1579.9437627560042,-706.4383765175229,706.4383765175229,-1579.9437627560042,7987.3576406119009,0.0
688296.95196600363,3620566.251970998,-17500.0,-2841.9662590338762,3444.6891838440101,-2197.0844291192111,1306.6985122993951,-1180.4255220929094,-394.67669733875806,3714.21388097819,991.7745910830904,-287.29524390565922,287.29524390565922,-991.7745910830904,7051.7468167891611,0.0
693296.95196600363,3620566.251970998,-17500.0,-2901.1265325972413,2988.1674203692619,-1770.3502444490207,1190.4733313558434,-973.20117901392655,-334.04457001206958,3257.1881902959303,557.17043496158567,-3.1587655443642575,3.1587655443642575,-557.17043496158567,6232.6755781464935,0.0
698296.95196600363,3620566.251970998,-17500.0,-2862.7628891527552,2585.171019584136,-1437.3441577109677,1071.0015928552637,-803.01579105736187,-281.15906393837781,2863.9969174367543,240.03816263990265,185.09918150209418,-185.09918150209418,-240.03816263990265,5517.390174705366,0.0
703296.95196600363,3620566.251970998,-17500.0,-2764.2773286528018,2234.946441552705,-1176.4189568240856,955.95265221791624,-664.09412357962105,-236.0537382269514,2525.381934597408,11.603734039701692,305.88171036925513,-305.88171036925513,-11.603734039701692,4893.7004365667317,0.0
708296.95196600363,3620566.251970998,-17500.0,-2630.9758775911932,1933.3901315792775,-970.84555540486224,849.20762830994852,-550.9639267219967,-198.09421859860797,2233.3502690207147,-150.44325027902443,379.54735144207126,-379.54735144207126,150.44325027902443,4350.1933264133231,0.0
713296.95196600363,3620566.251970998,-17500.0,-2479.7377414413859,1675.0915366359175,-807.84486177649092,752.39330564884574,-458.83772445295722,-166.39448990944615,1981.0304402419938,-263.11425214531801,420.57672896905933,-420.57672896905933,263.11425214531801,3876.4415240852522,0.0
518296.95196600363,3625566.251970998,-17500.0,-5094.4605747443002,-1705.0366305709381,-626.18570538588108,-1486.5076940972667,-492.39668879870908,-322.44338462130986,3099.1750858914415,-4170.9616511118875,1064.1634045695446,-1064.1634045695446,4170.9616511118875,6123.1423705654088,0.0
523296.95196600363,3625566.251970998,-17500.0,-5685.2826218604778,-2057.5277844202051,-778.37471116414508,-1744.4042407318871,-619.20185323212661,-396.74747501218803,3541.4929061185953,-4738.8979292954937,1112.1877267887917,-1112.1877267887917,4738.8979292954937,7005.3784563583922,0.0
528296.95196600363,3625566.251970998,-17500.0,-6339.6701789340359,-2492.9395970469873,-981.32776414910131,-2052.2221034891941,-783.40516706081394,-490.32570673098178,4061.7470802419516,-5389.88659690234,1135.1772776350899,-1135.1772776350899,5389.88659690234,8043.8880376058341,0.0
533296.95196600363,3625566.251970998,-17500.0,-7054.130908232095,-3031.1880910178675,-1254.8850001404724,-2418.61791067993,-996.94005645319851,-608.22752304283722,4674.7838016542828,-6130.4165709185691,1115.1937266412028,-1115.1937266412028,6130.4165709185691,9267.936915767852,0.0
538296.95196600363,3625566.251970998,-17500.0,-7816.7224054637445,-3695.6810855821032,-1627.2527463581023,-2852.2396052284644,-1275.4493344360581,-756.47541204008814,5397.9685707482895,-6962.1097005128831,1024.9259257032431,-1024.9259257032431,6962.1097005128831,10710.636726524674,0.0
543296.95196600363,3625566.251970998,-17500.0,-8601.3328323638689,-4512.3567273184599,-2138.469911144357,-3360.2112525238499,-1639.0595767377597,-941.83414871794241,6251.3328093002483,-7876.7268944867137,823.32383142381559,-823.32383142381559,7876.7268944867137,12407.69619076653,0.0
548296.95196600363,3625566.251970998,-17500.0,-9358.9374681889931,-5506.7069807486414,-2844.9533850437847,-3945.2432684432179,-2112.810205905444,-1171.0583678140874,7256.7793056701221,-8847.7091424562932,449.6425474881753,-449.6425474881753,8847.7091424562932,14394.298809558866,0.0
553296.95196600363,3625566.251970998,-17500.0,-10004.725243197907,-6696.7764041819491,-3824.8446992368363,-4600.490582801096,-2725.9717838285728,-1449.1433073920421,8434.4571008281273,-9816.297626186426,-184.0516927094759,184.0516927094759,9816.297626186426,16698.598186057483,0.0
558296.95196600363,3625566.251970998,-17500.0,-10400.223452272379,-8078.5509716403949,-5182.7051430390402,-5300.9431492993644,-3508.6331219096128,-1775.8453394812241,9796.1090366339486,-10669.64844993201,-1200.7470940975909,1200.7470940975909,10669.64844993201,19329.382188867479,0.0
563296.95196600363,3625566.251970998,-17500.0,-10330.972302440943,-9597.7171764987761,-7049.0570762176794,-5989.9317052540982,-4482.3357182159007,-2139.5250287313411,11335.836227428003,-11208.328427376464,-2762.5702622723493,2762.5702622723493,11208.328427376464,22254.157171887538,0.0
568296.95196600363,3625566.251970998,-17500.0,-9484.7920904348339,-11098.875822072259,-9563.1629923387791,-6559.7563771963087,-5638.7641536091796,-2507.5615623509912,13014.864078093158,-11103.078395582048,-5059.883773384111,5059.883773384111,11103.078395582048,25362.729110951263,0.0
573296.95196600363,3625566.251970998,-17500.0,-7447.070220857986,-12242.610571383402,-12812.362566281381,-6827.5790518997846,-6896.1618184987838,-2813.8942495168317,14737.339307822002,-9850.7983933175874,-8259.2068000975578,8259.2068000975578,9850.7983933175874,28412.571452185319,0.0
578296.95196600363,3625566.251970998,-17500.0,-3753.8992680595202,-12392.688334599547,-16674.686632232668,-6514.0115730894995,-8017.8605020408004,-2947.4422284099137,16321.595652404385,-6768.8130119275629,-12357.295298444798,12357.295298444798,6768.8130119275629,30966.25022316683,0.0
583296.95196600363,3625566.251970998,-17500.0,1917.4373951873154,-10528.341968454324,-20483.713370052479,-5247.5943804222961,-8476.4376190342682,-2749.374515570054,17501.133158226385,-1131.6909837563826,-16861.050476677097,16861.050476677097,1131.6909837563826,32399.821142995595,0.0
588296.95196600363,3625566.251970998,-17500.0,9328.7013059674609,-5376.5461640988651,-22478.434236913796,-2651.8358312201321,-7272.7525597327913,-2027.5401742671861,18103.871306403336,7354.8128721280991,-20256.214246561522,20256.214246561522,-7354.8128721280991,32341.085559357696,0.0
593296.95196600363,3625566.251970998,-17500.0,17115.106592916909,3849.4885333492398,-19320.211352072944,1388.3161578855406,-2827.5089952073085,-588.18263096730345,18876.40822610756,17603.53905975871,-19542.462141254597,19542.462141254597,-17603.53905975871,32712.93695274843,0.0
598296.95196600363,3625566.251970998,-17500.0,22699.71708943418,15919.152362382611,-6673.4280418586741,6248.3780603197965,6717.8020581609235,1720.1731664019844,23292.659508013203,26212.53187340669,-10798.573558572303,10798.573558572303,-26212.53187340669,41224.498106406063,0.0
603296.95196600363,3625566.251970998,-17500.0,23527.675390192686,26336.901143152925,18061.522224245873,10177.118781438059,22419.386938497253,4952.0167456603185,35851.426019976745,28029.801648098655,8256.5304025175137,-8256.5304025175137,-28029.801648098655,64597.999867207458,0.0
608296.95196600363,3625566.251970998,-17500.0,18873.018872844415,28151.005872958758,51969.523431074267,10431.53246893647,42877.028173785417,8999.4749803622744,54637.253553175426,18669.496292324686,34964.960748776975,-34964.960748776975,-18669.496292324686,98685.621609175651,0.0
613296.95196600363,3625566.251970998,-17500.0,11520.205250395942,14507.945172927308,83547.863833217678,3919.6092363395269,62248.652826405283,13218.442062591885,72678.856922318926,-2057.0936952734737,59182.472256908834,-59182.472256908834,2057.0936952734737,131798.1917672545,0.0
618296.95196600363,3625566.251970998,-17500.0,10582.782328248975,-13684.298932095819,92064.760251461106,-9501.0726685132067,69264.393596063514,15467.31099835778,80277.943475304215,-23174.929172726788,62694.383061853296,-62694.383061853296,23174.929172726788,146596.14663210639,0.0
623296.95196600363,3625566.251970998,-17500.0,22770.38979058696,-37054.325665297969,65646.187201882494,-21496.038971839625,56299.93675324435,13460.670763951623,71492.762916133346,-25021.599103566667,36620.375326652182,-36620.375326652182,25021.599103566667,131675.82678751566,0.0
628296.95196600363,3625566.251970998,-17500.0,36053.62214823121,-37126.57648471561,24845.084593686159,-23015.724738075645,32671.503584292568,8760.7628145491763,52537.951141288489,-7559.8017963204366,2132.8031305780837,-2132.8031305780837,7559.8017963204366,97422.885839855691,0.0
633296.95196600363,3625566.251970998,-17500.0,37210.108494146421,-21853.994280162333,-3373.7013962491783,-16650.988011494519,13206.4793605454,4623.7703819993358,35175.529255270398,9609.0893322520769,-17355.018195780627,17355.018195780627,-9609.0893322520769,64608.265728015445,0.0
638296.95196600363,3625566.251970998,-17500.0,29015.61225327761,-6764.1194449557797,-14623.833444458984,-9281.5797250368341,2285.7676523786986,1965.3518234494607,24330.566562222586,16981.807698169341,-21238.231886569312,21238.231886569312,-16981.807698169341,43209.220572067992,0.0
643296.95196600363,3625566.251970998,-17500.0,18845.522046332397,2579.368648044197,-16216.386720316443,-3874.8124004986225,-2569.1023822571324,368.81667316262758,18299.756755446411,17147.537308919589,-17978.073282592242,17978.073282592242,-17147.537308919589,31744.296056798459,0.0
648296.95196600363,3625566.251970998,-17500.0,10382.738211589163,7029.0595445366471,-14189.584562348844,-532.56441738780984,-4236.7061467888425,-541.44209893565335,14735.962596052777,14334.414712309173,-13160.960723982857,13160.960723982857,-14334.414712309173,25644.243468528759,0.0
653296.95196600363,3625566.251970998,-17500.0,4345.2006664271194,8544.6718275296789,-11381.06694870311,1332.0881661815188,-4436.422804452598,-987.18436198910342,12313.528245795478,10925.103760065071,-8902.4164161633889,8902.4164161633889,-10925.103760065071,21801.249452216409,0.0
658296.95196600363,3625566.251970998,-17500.0,374.41431044444835,8552.5551614092001,-8806.8173805256174,2252.9749595957333,-4036.0598740599044,-1134.3921630944446,10455.741346620447,7866.0656355223164,-5674.3080908818647,5674.3080908818647,-7866.0656355223164,18874.703608825123,0.0
663296.95196600363,3625566.251970998,-17500.0,-2080.9107334201894,7878.8938782083133,-6724.3691671474553,2605.8378099620395,-3446.4873977229086,-1111.387512192131,8934.868875619286,5415.9402954404868,-3391.0733842873706,3391.0733842873706,-5415.9402954404868,16408.550415446101,0.0
668296.95196600363,3625566.251970998,-17500.0,-3497.2039565455543,6959.6678112600348,-5123.7670884194558,2635.8838026478511,-2850.1650994257366,-1006.139607463133,7656.9692126339278,3562.2831624351275,-1837.958537981458,1837.958537981458,-3562.2831624351275,14262.814740330476,0.0
673296.95196600363,3625566.251970998,-17500.0,-4228.9712347951672,6010.1206024259845,-3920.1468940064319,2496.1027661746589,-2318.6970849415848,-871.62466603309088,6575.024339589876,2206.3038146209374,-810.06267779333132,810.06267779333132,-2206.3038146209374,12390.142156388876,0.0
678296.95196600363,3625566.251970998,-17500.0,-4523.6859441011475,5127.4975947994717,-3022.0553784458989,2278.0674365571572,-1872.0564916050052,-736.10955401135777,5658.1703120628008,1236.7795516367023,-146.42026212576707,146.42026212576707,-1236.7795516367023,10764.262343661698,0.0
683296.95196600363,3625566.251970998,-17500.0,-4548.1708751153838,4348.3656618011109,-2352.0548596813655,2034.1820711773678,-1507.9072466103237,-612.67653870351774,4881.7847014329991,556.03902600969298,269.93720519455576,-269.93720519455576,-556.03902600969298,9360.9899989137266,0.0
688296.95196600363,3625566.251970998,-17500.0,-4412.3044001963963,3679.4906945790976,-1850.122540837715,1792.7984045744045,-1215.6654335778474,-505.9816843798726,4224.6417029871845,86.284050556762651,520.80115837224844,-520.80115837224844,-86.284050556762651,8155.1998659302735,0.0
693296.95196600363,3625566.251970998,-17500.0,-4187.1428730490888,3114.0775456767183,-1471.5513039135319,1568.0036633625728,-982.90065719022891,-416.42607324010226,3668.2119718520125,-231.49873244929495,662.18322377494098,-662.18322377494098,231.49873244929495,7121.7722833362823,0.0
698296.95196600363,3625566.251970998,-17500.0,-3917.8331462607275,2640.0751906477535,-1183.6497561215026,1365.714654813992,-797.99295538936281,-342.50866533025214,3196.4636348616164,-440.87623901201789,731.98283418320955,-731.98283418320955,440.87623901201789,6236.9070866280599,0.0
703296.95196600363,3625566.251970998,-17500.0,-3632.4817927908557,2244.260709146582,-962.69041747085396,1187.3590538301216,-651.03410799838048,-282.06289337236257,2795.7052011192318,-573.50885782397063,755.6551521513602,-755.6551521513602,573.50885782397063,5478.9864479904709,0.0
708296.95196600363,3625566.251970998,-17500.0,-3348.1124608286477,1914.111024002035,-791.47270481321368,1032.0400297048682,-533.95268001339002,-232.85922514108989,2454.3749032101955,-652.19073753414352,750.20812744442389,-750.20812744442389,652.19073753414352,4828.9469443062217,0.0
713296.95196600363,3625566.251970998,-17500.0,-3074.6132901722435,1638.5442326405771,-657.49606592864461,897.77652124194719,-440.3326014402391,-192.8676053613479,2162.7907678143138,-693.24148942174804,726.95271348790823,-726.95271348790823,693.24148942174804,4270.3120248908717,0.0
513296.95196600363,3630566.251970998,-17500.0,-4963.7742710946277,-1149.4400750129162,-343.72031763371268,-1367.3204934375062,-318.36080252711588,-280.78192744251709,2846.8432328808117,-3786.1411852692963,1288.5969592543795,-1288.5969592543795,3786.1411852692963,5613.9142126945426,0.0
518296.95196600363,3630566.251970998,-17500.0,-5598.2339475975514,-1398.9814945493913,-416.85012384242259,-1613.8987837485568,-402.58695596866039,-346.37111028478211,3259.2146143931041,-4331.2396174317992,1420.6493042874361,-1420.6493042874361,4331.2396174317992,6433.39480611626,0.0
523296.95196600363,3630566.251970998,-17500.0,-6326.9814675734206,-1712.436909627751,-514.7678222447563,-1913.4610509213012,-512.78908494904954,-429.81167292362142,3748.5100528797675,-4971.9179757151824,1559.1635336957331,-1559.1635336957331,4971.9179757151824,7406.2815448823303,0.0
528296.95196600363,3630566.251970998,-17500.0,-7161.963967292947,-2108.1765978650628,-647.97815950582958,-2278.3256171972857,-658.0006239012406,-536.39172297684615,4331.5438613331062,-5725.4073707892712,1698.4221201839096,-1698.4221201839096,5725.4073707892712,8565.9651015640811,0.0
533296.95196600363,3630566.251970998,-17500.0,-8113.9433598413334,-2610.0420714646848,-832.04003625021471,-2723.3670804973676,-850.6347799784279,-672.9112248570259,5029.0162840621824,-6610.6696153636658,1827.9953134296957,-1827.9953134296957,6610.6696153636658,9953.2949725148883,0.0
538296.95196600363,3630566.251970998,-17500.0,-9189.9364825009834,-3248.720941393371,-1090.2019761172396,-3266.0812675460402,-1107.7349631291361,-847.94294439744203,5866.2954420192609,-7647.1093261946899,1929.7929022078119,-1929.7929022078119,7647.1093261946899,11617.756943595545,0.0
543296.95196600363,3630566.251970998,-17500.0,-10388.644851420755,-4063.0706808884333,-1457.455061325325,-3926.1390674310524,-1452.5785191201064,-1071.9228206896044,6874.2089557011232,-8851.6751414768351,1973.4036208525959,-1973.4036208525959,8851.6751414768351,13618.272094995435,0.0
548296.95196600363,3630566.251970998,-17500.0,-11692.554881269007,-5100.8130207679724,-1986.7205703026543,-4723.8883076687171,-1916.5691089581355,-1356.7716221124424,8089.5880304168904,-10232.981447912189,1908.8145294664237,-1908.8145294664237,10232.981447912189,16022.926997321436,0.0
553296.95196600363,3630566.251970998,-17500.0,-13054.643835799543,-6417.2190375860109,-2758.106559140841,-5676.8632672886752,-2541.0724669789242,-1714.471910905025,9554.8224150818951,-11780.037488942478,1655.2799703479714,-1655.2799703479714,11780.037488942478,18906.275526138172,0.0
558296.95196600363,3630566.251970998,-17500.0,-14376.607982706129,-8068.733025484541,-3892.1527098918577,-6792.7623909140084,-3378.1883441737641,-2153.6044096445303,11314.992813582598,-13441.433093869175,1084.9606345413677,-1084.9606345413677,13441.433093869175,22341.637686783903,0.0
563296.95196600363,3630566.251970998,-17500.0,-15474.358487393012,-10094.998820668623,-5566.9171656551307,-8056.5077805040637,-4487.9700786854301,-2672.3828336339407,13410.537808587012,-15088.037925159313,0.72348599339056818,-0.72348599339056818,15088.037925159313,26383.47464403772,0.0
568296.95196600363,3630566.251970998,-17500.0,-16026.179323488859,-12475.821872778592,-8034.1912866844514,-9407.9025761988796,-5926.4238857764831,-3246.7211182954907,15861.620276671329,-16448.506448403314,-1888.5093689129126,1888.5093689129126,16448.506448403314,31030.387280556442,0.0
573296.95196600363,3630566.251970998,-17500.0,-15503.259182602955,-15036.936840656539,-11615.010513900228,-10704.915123347688,-7711.7639293978054,-3813.6028774043957,18634.822397863511,-17004.63095170664,-4977.5234215080964,4977.5234215080964,17004.63095170664,36150.2723700563,0.0
578296.95196600363,3630566.251970998,-17500.0,-13104.958826662256,-17261.619631162233,-16611.298057395317,-11665.738800300758,-9741.3448725680482,-4255.1729267768405,21572.755165076294,-15846.41289067765,-9701.0281016426088,9701.0281016426088,15846.41289067765,41333.809389909526,0.0
583296.95196600363,3630566.251970998,-17500.0,-7800.2026217054254,-17973.653464873209,-22967.043773615078,-11785.583959639691,-11600.192115831007,-4395.0179291535251,24259.771463676592,-11565.071313619252,-16235.9541304738,16235.9541304738,11565.071313619252,45637.969328731728,0.0
588296.95196600363,3630566.251970998,-17500.0,1237.3021344795541,-15027.968548148108,-29359.170026089028,-10267.350139445563,-12159.665431322235,-4006.5826414548601,25859.224625317427,-2526.0650828092366,-23652.742773781985,23652.742773781985,2526.0650828092366,47334.399801529144,0.0
593296.95196600363,3630566.251970998,-17500.0,13402.139685634615,-5785.4365402920648,-31573.571060993447,-6193.9773062323984,-8943.9681540013662,-2779.1778863781074,25442.738487505452,11683.820675458637,-28360.242452450133,28360.242452450133,-11683.820675458637,44859.52438922516,0.0
598296.95196600363,3630566.251970998,-17500.0,25316.649473861598,10084.328475900084,-21802.435031710251,563.61270618190986,2100.8834867307205,-173.37011083749917,25723.63285844442,27409.261571091356,-23443.744784369908,23443.744784369908,-27409.261571091356,44588.7652975854,0.0
603296.95196600363,3630566.251970998,-17500.0,32692.549646489657,26637.121257456343,6622.839241942921,8030.5624934134257,24757.044927551542,4700.3214242069671,40123.418486142677,36540.11099909422,-3204.0743769650799,3204.0743769650799,-36540.11099909422,69958.971313634829,0.0
608296.95196600363,3630566.251970998,-17500.0,34247.120166639841,33947.491020523652,50970.55706105104,12481.957460154528,59124.569631757971,13194.674946463532,70978.846608011037,32337.822353182248,29699.028341184825,-29699.028341184825,-32337.822353182248,124445.91780657676,0.0
613296.95196600363,3630566.251970998,-17500.0,28474.70628459513,21234.000241845079,98209.302917899244,7255.4190368002583,98649.862375714511,26351.857663332688,106905.76471770885,9681.9516065321841,65009.380871677582,-65009.380871677582,-9681.9516065321841,189001.09550330319,0.0
618296.95196600363,3630566.251970998,-17500.0,25565.210018774698,-20910.429505748449,113462.0160406603,-16466.334658794523,117707.63935461891,36710.690798197858,125807.54421970042,-23398.796030626232,72620.427789457404,-72620.427789457404,23398.796030626232,224857.38122976033,0.0
623296.95196600363,3630566.251970998,-17500.0,47059.611064972378,-55313.909966540734,63132.659884212873,-39325.817398388041,86577.247326892757,29298.639621557635,106850.95211982298,-21315.719402756829,24627.846530278901,-24627.846530278901,21315.719402756829,192781.15281236992,0.0
628296.95196600363,3630566.251970998,-17500.0,61975.120515759525,-40276.174606685861,-193.14730263539354,-33238.159572082623,36031.285598394177,12956.495795068353,68460.123261949659,12221.206695174013,-25335.531319463022,25335.531319463022,-12221.206695174013,123676.64778366157,0.0
633296.95196600363,3630566.251970998,-17500.0,48436.920052185851,-9951.8172141999676,-26076.698733956571,-15429.721464996483,6346.82374901188,3535.1213645913781,41433.530352960574,29608.227815474515,-36532.674584401961,36532.674584401961,-29608.227815474515,73176.818910963906,0.0
638296.95196600363,3630566.251970998,-17500.0,27251.05219009392,7635.9271292559024,-27089.740094746947,-3467.3503670337741,-4384.7872548182249,23.264865542967858,28771.217722001667,28195.249502620965,-28249.966173975845,28249.966173975845,-28195.249502620965,49833.35585969728,0.0
643296.95196600363,3630566.251970998,-17500.0,11427.977347371487,13814.387958851543,-21342.266668154822,2210.8674660533761,-7020.1936868382954,-1362.6603030031711,22435.069822286554,21080.449791476745,-18035.853285616595,18035.853285616595,-21080.449791476745,39412.714883852968,0.0
648296.95196600363,3630566.251970998,-17500.0,1850.7770441695639,14568.116641650395,-15552.350553196846,4525.0570907315077,-6894.8568860216428,-1938.8162667573331,18358.379310430239,14281.801012025602,-10478.193237525955,10478.193237525955,-14281.801012025602,33045.646288334923,0.0
653296.95196600363,3630566.251970998,-17500.0,-3458.7530354655796,13283.251547476388,-11105.374547092704,5235.0736072842801,-5945.6607890040395,-2068.2468618207495,15277.179908902883,9109.6704550806389,-5563.4545737812778,5563.4545737812778,-9109.6704550806389,28082.769647522673,0.0
658296.95196600363,3630566.251970998,-17500.0,-6181.6891372056525,11421.915062746359,-7934.5620330337879,5181.8032421825455,-4857.5149686382638,-1943.5548939127927,12793.954733543484,5462.6893461315885,-2518.8931589998947,2518.8931589998947,-5462.6893461315885,23899.44134352394,0.0
663296.95196600363,3630566.251970998,-17500.0,-7388.0443746440542,9560.5609323414701,-5721.7309658237191,4780.1169934171594,-3868.3905813499796,-1702.7223478706778,10750.007613770211,2980.3510915322213,-688.38112617610727,688.38112617610727,-2980.3510915322213,20329.309557945999,0.0
668296.95196600363,3630566.251970998,-17500.0,-7722.7355532212669,7903.7615270546739,-4181.0060521449941,4245.5771951354127,-3045.0370806349383,-1432.1471594378424,9058.498362134269,1329.8390287271006,377.22407883557639,-377.22407883557639,-1329.8390287271006,17295.53862017432,0.0
673296.95196600363,3630566.251970998,-17500.0,-7571.8791753472042,6502.6255136378077,-3101.8259898811925,3689.9160510229676,-2387.7259877911206,-1176.5899641624603,7657.7945461503286,255.89267620094284,968.05057730198769,-968.05057730198769,-255.89267620094284,14734.190848027876,0.0
678296.95196600363,3630566.251970998,-17500.0,-7166.0266191470855,5347.1761220040034,-2338.3271959271819,3167.4975322076084,-1873.7696111228149,-954.31587704300614,6497.9623073139237,-425.17744743380939,1267.7421128970946,-1267.7421128970946,425.17744743380939,12582.241320733743,0.0
683296.95196600363,3630566.251970998,-17500.0,-6641.6024292048824,4406.1206743254534,-1791.5911680138506,2701.0560707413078,-1475.7188794408178,-769.35239462863365,5536.9516860298654,-841.66942378044564,1391.4777223086742,-1391.4777223086742,841.66942378044564,10779.030541819177,0.0
688296.95196600363,3630566.251970998,-17500.0,-6077.8349191784346,3643.8026405790579,-1394.8770729096939,2296.5405064232727,-1168.3508338705233,-619.16493343468323,4739.3366188641503,-1081.7294880967931,1411.0822632787706,-1411.0822632787706,1081.7294880967931,9268.9681043619021,0.0
693296.95196600363,3630566.251970998,-17500.0,-5519.2909862473707,3027.0312225497469,-1103.0504885733483,1951.6009167060511,-930.76901745078658,-498.82199897591926,4075.6056662926107,-1205.3229906931322,1371.114075454296,-1371.114075454296,1205.3229906931322,8003.1666169848968,0.0
698296.95196600363,3630566.251970998,-17500.0,-4989.673831861398,2527.3484253263819,-885.3904899425836,1660.2735232305099,-746.49476396420312,-403.01137101182763,3521.4435138468234,-1252.990355107165,1299.0367363866933,-1299.0367363866933,1252.990355107165,6939.8422136348008,0.0
703296.95196600363,3630566.251970998,-17500.0,-4500.2866746936879,2121.3330709433508,-720.80409727375138,1415.4593518936049,-602.85931045620646,-326.89514285500513,3056.9886042698463,-1252.0196250122224,1211.6149301638591,-1211.6149301638591,1252.0196250122224,6043.9623109795884,0.0
708296.95196600363,3630566.251970998,-17500.0,-4055.2035347796073,1790.1252065378676,-594.66361610134675,1210.1536019581911,-490.24642567483698,-266.3881030272687,2666.1123380293252,-1220.7079558420648,1118.9257582259577,-1118.9257582259577,1220.7079558420648,5286.5108075622029,0.0
713296.95196600363,3630566.251970998,-17500.0,-3654.415442819251,1518.7126536791368,-496.71536515704867,1037.9941353475258,-401.39689912291124,-218.17450066870626,2335.779138022277,-1171.2721470269755,1026.8761046793018,-1026.8761046793018,1171.2721470269755,4643.6323673762245,0.0
513296.95196600363,3635566.251970998,-17500.0,-5262.563121642801,-810.94702459502798,-202.97895367939995,-1439.6207024577839,-226.18304853365706,-293.76094801808972,2935.1277734186856,-3781.3187822042082,1529.3202629690311,-1529.3202629690311,3781.3187822042082,5787.2462386851539,0.0
518296.95196600363,3635566.251970998,-17500.0,-5983.9433721656223,-1001.8867172190139,-237.21468679053839,-1710.8460295825234,-290.08681970402313,-364.4542416036262,3374.8644049134805,-4350.8716085400911,1725.553364785791,-1725.553364785791,4350.8716085400911,6659.9274598298498,0.0
523296.95196600363,3635566.251970998,-17500.0,-6828.5152945223272,-1246.0753071848385,-283.74150455281915,-2044.5886314857628,-375.00840118616213,-455.23385931982972,3901.1838426878649,-5029.8613959187169,1948.3087626025954,-1948.3087626025954,5029.8613959187169,7704.6822032687687,0.0
528296.95196600363,3635566.251970998,-17500.0,-7819.0697024087031,-1560.6523492962829,-348.60251260791432,-2457.2998763620458,-488.83862753086754,-572.45614461796174,4534.7779685443975,-5842.4956751116788,2198.9264590270182,-2198.9264590270182,5842.4956751116788,8962.3916558975907,0.0
533296.95196600363,3635566.251970998,-17500.0,-8981.6803749862938,-1968.8899534456464,-441.24287831849284,-2969.955302944797,-642.75130329126932,-724.52723239263355,5301.9585271890355,-6818.3166638600842,2476.6780095668337,-2476.6780095668337,6818.3166638600842,10484.790150711346,0.0
538296.95196600363,3635566.251970998,-17500.0,-10345.086461043085,-2502.498320991831,-576.61127639538006,-3609.1234025527301,-852.65332026269471,-922.43135851335001,6236.279569764738,-7992.863056980993,2776.7620060141699,-2776.7620060141699,7992.863056980993,12337.358950345857,0.0
543296.95196600363,3635566.251970998,-17500.0,-11938.874670604237,-3204.7391764005865,-778.66510326673767,-4408.0504244807762,-1141.2649627622757,-1180.1971869487209,7380.6142666150372,-9407.7978505011743,3086.7757905571161,-3086.7757905571161,9407.7978505011743,14602.793080279831,0.0
548296.95196600363,3635566.251970998,-17500.0,-13789.381703900468,-4134.4870098907622,-1086.2753156647129,-5407.4970340992268,-1541.0490306854431,-1515.0079679470502,8789.7738738244279,-11109.694733081207,3380.5529914912049,-3380.5529914912049,11109.694733081207,17384.936136641056,0.0
553296.95196600363,3635566.251970998,-17500.0,-15911.347341869452,-5371.1644001207087,-1563.2588461450664,-6655.7953671633786,-2098.2004603012479,-1946.3145767691717,10533.685629914195,-13145.812736318596,3607.4422503698197,-3607.4422503698197,13145.812736318596,20812.800150747902,0.0
558296.95196600363,3635566.251970998,-17500.0,-18291.687091011041,-7019.7520921369151,-2315.4908383112938,-8207.1802343286454,-2877.7622454629104,-2492.7252362026516,12700.95313014147,-15553.394465528832,3673.7228493196317,-3673.7228493196317,15553.394465528832,25043.710873966218,0.0
563296.95196600363,3635566.251970998,-17500.0,-20858.440586903256,-9212.9528628244952,-3519.9521016608801,-10116.825833249217,-3969.4524507428355,-3164.7085873709348,15402.196035706977,-18335.121380674209,3410.5713984080194,-3410.5713984080194,18335.121380674209,30263.251988908902,0.0
568296.95196600363,3635566.251970998,-17500.0,-23421.093320973228,-12101.428553855096,-5472.6880885477376,-12429.860774186078,-5492.4390047367169,-3951.018282160378,18771.039040257721,-21404.524978754391,2519.8010107409427,-2519.8010107409427,21404.524978754391,36675.754526572542,0.0
573296.95196600363,3635566.251970998,-17500.0,-25554.788596150203,-15805.303562071882,-8661.0645720064476,-15157.924124198733,-7593.2816761489885,-4799.8242082083516,22953.84944162604,-24465.252497222406,487.10147240879996,-487.10147240879996,24465.252497222406,44465.969581473037,0.0
578296.95196600363,3635566.251970998,-17500.0,-26381.404809922245,-20251.171916169806,-13840.674685095881,-18221.692714066077,-10416.559188083955,-5606.8308704356177,28053.773167535495,-26749.18873824575,-3530.3062718135279,3530.3062718135279,26749.18873824575,53668.042382655265,0.0
583296.95196600363,3635566.251970998,-17500.0,-24221.915270048117,-24706.520813585965,-21970.303659982692,-21287.518322424858,-13968.353951391011,-6240.049840048122,33918.490862060615,-26506.325037039653,-10721.856905164994,10721.856905164994,26506.325037039653,63749.397014133378,0.0
588296.95196600363,3635566.251970998,-17500.0,-16406.589825374787,-26718.032853735567,-33402.807975993943,-23340.31470373855,-17582.987526840432,-6595.4875249480101,39516.858752907952,-20367.627901940232,-21976.465529071535,21976.465529071535,20367.627901940232,72493.005566086082,0.0
593296.95196600363,3635566.251970998,-17500.0,-696.84536549895347,-20906.870502643062,-44802.090716211387,-22062.869835223719,-18274.464605092293,-6407.5594402606566,41752.742259315783,-4134.360406977592,-35005.614345065427,35005.614345065427,4134.360406977592,74158.499350002574,0.0
598296.95196600363,3635566.251970998,-17500.0,19668.893075464675,-2154.4085009434166,-43642.716486847246,-14864.697651594191,-7966.8702471503566,-4203.893413106015,36212.61164817158,20722.323367201105,-38949.030888152221,38949.030888152221,-20722.323367201105,62722.089443530283,0.0
603296.95196600363,3635566.251970998,-17500.0,35773.463105401221,20659.920007851077,-13712.25386388532,-4333.3044249649765,23930.275878250402,3578.4855184216535,39826.47507149179,39107.063142622232,-19850.952520707229,19850.952520707229,-39107.063142622232,70334.664240521219,0.0
608296.95196600363,3635566.251970998,-17500.0,52860.281383350775,27857.524132457002,34562.057594700724,3747.7564451898793,76919.648106247783,21604.121236944018,82918.670155010215,43660.346455590276,10713.816240896504,-10713.816240896504,-43660.346455590276,144429.91071672156,0.0
613296.95196600363,3635566.251970998,-17500.0,68843.591815336331,20636.078111364655,79319.877848926146,8205.8307534479009,146740.91604482921,61837.411166673257,148641.35420692083,38797.741431364906,37492.045901049394,-37492.045901049394,-38797.741431364906,257508.20831259404,0.0
618296.95196600363,3635566.251970998,-17500.0,65520.84960367842,-30848.638053441635,90612.763383191341,-30902.198509833637,193575.87934572125,109489.94774212976,197839.66640930006,185.54587701052151,41311.515518255605,-41311.515518255605,-185.54587701052151,345823.99154723546,0.0
623296.95196600363,3635566.251970998,-17500.0,100941.4487002354,-67117.064774440427,1167.2842293055055,-74373.374450001575,111436.64520503039,73550.858300760257,155818.63926824142,18569.19481704526,-40339.947203860269,40339.947203860269,-18569.19481704526,274472.09399779805,0.0
628296.95196600363,3635566.251970998,-17500.0,92462.639548436884,-13074.066269406709,-58895.201522489406,-33833.574877335617,15705.064309149762,14215.691498689835,84677.280076318159,62486.019384646977,-75801.073504203508,75801.073504203508,-62486.019384646977,147903.22827378681,0.0
633296.95196600363,3635566.251970998,-17500.0,41251.42394496694,23105.443705363843,-51296.695696029201,1900.389062373004,-11225.389647080878,-2120.6519578388843,52862.022233068419,52623.357682630085,-49077.051575226258,49077.051575226258,-52623.357682630085,91775.456892833841,0.0
638296.95196600363,3635566.251970998,-17500.0,7620.1753999770817,28987.152124874188,-33268.326089969094,12238.411624277691,-13116.121611196126,-3782.4144372757564,38947.544942328415,31404.202887657841,-23880.231327674941,23880.231327674941,-31404.202887657841,69439.562628856045,0.0
643296.95196600363,3635566.251970998,-17500.0,-7350.9701115942125,25339.992972793792,-20694.025648244817,13187.431401693175,-10881.46548491809,-3808.4121699370703,30060.238716405576,16796.510543263088,-9998.9549697810689,9998.9549697810689,-16796.510543263088,55146.577781279208,0.0
648296.95196600363,3635566.251970998,-17500.0,-13043.727084471164,20380.628682655217,-13086.178779323629,11901.203988406402,-8507.1965595708607,-3655.7888696374225,23736.122397235027,8246.191843438306,-3029.9405447011959,3029.9405447011959,-8246.191843438306,44459.835194157335,0.0
653296.95196600363,3635566.251970998,-17500.0,-14675.896533848563,16046.632346926524,-8512.3170381431701,10236.102175983391,-6530.7152125660077,-3304.793436715996,19064.236377412573,3332.7899164046585,411.5001757485179,-411.5001757485179,-3332.7899164046585,36221.158399741791,0.0
658296.95196600363,3635566.251970998,-17500.0,-14530.652818620611,12591.352569753975,-5701.318071406944,8626.3800234086157,-4973.8703660909223,-2825.8776355613663,15499.609183455492,508.77517073675097,2054.7822068774881,-2054.7822068774881,-508.77517073675097,29743.931662115188,0.0
663296.95196600363,3635566.251970998,-17500.0,-13613.109316217799,9906.8547822388118,-3927.9785078856939,7187.2646433127211,-3779.3976129361172,-2324.0918714349941,12714.341822951561,-1089.3421601764503,2759.204592746833,-2759.204592746833,1089.3421601764503,24579.813590240952,0.0
668296.95196600363,3635566.251970998,-17500.0,-12395.264966140574,7835.9646159642143,-2780.64903271094,5949.7205097966207,-2876.9125732744455,-1866.5033723393597,10505.848997690249,-1953.3847246934074,2969.0081592309407,-2969.0081592309407,1953.3847246934074,20427.924171394083,0.0
673296.95196600363,3635566.251970998,-17500.0,-11109.327498226834,6238.8477621419597,-2020.4385103051279,4911.2198197071293,-2200.2629978690911,-1479.8882604126823,8738.727965146818,-2374.7805047631618,2922.701336958412,-2922.701336958412,2374.7805047631618,17072.389263089921,0.0
678296.95196600363,3635566.251970998,-17500.0,-9869.2925646549738,5003.439680332388,-1505.1682496835172,4053.2750745811595,-1693.9453049679221,-1166.8962047881507,7315.5075831514605,-2530.8744543780194,2750.9681027170864,-2750.9681027170864,2530.8744543780194,14349.252504989412,0.0
683296.95196600363,3635566.251970998,-17500.0,-8727.3012803948168,4043.1961799203959,-1148.215608086977,3351.0784324876863,-1314.316400189804,-919.39205124557577,6162.7610607027191,-2530.9461735122286,2525.6267653469658,-2525.6267653469658,2530.9461735122286,12130.24905016115,0.0
688296.95196600363,3635566.251970998,-17500.0,-7702.4978152093299,3292.3615767194738,-895.66768821680876,2779.0871222191631,-1028.3371143029678,-726.01582011089317,5223.9427746835454,-2442.5360365114975,2285.6133565245309,-2285.6133565245309,2442.5360365114975,10313.963893537579,0.0
693296.95196600363,3635566.251970998,-17500.0,-6796.7247961485218,2701.3535557696946,-713.30618315324284,2313.8663981768054,-811.52609349107786,-575.68505512851038,4455.1114611557468,-2307.2443268343936,2051.3250637178012,-2051.3250637178012,2307.2443268343936,8820.074747669536,0.0
698296.95196600363,3635566.251970998,-17500.0,-6003.2327040276095,2232.8761647120737,-579.00723930147001,1935.206879927789,-645.93635605180089,-458.89021719417815,3821.9986314074863,-2150.4588269900069,1832.7131785684076,-1832.7131785684076,2150.4588269900069,7584.9969040620445,0.0
703296.95196600363,3635566.251970998,-17500.0,-5311.5113484372741,1858.8566232515743,-478.21341863554659,1626.2987350259198,-518.46295015808414,-367.95550492098562,3297.8804824731983,-1987.4201511083279,1633.9033649161101,-1633.9033649161101,1987.4201511083279,6558.4169650901677,0.0
708296.95196600363,3635566.251970998,-17500.0,-4709.911706859647,1558.1054161120226,-401.18346221156992,1373.4575508992998,-419.53231398310174,-296.88062529013581,2862.0474224987261,-1827.0265727720939,1455.8447330531458,-1455.8447330531458,1827.0265727720939,5700.4988580304189,0.0
713296.95196600363,3635566.251970998,-17500.0,-4187.0072809229523,1314.5601791563568,-341.29238376806819,1165.6823442997033,-342.12764242659324,-241.05368725434892,2498.5680212332149,-1674.2281771733262,1297.8264632710941,-1297.8264632710941,1674.2281771733262,4979.6451342817645,0.0
718296.95196600363,3635566.251970998,-17500.0,-3732.2462339734211,1115.9816060822659,-293.96363619173559,994.19017265575542,-281.07982770059988,-196.95936615709599,2194.1603330087883,-1531.536462241261,1158.3404607357381,-1158.3404607357381,1531.536462241261,4370.7241832861337,0.0
513296.95196600363,3640566.251970998,-17500.0,-5436.5340553332417,-419.77673591669856,-103.31146024503609,-1481.669127438056,-121.44643792950951,-301.27363516202365,2981.2554260205811,-3654.3855949371336,1703.6493006770579,-1703.6493006770579,3654.3855949371336,5880.9515703442275,0.0
518296.95196600363,3640566.251970998,-17500.0,-6215.8991096969858,-533.59618388291017,-107.74815600620956,-1768.9809968590434,-160.01933656235917,-375.22410540322988,3437.970687931409,-4216.0175802411195,1949.6720469499917,-1949.6720469499917,4216.0175802411195,6787.2043220688965,0.0
523296.95196600363,3640566.251970998,-17500.0,-7139.8602531516117,-682.53427737349318,-113.94909546215837,-2125.6098038616396,-212.38550708210499,-470.79756874913647,3987.9334402038457,-4890.8803587282155,2239.1228031637002,-2239.1228031637002,4890.8803587282155,7878.5224378435287,0.0
528296.95196600363,3640566.251970998,-17500.0,-8240.1542410901602,-879.10514011641976,-123.68254068147897,-2571.2200528028602,-284.14648087858342,-595.1364186960451,4654.7742054611863,-5706.6877280919998,2579.9940562918669,-2579.9940562918669,5706.6877280919998,9201.4701245729175,0.0
533296.95196600363,3640566.251970998,-17500.0,-9556.023821823539,-1140.9146383350003,-140.1814283082482,-3131.6904294487431,-383.4540182543459,-757.85809682991373,5469.207244419842,-6698.8794941282185,2981.1665219973447,-2981.1665219973447,6698.8794941282185,10816.297458527766,0.0
538296.95196600363,3640566.251970998,-17500.0,-11135.832849303346,-1492.9891904824271,-169.30435386396582,-3841.1634945008063,-522.28433046890996,-971.81376978875107,6471.477381797712,-7912.9072685117389,3451.843697026095,-3451.843697026095,7912.9072685117389,12801.446407927642,0.0
543296.95196600363,3640566.251970998,-17500.0,-13038.793176879035,-1971.2880458402683,-221.64885091616753,-4744.7387525522045,-718.3932661297124,-1253.8931585094965,7714.8027339241762,-9407.1566978230458,4000.1944430563622,-4000.1944430563622,9407.1566978230458,15259.689595022399,0.0
548296.95196600363,3640566.251970998,-17500.0,-15336.571066579172,-2628.0618960620272,-316.45430935181679,-5901.9936192786799,-998.33229883302624,-1625.5996588285593,9270.3524144793319,-11256.609601452954,4630.4373696988614,-4630.4373696988614,11256.609601452954,18326.619140386341,0.0
553296.95196600363,3640566.251970998,-17500.0,-18114.2359182941,-3540.1372198011882,-488.93600795633131,-7391.6349811958944,-1402.1334864282651,-2112.7181419828062,11234.721428677387,-13557.252399912595,5336.8614083108614,-5336.8614083108614,13557.252399912595,22182.711080455054,0.0
558296.95196600363,3640566.251970998,-17500.0,-21469.26250433741,-4821.8840517333119,-804.35560165117124,-9317.9689442725339,-1990.6856722951829,-2742.6654038139104,13741.713829952318,-16430.839636218141,6091.7265596173447,-6091.7265596173447,16430.839636218141,27071.280946375591,0.0
563296.95196600363,3640566.251970998,-17500.0,-25505.133663344976,-6645.6252169327972,-1385.6575416504425,-11821.060349158002,-2857.7035974442565,-3537.1340804544925,16981.992961158223,-20028.133326751835,6820.560320224251,-6820.560320224251,20028.133326751835,33327.020705991556,0.0
568296.95196600363,3640566.251970998,-17500.0,-30308.830536904206,-9272.9266343183554,-2469.1073049419183,-15095.379216464855,-4150.3632666542908,-4497.6327186507306,21237.190099384406,-24522.932464202062,7350.2570605444416,-7350.2570605444416,24522.932464202062,41423.91810051573,0.0
573296.95196600363,3640566.251970998,-17500.0,-35876.925299398441,-13095.772992807426,-4518.3674364567969,-19426.324980208246,-6108.1565077228242,-5587.834578192942,26936.995071307712,-30067.301032404339,7295.8479613409763,-7295.8479613409763,30067.301032404339,52053.23053644217,0.0
578296.95196600363,3640566.251970998,-17500.0,-41877.051487951612,-18652.022284698345,-8455.5928427770777,-25247.444120471471,-9139.7778403163884,-6744.6697230662212,34729.57246556141,-36600.456310262896,5808.6999141178239,-5808.6999141178239,36600.456310262896,66209.541826460452,0.0
583296.95196600363,3640566.251970998,-17500.0,-46932.832597637636,-26408.814976053534,-16075.539343308716,-33126.800067016651,-13947.231799733563,-8020.5726120307372,45435.659751110099,-43165.125705892511,1055.320200349066,-1055.320200349066,43165.125705892511,85050.670218356492,0.0
588296.95196600363,3640566.251970998,-17500.0,-46910.562069555861,-35476.104253757425,-30388.31230375875,-43142.935805328612,-21448.233252058759,-9980.0783189495614,59296.653334128619,-45909.31556973212,-10470.030596758024,10470.030596758024,45909.31556973212,108472.81442168183,0.0
593296.95196600363,3640566.251970998,-17500.0,-33216.226741365972,-39216.758635617014,-53441.327965877223,-52131.135704555236,-30675.195576007089,-13678.326788444439,72839.755115684136,-34614.292894326318,-32436.700689854675,32436.700689854675,34614.292894326318,129520.93086619685,0.0
598296.95196600363,3640566.251970998,-17500.0,-1304.5961054261049,-20467.014767569606,-72818.605447117341,-50040.558976098684,-28831.095511729782,-16327.375667248194,71944.603730659292,2093.6753907919774,-55367.054848350483,55367.054848350483,-2093.6753907919774,124612.05059540867,0.0
603296.95196600363,3640566.251970998,-17500.0,23820.417090103463,17734.550775690419,-45957.409849219512,-37703.262926234995,18140.080966453166,-2952.0452976779447,57418.761191337006,36970.624861578028,-39880.736765833244,39880.736765833244,-36970.624861578028,99563.669173823655,0.0
608296.95196600363,3640566.251970998,-17500.0,51269.554787860754,5683.6315168153433,5435.6079037430927,-51283.850254237754,99348.971929714055,29423.378674173393,113294.68088356373,34595.535780958802,-12596.124057881247,12596.124057881247,-34595.535780958802,197925.17572299371,0.0
613296.95196600363,3640566.251970998,-17500.0,147795.24883124317,-12846.94870385337,-28331.818292511583,-41774.482302335695,158654.37496297117,96275.21945763634,181865.4312564797,90354.537065272743,-71867.468236656685,71867.468236656685,-90354.537065272743,325338.39613720053,0.0
618296.95196600363,3640566.251970998,-17500.0,175375.94618831069,-31210.838902892858,-104155.30196927476,-71329.386311652284,188468.36235567715,231882.82359577066,269757.8347394056,112582.03217538439,-138914.9032802844,138914.9032802844,-112582.03217538439,471034.12629980926,0.0
623296.95196600363,3640566.251970998,-17500.0,185089.18180648724,9026.7476428590417,-167085.56044072413,-75193.117772600293,9832.7504766899492,65367.069355303152,194665.00315444882,159411.20187613735,-184097.10582686774,184097.10582686774,-159411.20187613735,337185.1709948153,0.0
628296.95196600363,3640566.251970998,-17500.0,60942.015478033849,70960.098981440271,-101464.4318321389,39288.146858262182,-45366.102026787383,-32430.44677039409,122994.3138892128,107843.75256278097,-87389.85251342594,87389.85251342594,-107843.75256278097,214104.91119128198,0.0
633296.95196600363,3640566.251970998,-17500.0,-17568.004389366193,60830.180661743478,-48333.418618021758,52658.676917995377,-28724.198899086507,-19505.544127684265,84465.193134681409,40067.062243973196,-23040.692316655281,23040.692316655281,-40067.062243973196,150949.11649204785,0.0
638296.95196600363,3640566.251970998,-17500.0,-36230.646172380664,41892.369846641872,-23989.929147485447,38887.13826486747,-16920.782400987642,-9717.111502248652,57655.000625499328,10402.332755109373,-925.33894491069623,925.33894491069623,-10402.332755109373,105776.82709999384,0.0
643296.95196600363,3640566.251970998,-17500.0,-35976.738747840755,28726.220284353858,-12826.955022032213,27526.691333305145,-11036.605323766029,-6614.6219003228516,40703.081871411305,-647.66440845906754,5769.2971528253529,-5769.2971528253529,647.66440845906754,76370.69537157318,0.0
648296.95196600363,3640566.251970998,-17500.0,-31711.516382934387,20339.296749434783,-7313.7352864841341,20245.998884604003,-7731.5082944235273,-5407.1711571345504,30068.819776712509,-4759.5638467778808,7480.5486367449867,-7480.5486367449867,4759.5638467778808,57406.390709527492,0.0
653296.95196600363,3640566.251970998,-17500.0,-27189.925221848534,14847.836652011236,-4401.7013561922913,15427.880994103514,-5598.7575626998923,-4502.7497456615538,23066.543586748019,-6213.1104310365099,7507.0994207602416,-7507.0994207602416,6213.1104310365099,44569.969696921959,0.0
658296.95196600363,3640566.251970998,-17500.0,-23170.030194631378,11098.367862994863,-2780.6603186226794,12008.959203385861,-4117.4536330206538,-3653.5281507218865,18165.674613420892,-6539.3846985420469,6941.8860243033459,-6941.8860243033459,6539.3846985420469,35379.62636157313,0.0
663296.95196600363,3640566.251970998,-17500.0,-19731.188047500655,8449.1309049079064,-1839.212367130533,9461.8871119989435,-3058.315436304008,-2892.8885115647772,14563.12322237588,-6349.5496899271548,6191.5289931116749,-6191.5289931116749,6349.5496899271548,28516.414947225596,0.0
668296.95196600363,3640566.251970998,-17500.0,-16821.31853365089,6529.6285711986484,-1271.9890085305553,7515.6748861120695,-2292.254664379338,-2256.4439617684579,11827.135289333612,-5924.4714409291282,5422.8843214272456,-5422.8843214272456,5924.4714409291282,23250.177094356815,0.0
673296.95196600363,3640566.251970998,-17500.0,-14370.239092346344,5112.3422103272705,-918.41919310716935,6010.2187623526816,-1734.3075778040491,-1747.9522707638398,9705.5712785693577,-5406.6544621871872,4705.7597698398695,-4705.7597698398695,5406.6544621871872,19138.45970372669,0.0
678296.95196600363,3640566.251970998,-17500.0,-12310.552251762283,4049.883741230753,-690.65496254105892,4837.667156067153,-1325.1586535427095,-1352.445320507069,8037.0447745728306,-4871.0484863819256,4066.1151968857916,-4066.1151968857916,4871.0484863819256,15888.73580136855,0.0
683296.95196600363,3640566.251970998,-17500.0,-10581.3722361,3242.9991049206496,-539.06228609523498,3919.5868302603476,-1022.7962778589696,-1049.0521278223862,6710.7242876069095,-4356.2836730899689,3509.2208241954613,-3509.2208241954613,4356.2836730899689,13295.320670448593,0.0
688296.95196600363,3640566.251970998,-17500.0,-9129.1562180683886,2623.0186043675931,-434.8142520624919,3197.0428123560937,-797.41695716974596,-817.62365402877242,5647.0391504766494,-3880.7011224541948,3030.8329561230075,-3030.8329561230075,3880.7011224541948,11208.095237417578,0.0
693296.95196600363,3640566.251970998,-17500.0,-7907.7824878301171,2141.4961574154991,-360.7505745721254,2625.261816751784,-627.87053294313046,-641.17075026896816,4787.3610024702966,-3451.3025468612577,2622.8174727332189,-2622.8174727332189,3451.3025468612577,9515.0757524121855,0.0
698296.95196600363,3640566.251970998,-17500.0,-6878.188585095103,1763.7313713173246,-306.42086549984356,2170.1298307438074,-499.11546909061326,-506.26412716404008,4087.7628097652291,-3068.9180311596351,2275.9700491684321,-2275.9700491684321,3068.9180311596351,8131.5883470192448,0.0
703296.95196600363,3640566.251970998,-17500.0,-6007.6839755032433,1464.5465565944796,-265.32149182148214,1805.6186828010107,-400.40717161914171,-402.6332355185329,3514.6681954125879,-2731.1869780746106,1981.3586410207295,-1981.3586410207295,2731.1869780746106,6992.963008980425,0.0
708296.95196600363,3640566.251970998,-17500.0,-5269.1789994303963,1225.4714336018872,-233.32072991875955,1511.8488595159138,-324.02569528078732,-322.55774597616886,3041.7579132354858,-2434.2894396397182,1730.9168098414807,-1730.9168098414807,2434.2894396397182,6049.4484351693091,0.0
713296.95196600363,3640566.251970998,-17500.0,-4640.3323927476604,1032.8112746836316,-207.73911633523483,1273.5939925059995,-264.38331860223423,-260.27745094954503,2648.3347265552702,-2173.8955731301603,1517.6238195352907,-1517.6238195352907,2173.8955731301603,5262.4785358216723,0.0
718296.95196600363,3640566.251970998,-17500.0,-4102.7807673190191,876.31354998371205,-186.8035500701989,1079.1527243706014,-217.40364364147362,-211.50434728775795,2318.4643722854835,-1945.6869834351007,1335.5024181050951,-1335.5024181050951,1945.6869834351007,4601.960570262805,0.0
513296.95196600363,3645566.251970998,-17500.0,-5467.3703002112634,1.2790373948599467,-55.831171827772287,-1489.3512636457788,-9.6243771582955109,-302.62844222283303,2981.3787940718712,-3406.4241209038369,1794.7760583116356,-1794.7760583116356,3406.4241209038369,5887.6902006190676,0.0
518296.95196600363,3645566.251970998,-17500.0,-6268.0103598335827,-23.589444481211697,-44.278182018790339,-1782.2360337002171,-19.725193913767249,-377.62521603841901,3443.0038353579289,-3926.2491502306361,2069.3904622854911,-2069.3904622854911,3926.2491502306361,6804.64784387891,0.0
523296.95196600363,3645566.251970998,-17500.0,-7223.3890688094561,-60.153097211334931,-28.216066771508096,-2147.4570165272617,-34.8376756064646,-474.87131311018612,4000.7099157274129,-4551.6010241410459,2398.0040596866379,-2398.0040596866379,4551.6010241410459,7912.3615159064066,0.0
528296.95196600363,3645566.251970998,-17500.0,-8370.2356164474586,-113.61006723839849,-6.5704187460369603,-2606.3453858059238,-57.409577251325878,-601.87859153982947,4679.6508493416786,-5309.1277720249609,2793.1735772333795,-2793.1735772333795,5309.1277720249609,9260.3481167979826,0.0
533296.95196600363,3645566.251970998,-17500.0,-9755.5004109151268,-191.66145926508659,21.739005374463762,-3187.440652328904,-91.171769971246704,-768.85531832436232,5512.9353888103087,-6233.5244541732663,3270.6194044119675,-3270.6194044119675,6233.5244541732663,10913.482164750523,0.0
538296.95196600363,3645566.251970998,-17500.0,-11439.64443957706,-305.86431170956632,57.495547814537211,-3929.1957077778352,-141.87318965375846,-989.59525183725498,6544.6249202010022,-7370.4155555149628,3849.9599874421797,-3849.9599874421797,7370.4155555149628,12957.579141055145,0.0
543296.95196600363,3645566.251970998,-17500.0,-13501.225869740963,-473.8228333803815,100.48926167628117,-4883.809801510939,-218.47714898492242,-1282.4785312632457,7834.1315783201298,-8780.5134094554851,4555.500891277934,-4555.500891277934,8780.5134094554851,15507.418741854857,0.0
548296.95196600363,3645566.251970998,-17500.0,-16043.538595698139,-722.83506524688505,147.98978114385565,-6122.792565704025,-335.14369146553054,-1671.3195166077978,9462.9455322277008,-10545.833573261047,5416.9431462484335,-5416.9431462484335,10545.833573261047,18718.661310642048,0.0
553296.95196600363,3645566.251970998,-17500.0,-19204.723519897438,-1096.1670637925979,191.45872822086932,-7745.4280641675778,-514.59428602936191,-2185.3547850857017,11545.531848697836,-12779.419957356284,6469.6762671935985,-6469.6762671935985,12779.419957356284,22806.449886596303,0.0
558296.95196600363,3645566.251970998,-17500.0,-23174.108087551602,-1664.3219999823575,209.46487264933484,-9892.7647135879015,-794.04952675961522,-2856.8214065177949,14248.265042260711,-15641.406809949229,7753.8248214773485,-7753.8248214773485,15641.406809949229,28076.586244627859,0.0
563296.95196600363,3645566.251970998,-17500.0,-28219.905570220621,-2546.3210974120598,152.18195232249536,-12773.729538233576,-1236.3890243793799,-3713.4302988229101,17824.923545777423,-19366.897360402741,9309.8260375308728,-9309.8260375308728,19366.897360402741,34982.632049995271,0.0
568296.95196600363,3645566.251970998,-17500.0,-34735.848626699852,-3952.0858631916526,-93.568028866934469,-16720.690550711981,-1953.2959387550825,-4763.4282986821963,22687.843210811145,-24315.228706774022,11163.753686453751,-11163.753686453751,24315.228706774022,44239.892751906365,0.0
573296.95196600363,3645566.251970998,-17500.0,-43307.397425602998,-6270.1689545118325,-786.80277308552479,-22318.68156746812,-3159.7524478163759,-5982.2796983483313,29555.331610531863,-31050.698736533865,13279.305773745842,-13279.305773745842,31050.698736533865,57064.410845972707,0.0
578296.95196600363,3645566.251970998,-17500.0,-54732.608432660556,-10246.641382901009,-2538.7910317647188,-30706.607623049458,-5318.5699315471329,-7367.8758043575135,39744.301413800036,-40427.164131497026,15393.467574358749,-15393.467574358749,40427.164131497026,75657.095226899677,0.0
583296.95196600363,3645566.251970998,-17500.0,-69607.470719197168,-17284.890902356718,-6859.387196813751,-44181.839540727153,-9544.3060687055749,-9336.705556955565,55639.956056021038,-53403.376051140382,16442.676380286892,-16442.676380286892,53403.376051140382,103988.9448150235,0.0
588296.95196600363,3645566.251970998,-17500.0,-85875.324877237334,-29452.300575385965,-17600.567923618906,-66766.270370819169,-18617.091574568352,-14207.975537945136,80906.360805451448,-69189.019808007521,12677.197357657824,-12677.197357657824,69189.019808007521,148053.66406161594,0.0
593296.95196600363,3645566.251970998,-17500.0,-90089.55881105375,-45760.54073217004,-43810.251724549998,-100960.7732438677,-38020.171509474676,-29195.464385234354,117651.26035182257,-76680.419993334246,-6967.2658801689031,6967.2658801689031,76680.419993334246,210308.44798959189,0.0
598296.95196600363,3645566.251970998,-17500.0,-46502.408951315738,-41396.497348961057,-95047.61120602864,-126603.52369125237,-63990.171786185856,-59761.441971051921,149356.87957580664,-34981.424512750127,-58825.225823078516,58825.225823078516,34981.424512750127,259613.88454012483,0.0
603296.95196600363,3645566.251970998,-17500.0,28433.591089321246,38283.124149110809,-119516.60948755087,-95125.141981614084,-11136.502333343626,-44651.867818115279,116530.06544289886,70009.005715934079,-93314.373230753918,93314.373230753918,-70009.005715934079,219847.61449107536,0.0
608296.95196600363,3645566.251970998,-17500.0,56686.212282516884,43535.910975415245,-78936.71127724064,-156012.19024403981,162145.72263377297,55842.37814747596,241113.91379319504,81997.796979728184,-72371.571298132563,72371.571298132563,-81997.796979728184,419355.56446938927,0.0
613296.95196600363,3645566.251970998,-17500.0,291807.30987527117,14800.351790970542,-233376.60468993217,-183596.80701469566,115419.79158656656,2040.7662678495326,338634.19155789044,244924.00446668346,-268074.23559343861,268074.23559343861,-244924.00446668346,591056.48205352738,0.0
618296.95196600363,3645566.251970998,-17500.0,326713.49422376737,93527.933843421342,-328167.92668567039,-36286.518249835462,-44611.564505905146,4138.7248844604483,345362.56294281338,340105.09001314128,-340966.92004801659,340966.92004801659,-340105.09001314128,598196.51159326406,0.0
623296.95196600363,3645566.251970998,-17500.0,111227.84366223446,122284.34086633397,-151660.60171696101,156128.32656493582,-63435.965379854686,-215469.55974366408,269705.45543929067,184498.4031504883,-135618.45444574623,135618.45444574623,-184498.4031504883,469060.19214756991,0.0
628296.95196600363,3645566.251970998,-17500.0,-74399.117438091882,72467.985141164172,-50835.17424362692,178882.40651913805,-24515.761839562812,-113121.68585851746,194474.43219249812,12765.767388459379,-4532.88422482646,4532.88422482646,-12765.767388459379,341352.88714139495,0.0
633296.95196600363,3645566.251970998,-17500.0,-100202.23183592458,42193.510402632666,-19470.703907476061,108645.71416364844,-12529.465270991404,-37045.725811328892,120052.37056456113,-30432.415110014739,23911.495062140511,-23911.495062140511,30432.415110014739,215942.3897791224,0.0
638296.95196600363,3645566.251970998,-17500.0,-81298.330779535376,26452.357541933459,-8434.7573531287835,62768.842624088218,-7901.6211581025018,-14603.50402490013,74980.529849257626,-31488.001048688784,23970.445339336591,-23970.445339336591,31488.001048688784,137854.80827435202,0.0
643296.95196600363,3645566.251970998,-17500.0,-61624.9418609493,17719.270664061129,-3834.88890973547,39292.384975970599,-5569.7692339882005,-8817.2587155339679,49794.000815438434,-25984.593450084525,19798.585032469709,-19798.585032469709,25984.593450084525,93505.304726225469,0.0
648296.95196600363,3645566.251970998,-17500.0,-47303.07926699995,12488.761836520087,-1757.9849454188206,26818.042414557345,-4105.8740530489185,-6768.566226179104,35267.940013223211,-20947.447629949605,15948.568399191046,-15948.568399191046,20947.447629949605,67434.104599884056,0.0
653296.95196600363,3645566.251970998,-17500.0,-37234.327102844683,9128.098506394188,-801.03431477301001,19428.017300980853,-3072.6058323253428,-5422.9723108118778,26272.096829918715,-17083.719876682058,12906.119065517983,-12906.119065517983,17083.719876682058,50901.74407163322,0.0
658296.95196600363,3645566.251970998,-17500.0,-29938.870766355081,6848.2630444709439,-366.02091578540029,14580.761497545993,-2313.977648541219,-4281.634996154613,20263.243833703542,-14123.499512754086,10528.474053299396,-10528.474053299396,14123.499512754086,39606.123643153885,0.0
663296.95196600363,3645566.251970998,-17500.0,-24451.946523174021,5240.4953869911033,-176.9988069726831,11176.775939486801,-1752.1823455291849,-3320.4953315743833,16000.441752228893,-11795.390006112517,8650.2348210944583,-8650.2348210944583,11795.390006112517,31451.648749586657,0.0
668296.95196600363,3645566.251970998,-17500.0,-20203.410436776481,4074.8957616372832,-102.74862546464328,8690.1480859884923,-1335.5829375839151,-2547.7470122373211,12848.303869052223,-9924.1213119831082,7151.4879643059758,-7151.4879643059758,9924.1213119831082,25349.36349665769,0.0
673296.95196600363,3645566.251970998,-17500.0,-16847.007578023662,3212.1952863196616,-80.342963850423729,6832.1035906184024,-1026.0803442246799,-1947.4799932704714,10452.614344220196,-8399.2373889411429,5947.1130431301135,-5947.1130431301135,8399.2373889411429,20674.806391340378,0.0
678296.95196600363,3645566.251970998,-17500.0,-14158.357448411791,2563.0426330545597,-79.733530728846347,5423.5992734039746,-795.22101211593974,-1490.3365813987541,8597.2563837578,-7146.1480360742898,4974.1532790726396,-4974.1532790726396,7146.1480360742898,17034.937092953944,0.0
683296.95196600363,3645566.251970998,-17500.0,-11982.466917497382,2067.6948567128534,-86.828632214683523,4344.3184472186404,-621.99131293786093,-1145.4052696995032,7140.2012942005958,-6110.5210807906697,4184.4324657075267,-4184.4324657075267,6110.5210807906697,14164.757812578922,0.0
688296.95196600363,3645566.251970998,-17500.0,-10206.975108806157,1685.0094360206222,-95.284597454478629,3509.6449509295853,-491.04466072016567,-885.77322455009221,5982.992925234179,-5250.6648423191273,3540.4128364833855,-3540.4128364833855,5250.6648423191273,11877.371297414697,0.0
693296.95196600363,3645566.251970998,-17500.0,-8747.7873185393892,1386.0283365435735,-102.48897648698478,2858.5937222665702,-391.24455760866317,-689.98064468500922,5054.8353110250928,-4533.6833315077447,3012.6284431217,-3012.6284431217,4533.6833315077447,10037.151184767521,0.0
698296.95196600363,3645566.251970998,-17500.0,-7540.6575467163984,1150.0153486283507,-107.58750693921213,2346.5760495777049,-314.52272807030346,-541.66216490966212,4303.529632059397,-3933.2719410941359,2577.8791916806435,-2577.8791916806435,3933.2719410941359,8543.7743828330695,0.0
703296.95196600363,3645566.251970998,-17500.0,-6535.8573464927831,961.90943161810912,-110.51668549443454,1940.6765475050152,-255.02318545225734,-428.62070418149983,3690.0111465003542,-3428.2821058824429,2217.8754103569891,-2217.8754103569891,3428.2821058824429,7322.0121699063529,0.0
708296.95196600363,3645566.251970998,-17500.0,-5694.5188629431686,810.63278828318209,-111.53428707332488,1616.3997992072773,-208.47676248344445,-341.86241630047778,3184.7995053212017,-3001.6566418501429,1918.171223346118,-1918.171223346118,3001.6566418501429,6314.8126334110448,0.0
713296.95196600363,3645566.251970998,-17500.0,-4986.0433026362689,687.94573749780477,-110.99680191772316,1355.384300860992,-171.75279062799547,-274.78000563846939,2765.502073745196,-2639.6148704859106,1667.3335085140372,-1667.3335085140372,2639.6148704859106,5478.4995640562838,0.0
718296.95196600363,3645566.251970998,-17500.0,-4386.1900434040099,587.65550151133868,-109.25960123798153,1143.7681743008754,-142.53937937584706,-222.51643241624407,2414.9690899342868,-2331.0021762613956,1456.2876168495593,-1456.2876168495593,2331.0021762613956,4779.3467991875586,0.0
513296.95196600363,3650566.251970998,-17500.0,-5347.0270300968432,425.02383083179382,-66.049464190413957,-1460.8674757776664,102.83730262277699,-297.5249488718481,2934.1366648036046,-3049.1129897205919,1792.9835717154731,-1792.9835717154731,3049.1129897205919,5804.8214234434072,0.0
518296.95196600363,3650566.251970998,-17500.0,-6128.2020001918409,492.01642691744019,-54.974907455361198,-1747.8192721632929,121.94309038307172,-371.17690309468179,3387.8830550065927,-3496.0132926757301,2070.711068438593,-2070.711068438593,3496.0132926757301,6708.142214106917,0.0
523296.95196600363,3650566.251970998,-17500.0,-7060.78361765926,572.57364123200932,-38.813998381372812,-2105.7504578116254,145.33040734430335,-466.67830452660644,3936.3288001820438,-4029.8113797905289,2404.4936763044943,-2404.4936763044943,4029.8113797905289,7799.7509266084135,0.0
528296.95196600363,3650566.251970998,-17500.0,-8181.1723767099493,669.96614967158314,-15.967347268979251,-2555.7144486859506,174.05399231442672,-591.41355229419037,4604.5062698764932,-4671.4774402501062,2808.0859980696864,-2808.0859980696864,4671.4774402501062,9128.8308447328964,0.0
533296.95196600363,3650566.251970998,-17500.0,-9536.2492914832146,788.33487376743108,15.560822754034636,-3125.9781924684012,209.40447130508178,-755.42234559033261,5425.5080461302659,-5448.0521647676287,3299.1479447177117,-3299.1479447177117,5448.0521647676287,10760.036801785689,0.0
538296.95196600363,3650566.251970998,-17500.0,-11187.024164570326,932.91196674124421,58.157637702976707,-3854.8116646298604,252.91144566574519,-972.27475485824641,6443.570296381773,-6394.7817315885295,3900.490023354263,-3900.490023354263,6394.7817315885295,12779.283658050959,0.0
543296.95196600363,3650566.251970998,-17500.0,-13213.964446321108,1110.2669812148752,114.45154294039446,-4794.521320108418,306.27763824929866,-1260.0496414436227,7718.6155021056175,-7558.2546881030548,4641.7789599999096,-4641.7789599999096,7558.2546881030548,15302.215626378982,0.0
548296.95196600363,3650566.251970998,-17500.0,-15725.184949791817,1328.5252553757675,186.81558559650364,-6017.4765891764364,371.14479524731797,-1642.138095586339,9333.327082436208,-9001.2684678222377,5561.9457755408494,-5561.9457755408494,9001.2684678222377,18487.09759793082,0.0
553296.95196600363,3650566.251970998,-17500.0,-18869.869483012557,1597.4214304191792,276.08748247532333,-7625.6476078423775,448.47475572823964,-2147.1260942039776,11405.004781738076,-10810.900708560999,6712.7563160336904,-6712.7563160336904,10810.900708560999,22555.599041498997,0.0
558296.95196600363,3650566.251970998,-17500.0,-22861.963826293988,1927.8003948482324,378.57155471226832,-9767.2014936601154,537.04479900503907,-2806.117135432879,14107.097010033594,-13112.982663536397,8164.5061845663586,-8164.5061845663586,13112.982663536397,27829.12190775968,0.0
563296.95196600363,3650566.251970998,-17500.0,-28024.946824356452,2329.520422878737,479.31286405844685,-12669.353719681301,629.85153033285906,-3644.6599240008823,17711.627891509896,-16099.971192176743,10015.876118007289,-10015.876118007289,16099.971192176743,34798.805823163973,0.0
568296.95196600363,3650566.251970998,-17500.0,-34880.129246709963,2804.8315722846842,537.25423779368771,-16712.818460998555,705.2608100096802,-4667.2550698481682,22679.326084075921,-20087.204052369289,12411.937345449387,-12411.937345449387,20087.204052369289,44274.10292295309,0.0
573296.95196600363,3650566.251970998,-17500.0,-44319.186079839594,3328.7677607642831,452.23983344147757,-22618.61759689308,703.67301752628225,-5847.7528188489377,29861.14798740924,-25626.322638844918,15575.668676720643,-15575.668676720643,25626.322638844918,57720.394740391625,0.0
578296.95196600363,3650566.251970998,-17500.0,-57903.379949665105,3791.9226797456431,-11.886483739675587,-31938.232777297901,459.61324879651897,-7222.4139868704788,40951.460708633378,-33712.871693453584,19845.612414188894,-19845.612414188894,33712.871693453584,78037.878119595436,0.0
583296.95196600363,3650566.251970998,-17500.0,-78156.629446139195,3837.9570478138617,-1429.9675381669033,-48308.683901039505,-518.3917719027105,-9531.5551469122856,59448.571843749858,-46031.17635705079,25607.456127495534,-25607.456127495534,46031.17635705079,111252.82625484267,0.0
588296.95196600363,3650566.251970998,-17500.0,-107547.95388861038,2466.8201027398436,-5381.3291160885819,-80249.787776767174,-3822.954073032859,-17089.2152024098,92407.0065885722,-64429.648797885748,32419.318658451695,-32419.318658451695,64429.648797885748,169591.05065362054,0.0
593296.95196600363,3650566.251970998,-17500.0,-138990.45236428449,-2163.1398777831841,-17206.713206874101,-144263.70000665175,-14822.650328186171,-47876.199187095903,152276.61875170356,-84486.804924904136,33771.723027607033,-33771.723027607033,84486.804924904136,274127.83084214415,0.0
598296.95196600363,3650566.251970998,-17500.0,-111078.43837939813,-3723.2559355462927,-57561.256825030563,-241712.54921146063,-46933.393999161024,-152037.39901521444,247197.93972540417,-58957.558256506265,-5461.0047115081579,5461.0047115081579,58957.558256506265,434348.27151785593,0.0
603296.95196600363,3650566.251970998,-17500.0,109273.09987704997,69450.748830664277,-176772.91403702414,-198106.53123398413,-57935.665224779827,-264386.85450708074,283975.93934849749,154060.94061952626,-159190.57736630208,159190.57736630208,-154060.94061952626,506792.44240892533,0.0
608296.95196600363,3650566.251970998,-17500.0,277937.17542403738,138513.88348627798,-349862.65680452198,-97564.234965440293,87241.745995892474,48700.869941407618,366932.22071613639,344184.68910375534,-335654.44351026433,335654.44351026433,-344184.68910375534,641650.52271201636,0.0
613296.95196600363,3650566.251970998,-17500.0,387367.86367227254,119731.12792018743,-385148.06390634418,91756.843098284837,-78439.008858842513,-28782.022625122932,422231.71870304563,408191.64611549559,-400403.06758590357,400403.06758590357,-408191.64611549559,731574.86895101995,0.0
618296.95196600363,3650566.251970998,-17500.0,137120.74889398928,123117.87866712568,-216509.09826766301,165369.83283999178,-107013.79975886934,-38619.668796648402,291488.62381768966,215868.31110061341,-191934.28857561355,191934.28857561355,-215868.31110061341,505631.43411495077,0.0
623296.95196600363,3650566.251970998,-17500.0,-9994.1608042419484,40759.336544542872,-125061.33777347556,190208.717480102,37358.443662008867,-139426.04438654153,206806.4498794573,48857.323983215509,-84221.937197050385,84221.937197050385,-48857.323983215509,364429.2871754099,0.0
628296.95196600363,3650566.251970998,-17500.0,-104957.71618351397,-12479.123276091108,-56986.546479943667,170311.69193862248,42616.949159916381,-82138.017207917233,176038.8614639813,-61038.74105529848,-8046.4680244273659,8046.4680244273659,61038.74105529848,307670.7655680466,0.0
633296.95196600363,3650566.251970998,-17500.0,-114509.89695570439,-12604.030300658629,-20791.538265589512,109696.31928513537,19022.824463668767,-32277.55476082044,119014.75407227677,-75258.215337294663,21777.93624714261,-21777.93624714261,75258.215337294663,213308.800573213,0.0
638296.95196600363,3650566.251970998,-17500.0,-92028.221204722591,-5724.9888076464404,-7055.6357545030432,66430.422831161501,7389.3310858933619,-14735.128744682543,77363.351959032501,-59752.199194037647,25084.733958147353,-25084.733958147353,59752.199194037647,141872.84758252124,0.0
643296.95196600363,3650566.251970998,-17500.0,-69609.054141139321,-1786.1881750377117,-2089.1807343072696,42483.430912508935,2901.3697414070261,-9538.645554203531,52181.015260467088,-44248.719006513544,21640.229385196486,-21640.229385196486,44248.719006513544,97779.30179440949,0.0
648296.95196600363,3650566.251970998,-17500.0,-53096.082851670872,-37.073133007163548,-284.16115766572824,29152.145102196344,1133.4345970857651,-7386.8567834311634,37114.696713800098,-33172.173351705176,17614.341542343864,-17614.341542343864,33172.173351705176,70836.722046897703,0.0
653296.95196600363,3650566.251970998,-17500.0,-41428.823187432805,666.30417426596773,326.95258752835326,21071.659495961238,385.78242488596544,-5872.6975559439379,27625.142863130655,-25547.74232038029,14223.168874750103,-14223.168874750103,25547.74232038029,53450.277276487926,0.0
658296.95196600363,3650566.251970998,-17500.0,-33003.954726064323,908.24454094369594,473.37594293190278,15735.570731876633,53.906645620846049,-4596.0107963559931,21249.981777850469,-20151.262603924806,11528.520803040567,-11528.520803040567,20151.262603924806,41497.335040519043,0.0
663296.95196600363,3650566.251970998,-17500.0,-26721.171693086962,949.08602850006491,444.6494439795045,11995.193764769389,-92.73264785674904,-3538.3758078427236,16728.837492889128,-16187.921495867049,9402.3346752293037,-9402.3346752293037,16187.921495867049,32863.75340547433,0.0
668296.95196600363,3650566.251970998,-17500.0,-21906.8722435171,904.17769310043957,359.5700048619658,9277.2179330136587,-151.76298087315732,-2699.1087490648715,13395.758372178796,-13187.021112272136,7718.4066288875529,-7718.4066288875529,13187.021112272136,26415.262594351592,0.0
673296.95196600363,3650566.251970998,-17500.0,-18143.177752279964,825.90037443946926,266.21706463220062,7258.7413882193478,-168.41696493916442,-2053.3933763024284,10872.039895439482,-10863.440243853482,6377.5078482921017,-6377.5078482921017,10863.440243853482,21489.141267741012,0.0
678296.95196600363,3650566.251970998,-17500.0,-15157.3479771154,738.47398658068448,182.52258614288897,5737.7197702809153,-164.90974084262984,-1565.1677018880168,8924.4393356266191,-9034.6340829247092,5303.8938761857962,-5303.8938761857962,9034.6340829247092,17664.614603172038,0.0
683296.95196600363,3650566.251970998,-17500.0,-12761.730239283754,652.98735929497445,113.62521230127892,4578.5534391123037,-152.46677432769451,-1198.8550746215246,7399.4277598361214,-7577.0638239535347,4439.5467750498119,-4439.5467750498119,7577.0638239535347,14657.322501102721,0.0
688296.95196600363,3650566.251970998,-17500.0,-10821.713277027751,574.20155678226081,59.475654736510535,3686.4561357293519,-136.78346327343257,-924.39055690138764,6190.9153377716248,-6403.3755748547737,3739.751753883289,-3739.751753883289,6403.3755748547737,12266.937641955268,0.0
693296.95196600363,3650566.251970998,-17500.0,-9237.8477515281629,503.78070670795285,18.17099508188398,2993.6186851774219,-120.6914366263982,-718.20580519031682,5223.1054639556505,-5449.8357632362249,3169.8989509498379,-3169.8989509498379,5449.8357632362249,10348.456847684887,0.0
698296.95196600363,3650566.251970998,-17500.0,-7935.1713999282201,441.88963199504025,-12.621168468092954,2450.8332159135725,-105.52300377552855,-562.52866725128501,4440.6158037215455,-4668.9204695251074,2703.121022672668,-2703.121022672668,4668.9204695251074,8794.9693379629171,0.0
703296.95196600363,3650566.251970998,-17500.0,-6856.3613040146856,388.00205511083084,-35.095441926299614,2022.0168321556882,-91.828082635127188,-444.21875037391209,3802.3322323888956,-4024.6265416650012,2318.4993283276299,-2318.4993283276299,4024.6265416650012,7526.5464303798717,0.0
708296.95196600363,3650566.251970998,-17500.0,-5957.1280763603008,341.31369378077335,-51.12017051213919,1680.4859232766771,-79.756012499024578,-353.64744372639996,3277.3672183653948,-3489.3604406442673,1999.7011270407356,-1999.7011270407356,3489.3604406442673,6482.776462281472,0.0
713296.95196600363,3650566.251970998,-17500.0,-5202.9363430488738,300.9500288366828,-62.209815985663333,1406.3438846306133,-69.259769551302909,-283.77552363193644,2842.2597396127003,-3041.7559640807704,1733.9213953159388,-1733.9213953159388,3041.7559640807704,5617.5319091386154,0.0
718296.95196600363,3650566.251970998,-17500.0,-4566.6626192816166,266.0677709372298,-69.559102253967637,1184.6420865922516,-60.204677778382873,-229.4496341961414,2479.0198227578248,-2665.134557107926,1511.0823627817358,-1511.0823627817358,2665.134557107926,4895.287668501338,0.0
513296.95196600363,3655566.251970998,-17500.0,-5079.330976748096,822.98041924269694,-132.7376622244287,-1397.0724286215475,209.21244209226566,-286.10804872364298,2840.9904062916958,-2603.9219187498034,1697.3604665879361,-1697.3604665879361,2603.9219187498034,5634.9162307735396,0.0
518296.95196600363,3655566.251970998,-17500.0,-5800.9799818761157,974.98689571130899,-138.52523193759197,-1666.7762275400682,255.65552869408464,-356.06538287872553,3274.6015155930845,-2953.6648272256839,1951.9504090940479,-1951.9504090940479,2953.6648272256839,6500.8624672372389,0.0
523296.95196600363,3655566.251970998,-17500.0,-6657.2160629228656,1163.6236336090228,-144.47938434469233,-2001.7415912929705,314.99465656421989,-446.45503997111911,3797.6781103485991,-3363.3736659103392,2255.5943558711092,-2255.5943558711092,3363.3736659103392,7544.5923276649864,0.0
528296.95196600363,3655566.251970998,-17500.0,-7678.6201420115685,1399.8114160846715,-150.95921734340416,-2420.7646792162777,391.50398576434088,-564.03524108131035,4433.781307633606,-3844.8866590663056,2619.4848130847931,-2619.4848130847931,3844.8866590663056,8811.6605453335633,0.0
533296.95196600363,3655566.251970998,-17500.0,-8903.8423909301691,1698.3725647599936,-158.78278389379764,-2948.8168839142904,491.08116488888874,-717.91020148688062,5213.9175583227225,-4412.4103084093376,3057.6106746470005,-3057.6106746470005,4412.4103084093376,10361.589727799097,0.0
538296.95196600363,3655566.251970998,-17500.0,-10382.066557601665,2079.6760976102287,-169.662464894762,-3619.2858409646283,621.92343512772334,-920.24112544743332,6178.9861066116309,-5082.8766217134807,3587.4434150472202,-3587.4434150472202,5082.8766217134807,12272.920083651858,0.0
543296.95196600363,3655566.251970998,-17500.0,-12176.459002682896,2572.1125306196004,-187.0329953778166,-4477.1285529870365,795.49566008859153,-1186.9731559403763,7383.4205032619811,-5876.2800535484803,4230.7553299531082,-4230.7553299531082,5876.2800535484803,14650.504313116229,0.0
548296.95196600363,3655566.251970998,-17500.0,-14369.286391030128,3215.9169433111338,-217.63663435023156,-5583.4504700552779,1027.9087747186124,-1538.2612865006738,8901.177516484684,-6815.9974111648253,5014.5877487036987,-5014.5877487036987,6815.9974111648253,17636.471725696018,0.0
553296.95196600363,3655566.251970998,-17500.0,-17070.138948293981,4069.3095339107285,-274.58835650425169,-7022.5916894525717,1341.8767892608241,-1997.8104763307304,10835.786083314397,-7929.1866796041359,5972.4253266214364,-5972.4253266214364,7929.1866796041359,21427.731381844824,0.0
558296.95196600363,3655566.251970998,-17500.0,-20430.410464582768,5218.8830345175384,-383.38665645250751,-8914.3781203063681,1769.5229601026797,-2589.4809685082091,13338.315414594301,-9247.6316868537597,7145.7661775602401,-7145.7661775602401,9247.6316868537597,26306.399548379351,0.0
563296.95196600363,3655566.251970998,-17500.0,-24670.842580032717,6798.4303279572787,-593.91205045958816,-11438.763721935318,2356.6721525252124,-3328.4161797200595,16642.940504978986,-10809.836543537054,8586.5918117011133,-8586.5918117011133,10809.836543537054,32698.490068202245,0.0
568296.95196600363,3655566.251970998,-17500.0,-30135.555392327766,9026.0406623297149,-1004.9585260223055,-14893.290060552205,3170.8065202071343,-4204.9033466746187,21143.590485557004,-12664.801275117354,10361.497708960471,-10361.497708960471,12664.801275117354,41299.098738842527,0.0
573296.95196600363,3655566.251970998,-17500.0,-37392.072822141723,12283.786487326577,-1816.1936171765785,-19840.501642230949,4321.3126508065388,-5173.9774590794123,27566.559500880219,-14870.266223082252,12555.722902404903,-12555.722902404903,14870.266223082252,53358.164866327141,0.0
578296.95196600363,3655566.251970998,-17500.0,-47369.376836627169,17301.368868828733,-3444.8740734968433,-27495.22703769213,6026.5017953221159,-6240.8529024401005,37356.620418020131,-17431.513592870419,15253.621292426831,-15253.621292426831,17431.513592870419,71339.317744412008,0.0
583296.95196600363,3655566.251970998,-17500.0,-61288.66822495214,25591.78465773982,-6816.3971669872735,-40684.850051063622,8859.8769012509947,-8041.183936247925,53484.12690163355,-19904.935573258426,18349.068378138083,-18349.068378138083,19904.935573258426,100339.88814530394,0.0
588296.95196600363,3655566.251970998,-17500.0,-78893.582011585298,40423.491523449688,-14217.217311822918,-65768.841202203359,14651.089126013863,-14340.879671594081,81905.379567024676,-19456.925520505269,20429.537865084872,-20429.537865084872,19456.925520505269,150657.92401693328,0.0
593296.95196600363,3655566.251970998,-17500.0,-87884.143284484875,68228.509838623359,-32359.629119876805,-113264.26374462494,29485.44037337651,-40271.264724039298,133312.87872387018,-2634.1154786326533,13126.821086885868,-13126.821086885868,2634.1154786326533,240346.0390754324,0.0
598296.95196600363,3655566.251970998,-17500.0,-20338.418016601558,113131.0196491808,-84626.56066933446,-169018.09808457913,69427.105935887885,-122610.91559902734,217777.56032167756,81044.367491582976,-43119.63177746904,43119.63177746904,-81044.367491582976,382851.56981567841,0.0
603296.95196600363,3655566.251970998,-17500.0,235016.81072602628,116299.37490139519,-232113.05882595095,-35711.596774395926,110897.37276868524,-134122.71098723513,295699.94842372509,276120.19320391864,-237026.76178704106,237026.76178704106,-276120.19320391864,513162.23067840323,0.0
608296.95196600363,3655566.251970998,-17500.0,317289.26633737626,41253.61219649612,-324770.84867017466,53445.422968151783,-33624.904629274919,177434.99796290678,333365.91986110946,298935.6740546248,-340994.19415937032,340994.19415937032,-298935.6740546248,599226.40456654876,0.0
613296.95196600363,3655566.251970998,-17500.0,205146.82028501356,-20324.45454655496,-135894.4256028737,175676.54058304906,-86147.019999113108,-51637.421991761148,255600.85842207383,145547.65392355571,-171077.87466428222,171077.87466428222,-145547.65392355571,459089.51068792853,0.0
618296.95196600363,3655566.251970998,-17500.0,12848.270206591231,12805.997667539485,-48042.388055970929,151710.50416324119,-68882.61310502894,-29290.475588346675,169897.82529706421,27324.134486881529,-38267.345612748009,38267.345612748009,-27324.134486881529,294435.29901272844,0.0
623296.95196600363,3655566.251970998,-17500.0,-25196.596152395428,470.22823565437284,-78817.647444645641,107916.81233864441,18003.657828085441,-38509.683828286652,109937.68847612169,2323.5070973387119,-49479.580540857889,49479.580540857889,-2323.5070973387119,195575.47717794459,0.0
628296.95196600363,3655566.251970998,-17500.0,-58239.828054654259,-34401.454573202922,-66997.360483627752,96614.083988586921,41046.730295765861,-31972.739503459456,111471.96137910624,-44030.924287771195,-33484.552813048838,33484.552813048838,44030.924287771195,193918.57905842934,0.0
633296.95196600363,3655566.251970998,-17500.0,-74486.630155172723,-36916.992560506595,-36862.13377175296,74679.224815384674,28774.152433970903,-18601.851905437379,89781.873366329834,-62649.561612302066,-6131.1699817633707,6131.1699817633707,62649.561612302066,160435.29210270636,0.0
638296.95196600363,3655566.251970998,-17500.0,-70131.023928949566,-26724.580683480861,-17327.633014390747,52623.581993503867,16670.44538237802,-11705.47726353412,65457.336558689567,-57601.771584937393,7888.6910267106905,-7888.6910267106905,57601.771584937393,120003.00265661214,0.0
643296.95196600363,3655566.251970998,-17500.0,-58913.390656255768,-17481.772530870658,-7776.8691226990468,37065.187278968566,9694.9683913018907,-8854.7759684643843,47354.512035349711,-46637.2674262363,12155.57109830359,-12155.57109830359,46637.2674262363,88776.595924566616,0.0
648296.95196600363,3655566.251970998,-17500.0,-47953.30919213203,-11315.543958682998,-3415.1552847433227,26904.398770675172,5890.4830512405542,-7183.4755436162204,35101.287426569492,-36694.693986541315,12356.10060524178,-12356.10060524178,36694.693986541315,67005.756170628432,0.0
653296.95196600363,3655566.251970998,-17500.0,-38940.38340883347,-7436.9749946981974,-1442.2996566664006,20085.593083616255,3715.1532144399948,-5785.7995747288687,26761.474143495136,-28941.557674629817,11203.730153046907,-11203.730153046907,28941.557674629817,51766.064008335998,0.0
658296.95196600363,3655566.251970998,-17500.0,-31807.223598189656,-4982.4551811267947,-555.92661841219717,15291.98929113968,2403.4074149358585,-4553.4077501253942,20881.358979548073,-23059.290536316483,9728.085741941446,-9728.085741941446,23059.290536316483,40755.802510093388,0.0
663296.95196600363,3655566.251970998,-17500.0,-26171.533035692199,-3395.3529376395436,-169.3974170653081,11801.051488762358,1582.3698206453905,-3519.4535518020216,16585.513428821945,-18573.597795492853,8293.0313988794969,-8293.0313988794969,18573.597795492853,32559.433580338209,0.0
668296.95196600363,3655566.251970998,-17500.0,-21688.654562515992,-2346.340751389595,-14.272795444136209,9202.6356738471713,1055.8803499994524,-2693.6360641912347,13359.37559222552,-15112.026260188992,7016.2050367584816,-7016.2050367584816,15112.026260188992,26321.291284306852,0.0
673296.95196600363,3655566.251970998,-17500.0,-18095.80410566986,-1639.7006247810291,34.93837066200328,7242.1242468990322,712.45262218543917,-2055.0728593567251,10887.151870528947,-12409.300600585797,5923.0131499261406,-5923.0131499261406,12409.300600585797,21497.260889620917,0.0
678296.95196600363,3655566.251970998,-17500.0,-15196.540664549526,-1156.0204035616077,37.696453689968344,5748.5229507426202,485.34341637322257,-1570.184919574554,8963.5204773196874,-10277.125839817474,5004.2475834043635,-5004.2475834043635,10277.125839817474,17720.744610438109,0.0
683296.95196600363,3655566.251970998,-17500.0,-12842.333522028466,-820.40836126952343,22.181015660274063,4601.2846469214328,333.3297746452223,-1205.0491098714426,7448.2233393703073,-8579.5109225038559,4238.9245221989677,-4238.9245221989677,8579.5109225038559,14733.706435928749,0.0
688296.95196600363,3655566.251970998,-17500.0,-10919.32804204236,-584.76847357524332,1.4983745470233627,3713.24200119225,230.44265555345046,-930.6304631247466,6241.9132802135873,-7216.4447009449104,3603.6954929566473,-3603.6954929566473,7216.4447009449104,12349.225440933442,0.0
693296.95196600363,3655566.251970998,-17500.0,-9339.3733265939791,-417.59927246697669,-18.557245939100753,3020.5424822001078,160.08195103939457,-723.95995629105289,5272.423732523016,-6113.2996646142892,3076.65572711298,-3076.65572711298,6113.2996646142892,10429.350568359832,0.0
698296.95196600363,3655566.251970998,-17500.0,-8033.7675293120164,-297.9240702654136,-35.719183986638875,2476.0582787221033,111.50384941270772,-567.59441399213142,4486.4005655914534,-5213.7661232312767,2638.6893993172612,-2638.6893993172612,5213.7661232312767,8870.9567787419292,0.0
703296.95196600363,3655566.251970998,-17500.0,-6948.6737205486397,-211.57168391909099,-49.382436697669021,2044.7946310422417,77.673428406323765,-448.56229969997264,3843.8596996957867,-4474.9503320942486,2273.70822723522,-2273.70822723522,4474.9503320942486,7596.1469903573943,0.0
708296.95196600363,3655566.251970998,-17500.0,-6041.7487203860501,-148.84436335664054,-59.682661763353082,1700.6292198041963,53.932412267802647,-357.31486903881137,3314.5285691943591,-3863.9340054532822,1968.45109276121,-1968.45109276121,3863.9340054532822,6545.5979875013372,0.0
713296.95196600363,3655566.251970998,-17500.0,-5279.5302368459725,-103.02673504415866,-67.045983226596036,1423.9434276536451,37.162159752927884,-286.84500887103883,2875.2611082376352,-3355.25717392466,1712.1003134133502,-1712.1003134133502,3355.25717392466,5673.7497304692424,0.0
513296.95196600363,3660566.251970998,-17500.0,-4679.8893184796325,1168.8971691605473,-247.92346334100495,-1301.4553945081452,303.26623607849211,-268.96440828323171,2706.6627819014852,-2099.7408386021552,1516.1547257903621,-1516.1547257903621,2099.7408386021552,5385.6979817539195,0.0
518296.95196600363,3660566.251970998,-17500.0,-5307.4099802955934,1390.1516292816716,-284.05172594675798,-1543.9838889079865,372.78030576679248,-333.14189100224161,3110.6453760099912,-2338.0507169892189,1724.355719332128,-1724.355719332128,2338.0507169892189,6193.2268958846862,0.0
523296.95196600363,3660566.251970998,-17500.0,-6041.5082983649272,1665.2409166525574,-330.16169907511284,-1842.3459081197611,462.03518159915086,-415.45458071378437,3597.2660862781199,-2605.2357374546173,1966.8577745415089,-1966.8577745415089,2605.2357374546173,7161.134298242946,0.0
528296.95196600363,3660566.251970998,-17500.0,-6902.6016471429903,2010.1222093629037,-390.40248603714434,-2211.4561996549705,577.6628679916804,-521.6165209262341,4187.5639958887859,-2902.5973958542163,2249.2006727228827,-2249.2006727228827,2902.5973958542163,8328.621478660074,0.0
533296.95196600363,3660566.251970998,-17500.0,-7914.7672594629257,2446.3068566964644,-471.09273525929041,-2670.5463072436564,728.82204546429625,-659.16290715523462,4907.6002973669156,-3229.5706601978764,2577.1614299573839,-2577.1614299573839,3229.5706601978764,9746.0749450819276,0.0
538296.95196600363,3660566.251970998,-17500.0,-9105.9343460275231,3003.0743391089773,-582.04459918381326,-3244.3835488434488,928.23608762159483,-837.88384380950663,5791.0123731740559,-3582.084056794105,2956.0857169404035,-2956.0857169404035,3582.084056794105,11478.66332022524,0.0
543296.95196600363,3660566.251970998,-17500.0,-10507.654038730863,3720.6942965367707,-738.80868026541202,-3964.7533530025344,1193.6567523421866,-1070.1349362267301,6882.1167065714208,-3949.7825297960344,3389.5096514401166,-3389.5096514401166,3949.7825297960344,13611.259922958301,0.0
548296.95196600363,3660566.251970998,-17500.0,-12154.065760904097,4655.2003776308584,-966.56440369753898,-4872.2329489184704,1549.8999615059877,-1370.6645113342993,8239.8226936348328,-4311.3521915686497,3876.4700905950949,-3876.4700905950949,4311.3521915686497,16255.393445781308,0.0
553296.95196600363,3660566.251970998,-17500.0,-14079.379980067921,5885.6548535168204,-1307.0362191027493,-6018.3684257052137,2031.6234850690039,-1755.1611910995159,9943.577847943965,-4626.5904722942978,4406.3616703286298,-4406.3616703286298,4626.5904722942978,19559.589249025241,0.0
558296.95196600363,3660566.251970998,-17500.0,-16312.641372467842,7525.6487503937042,-1831.1586079324243,-7468.8346041635832,2687.0615587049624,-2235.9892876876397,12103.468396058426,-4822.6827388424917,4949.1120983643959,-4949.1120983643959,4822.6827388424917,23726.192704775614,0.0
563296.95196600363,3660566.251970998,-17500.0,-18866.789227843739,9742.5204634505044,-2663.1265067129639,-9309.7643419584037,3583.2001474106723,-2812.743908026473,14879.420190178249,-4769.2490744715678,5435.9060741782205,-5435.9060741782205,4769.2490744715678,29042.03750047008,0.0
568296.95196600363,3660566.251970998,-17500.0,-21712.448852496975,12791.491823534485,-4028.2114126786064,-11663.974154160251,4814.3459160263219,-3456.1518510717519,18521.382208081559,-4228.6333671701814,5718.9207392180524,-5718.9207392180524,4228.6333671701814,35940.525751663045,0.0
573296.95196600363,3660566.251970998,-17500.0,-24700.246901410472,17078.508552090763,-6353.4439662215827,-14733.062851265235,6522.4298671093929,-4094.2460574920392,23455.978724928013,-2743.1233994909576,5478.005627842409,-5478.005627842409,2743.1233994909576,45133.139400003005,0.0
578296.95196600363,3660566.251970998,-17500.0,-27291.308238048648,23267.094704825529,-10494.136066448225,-18883.068205028711,8959.8014528754484,-4654.0193818293519,30458.475874004784,655.24488748583167,3975.1621721629963,-3975.1621721629963,-655.24488748583167,57870.263607903413,0.0
583296.95196600363,3660566.251970998,-17500.0,-27585.102163770232,32366.23917027752,-18272.838397778825,-24672.46769165896,12679.660710059843,-5333.0102838921748,40910.926090681678,8232.3271745771453,-658.83952997244978,658.83952997244978,-8232.3271745771453,76327.519203658318,0.0
588296.95196600363,3660566.251970998,-17500.0,-19059.837758222769,45118.474428681613,-33732.311222203512,-31860.698143780639,18900.198479499686,-7336.0653522522489,56921.626948443809,25469.358697935651,-13507.402007697452,13507.402007697452,-25469.358697935651,103676.13045989958,0.0
593296.95196600363,3660566.251970998,-17500.0,17690.631549893573,56677.067942851514,-64922.95559684444,-32439.408985410886,28250.473450225338,-12217.658440013685,80847.317538976524,63120.810415434353,-47537.100759242712,47537.100759242712,-63120.810415434353,142957.20715700462,0.0
598296.95196600363,3660566.251970998,-17500.0,112791.60005719381,33917.261426873876,-114139.98371673228,13796.529678968018,20422.584484071082,-409.35886009966117,120962.92846717144,118680.68842034663,-118157.67917266102,118157.67917266102,-118680.68842034663,209515.98591701876,0.0
603296.95196600363,3660566.251970998,-17500.0,172220.24322831907,-60260.92772737542,-99073.794641211964,126294.91970162488,-121671.96368976324,144118.07678849989,236658.01759515351,90285.047525910792,-137279.19385880395,137279.19385880395,-90285.047525910792,412218.14035678544,0.0
608296.95196600363,3660566.251970998,-17500.0,117098.23882791345,1185.7090666820181,-3312.7179247144963,18834.5898286765,-270710.7557496301,258530.73124880879,301292.79325868061,74775.109278535208,-41624.982642868614,41624.982642868614,-74775.109278535208,521970.64383200969,0.0
613296.95196600363,3660566.251970998,-17500.0,135223.35122252649,19941.417429527406,-25728.39282316577,-6378.2285222793598,-123327.5436170508,74406.80060069832,137878.1495712382,103548.67014069721,-62161.275447931075,62161.275447931075,-103548.67014069721,258378.91105864447,0.0
618296.95196600363,3660566.251970998,-17500.0,54123.475954049398,-1208.7480948112925,-27793.59955963109,37511.399483801899,-40480.257138106084,4946.0767783239535,68894.876407998367,39324.022101872411,-38753.372575310292,38753.372575310292,-39324.022101872411,119339.8813139605,0.0
623296.95196600363,3660566.251970998,-17500.0,10644.674646331789,-8418.2021118198081,-49792.33163533343,42625.048880157665,4148.551239274856,-8013.0650256967056,50287.676505949741,12329.409792740378,-41125.627421337922,41125.627421337922,-12329.409792740378,92671.67440403605,0.0
628296.95196600363,3660566.251970998,-17500.0,-13855.485487957274,-26031.508523166896,-55879.156900326016,44199.087504107214,23832.418658349932,-10669.565633503178,61723.791522022562,-13250.207375496209,-39295.440672397912,39295.440672397912,13250.207375496209,107273.35152444144,0.0
633296.95196600363,3660566.251970998,-17500.0,-31928.616325450526,-33472.655344712424,-41914.23811503157,41088.376423772606,23854.100473022711,-9651.0378412074497,58462.718815555301,-32616.361886201485,-23762.529199872544,23762.529199872544,32616.361886201485,104649.57212435864,0.0
638296.95196600363,3660566.251970998,-17500.0,-39581.63252763544,-30168.183529670172,-26011.672844037046,34368.691369681655,18063.623537158594,-8392.3981487995952,48552.828963146865,-38808.010785987441,-9132.7716508768317,9132.7716508768317,38808.010785987441,89367.430933079799,0.0
643296.95196600363,3660566.251970998,-17500.0,-39559.430810646634,-23572.916440226156,-15043.975021398974,27461.828595105359,12678.13204818584,-7374.6995213776181,38528.686353404242,-36913.563399362887,-352.64207773197268,352.64207773197268,36913.563399362887,72522.751590479005,0.0
648296.95196600363,3660566.251970998,-17500.0,-36087.318257441111,-17479.350096124381,-8571.5079375168116,21688.370100729571,8764.1737117291614,-6331.7257973379374,30373.542630299999,-32178.689174481508,3907.1290025565741,-3907.1290025565741,32178.689174481508,58154.426460072958,0.0
653296.95196600363,3660566.251970998,-17500.0,-31620.090375377316,-12767.341489705168,-4926.0385294864118,17117.128747305876,6066.3121254407697,-5235.5706742836819,24107.367823898494,-27095.8937642694,5602.3882826470253,-5602.3882826470253,27095.8937642694,46720.54463710983,0.0
658296.95196600363,3660566.251970998,-17500.0,-27205.249691024688,-9323.4370378520543,-2885.5690640363255,13532.757840106187,4221.9951824802947,-4191.78288419412,19319.812926688199,-22521.062672465101,5996.2898361915886,-5996.2898361915886,22521.062672465101,37749.809618616513,0.0
663296.95196600363,3660566.251970998,-17500.0,-23218.147035143171,-6846.6954588387071,-1734.2162663341853,10726.018529257917,2959.4499487875946,-3284.2777886346698,15630.850020679176,-18651.749217178007,5774.3405737858266,-5774.3405737858266,18651.749217178007,30703.578393336058,0.0
668296.95196600363,3660566.251970998,-17500.0,-19757.381390274913,-5067.8861832812336,-1076.3292583401658,8530.4847364356847,2091.8133889237974,-2542.3942681202307,12758.822537733322,-15461.117588232155,5290.0597603058559,-5290.0597603058559,15461.117588232155,25144.152180387111,0.0
673296.95196600363,3660566.251970998,-17500.0,-16812.465375101889,-3784.5452339749459,-695.1562777676487,6814.3419549301379,1492.270915463944,-1958.3962257514124,10501.654939954828,-12857.831165760919,4721.4447936300312,-4721.4447936300312,12857.831165760919,20735.431829962665,0.0
678296.95196600363,3660566.251970998,-17500.0,-14332.237206156269,-2852.1000691159206,-471.06665678535069,5472.3333883702726,1075.0529940487056,-1508.467669528646,8712.6622325894859,-10741.426789172465,4155.0761639592802,-4155.0761639592802,10741.426789172465,17220.296073746013,0.0
683296.95196600363,3660566.251970998,-17500.0,-12253.818277644767,-2168.9959159879127,-337.22453999286046,4420.8466043651097,782.2899259251451,-1165.57572443711,7283.5798029238304,-9020.6048150559,3630.072889128875,-3630.072889128875,9020.6048150559,14401.439649882172,0.0
688296.95196600363,3660566.251970998,-17500.0,-10515.11479243822,-1664.137831895127,-255.80531364012768,3594.2113177264687,574.96034518072759,-905.29409362818581,6133.4136034440317,-7618.1221816632606,3161.1561504794736,-3161.1561504794736,7618.1221816632606,12127.111264263474,0.0
693296.95196600363,3660566.251970998,-17500.0,-9059.9814457380344,-1287.6491408047248,-205.13975269308986,2941.4205853851136,426.70381806189732,-707.63211557989575,5200.9640356071741,-6470.8206042941192,2750.8479476104885,-2750.8479476104885,6470.8206042941192,10280.439884226396,0.0
698296.95196600363,3660566.251970998,-17500.0,-7839.8988954795759,-1004.367030618432,-172.67714464634631,2423.1775283030297,319.63759118484961,-557.03432369968664,4439.6261657378109,-5527.9688483914579,2395.9198801285302,-2395.9198801285302,5527.9688483914579,8771.2712910334158,0.0
703296.95196600363,3660566.251970998,-17500.0,-6814.0083396095733,-789.34086481047871,-151.0786708669925,2009.3503489284922,241.55529277835231,-441.71727340940032,3813.6750282637768,-4749.1935597316888,2090.7691711908737,-2090.7691711908737,4749.1935597316888,7529.8929843219112,0.0
708296.95196600363,3660566.251970998,-17500.0,-5948.4211658738222,-624.73414153797773,-136.01897612406526,1676.8748143918679,184.06195191949874,-352.87718541004205,3295.5580503642636,-4102.4980545155749,1829.141665603139,-1829.141665603139,4102.4980545155749,6502.2166717583004,0.0
713296.95196600363,3660566.251970998,-17500.0,-5215.2821929985639,-497.69453536240093,-124.93278895408746,1408.0877329937771,141.3350849254827,-283.97651490817123,2863.9016641649132,-3562.5529399131865,1604.9713726009431,-1604.9713726009431,3562.5529399131865,5646.106923190353,0.0
513296.95196600363,3665566.251970998,-17500.0,-4174.257934859882,1441.9487748869788,-398.06950060926107,-1179.7514857715573,379.96281290990004,-247.06014626696742,2543.9078804986298,-1569.35541986731,1265.6399835563084,-1265.6399835563084,1569.35541986731,5069.4030638445047,0.0
518296.95196600363,3665566.251970998,-17500.0,-4682.3933089385146,1710.1334954894223,-472.87651031237192,-1387.5534343555762,466.46159024519574,-303.82354556935906,2916.4270502995278,-1693.2865719333636,1410.4073354132929,-1410.4073354132929,1693.2865719333636,5801.9466078231089,0.0
523296.95196600363,3665566.251970998,-17500.0,-5262.0121774604158,2041.0526205079157,-569.71168397259419,-1639.2098011971552,577.00884180290177,-375.78657872229019,3361.4270916705732,-1815.5498484573432,1569.7981869646774,-1569.7981869646774,1815.5498484573432,6672.5390265867572,0.0
528296.95196600363,3665566.251970998,-17500.0,-5921.1542395670922,2452.0316212936227,-697.10326212487337,-1944.7850569732664,719.36375663932279,-467.34616733349378,3895.0880397215105,-1927.8136894608231,1742.123387837458,-1742.123387837458,1927.8136894608231,7712.3379286174259,0.0
533296.95196600363,3665566.251970998,-17500.0,-6666.4107626073965,2965.7095726246234,-867.54404756807469,-2316.408820594404,904.03277693863652,-584.07613743910599,4538.1706873526919,-2016.4387808347944,1922.8689827453788,-1922.8689827453788,2016.4387808347944,8960.2665657270081,0.0
538296.95196600363,3665566.251970998,-17500.0,-7500.6815409384599,3611.6913885498016,-1099.609261857762,-2768.3163104820219,1145.2434239074194,-732.83752260414497,5316.995705002515,-2059.506730373671,2102.5647357054554,-2102.5647357054554,2059.506730373671,10464.912679360668,0.0
543296.95196600363,3665566.251970998,-17500.0,-8419.1722189368629,4428.6025131439837,-1421.3435704555613,-3316.4605489193164,1462.1800027552179,-921.62273202238828,6264.835518842533,-2022.1962064592722,2263.1718546906163,-2263.1718546906163,2022.1962064592722,12286.760800412887,0.0
548296.95196600363,3665566.251970998,-17500.0,-9402.3795996965328,5466.4816504641349,-1875.7552064922329,-3977.2538736964175,1880.4227918902354,-1158.7505348276648,7423.7151949754807,-1849.5767398823955,2371.9458935077892,-2371.9458935077892,1849.5767398823955,14500.747393435369,0.0
553296.95196600363,3665566.251970998,-17500.0,-10403.843447576188,6789.1777633965694,-2529.8611548090485,-4764.6771513634349,2433.3181205032224,-1450.6686186251536,8846.763666444107,-1455.3253557363398,2370.930203048968,-2370.930203048968,1455.3253557363398,17199.132449145272,0.0
558296.95196600363,3665566.251970998,-17500.0,-11328.565136367324,8475.732980827961,-3489.7977032768335,-5684.5434089194132,3162.5206470993849,-1797.0841096381755,10601.573810266507,-703.90696946913522,2158.7426524368775,-2158.7426524368775,703.90696946913522,20494.906754900716,0.0
563296.95196600363,3665566.251970998,-17500.0,-11993.809943415983,10617.92616825038,-4926.4036325940269,-6724.0291437218748,4115.9493618770139,-2181.6863161722522,12775.877368798234,618.09141389760896,1558.3242035702924,-1558.3242035702924,-618.09141389760896,24526.753294342332,0.0
568296.95196600363,3665566.251970998,-17500.0,-12053.65382147132,13305.839782838219,-7118.8077807920035,-7832.9841177373437,5339.4299389865582,-2557.6391285443151,15488.883391824666,2849.4581661016991,257.96365102740447,-257.96365102740447,-2849.4581661016991,29468.579941180866,0.0
573296.95196600363,3665566.251970998,-17500.0,-10841.531293256787,16575.827694287349,-10527.060449678485,-8886.2305152709014,6853.8767061963126,-2833.1478951859986,18915.487254769963,6534.8738580917097,-2300.6719977500079,2300.6719977500079,-6534.8738580917097,35550.120122919339,0.0
578296.95196600363,3665566.251970998,-17500.0,-7020.0821518410849,20233.304168321898,-15897.022065115067,-9579.5260901120018,8593.7889031985596,-2879.3503204708841,23335.799948694294,12550.601637516707,-7136.5695990540498,7136.5695990540498,-12550.601637516707,43101.323949066536,0.0
583296.95196600363,3665566.251970998,-17500.0,2166.0100708649006,23248.074652439311,-24302.0635228668,-9057.9142465759724,10195.712160070967,-2587.7628723967659,29243.262329506084,22182.075293392118,-16076.745667607618,16076.745667607618,-22182.075293392118,52694.858011321659,0.0
588296.95196600363,3665566.251970998,-17500.0,21930.020335411347,21824.848253736789,-36402.452499121333,-4624.4914040015628,10051.946440831593,-1764.8848458259708,37809.258407940993,36333.677457942547,-31770.581234790639,31770.581234790639,-36333.677457942547,66167.954129011501,0.0
593296.95196600363,3665566.251970998,-17500.0,57744.166618097377,5019.7717208092172,-47353.150135682721,11194.819585207817,1117.0802807611562,1773.7798248436416,53872.726241472206,50111.22878339715,-53682.069365765885,53682.069365765885,-50111.22878339715,93547.328145024032,0.0
598296.95196600363,3665566.251970998,-17500.0,94616.224905898751,-42108.982457343336,-28884.263693189056,47280.713979154069,-40639.2101818187,19643.045466612421,95009.271480622716,37898.357841455749,-57604.314117141905,57604.314117141905,-37898.357841455749,169099.54817618613,0.0
603296.95196600363,3665566.251970998,-17500.0,74207.675176426696,-77017.053934428608,65119.803649928428,69240.671872531457,-140223.62544541154,66757.432085878143,168730.12998864599,-19109.77886400056,14611.952538569654,-14611.952538569654,19109.77886400056,302053.10094816465,0.0
608296.95196600363,3665566.251970998,-17500.0,38956.358381052749,-5175.5872004063713,134382.58952314776,12839.341303103394,-195276.57717536675,88834.448676943604,197037.88218181999,-9353.0166685844088,85229.734457508544,-85229.734457508544,9353.0166685844088,349010.0890403146,0.0
613296.95196600363,3665566.251970998,-17500.0,62379.112053266756,46257.273664266511,72508.887286832818,-23662.345126353346,-124161.77004227422,47598.839624607514,134557.0470089516,53203.717032774039,37440.616753022688,-37440.616753022688,-53203.717032774039,234132.76338056879,0.0
618296.95196600363,3665566.251970998,-17500.0,56340.106554172911,30645.81008583009,7622.9736334867666,-9566.8583433769363,-49588.9349215775,14361.993001760296,64475.989498857118,53752.508013110477,-9971.6659173368389,9971.6659173368389,-53752.508013110477,112070.18552159569,0.0
623296.95196600363,3665566.251970998,-17500.0,33472.097028973461,8934.3058911481148,-27024.217789193826,5322.9405570116778,-8949.4913605939928,1864.6391987744985,33200.952543800027,32928.872952469479,-30149.174131453059,30149.174131453059,-32928.872952469479,57545.178062103842,0.0
628296.95196600363,3665566.251970998,-17500.0,13199.743985711875,-9378.0752525779517,-40198.876019427764,14155.84524178225,10087.98822612892,-2889.3575108540417,33588.386029661589,11130.605048165915,-35029.547248193761,35029.547248193761,-11130.605048165915,58493.138551366123,0.0
633296.95196600363,3665566.251970998,-17500.0,-3516.0835337546137,-20493.161848227515,-37487.059126648572,18412.974545174049,15843.657348832105,-4889.5145824643123,35751.505775010832,-7274.2612534395739,-28631.896976193806,28631.896976193806,7274.2612534395739,64337.726723303982,0.0
638296.95196600363,3665566.251970998,-17500.0,-14930.53329878464,-23566.056413002079,-28448.281220614925,19098.987581900517,15162.140760945958,-5618.5489628239657,33453.15209061405,-18480.859934702294,-18483.582273879521,18483.582273879521,18480.859934702294,62011.145610803294,0.0
643296.95196600363,3665566.251970998,-17500.0,-20842.323390768357,-21804.75012275904,-19585.794455708055,17744.205862116767,12432.137600803469,-5600.8342537086755,29151.481404737802,-23014.512975311045,-9786.2525040242181,9786.2525040242181,23014.512975311045,55220.616881025329,0.0
648296.95196600363,3665566.251970998,-17500.0,-22772.310685504872,-18284.721800774361,-12944.890045156117,15561.554877708637,9556.8665495087807,-5111.4575523285703,24592.886562226635,-23395.55425809513,-3868.9264886246256,3868.9264886246256,23395.55425809513,47311.769324272194,0.0
653296.95196600363,3665566.251970998,-17500.0,-22375.732144941478,-14629.82949951318,-8458.6425711610955,13213.443884082244,7132.4888593815967,-4385.6447065668362,20476.162825000192,-21746.408957867803,-303.38879305159571,303.38879305159571,21746.408957867803,39817.79995555315,0.0
658296.95196600363,3665566.251970998,-17500.0,-20814.115770287208,-11450.185494665126,-5549.4022800979583,11007.677311962443,5252.3887328589863,-3608.2339353413754,16978.793911844034,-19326.639490452679,1658.942593866399,-1658.942593866399,19326.639490452679,33256.591471495893,0.0
663296.95196600363,3665566.251970998,-17500.0,-18778.529155107099,-8879.5296744647403,-3686.9568666010778,9068.5429624557109,3850.1629072298256,-2890.131140866632,14083.576792953416,-16776.362956381439,2625.6475767796092,-2625.6475767796092,16776.362956381439,27715.350579761714,0.0
668296.95196600363,3665566.251970998,-17500.0,-16647.035499508143,-6871.0937722821163,-2493.9107213755829,7427.7072485941935,2824.3460811088912,-2278.9534318408369,11714.114519766925,-14386.289449585951,3006.4275153933331,-3006.4275153933331,14386.289449585951,23118.792163844373,0.0
673296.95196600363,3665566.251970998,-17500.0,-14611.617681778276,-5326.8401124562897,-1723.8079783687515,6071.2578585568581,2080.3445456846621,-1783.0090640947369,9783.6680673452975,-12267.362748114369,3057.7473112301159,-3057.7473112301159,12267.362748114369,19339.748302016251,0.0
678296.95196600363,3665566.251970998,-17500.0,-12758.753381714952,-4147.1116324611448,-1220.8847026807189,4965.4968487004198,1541.8761111155529,-1391.5599856015913,8211.8501573902086,-10443.012410025172,2934.0965731958818,-2934.0965731958818,10443.012410025172,16244.33876990604,0.0
683296.95196600363,3665566.251970998,-17500.0,-11117.269786459183,-3246.7515810369609,-887.741113201806,4071.0624300834693,1151.3590524627914,-1087.2740130706809,6929.7595626984594,-8897.0183667574474,2726.0877559309606,-2726.0877559309606,8897.0183667574474,13709.983995378403,0.0
688296.95196600363,3665566.251970998,-17500.0,-9685.9885347423406,-2558.0408104986791,-663.48563904924356,3350.0630882377391,866.79547374098411,-852.47736077240893,5880.5890460588307,-7597.6705483050628,2485.499096972922,-2485.499096972922,7597.6705483050628,11631.4052309729,0.0
693296.95196600363,3665566.251970998,-17500.0,-8449.3860913457102,-2028.979811110313,-509.85274703891929,2769.1458450942628,658.10053886987475,-671.70527923350051,5018.4484403262686,-6509.5608757829214,2240.9336720052929,-2240.9336720052929,6509.5608757829214,9921.2612456778043,0.0
698296.95196600363,3665566.251970998,-17500.0,-7386.2250878657069,-1620.3376520337772,-402.59794927891772,2300.3577759332679,503.90310211781525,-532.37402038207654,4306.6451998544726,-5598.9745309419486,2007.369907971482,-2007.369907971482,5598.9745309419486,8508.5108666557262,0.0
703296.95196600363,3665566.251970998,-17500.0,-6474.1279937439313,-1302.7610737379687,-326.20846593644455,1920.9342546745982,389.0582927906587,-424.63307547448392,3715.983204317648,-4836.0351566321988,1791.9036304132278,-1791.9036304132278,4836.0351566321988,7336.0151914250137,0.0
708296.95196600363,3665566.251970998,-17500.0,-5691.8419515144251,-1054.3459884943882,-270.64951119722974,1612.646238898267,302.81712838317435,-340.93298642567902,3223.2699571051189,-4195.2520877983625,1597.1668321586412,-1597.1668321586412,4195.2520877983625,6358.0784599470189,0.0
713296.95196600363,3665566.251970998,-17500.0,-5020.2290798709264,-858.73651663398505,-229.35572972232248,1361.0359723316501,237.52018082554505,-275.55174824018826,2810.0771659533029,-3655.3378211815989,1423.3449459849264,-1423.3449459849264,3655.3378211815989,5538.2372405968026,0.0
513296.95196600363,3670566.251970998,-17500.0,-3594.7173898677165,1629.0049807731616,-566.18044995008893,-1039.2545015359105,435.97777774164433,-221.6303317847705,2370.7425460618911,-1045.4576009624777,967.72970308853451,-967.72970308853451,1045.4576009624777,4701.6576702247175,0.0
518296.95196600363,3670566.251970998,-17500.0,-3969.8174960610022,1918.6039468871497,-681.71381226786377,-1207.7630478670324,532.37979572071004,-269.91623517080251,2704.8112008462567,-1062.8543700997141,1040.1959158442689,-1040.1959158442689,1062.8543700997141,5348.3379666204573,0.0
523296.95196600363,3670566.251970998,-17500.0,-4379.1699861015977,2270.8051914202538,-830.81189818077758,-1407.0190550569662,654.29371380527459,-330.12764726644639,3099.2395663366196,-1052.7807670641648,1106.2824692498914,-1106.2824692498914,1052.7807670641648,6108.2906085297072,0.0
528296.95196600363,3670566.251970998,-17500.0,-4818.6819263125044,2700.6015735118749,-1025.5918165865735,-1642.0470684099748,809.29986959236749,-405.24702723252506,3566.7172071074669,-1000.0467825156177,1157.3320955303432,-1157.3320955303432,1000.0467825156177,7004.2119514796823,0.0
533296.95196600363,3670566.251970998,-17500.0,-5278.4054560636359,3226.3522190675039,-1283.2274067215224,-1917.7735869308938,1007.2784437324069,-498.78083605405305,4122.7395239605812,-882.4376065762184,1179.3676315138118,-1179.3676315138118,882.4376065762184,8063.2654609933397,0.0
538296.95196600363,3670566.251970998,-17500.0,-5738.6120321597264,3870.0154661196816,-1628.2640033200748,-2238.067951467111,1260.9497819935218,-614.57320429340155,4786.1165772664363,-667.58229105413943,1150.0961659407892,-1150.0961659407892,667.58229105413943,9317.5661296363942,0.0
543296.95196600363,3670566.251970998,-17500.0,-6163.5125287618685,4656.7403180617184,-2096.0236568388709,-2603.8805928377155,1586.3043114264551,-756.25132782983519,5579.4824441051378,-308.52746097257256,1034.2506142685272,-1034.2506142685272,308.52746097257256,10804.365893293148,0.0
548296.95196600363,3670566.251970998,-17500.0,-6491.262457302907,5612.9390488153167,-2737.5489406949455,-3009.8121850296552,2002.5457238150891,-925.9377052367372,6529.7435444389394,262.35694500477723,776.38661049112068,-776.38661049112068,-262.35694500477723,12565.639681572073,0.0
553296.95196600363,3670566.251970998,-17500.0,-6618.1443286933109,6761.0375843952625,-3626.574966628747,-3438.0349709909674,2530.6855712710412,-1121.610516816766,7668.4411849164117,1141.3783796418961,289.87037345313558,-289.87037345313558,-1141.3783796418961,14646.718351357376,0.0
558296.95196600363,3670566.251970998,-17500.0,-6373.65807738068,8107.1799540355569,-4868.7134770949897,-3847.8707037033155,3188.9096507087534,-1332.1893582548994,9032.215498909145,2463.0569461979621,-559.58074636400761,559.58074636400761,-2463.0569461979621,17093.829165206036,0.0
563296.95196600363,3670566.251970998,-17500.0,-5481.5072937980849,9614.1259146930843,-6611.5425358177299,-4158.3831572306335,3980.7529195531897,-1529.3578135296782,10664.382208132351,4408.9124837723284,-1977.3716006768377,1977.3716006768377,-4408.9124837723284,19951.752242205595,0.0
568296.95196600363,3670566.251970998,-17500.0,-3499.2502547074369,11142.776566207294,-9048.8710115259764,-4219.5271762564271,4867.7685017111489,-1656.1914662686734,12621.331684077377,7207.5733077375771,-4269.7954911142151,4269.7954911142151,-7207.5733077375771,23268.145213918899,0.0
573296.95196600363,3670566.251970998,-17500.0,270.38957985136238,12326.206965330595,-12394.14141898263,-3762.3753653331619,5708.4681824407598,-1616.535276278345,14995.991475383069,11101.097677807764,-7867.9570587483176,7867.9570587483176,-11101.097677807764,27130.908187812071,0.0
578296.95196600363,3670566.251970998,-17500.0,6880.5401211124736,12300.183252755016,-16737.491718543355,-2304.085945161748,6118.9787991592666,-1275.300269615233,17998.980035872664,16198.029975205398,-13285.859341415151,13285.859341415151,-16198.029975205398,31840.853119011852,0.0
583296.95196600363,3670566.251970998,-17500.0,17692.89338886732,9169.5166732112139,-21511.79616479895,1043.6308919132503,5133.4378898810246,-467.92269619476644,22233.462379025033,21971.130625734288,-20769.758403205858,20769.758403205858,-21971.130625734288,38592.71855289636,0.0
588296.95196600363,3670566.251970998,-17500.0,33428.982700484165,-698.07060738635369,-23818.45744710054,7838.1917780028498,356.09264082492643,1097.4912372687245,29535.31245063027,25820.258396189813,-28824.684335417849,28824.684335417849,-25820.258396189813,51554.376011510278,1.0
593296.95196600363,3670566.251970998,-17500.0,50304.323561562087,-21632.714709718519,-14593.338458881701,19735.868400337509,-13672.359674008538,4424.3245306643275,44574.755048812098,20475.70706345814,-29982.36102928513,29982.36102928513,-20475.70706345814,80451.308100231254,0.0
598296.95196600363,3670566.251970998,-17500.0,53874.096923294434,-48650.995770679336,22963.932381136914,33509.35565757838,-44984.162233736744,11914.181956749175,73147.715189891736,-3596.5820623423433,-6489.2755876815345,6489.2755876815345,3596.5820623423433,134011.93355085861,0.0
603296.95196600363,3670566.251970998,-17500.0,32133.608331235147,-50344.95144887107,88245.002291991768,32968.941801230365,-88915.302773832664,23273.491040143512,107304.11753636471,-33034.684143706414,48656.948168677292,-48656.948168677292,33034.684143706414,195720.80299299656,0.0
608296.95196600363,3670566.251970998,-17500.0,14593.978286761158,-6086.3535887476528,122678.82627905731,8768.5106857062892,-108654.48733458003,27955.312802873304,118939.37511708771,-22553.764727985323,84699.312377864146,-84699.312377864146,22553.764727985323,214885.7512917039,0.0
613296.95196600363,3670566.251970998,-17500.0,25265.058300034591,33543.972542447278,88488.032446297118,-12306.738091382143,-83793.507338142343,20411.784291071468,95773.111355842775,17992.815427390877,60274.694987095674,-60274.694987095674,-17992.815427390877,170943.13221336342,0.0
618296.95196600363,3670566.251970998,-17500.0,35341.700980393471,36306.060782033892,33807.324246687051,-14234.262721486548,-44950.624018934046,10641.277336319965,59998.147991365717,38449.84434506236,16960.293575629577,-16960.293575629577,-38449.84434506236,105822.84317707266,0.0
623296.95196600363,3670566.251970998,-17500.0,32169.675926988002,21438.710500632871,-4648.3490098691773,-7520.4459191305687,-15866.33604851253,4215.8020130995756,33443.08487596114,35323.053281723303,-11887.322759220351,11887.322759220351,-35323.053281723303,58408.284543135051,0.0
628296.95196600363,3670566.251970998,-17500.0,22226.838832187907,4879.3025727062159,-23677.933856862215,-218.22491750875164,942.17942585040737,315.45984935594089,23484.367399660696,22463.44951154296,-24352.886253940043,24352.886253940043,-22463.44951154296,40690.890459604409,0.0
633296.95196600363,3670566.251970998,-17500.0,10637.001970149457,-7453.8785316074218,-28571.036441722856,5301.7383178220334,8667.7209908382229,-2078.0197620582858,22958.258199141364,8175.7273113891752,-25404.323448755338,25404.323448755338,-8175.7273113891752,40948.813876131921,1.0
638296.95196600363,3670566.251970998,-17500.0,409.56023628768605,-14092.034684780425,-25802.136673668971,8567.1527535184287,10879.533995971176,-3380.860001435392,22770.984503943961,-3228.0941832002845,-20655.812051097935,20655.812051097935,3228.0941832002845,42108.246431446241,0.0
643296.95196600363,3670566.251970998,-17500.0,-6977.3415637961443,-16158.858391881184,-20437.498709862128,9918.9474610448888,10361.595441946605,-3865.0105765446629,21323.417274044052,-10422.767385786514,-14453.530871291428,14453.530871291428,10422.767385786514,40414.42253514444,0.0
648296.95196600363,3670566.251970998,-17500.0,-11438.977798325042,-15529.92461018846,-15153.919920869754,9975.8146905784251,8809.4405137909707,-3797.3833085599026,19113.677987214713,-13989.815149081449,-8999.5920029322406,8999.5920029322406,13989.815149081449,36816.950993911145,0.0
653296.95196600363,3670566.251970998,-17500.0,-13598.477775718722,-13692.144751972044,-10883.562439685138,9297.0975671134147,7072.8016136408623,-3421.3325470335108,16681.844735819461,-15090.373975327369,-4932.4967052885477,4932.4967052885477,15090.373975327369,32482.627416375846,0.0
658296.95196600363,3670566.251970998,-17500.0,-14200.543129021476,-11524.280823134359,-7719.4149118582036,8279.6700664804575,5506.4629262992376,-2920.7280612701502,14340.240490099239,-14749.395735277503,-2166.2908460909239,2166.2908460909239,14749.395735277503,28127.969706091881,0.0
663296.95196600363,3670566.251970998,-17500.0,-13857.367706825135,-9454.9341549163346,-5469.8248159534878,7169.3123792977776,4218.3429124867907,-2410.2418090040501,12230.539456551858,-13675.965793905703,-401.07599010116701,401.07599010116701,13675.965793905703,24106.887356123872,0.0
668296.95196600363,3670566.251970998,-17500.0,-13000.052979018366,-7652.4208730264208,-3899.8353831672152,6101.4647923608854,3207.9561923344545,-1948.216898812756,10397.877528341498,-12303.835670754441,662.44103892074327,-662.44103892074327,12303.835670754441,20557.678131512919,0.0
673296.95196600363,3670566.251970998,-17500.0,-11906.566545895001,-6154.2763719001669,-2810.6357479266908,5140.1399308500304,2435.2975984609707,-1556.3378986594075,8838.5224052115063,-10876.486251619299,1259.7805456084543,-1259.7805456084543,10876.486251619299,17504.248578663213,0.0
678296.95196600363,3670566.251970998,-17500.0,-10744.755229543827,-4940.350762104732,-2053.8555656458325,4307.204393565944,1852.1159703833225,-1236.2487186680016,7526.5451765871876,-9519.0625152259927,1558.6568766724154,-1558.6568766724154,9519.0625152259927,14915.568501427031,0.0
683296.95196600363,3670566.251970998,-17500.0,-9609.5011176934822,-3969.9919849667167,-1524.8083940412178,3601.8987704276174,1414.3987159523977,-980.48394942158745,6428.3672713421956,-8287.6845413810915,1672.3770839988583,-1672.3770839988583,8287.6845413810915,12738.302317655818,0.0
688296.95196600363,3670566.251970998,-17500.0,-8549.851283095144,-3199.3885997806419,-1151.5776678566885,3012.7807962985621,1086.1365486028558,-778.60837193302882,5510.4896584499138,-7200.3270944382139,1675.091975710774,-1675.091975710774,7200.3270944382139,10913.788155651977,0.0
693296.95196600363,3670566.251970998,-17500.0,-7587.2592063808142,-2588.7344714221108,-885.3331224328233,2524.4879692430659,839.40972087084936,-620.22020816702639,4742.8255458696212,-6255.1430855335893,1614.2655972057155,-1614.2655972057155,6255.1430855335893,9386.1839049182272,0.0
698296.95196600363,3670566.251970998,-17500.0,-6727.2879097987661,-2104.5127157598308,-693.03001601142535,2121.2774198445054,653.18612010807453,-496.18419764195158,4099.5746472852543,-5440.9380006506763,1519.7276165711032,-1519.7276165711032,5440.9380006506763,8105.8723373253233,0.0
703296.95196600363,3670566.251970998,-17500.0,-5966.8477990308111,-1719.5970634497919,-552.26636042892915,1788.6796944828889,511.86253713662535,-398.96595084028888,3559.0903027643694,-4742.9238214637353,1409.876290282798,-1409.876290282798,4742.9238214637353,7030.3931486179508,0.0
708296.95196600363,3670566.251970998,-17500.0,-5298.5417715899421,-1412.5069975010122,-447.78067336084007,1514.1209212024712,403.94764209259853,-322.56259876019624,3103.4315074603105,-4145.7349590058702,1295.7952685978278,-1295.7952685978278,4145.7349590058702,6124.1898567942026,0.0
713296.95196600363,3670566.251970998,-17500.0,-4713.2072681795435,-1166.4351206280041,-369.10352534126156,1287.0212796441986,320.99821622199363,-262.28465765894032,2717.845146300705,-3634.9058237611334,1183.9408921755576,-1183.9408921755576,3634.9058237611334,5357.8711631642018,0.0
513296.95196600363,3675566.251970998,-17500.0,-2976.3140847207824,1725.5777740638241,-734.36045563321591,-887.96532156382602,469.9318458172076,-194.04114742728109,2185.0992552481071,-556.96732596193715,646.86943195079334,-646.86943195079334,556.96732596193715,4300.0561487922387,0.0
518296.95196600363,3675566.251970998,-17500.0,-3216.6621173328936,2011.4573229488958,-886.49634053576972,-1015.7470465464013,569.05961808231666,-233.3952668403995,2477.3635894620152,-484.27756925560061,646.75598149310736,-646.75598149310736,484.27756925560061,4856.1962224735544,0.0
523296.95196600363,3675566.251970998,-17500.0,-3456.5964419671809,2351.7580271237321,-1080.7960487651039,-1161.44721606384,692.48525330083419,-281.3671286854501,2818.5645933115002,-365.8952601168121,621.40592682799002,-621.40592682799002,365.8952601168121,5500.9618694287092,0.0
528296.95196600363,3675566.251970998,-17500.0,-3682.2151924534055,2756.3268649546635,-1331.1285031006016,-1325.565905379287,846.50843615589656,-339.59407495781772,3217.8744008680574,-183.4968410633777,557.01943959500898,-557.01943959500898,183.4968410633777,6249.4040039398642,0.0
533296.95196600363,3675566.251970998,-17500.0,-3871.054224061038,3235.4572982346726,-1656.3450178115615,-1506.8168891550661,1038.8089015561707,-409.67188551341485,3686.1084958639558,88.015268122554374,433.30460664373129,-433.30460664373129,-88.015268122554374,7118.5366635714399,0.0
538296.95196600363,3675566.251970998,-17500.0,-3987.7094700513853,3798.4698167799911,-2082.0204538995786,-1700.5681257926894,1278.3674762461799,-492.75323546905503,4235.8969857404863,482.70649536284742,220.5719980641606,-220.5719980641606,-482.70649536284742,8127.0938785691988,0.0
543296.95196600363,3675566.251970998,-17500.0,-3977.4371100665035,4450.7268912806949,-2642.5818333991497,-1896.2440943251986,1574.8708928657834,-588.74009134805738,4881.8306726111077,1046.1226871824326,-124.30524928849815,124.30524928849815,-1046.1226871824326,9294.9704444682957,0.0
548296.95196600363,3675566.251970998,-17500.0,-3757.0041273930515,5187.7421591202365,-3383.5460614420745,-2073.1011244258643,1936.9758753183814,-694.76841855499981,5640.6395138472108,1837.6289558623907,-663.25117310022586,663.25117310022586,-1837.6289558623907,10642.369069324835,0.0
553296.95196600363,3675566.251970998,-17500.0,-3202.0974475106764,5984.0049988165119,-4362.8990023922161,-2193.5593483116613,2368.2034228357152,-802.53845007364191,6531.6886924027503,2931.2189239586546,-1483.4457774735361,1483.4457774735361,-2931.2189239586546,12189.174423410437,0.0
558296.95196600363,3675566.251970998,-17500.0,-2131.1682938106792,6772.381454095007,-5648.9273158394644,-2193.0842712928156,2858.1080441490353,-893.95308117347804,7578.7352618365021,4411.5328901647899,-2703.3967464345287,2703.3967464345287,-4411.5328901647899,13956.654588914413,0.0
563296.95196600363,3675566.251970998,-17500.0,-287.65107868054378,7407.1731673980121,-7307.6613307567441,-1965.6702113072156,3364.3408497834575,-934.75308564155102,8815.680999082957,6357.7619479229415,-4473.6922643725829,4473.6922643725829,-6357.7619479229415,15978.210519909693,0.0
568296.95196600363,3675566.251970998,-17500.0,2671.4197474495854,7600.2320585676016,-9363.2959080481141,-1344.7030309954007,3777.6801840851995,-866.97755842299762,10303.592636298539,8799.6695696682455,-6958.6573479091803,6958.6573479091803,-8799.6695696682455,18338.453981379222,0.0
573296.95196600363,3675566.251970998,-17500.0,7155.4804225502994,6817.8712042823499,-11692.704532494961,-81.319675893245119,3856.1205861243056,-603.90127194302386,12176.724510227485,11613.284888698579,-10263.273328645786,10263.273328645786,-11613.284888698579,21290.626081297727,0.0
578296.95196600363,3675566.251970998,-17500.0,13519.563079065496,4142.2359531055254,-13769.259990401846,2170.3045799498464,3104.8638068488672,-34.638199189005086,14753.733448638008,14296.011051033694,-14219.199223451427,14219.199223451427,-14296.011051033694,25554.717686524855,0.0
583296.95196600363,3675566.251970998,-17500.0,21671.304466721183,-1802.7317088927471,-14105.19853549799,5822.7154558303728,572.74357382704238,958.7670479681783,18756.287150773813,15546.185046578887,-17850.596501103417,17850.596501103417,-15546.185046578887,32869.300152740834,0.0
588296.95196600363,3675566.251970998,-17500.0,30118.39823122897,-12403.758263782498,-9304.1584000917428,11132.942147105699,-5408.6504734814425,2498.7192005115116,25572.097508630042,12749.036723287551,-18308.478662315862,18308.478662315862,-12749.036723287551,46360.474975635494,0.0
593296.95196600363,3675566.251970998,-17500.0,34614.852913185852,-26883.185423302297,6437.9433084637067,17389.595224284094,-17127.634333557555,4766.8151821383899,37132.458732999374,2453.2087181816964,-9812.1549027202236,9812.1549027202236,-2453.2087181816964,69276.235070456358,0.0
598296.95196600363,3675566.251970998,-17500.0,29221.3416338879,-37771.809234758388,37519.455827713209,21328.431753161334,-35498.715201841864,7909.1139202876557,53787.469877236705,-15117.475101630025,13681.827465201815,-13681.827465201815,15117.475101630025,100624.21236101947,0.0
603296.95196600363,3675566.251970998,-17500.0,14894.641053959342,-31210.420557737529,74824.999546658539,17524.062568809411,-54998.213922927367,11212.315355953624,69696.573698332882,-28159.952306682491,46654.32132914332,-46654.32132914332,28159.952306682491,129398.03111266188,0.0
608296.95196600363,3675566.251970998,-17500.0,5688.5214426766679,-4786.3956518352079,91983.611935829642,5444.9755890557626,-63069.003328957064,12614.356691945688,74815.282756176079,-20344.126692945843,65246.657228384815,-65246.657228384815,20344.126692945843,137796.63939216046,0.0
613296.95196600363,3675566.251970998,-17500.0,10342.683350954509,21048.81397298614,75042.304717881387,-6399.8675583206268,-53676.699523097646,11057.050601235087,65232.148842227158,3442.2971175484818,54031.886026092354,-54031.886026092354,-3442.2971175484818,119314.41184266406,0.0
618296.95196600363,3675566.251970998,-17500.0,19484.692749734597,29579.399704900654,40659.892105351442,-11136.810024031818,-34890.444688740965,7894.8888343217241,47536.560368668332,22545.403232047975,26593.936233834618,-26593.936233834618,-22545.403232047975,86470.03351407031,0.0
623296.95196600363,3675566.251970998,-17500.0,23448.087778969526,23717.867599304689,9723.9888527650364,-9730.3138064362902,-16922.790692530303,4618.9234097711587,30927.029796433613,28131.227126772425,1863.7158963639813,-1863.7158963639813,-28131.227126772425,55814.570614106538,0.0
628296.95196600363,3675566.251970998,-17500.0,21158.474744840059,12469.014516065987,-9858.341254318806,-5644.7694160499495,-4112.6772141394376,1816.8231503555746,20912.616331840582,23689.107250518708,-13000.022281143869,13000.022281143869,-23689.107250518708,36728.565019504342,0.0
633296.95196600363,3675566.251970998,-17500.0,15119.120911802893,1826.6433672353794,-18761.901317640499,-1281.0702519715435,3344.8296318753423,-301.14375086293279,17382.017906069108,14893.777355282376,-18681.733828647124,18681.733828647124,-14893.777355282376,30195.212476524885,0.0
638296.95196600363,3675566.251970998,-17500.0,7973.3943881297255,-5677.6142224466139,-20468.498987314331,2194.294228095433,6762.3928560696859,-1674.1896825347117,16479.767170473817,5855.0689519987618,-18355.108566529172,18355.108566529172,-5855.0689519987618,29596.658297632304,0.0
643296.95196600363,3675566.251970998,-17500.0,1542.352547226966,-9776.6503241341597,-18464.614341648983,4444.4571941164604,7660.3886647630616,-2382.5988858897404,15774.689017431236,-1325.39822058759,-15167.709054586892,15167.709054586892,1325.39822058759,29312.293187329447,0.0
648296.95196600363,3675566.251970998,-17500.0,-3340.0693999867153,-11265.521697129403,-15155.903465031099,5592.6786011516833,7237.8610767440041,-2594.9945672804984,14689.844284138431,-6108.3616879313859,-11256.073155230264,11256.073155230264,6108.3616879313859,27941.058494263416,0.0
653296.95196600363,3675566.251970998,-17500.0,-6571.7120983599962,-11133.324501973239,-11818.989663566645,5933.003056579164,6264.9615809765346,-2494.9853133195593,13308.572000261162,-8794.9815134086293,-7701.4681904453455,7701.4681904453455,8794.9815134086293,25705.036280172597,0.0
658296.95196600363,3675566.251970998,-17500.0,-8416.5267323211847,-10166.490486793035,-8968.1862719217625,5762.0506672712727,5166.4799684835207,-2233.4624171893147,11815.830191914403,-9953.5373144498826,-4879.2973876303622,4879.2973876303622,9953.5373144498826,23058.607393142462,0.0
663296.95196600363,3675566.251970998,-17500.0,-9240.1431405218409,-8873.8592320817679,-6717.8253078365942,5312.1772216386798,4143.6666800199027,-1913.3429967108746,10351.902399793704,-10122.855929459431,-2806.3142226704495,2806.3142226704495,10122.855929459431,20346.186451450689,0.0
668296.95196600363,3675566.251970998,-17500.0,-9377.9035842791272,-7541.504876879435,-5013.5012551698328,4741.418081552637,3271.7513450423367,-1594.6637364362532,8997.5279794604739,-9713.8132669592396,-1361.0395560344459,1361.0395560344459,9713.8132669592396,17771.796037176799,0.0
673296.95196600363,3675566.251970998,-17500.0,-9090.7930143456015,-6309.4832468781888,-3750.2088087642414,4146.4062557408324,2562.8221077587132,-1306.8921579293783,7789.2524092712765,-9005.7920835088989,-393.83449526809545,393.83449526809545,9005.7920835088989,15435.392341522611,0.0
678296.95196600363,3675566.251970998,-17500.0,-8564.0201067282414,-5232.8684856341388,-2823.0279824776831,3580.2809951465706,2001.5891051530223,-1060.752287640229,6736.0566313857289,-8174.6575996924976,228.68629146968578,-228.68629146968578,8174.6575996924976,13371.793735105079,0.0
683296.95196600363,3675566.251970998,-17500.0,-7920.9894598781029,-4321.7907448487622,-2144.3219081340776,3068.264413207603,1563.8227845404044,-856.86927667400482,5830.6482570456192,-7324.0495572118034,611.33363705846796,-611.33363705846796,7324.0495572118034,11579.188161584621,0.0
688296.95196600363,3675566.251970998,-17500.0,-7239.75945918463,-3565.0913227041337,-1646.4801089710948,2619.0170675334939,1224.9158176518806,-691.19331246411025,5057.0139052206005,-6510.6738024162423,831.27608249936384,-831.27608249936384,6510.6738024162423,10037.388533094516,0.0
693296.95196600363,3675566.251970998,-17500.0,-6567.1484096974546,-2943.2856152799282,-1279.4163574919837,2232.1271145496353,963.27513031684566,-558.04428682640707,4397.0945637815621,-5762.247350575266,943.20585841508955,-943.20585841508955,5762.247350575266,8718.6336128895018,0.0
698296.95196600363,3675566.251970998,-17500.0,-5929.3753345859677,-2435.1742756690769,-1006.8097844701051,1902.7173280459317,761.22344552445861,-451.65003473832974,3834.3238154230999,-5089.3661878862231,984.95751778367867,-984.95751778367867,5089.3661878862231,7593.5675774815163,0.0
703296.95196600363,3675566.251970998,-17500.0,-5339.5450593581936,-2020.9040038721589,-802.59613199978264,1624.1140201110982,604.82079921420655,-366.82144300597173,3354.1667904826745,-4492.9990072814508,982.26948499123546,-982.26948499123546,4492.9990072814508,6634.2833285801798,0.0
708296.95196600363,3675566.251970998,-17500.0,-4802.6916714490717,-1683.1538193850238,-648.14490494274469,1389.3020712844734,483.30378631346287,-299.17300098675082,2943.9880531464601,-3969.0615797116679,952.42522733239434,-952.42522733239434,3969.0615797116679,5815.6778663000823,0.0
513296.95196600363,3680566.251970998,-17500.0,-2352.9373733892976,1735.3923931045006,-886.26870219778459,-733.73529056075961,482.32968932274974,-165.64948899545905,1992.4469849682307,-126.30822285873582,326.8662503099182,-326.8662503099182,126.30822285873582,3882.6675310845053,0.0
518296.95196600363,3680566.251970998,-17500.0,-2467.3126878968228,1995.8731873209153,-1065.9355194727727,-822.20856104674976,577.71072199870548,-196.18675693115071,2243.4035949224926,14.619427051095556,261.43520482129009,-261.43520482129009,-14.619427051095556,4349.6006787205097,0.0
523296.95196600363,3680566.251970998,-17500.0,-2552.7449153926796,2296.7853836291411,-1291.8617425647244,-917.19663120716814,694.0396363115417,-232.26241769875696,2532.9788047318561,210.77319586479769,156.6521929121717,-156.6521929121717,-210.77319586479769,4882.9396258816842,0.0
528296.95196600363,3680566.251970998,-17500.0,-2589.072760220055,2641.432378265642,-1577.4034425418502,-1015.6774454595327,835.62275361249169,-274.36510376853875,2867.6040845981215,479.95659193450808,-3.7193166544516032,3.7193166544516032,-479.95659193450808,5491.8777147074734,0.0
533296.95196600363,3680566.251970998,-17500.0,-2546.8862791183906,3030.5921860917692,-1939.6642209036402,-1111.8251092622384,1007.0374280620404,-322.52406111056212,3254.7242116630141,844.93615428825137,-242.05337368904082,242.05337368904082,-844.93615428825137,6186.2855948591905,0.0
538296.95196600363,3680566.251970998,-17500.0,-2383.8536307714066,3459.8312180553435,-2400.0902768280939,-1195.3007024585115,1212.4596138480767,-375.79622178337939,3702.9812825520771,1334.0999844543762,-588.82513850615851,588.82513850615851,-1334.0999844543762,6976.5940637033218,0.0
543296.95196600363,3680566.251970998,-17500.0,-2039.9832941920849,3914.8572822646338,-2984.536903340058,-1248.6672378047724,1454.1942462104028,-431.37428265354544,4222.5835336295859,1981.3685606469064,-1084.756462955994,1084.756462955994,-1981.3685606469064,7873.9505250573329,0.0
548296.95196600363,3680566.251970998,-17500.0,-1431.9875442199034,4363.6845997690098,-3721.8576293886422,-1243.6076242862268,1729.7138855866258,-483.10215600708483,4826.1745901526592,2824.23004722931,-1782.523323717757,1782.523323717757,-2824.23004722931,8891.4201766614497,0.0
553296.95196600363,3680566.251970998,-17500.0,-447.6571189068336,4743.8028573015354,-4638.9729876055571,-1135.6712338325078,2025.9973266586942,-519.13505449659772,5530.9602324097741,3897.6767021147898,-2746.4132502511375,2746.4132502511375,-3897.6767021147898,10048.22824206127,0.0
558296.95196600363,3680566.251970998,-17500.0,1057.1055435963747,4941.9946112742891,-5748.2048336142279,-857.60158471133991,2309.1597978890804,-518.53974718566371,6363.78843685641,5219.8810633649346,-4046.1997854461397,4046.1997854461397,-5219.8810633649346,11381.79171874199,0.0
563296.95196600363,3680566.251970998,-17500.0,3252.2527799698096,4764.6168251972995,-7018.5414736216453,-312.27910949245222,2506.2652593470257,-446.99954734579393,7372.6374578665946,6762.3237417827149,-5737.2101274152537,5737.2101274152537,-6762.3237417827149,12977.703752395681,0.0
568296.95196600363,3680566.251970998,-17500.0,6304.9012622794244,3899.252221621864,-8315.3572715162481,631.32930065765663,2475.1123229598247,-252.8339881405785,8650.48405985729,8392.9384674663306,-7810.5151898495797,7810.5151898495797,-8392.9384674663306,15035.519386013206,0.0
573296.95196600363,3680566.251970998,-17500.0,10301.456749331233,1880.6516057155936,-9283.1342019315925,2130.8443935833216,1957.9563210841043,133.43618984973932,10378.214601315824,9778.4712692059638,-10084.201514488081,10084.201514488081,-9778.4712692059638,17987.249515306838,0.0
578296.95196600363,3680566.251970998,-17500.0,15077.167637661109,-1890.7050933065668,-9141.4298895953125,4333.6489831587414,520.77738662213574,790.47766347135951,12882.756614307045,10244.108672607243,-11994.003554593382,11994.003554593382,-10244.108672607243,22639.03370642769,0.0
583296.95196600363,3680566.251970998,-17500.0,19912.275447147164,-7945.7793220896356,-6406.3804663249875,7275.0211532237354,-2496.6203544981609,1783.9772732001554,16670.956209820841,8654.513035408203,-12264.295578300855,12264.295578300855,-8654.513035408203,30184.064783713588,0.0
588296.95196600363,3680566.251970998,-17500.0,23175.058722213096,-16104.125954883762,1239.0562365637259,10656.137426278005,-7921.560435833273,3135.0894592852787,22353.898499780284,3585.6556562723954,-8622.7859032941378,8622.7859032941378,-3585.6556562723954,41834.59728044139,0.0
593296.95196600363,3680566.251970998,-17500.0,22441.924944177114,-24223.561231700616,16154.829958193213,13492.907103331627,-16328.876333450487,4788.901715391733,30353.938315619718,-5596.4598595683437,1713.8332844334991,-1713.8332844334991,5596.4598595683437,57849.680622491585,0.0
598296.95196600363,3680566.251970998,-17500.0,16235.320902693409,-27295.382100499515,37856.809366857327,13959.959964975555,-26958.156192242594,6561.1143870280375,39905.18324659155,-16400.419363038873,19430.743203126582,-19430.743203126582,16400.419363038873,75962.039429284239,0.0
603296.95196600363,3680566.251970998,-17500.0,7231.6399383195439,-19974.889522539364,59162.369848064831,10348.80618344623,-36522.748699167852,8041.5448601152229,47844.545329431581,-22004.163181483731,38926.509784331545,-38926.509784331545,22004.163181483731,90417.991690830939,0.0
608296.95196600363,3680566.251970998,-17500.0,2050.899326099528,-3298.018782621325,68194.734660007991,3251.9398617854204,-40271.401030753172,8656.9139799198601,50265.489665336201,-16272.459320204893,49127.190362085988,-49127.190362085988,16272.459320204893,94400.278506023649,0.0
613296.95196600363,3680566.251970998,-17500.0,4325.7888306391933,13532.885800920865,59234.194914373031,-3970.6485681350496,-36051.542314355349,8091.1428226873268,45733.187306586289,-1718.0886935360031,43602.921142305604,-43602.921142305604,1718.0886935360031,85546.581565166707,0.0
618296.95196600363,3680566.251970998,-17500.0,10654.348602318578,22021.624752757954,38484.269869507923,-8178.0814631957219,-26349.662859304346,6554.1324721835927,36503.368296358924,12523.398379443413,27135.270859283195,-27135.270859283195,-12523.398379443413,68145.712264520014,0.0
623296.95196600363,3680566.251970998,-17500.0,15664.192717271995,21166.702339008265,16432.318423121156,-8763.3386339802582,-15466.985586615556,4531.4860463118139,26516.500319799597,20065.492085644815,9135.1941761639318,-9135.1941761639318,-20065.492085644815,49246.701394783362,0.0
628296.95196600363,3680566.251970998,-17500.0,16893.558197703758,14792.716782074187,-354.5883161970346,-6893.024998354058,-6375.9385907614296,2489.0266621640658,18967.173544713878,20412.232709356016,-4322.6005387101086,4322.6005387101086,-20412.232709356016,34314.868286815741,0.0
633296.95196600363,3680566.251970998,-17500.0,14692.482161074924,6991.4705862023866,-10268.372248147012,-4023.5801271130676,-125.38309064444212,760.70295575293278,14800.104301708143,16121.113436437923,-11727.020736346489,11727.020736346489,-16121.113436437923,25780.736005942585,0.0
638296.95196600363,3680566.251970998,-17500.0,10531.614568837063,293.21842259209131,-14480.530998209399,-1207.0411256092116,3464.2556575582375,-489.2557878342829,12983.020599980922,10046.534920013659,-14158.326448181786,14158.326448181786,-10046.534920013659,22628.375403431393,0.0
643296.95196600363,3680566.251970998,-17500.0,5865.8984102600334,-4340.8814805392403,-14993.025838196594,1018.4950850388554,5072.4224168608644,-1252.0531243241448,12120.110084300923,4184.5188879156021,-13473.347824183173,13473.347824183173,-4184.5188879156021,21774.234850200653,0.0
648296.95196600363,3680566.251970998,-17500.0,1665.8207436308685,-6953.6415268063001,-13581.068862838136,2508.5311261150114,5425.5966559017752,-1615.5845042932447,11395.79510615393,-485.8376730543514,-11308.721906456814,11308.721906456814,485.8376730543514,21105.755456827552,0.0
653296.95196600363,3680566.251970998,-17500.0,-1623.9680740976721,-8020.355392735175,-11444.798685714492,3340.4817265769516,5097.2123573652525,-1700.4881992802657,10559.383301217083,-3729.5304875876536,-8748.4996705012072,8748.4996705012072,3729.5304875876536,20002.563732336243,0.0
658296.95196600363,3680566.251970998,-17500.0,-3931.6470355968013,-8079.5684389764147,-9251.083948094778,3675.8631490631742,4468.413371273482,-1617.7125938235565,9613.0987084101253,-5706.770572467196,-6366.0797590880957,6366.0797590880957,5706.770572467196,18499.564110310796,0.0
663296.95196600363,3680566.251970998,-17500.0,-5380.6316650221916,-7569.5907273498469,-7301.8735725058104,3679.6567194764807,3761.3937367155409,-1450.7115064701234,8624.1790387380788,-6716.0111489666524,-4389.90345785502,4389.90345785502,6716.0111489666524,16782.304692963255,0.0
668296.95196600363,3680566.251970998,-17500.0,-6161.8623494010317,-6792.8149293986544,-5691.6052394269154,3485.9227422841745,3089.7350413807412,-1254.0048898465695,7655.371165705591,-7055.0121714116995,-2858.2649329636292,2858.2649329636292,7055.0121714116995,15017.377124391749,0.0
673296.95196600363,3680566.251970998,-17500.0,-6463.8847011318976,-5935.4344391505756,-4414.0448114125738,3190.5481937642735,2501.4924318066687,-1059.0406939066634,6748.380147289171,-6966.0294619716442,-1723.5419843128461,1723.5419843128461,6966.0294619716442,13316.698160802556,0.0
678296.95196600363,3680566.251970998,-17500.0,-6443.8227081052182,-5100.8736899072928,-3423.2617513832233,2856.13647837896,2009.1038854397832,-881.50400084506657,5925.434782097992,-6625.9769126440378,-910.444692215332,910.444692215332,6625.9769126440378,11743.110081934388,0.0
683296.95196600363,3680566.251970998,-17500.0,-6220.9931166077513,-4339.5870109628086,-2664.1362050621638,2520.3807984833284,1607.7599233456358,-727.44980791701619,5195.2865098516313,-6155.2242879831119,-343.84940290173608,343.84940290173608,6155.2242879831119,10324.639557188888,0.0
688296.95196600363,3680566.251970998,-17500.0,-5880.6560179274347,-3670.7287528656243,-2085.57878208076,2203.9732716161502,1285.7022597150569,-597.6153017767009,4558.1969428496159,-5631.2674849780342,40.374829691443665,-40.374829691443665,5631.2674849780342,9067.40961112273,0.0
693296.95196600363,3680566.251970998,-17500.0,-5481.009130043155,-3096.3206396710552,-1644.9819828793431,1916.7607966034773,1029.5230913341659,-490.13638387076656,4006.6303278615064,-5101.4521328053961,292.89709610375621,-292.89709610375621,5101.4521328053961,7965.0527588851901,0.0
698296.95196600363,3680566.251970998,-17500.0,-5060.2134461995884,-2609.8784861381068,-1308.6782422645451,1662.070846542766,826.61263497933669,-402.11854092670529,3528.6167856008997,-4592.9597280068665,452.00737434558141,-452.00737434558141,4592.9597280068665,7004.8953233731991,0.0
703296.95196600363,3680566.251970998,-17500.0,-4642.2538275110001,-2201.3714345679264,-1050.8484506010082,1439.5546395655761,666.0917694035619,-330.47331122634461,3113.9039690213795,-4119.9933878045131,545.84743839672228,-545.84743839672228,4119.9933878045131,6171.7410887974147,0.0
708296.95196600363,3680566.251970998,-17500.0,-4241.4223297352419,-1859.9126225726923,-852.02077326898541,1246.9701410564278,538.99916984279935,-272.32056138036461,2754.1532002762747,-3688.6969303130554,594.72775274485866,-594.72775274485866,3688.6969303130554,5450.0569585323528,0.0
518296.95196600363,3685566.251970998,-17500.0,-1759.1144015778818,1887.752012594756,-1204.0987095762023,-636.38116799358727,561.69573359363449,-159.98650083112028,2012.8808767046705,417.38078028723555,-89.773840726506478,89.773840726506478,-417.38078028723555,3850.9717774078613,0.0
523296.95196600363,3685566.251970998,-17500.0,-1714.7809989058642,2130.110821055478,-1444.5597313951798,-686.50120202028597,664.35160325203924,-185.16641820184989,2255.5798449042522,659.3274825959038,-255.19539214397156,255.19539214397156,-659.3274825959038,4283.6273294261027,0.0
528296.95196600363,3685566.251970998,-17500.0,-1598.47144555355,2392.7356520789212,-1741.1861171878941,-728.57237354032247,785.26513662200466,-212.82997478809261,2533.1145684347016,972.33944279972275,-483.90136110695994,483.90136110695994,-972.33944279972275,4770.3301717530057,0.0
533296.95196600363,3685566.251970998,-17500.0,-1379.3540224418196,2667.6464954160083,-2106.5110754035463,-754.11198684066756,925.72140619857805,-241.87463922449012,2851.108890407686,1373.2603459242116,-796.33392852117072,796.33392852117072,-1373.2603459242116,5317.4891996421211,0.0
538296.95196600363,3685566.251970998,-17500.0,-1016.1125022774172,2938.8375438792978,-2554.0923205488652,-749.98508299577816,1085.1582438759344,-269.95929284330185,3216.57606896569,1880.4248359456044,-1218.0830720261176,1218.0830720261176,-1880.4248359456044,5932.9698765167359,0.0
543296.95196600363,3685566.251970998,-17500.0,-454.69259979291741,3177.2963152815196,-3096.5146944912199,-696.35259401121391,1259.1966555034444,-292.66925220800368,3638.8659811032767,2511.3296161590829,-1779.7158809404884,1779.7158809404884,-2511.3296161590829,6628.0161049337994,0.0
548296.95196600363,3685566.251970998,-17500.0,373.09661286764452,3333.5718389630015,-3740.8531023361465,-564.04097360613696,1436.1978277977028,-302.25051696501276,4131.5910906637919,3277.5790928338897,-2514.7170416433914,2514.7170416433914,-3277.5790928338897,7421.7824510405526,0.0
553296.95196600363,3685566.251970998,-17500.0,1548.3085831222297,3327.2568470523697,-4479.3335985425929,-311.54885992262314,1591.4582463885581,-285.80798649795435,4716.4305495506323,4175.0392026846403,-3453.3349022628549,3453.3349022628549,-4175.0392026846403,8351.190092743047,0.0
558296.95196600363,3685566.251970998,-17500.0,3157.3283673087212,3033.4355950080176,-5271.3412423565969,117.50345180409616,1677.8422381911255,-222.9948111691501,5430.2309551390927,5166.1231501631046,-4608.2904262258799,4608.2904262258799,-5166.1231501631046,9490.4956864267206,0.0
563296.95196600363,3685566.251970998,-17500.0,5271.6756194288891,2268.4328274250261,-6010.7720034400936,794.45748799527883,1611.5646254818469,-83.60137033402242,6336.993191168468,6150.3881464876422,-5945.5262426064701,5945.5262426064701,-6150.3881464876422,10985.183478737972,0.0
568296.95196600363,3685566.251970998,-17500.0,7905.0660802654893,783.11940627666797,-6470.9981340467139,1798.9836094314687,1252.6641849556042,173.73886031084172,7544.7584086741281,6920.8474954850226,-7330.0262969530704,7330.0262969530704,-6920.8474954850226,13097.898422090233,0.0
573296.95196600363,3685566.251970998,-17500.0,10935.516797888651,-1715.0614440460408,-6222.392028200904,3198.0648078437775,383.04437456424176,599.23570523705791,9221.605850741591,7111.188947926652,-8436.5815859942104,8436.5815859942104,-7111.188947926652,16242.872446611187,0.0
578296.95196600363,3685566.251970998,-17500.0,13988.273687812261,-5467.3614529938095,-4536.0452098445148,4999.1764335758508,-1306.0694866233582,1242.3848701198622,11594.307142137422,6163.3708283292572,-8629.3292629366188,8629.3292629366188,-6163.3708283292572,20958.722160685833,0.0
583296.95196600363,3685566.251970998,-17500.0,16315.373509355704,-10427.861522941368,-346.85513553096018,7066.5407806043004,-4186.2805083948242,2132.3170917013053,14904.731693807527,3399.6685102435381,-6868.4773010335975,6868.4773010335975,-3399.6685102435381,27768.171365219896,0.0
588296.95196600363,3685566.251970998,-17500.0,16812.548788031745,-15844.91034735227,7525.1701274271327,9007.4120193790586,-8563.3814128331996,3250.0369546770012,19308.614960999224,-1640.5365834433039,-1833.2395629544251,1833.2395629544251,1640.5365834433039,36889.231706589853,0.0
593296.95196600363,3685566.251970998,-17500.0,14457.582429309075,-19835.839748132479,19577.532388397871,10099.147177043535,-14377.39394291889,4501.6202019569209,24716.608838843982,-8466.0046343725153,7390.6039835902657,-7390.6039835902657,8466.0046343725153,47778.629179538373,0.0
598296.95196600363,3685566.251970998,-17500.0,9344.1239063994508,-19626.561775287824,34213.960786367636,9442.7516763327985,-20775.988983177031,5704.3922131510981,30395.038724824626,-14826.901049021288,19899.147710964779,-19899.147710964779,14826.901049021288,58654.10113914033,0.0
603296.95196600363,3685566.251970998,-17500.0,3604.5233922002076,-13283.425115870985,46878.607100321984,6526.2725225530203,-25953.47117714776,6601.7236195639662,34686.106751038009,-17085.589924509008,31834.945521200414,-31834.945521200414,17085.589924509008,66556.752342819207,0.0
608296.95196600363,3685566.251970998,-17500.0,529.98081960028151,-2137.3740287411806,51891.72680644902,1915.6305821861572,-27863.767616606681,6934.4828673018055,35906.159348505091,-12781.225269997069,37769.134035022624,-37769.134035022624,12781.225269997069,68585.587787271288,0.0
613296.95196600363,3685566.251970998,-17500.0,1798.4901009397472,9197.5254592352576,46667.152139431186,-2796.2924697808562,-25613.014638477453,6565.0212479350139,33465.485796898385,-3326.9655958651438,34733.197374452262,-34733.197374452262,3326.9655958651438,63775.932076538556,0.0
618296.95196600363,3685566.251970998,-17500.0,5999.2796603330735,16208.254243436675,33792.03091633023,-6027.3988836910685,-20124.657845245849,5560.0292966375418,28263.608030043048,6832.1025321519446,24613.009055142713,-24613.009055142713,-6832.1025321519446,53823.365077730828,0.0
623296.95196600363,3685566.251970998,-17500.0,10269.061994594775,17450.481991931003,18555.995971242322,-7143.24335571949,-13346.814222145069,4156.0889538509628,22115.639767869117,13758.68988252732,12104.592663072541,-12104.592663072541,-13758.68988252732,41925.500711743742,0.0
628296.95196600363,3685566.251970998,-17500.0,12580.245131756395,14310.859759080169,5332.5686305086074,-6468.6611572313032,-7030.0513723195463,2651.0589698203162,16776.683867778796,16113.673650129933,1257.5447580067939,-1257.5447580067939,-16113.673650129933,31102.278739804548,0.0
633296.95196600363,3685566.251970998,-17500.0,12450.014493099819,9139.2482095216583,-3890.8001361026777,-4759.2909145700742,-2134.8246505731113,1297.8564447659683,13066.064762769314,14698.116579904243,-6047.9190248321656,6047.9190248321656,-14698.116579904243,23267.145439394386,0.0
638296.95196600363,3685566.251970998,-17500.0,10440.766032493888,3873.2026352609219,-9069.9623368813573,-2740.4914213808524,1116.9335971232388,244.09060876167683,10896.86292038562,11132.905410711843,-9757.2090964791714,9757.2090964791714,-11132.905410711843,18893.775281078069,0.0
643296.95196600363,3685566.251970998,-17500.0,7459.3015120452292,-404.17261990446451,-11126.963836850637,-899.67367373611023,2945.4790960316263,-471.89932889846693,9739.2909331095543,6908.1748677334444,-10735.279938217642,10735.279938217642,-6908.1748677334444,17026.087308214654,0.0
648296.95196600363,3685566.251970998,-17500.0,4300.6800974277694,-3348.5787725489345,-11186.946263781514,531.50124020529347,3735.4961991897376,-887.63518948555713,9025.6208251830467,3002.2464795660389,-10039.428705248418,10039.428705248418,-3002.2464795660389,16210.450729957442,0.0
653296.95196600363,3685566.251970998,-17500.0,1474.6856955124906,-5060.9660315025321,-10185.532501688076,1507.3569069796081,3863.1556295461842,-1074.9618359726201,8414.7768389367702,-121.66355504862167,-8540.2020846945234,8540.2020846945234,121.66355504862167,15529.33883664958,0.0
658296.95196600363,3685566.251970998,-17500.0,-784.63926755666091,-5825.768778479488,-8758.0926325634664,2083.9391456554999,3621.9209898205099,-1109.0415173411111,7782.0338432550489,-2361.649900569942,-6814.6262012989118,6814.6262012989118,2361.649900569942,14672.991406398913,0.0
663296.95196600363,3685566.251970998,-17500.0,-2435.6059092321852,-5948.6661247869306,-7274.2805276234858,2354.8246511027614,3210.6745120364822,-1052.2754630588063,7113.9852760071371,-3810.0694543291124,-5181.9528215488444,5181.9528215488444,3810.0694543291124,13628.669670086305,0.0
668296.95196600363,3685566.251970998,-17500.0,-3541.4468620923139,-5683.3641845361599,-5917.1147317886243,2413.8163124623629,2749.975832957361,-949.64520115918981,6434.7422791250765,-4632.6852118869501,-3783.2287853562871,3783.2287853562871,4632.6852118869501,12473.452119838734,0.0
673296.95196600363,3685566.251970998,-17500.0,-4206.7054104813087,-5213.3610713797761,-4756.4995537522827,2338.5674894050067,2305.175487590488,-830.26509280345226,5772.4682145210991,-5000.2605109766009,-2654.7624402854594,2654.7624402854594,5000.2605109766009,11289.134896243526,0.0
678296.95196600363,3685566.251970998,-17500.0,-4540.0913305976255,-4659.3100572853409,-3801.8187828967416,2186.6783103948542,1906.6923710151236,-711.18272462658103,5148.309170367389,-5058.3259038976839,-1780.0929743867073,1780.0929743867073,5058.3259038976839,10136.934126174465,0.0
683296.95196600363,3685566.251970998,-17500.0,-4636.9578680896893,-4094.2987671438891,-3034.4585014378208,1997.6919866009316,1564.7331145264002,-601.25382240854299,4574.8703944582558,-4918.9708824784511,-1121.4662513499472,1121.4662513499472,4918.9708824784511,9055.1109518454523,0.0
688296.95196600363,3685566.251970998,-17500.0,-4573.6053292157039,-3558.7786608869142,-2425.8682784373291,1797.0509248188769,1278.8497346188744,-504.23509741058143,4058.0958707659079,-4663.0634735657695,-636.66143365535413,636.66143365535413,4663.0634735657695,8063.61420112216,0.0
693296.95196600363,3685566.251970998,-17500.0,-4407.6087305791734,-3072.3234066981968,-1946.596192809983,1600.0821404927931,1043.6618044768877,-420.9552112997734,3600.3314655356767,-4346.1799532543719,-286.80866739898624,286.80866739898624,4346.1799532543719,7169.7124419695101,0.0
698296.95196600363,3685566.251970998,-17500.0,-4180.6062108416181,-2641.9257125935815,-1570.2105240682727,1415.2704469634139,852.04248055882022,-350.71129942207773,3200.8964146661724,-4004.9417405997592,-39.241520293489202,39.241520293489202,4004.9417405997592,6372.6709007480713,0.0
703296.95196600363,3685566.251970998,-17500.0,-3921.6992103389134,-2267.4762144288047,-1274.5686261530134,1246.6942196675523,696.76192492176108,-292.1108285436386,2851.3404718996835,-3662.4729303910317,132.11460057987188,-132.11460057987188,3662.4729303910317,5667.1627697340909,0.0
708296.95196600363,3685566.251970998,-17500.0,-3650.5945182750556,-1945.1911294436886,-1041.820274856145,1095.7208897304163,571.23983745500504,-243.54626624179915,2543.5420652370926,-3332.6276376086998,247.42179489743353,-247.42179489743353,3332.6276376086998,5045.5450022054065,0.0
518296.95196600363,3690566.251970998,-17500.0,-1119.7384890811638,1708.3073371746891,-1291.6524888896624,-465.37340077899307,525.78754320654741,-126.13981682741901,1794.3892412740913,718.59727243270527,-388.40370526195693,388.40370526195693,-718.59727243270527,3379.5891717414547,0.0
523296.95196600363,3690566.251970998,-17500.0,-975.42369587859457,1882.0276590686419,-1529.1175691040705,-478.28068766207338,610.55701095688653,-141.86235221041656,1997.1400227552874,977.09592704135628,-592.66303960627886,592.66303960627886,-977.09592704135628,3727.4147067112767,0.0
528296.95196600363,3690566.251970998,-17500.0,-748.03163188118276,2053.4411651786395,-1813.4371192428796,-475.25788081429101,706.1062909581027,-157.32998579794233,2227.7557455233637,1296.6027101902573,-859.54096164425675,859.54096164425675,-1296.6027101902573,4115.4081645794595,0.0
533296.95196600363,3690566.251970998,-17500.0,-409.63841949869845,2208.0640512825703,-2150.9658256878233,-446.86783055311588,810.80645686330956,-170.74478841791699,2491.4499710890732,1686.4557368612027,-1204.6654719362082,1204.6654719362082,-1686.4557368612027,4550.0788782837517,0.0
538296.95196600363,3690566.251970998,-17500.0,74.51148813303692,2322.3806265566368,-2545.7700089467717,-379.60968243477998,920.23027814613647,-179.0249075306545,2795.5069777964177,2153.787992010306,-1645.2579539178046,1645.2579539178046,-2153.787992010306,5041.7215564461048,0.0
543296.95196600363,3690566.251970998,-17500.0,745.90462132493928,2359.6570645654219,-2996.1835662134222,-254.61617174593681,1025.0944529888357,-177.11426688186756,3150.7758850673199,2699.9241857233292,-2198.0211196039591,2198.0211196039591,-2699.9241857233292,5608.213465740836,0.0
548296.95196600363,3690566.251970998,-17500.0,1650.7488374078498,2264.532660285678,-3488.5629306234628,-46.322866595580997,1108.016566499369,-157.02576868216968,3574.2521173988252,3314.1448899677266,-2874.4582454105562,2874.4582454105562,-3314.1448899677266,6282.0156984636815,0.0
553296.95196600363,3690566.251970998,-17500.0,2834.2034771727144,1956.837415424194,-3986.4970614292301,278.40838403021564,1138.6189503424737,-106.62124391449494,4093.2411925569941,3963.5630265064729,-3671.6701226200194,3671.6701226200194,-3963.5630265064729,7121.8994767360464,0.0
558296.95196600363,3690566.251970998,-17500.0,4327.9346836924597,1326.3557550446285,-4413.1333857243953,759.66582688951905,1066.5876492850132,-8.2781452056310165,4751.3193523584669,4577.8974262173551,-4555.7428768888976,4555.7428768888976,-4577.8974262173551,8229.6806805656597,0.0
563296.95196600363,3690566.251970998,-17500.0,6127.05948709316,232.94466865359411,-4624.2651025240084,1440.3907830200537,812.81414091865804,162.09385946563972,5615.1702083530781,5029.0603623499901,-5434.1926512874579,5434.1926512874579,-5029.0603623499901,9767.7776747821972,0.0
568296.95196600363,3690566.251970998,-17500.0,8152.7413986658348,-1478.7031214591145,-4371.9773865780289,2355.5847347412728,260.27019666550336,434.68821996292837,6778.9415377268233,5109.3088525148187,-6115.0519312645802,6115.0519312645802,-5109.3088525148187,11965.773217958344,0.0
573296.95196600363,3690566.251970998,-17500.0,10201.13098331718,-3933.2322013662638,-3266.5324360747654,3510.5513872429201,-750.31738918614008,842.41742586409316,8359.6414347909431,4520.9640657225063,-6256.6934655309633,6256.6934655309633,-4520.9640657225063,15099.511963264404,0.0
578296.95196600363,3690566.251970998,-17500.0,11893.823022161836,-7125.6122367512999,-763.73031680062115,4844.788106178652,-2408.7776200800877,1412.4893926741786,10475.452208091599,2907.9340720650966,-5331.1172859450053,5331.1172859450053,-2907.9340720650966,19430.634709101334,0.0
583296.95196600363,3690566.251970998,-17500.0,12675.985615520111,-10756.452278314473,3759.5385000205438,6184.7898684976362,-4888.6283785783353,2151.9015147157838,13201.34326336865,-19.703107835974151,-2660.9820558928541,2660.9820558928541,19.703107835974151,25099.336092241923,0.0
588296.95196600363,3690566.251970998,-17500.0,11948.795443003271,-14044.461006399591,10743.502833745228,7207.0010272343179,-8243.4161264143186,3029.138782275807,16507.458456255004,-4220.0233272713567,2363.7312464090714,-2363.7312464090714,4220.0233272713567,31963.841814917803,0.0
593296.95196600363,3690566.251970998,-17500.0,9417.3322105249863,-15685.750740350795,19939.214074345517,7461.7928749020284,-12247.768770650924,3959.4499267173246,20193.591543726976,-8960.6104080017376,9800.8293130265611,-9800.8293130265611,8960.6104080017376,39409.549309323746,0.0
598296.95196600363,3690566.251970998,-17500.0,5565.5830778743939,-14249.131825025532,29846.540040469328,6524.7625397560432,-16258.866803817553,4804.67044585862,23731.195186865069,-12655.655424437671,18539.884482307338,-18539.884482307338,12655.655424437671,46243.947139680233,0.0
603296.95196600363,3690566.251970998,-17500.0,1824.8227528552031,-9109.9927850687491,37700.852933487076,4275.0008281519076,-19271.75733672209,5397.0902890874877,26222.107725630718,-13374.126019588472,26134.236240956572,-26134.236240956572,13374.126019588472,50889.061234606052,0.0
608296.95196600363,3690566.251970998,-17500.0,-72.094717334285903,-1330.7115945715386,40598.898031398116,1123.4273801875797,-20304.856067348479,5588.4585005463396,26866.95620049227,-10078.742748779256,29750.312366927796,-29750.312366927796,10078.742748779256,51979.913255490646,0.0
613296.95196600363,3690566.251970998,-17500.0,711.78026876863964,6565.5336303550184,37275.662893797868,-2079.231263393664,-18944.928213663417,5308.2243870447446,25401.221368119608,-3626.3821672654649,27901.664996162588,-27901.664996162588,3626.3821672654649,49081.566666853287,0.0
618296.95196600363,3690566.251970998,-17500.0,3516.1439325729866,12049.109101769835,28941.117398015744,-4471.5896056374258,-15598.839393162049,4598.6114878679073,22241.870153414704,3627.163594022546,21424.8475610762,-21424.8475610762,-3627.163594022546,42960.20373950692,0.0
623296.95196600363,3690566.251970998,-17500.0,6784.1428997347084,13957.242720181521,18379.7297137231,-5597.9898889911983,-11227.836694569931,3601.6839800210259,18302.067049618763,9312.5757783117642,12764.694268752597,-12764.694268752597,-9312.5757783117642,35186.751100145841,0.0
628296.95196600363,3690566.251970998,-17500.0,9126.7051231989244,12687.958905483993,8326.6903530739055,-5505.1313115338853,-6840.1584839380557,2505.3115117010411,14550.879757243982,12206.943083052043,4443.3686415013717,-4443.3686415013717,-12206.943083052043,27448.52062302097,0.0
633296.95196600363,3690566.251970998,-17500.0,9910.8589415053884,9486.0060704088792,452.13586944570807,-4561.1715372578128,-3131.7881491363764,1479.7970797696298,11549.446524498089,12359.428913302614,-1962.2745293793168,1962.2745293793168,-12359.428913302614,21037.900295189997,0.0
638296.95196600363,3690566.251970998,-17500.0,9219.0468217656817,5651.4449413314596,-4744.742866755375,-3213.2070439404138,-400.00009215249645,636.10998571305606,9454.9611750018157,10567.2568161697,-5971.0980218919449,5971.0980218919449,-10567.2568161697,16615.489484994734,0.0
643296.95196600363,3690566.251970998,-17500.0,7520.5943914241989,2107.3180036395552,-7548.8413092768506,-1825.1136682656993,1364.7258104614325,17.081875809059781,8149.0202477246539,7797.5755872477775,-7849.8068560190904,7849.8068560190904,-7797.5755872477775,14114.524783037086,0.0
648296.95196600363,3690566.251970998,-17500.0,5358.4411494712331,-682.19387919819849,-8579.6061294367537,-619.92157285066071,2336.7806773472262,-387.12862728075208,7353.0027181240494,4836.1083321331434,-8185.9263992249753,8185.9263992249753,-4836.1083321331434,12889.120076791103,0.0
653296.95196600363,3690566.251970998,-17500.0,3167.7497049792883,-2606.6840114220886,-8478.9885393226796,307.63978374283141,2739.3064252229019,-615.29207780880449,6797.538275880901,2172.6969990578295,-7585.8673810919317,7585.8673810919317,-2172.6969990578295,12209.731767727473,0.0
658296.95196600363,3690566.251970998,-17500.0,1219.3523384667621,-3758.9177991634492,-7762.3465693607768,950.31696717680165,2776.1353672651462,-714.82495003457393,6317.9798013600766,31.724726252944038,-6529.8420725030137,6529.8420725030137,-31.724726252944038,11630.057515919876,0.0
663296.95196600363,3690566.251970998,-17500.0,-362.48411139104326,-4312.4963993723268,-6783.5797603007195,1347.0986017135504,2604.5196148799805,-729.31107537258595,5846.0475829075858,-1543.8750384632208,-5338.8581227297072,5338.8581227297072,1543.8750384632208,10981.669596036998,0.0
668296.95196600363,3690566.251970998,-17500.0,-1555.085203023456,-4447.320895253366,-5757.086302400111,1553.311882081153,2332.6730849449777,-693.13884423934383,5367.6340224883588,-2610.3321064570041,-4197.8592655038792,4197.8592655038792,2610.3321064570041,10243.050244951139,0.0
673296.95196600363,3690566.251970998,-17500.0,-2393.1602281377395,-4315.0238553542249,-4796.8349467065946,1623.3311883099821,2028.3914845230861,-630.7409180041949,4890.4115654463631,-3263.755950937119,-3195.5528558384945,3195.5528558384945,3263.755950937119,9446.0085654105424,0.0
678296.95196600363,3690566.251970998,-17500.0,-2936.2146539374903,-4029.3876406135792,-3952.7527121883318,1602.8002784508844,1730.3232002063221,-558.06488612056864,4427.0038040193976,-3605.2212504119116,-2361.080838631151,2361.080838631151,3605.2212504119116,8631.5283289553172,0.0
683296.95196600363,3690566.251970998,-17500.0,-3248.5313503605662,-3669.1252660121118,-3237.8643286303022,1526.6025954905965,1457.9446472854577,-484.70399280017574,3988.1844544568357,-3723.9618063765438,-1691.0120340076885,1691.0120340076885,3723.9618063765438,7833.5923133423421,0.0
688296.95196600363,3690566.251970998,-17500.0,-3388.8344970524067,-3285.1323108641277,-2646.1508951254186,1419.6949768562865,1219.0492699964359,-415.89499925241898,3581.0656065925809,-3691.6653852385352,-1166.7417191534953,1166.7417191534953,3691.6653852385352,7075.5298406008596,0.0
693296.95196600363,3690566.251970998,-17500.0,-3406.1509641723378,-2908.136575099837,-2163.2554155677158,1298.9968658352136,1014.8274172127273,-354.08672407718251,3209.3815771041859,-3562.5207232916273,-764.59068853533904,764.59068853533904,3562.5207232916273,6371.0333591316639,0.0
698296.95196600363,3690566.251970998,-17500.0,-3339.1473584715854,-2555.1448808489545,-1772.4063524418243,1175.4117318596473,843.08142332779153,-300.05647690754915,2874.86183742717,-3375.7228701281301,-461.08799620278,461.08799620278,3375.7228701281301,5726.4924364597136,0.0
703296.95196600363,3690566.251970998,-17500.0,-3217.1195719462339,-2234.2912489604337,-1457.3924724443,1055.5744347620221,700.13732030349263,-253.64974713978452,2579.9766654515711,-3158.6218020396336,-235.35528200677413,235.35528200677413,3158.6218020396336,5143.2825926007581,0.0
518296.95196600363,3695566.251970998,-17500.0,-566.41961748917629,1480.6182975396894,-1325.8109220851529,-313.92303257154407,475.38911843050317,-95.588778557977093,1594.5117781354622,922.0958313078786,-624.10536704506353,624.10536704506353,-922.0958313078786,2950.6305697826269,0.0
523296.95196600363,3695566.251970998,-17500.0,-352.6414673460568,1583.8888775180253,-1544.8116654032563,-297.94734071150089,540.34754935411468,-103.51004602480646,1765.3582689808245,1173.3734439900127,-845.77198665560604,845.77198665560604,-1173.3734439900127,3232.4448188469059,0.0
528296.95196600363,3695566.251970998,-17500.0,-54.620129890328428,1665.9099443733799,-1797.5070104871565,-261.5581495906402,609.07021559252871,-109.24240608100222,1960.1730266551929,1470.9160044687751,-1122.8284183950109,1122.8284183950109,-1470.9160044687751,3548.1464500152347,0.0
533296.95196600363,3695566.251970998,-17500.0,350.02394420331922,1708.5517892763071,-2083.7920159337414,-195.65600722795369,677.72872913798858,-110.66791447925536,2184.7211070809681,1816.7301489117847,-1464.6853034763496,1464.6853034763496,-1816.7301489117847,3907.0062808262001,0.0
538296.95196600363,3695566.251970998,-17500.0,886.75867490599217,1685.2293942954864,-2398.6841806972393,-88.039578557393355,739.28705987572755,-104.49194161665847,2447.5515299903036,2208.0726886342063,-1879.1220310287595,1879.1220310287595,-2208.0726886342063,4324.684796964234,0.0
543296.95196600363,3695566.251970998,-17500.0,1582.3886368084743,1558.1213469828174,-2728.2951250615383,77.180027045574377,781.67167150596936,-85.73083684671218,2761.6552516774254,2633.6105948825575,-2369.0374849551031,2369.0374849551031,-2633.6105948825575,4827.8369915411049,0.0
548296.95196600363,3695566.251970998,-17500.0,2461.1374640348768,1275.3402755967772,-3043.4093013247516,319.83811684887911,785.15507451447331,-47.068414920031842,3146.8392317636299,3067.6545928076307,-2926.718208898586,2926.718208898586,-3067.6545928076307,5460.8029132309339,0.0
553296.95196600363,3695566.251970998,-17500.0,3537.2337683346755,769.11009288465959,-3289.7529420409455,663.12368688285892,718.84182814856035,21.857121291966678,3632.6920107103688,3462.1239651663532,-3524.3878028674712,3524.3878028674712,-3462.1239651663532,6293.6620231648621,0.0
558296.95196600363,3695566.251970998,-17500.0,4802.4060526467019,-42.788864535173545,-3374.2609277166794,1131.2244447909898,536.41524408248415,135.04968430990047,4261.4108120119836,3736.5817080717602,-4099.7466416374327,4099.7466416374327,-3736.5817080717602,7428.7551117778421,0.0
563296.95196600363,3695566.251970998,-17500.0,6207.0750143938685,-1248.1024437509934,-3147.8710161908539,1743.8194941504016,171.97462267121924,310.23181989802379,5088.822012267533,3768.4770393918634,-4536.0269326109565,4536.0269326109565,-3768.4770393918634,9000.4360609724245,0.0
568296.95196600363,3695566.251970998,-17500.0,7636.1392592423972,-2917.0416548417693,-2388.75005341305,2505.6852895489637,-461.86005724077279,567.69525152381539,6181.0048611629591,3389.4402839537629,-4639.0105212261215,4639.0105212261215,-3389.4402839537629,11162.600688353066,0.0
573296.95196600363,3695566.251970998,-17500.0,8885.835015630797,-5056.8576518641585,-797.02272018764393,3390.0890347826544,-1469.1797872640416,926.94371276296272,7603.6217980567817,2399.6068258865462,-4120.4356789702251,4120.4356789702251,-2399.6068258865462,14060.792266059556,0.0
578296.95196600363,3695566.251970998,-17500.0,9658.7872805159677,-7539.4254758107118,1976.1886354888461,4317.0199347643857,-2952.2653645117553,1400.211239721413,9401.758603662618,618.87517906026494,-2609.8180186084451,2609.8180186084451,-618.87517906026494,17786.665799866867,0.0
583296.95196600363,3695566.251970998,-17500.0,9607.9868694223715,-10014.044134435642,6230.6859742587876,5133.2329786133423,-4971.15259249053,1982.8566497233605,11570.736075915547,-2005.903961280585,268.1153450415095,-268.1153450415095,2005.903961280585,22312.036428753701,0.0
588296.95196600363,3695566.251970998,-17500.0,8463.7227994553232,-11855.403500846152,12021.021944131735,5610.7576003451413,-7478.7391962575502,2642.7741228006698,14026.223068251711,-5242.9440328700093,4712.1355221351205,-4712.1355221351205,5242.9440328700093,27406.803450962074,0.0
593296.95196600363,3695566.251970998,-17500.0,6240.9623947130567,-12243.613881691501,18890.40345552102,5488.5306485014744,-10248.079764069988,3313.7883333015398,16582.177858493385,-8438.6308897576091,10470.386989013867,-10470.386989013867,8438.6308897576091,32569.362722409744,0.0
598296.95196600363,3695566.251970998,-17500.0,3425.6400890436307,-10467.873067025766,25688.83564112696,4572.7179228254918,-12840.426621251521,3899.5334551473352,18880.39186795336,-10560.452759997755,16610.978059850157,-16610.978059850157,10560.452759997755,37032.5813997195,0.0
603296.95196600363,3695566.251970998,-17500.0,936.33395483459788,-6396.0720205172347,30736.200116498614,2868.4773530699358,-14680.50592810267,4292.0696200060256,20409.853829775217,-10567.752860345976,21603.709783650993,-21603.709783650993,10567.752860345976,39915.635698018021,0.0
608296.95196600363,3695566.251970998,-17500.0,-269.60114250190264,-796.13533560318558,32459.994178892932,656.46619685843496,-15259.48630563028,4402.6566388978144,20759.964591845732,-8014.0371233988117,23886.558460176369,-23886.558460176369,8014.0371233988117,40520.185108307014,0.0
613296.95196600363,3695566.251970998,-17500.0,249.4747212118306,4860.1754924021707,30202.927322425487,-1575.4873483108047,-14371.96410473486,4193.3810051026967,19804.740692147079,-3446.408683994212,22667.40611959192,-22667.40611959192,3446.408683994212,38634.189066931045,0.0
618296.95196600363,3695566.251970998,-17500.0,2152.9788075312995,9084.7636538596671,24589.995340170186,-3332.1646094055131,-12221.981170436215,3693.8437593240519,17764.631499076855,1798.8028880711627,18358.446988487311,-18358.446988487311,-1798.8028880711627,34644.780117228664,0.0
623296.95196600363,3695566.251970998,-17500.0,4564.8443823163916,11047.829682908896,17161.540807407397,-4310.6512813161198,-9319.0657196221437,2992.716402174317,15138.294803726047,6278.4769327572776,12296.809578933398,-12296.809578933398,-6278.4769327572776,29383.595581446851,0.0
628296.95196600363,3695566.251970998,-17500.0,6584.1777335278102,10780.279358365418,9611.1630337408551,-4475.4686679689939,-6251.2463309782443,2207.8410788343476,12474.345604661303,9067.5912314645357,6034.4208601109503,-6034.4208601109503,-9067.5912314645357,23822.868002074869,0.0
633296.95196600363,3695566.251970998,-17500.0,7662.298721214599,8911.9043368648236,3177.5071575018296,-3998.8877488034709,-3486.7298589259844,1450.3423370789583,10135.115614664366,9959.3777878383844,735.4119499591252,-735.4119499591252,-9959.3777878383844,18803.023949378159,0.0
638296.95196600363,3695566.251970998,-17500.0,7685.2835065869931,6257.2687086524747,-1560.0786132703734,-3142.1265892431802,-1287.078817400263,798.97435086798555,8304.3971686915866,9289.6598742725146,-3047.0265996042554,3047.0265996042554,-9289.6598742725146,14875.496023106392,0.0
643296.95196600363,3695566.251970998,-17500.0,6849.6696579605423,3507.7221815055345,-4570.2693594344146,-2152.7814557518118,278.52439675788901,291.87876412072342,7014.5074363620533,7630.6975308032406,-5280.5709506716403,5280.5709506716403,-7630.6975308032406,12230.230279402014,0.0
648296.95196600363,3695566.251970998,-17500.0,5482.7840383335279,1103.9081066481676,-6139.5540228572318,-1210.4360374300575,1269.4901866100843,-67.337484723770459,6167.2701323896235,5542.7262375941664,-6237.938781037441,6237.938781037441,-5542.7262375941664,10689.402407770087,0.0
653296.95196600363,3695566.251970998,-17500.0,3904.138920504759,-756.35549443468528,-6664.4618163751156,-416.05927594948025,1805.7160085631363,-297.00605782172556,5603.7163481023272,3445.6086678115171,-6296.6227431293446,6296.6227431293446,-3445.6086678115171,9846.9327471428551,0.0
658296.95196600363,3695566.251970998,-17500.0,2354.9060562873069,-2048.3888897230504,-6520.2137853533177,193.43741232295653,2017.8264020130916,-425.02826021268874,5182.8233959429581,1591.1043078819675,-5810.9834482529923,5810.9834482529923,-1591.1043078819675,9313.3426969469456,0.0
663296.95196600363,3695566.251970998,-17500.0,982.1596254069226,-2843.4587313198399,-6002.4228108199477,622.7179456943411,2019.8635956878513,-480.08166785875028,4817.1258467329544,90.824144074737433,-5055.6605218422119,5055.6605218422119,-90.824144074737433,8852.5730146151691,0.0
668296.95196600363,3695566.251970998,-17500.0,-146.71068261626831,-3249.7206927758061,-5316.8693226519754,897.81164882107953,1899.3021288287578,-486.86942783198339,4466.6840159358835,-1038.0732697828782,-4216.4598945727712,4216.4598945727712,1038.0732697828782,8367.1901139321799,0.0
673296.95196600363,3695566.251970998,-17500.0,-1019.5464113531589,-3376.4389771895039,-4592.7437705879256,1051.9344155488684,1717.2589664465474,-464.44785828630563,4119.9916529929906,-1830.9797887685202,-3404.4121187289529,3404.4121187289529,1830.9797887685202,7837.5381385367336,0.0
678296.95196600363,3695566.251970998,-17500.0,-1656.385336856928,-3316.9045569911327,-3902.8712481886291,1117.2741374483719,1513.1887019164817,-426.36678870280269,3778.5061846379722,-2345.5920972648164,-2676.5273511203186,2676.5273511203186,2345.5920972648164,7276.1635547685164,0.0
683296.95196600363,3695566.251970998,-17500.0,-2092.2476614853758,-3143.2473349371962,-3282.5978545635562,1121.193611772642,1310.6100671814979,-381.62166059716793,3447.783812606534,-2643.4607661286682,-2054.9060433256991,2054.9060433256991,2643.4607661286682,6704.0101359648152,0.0
688296.95196600363,3695566.251970998,-17500.0,-2366.1082289826281,-2907.4589804412381,-2744.3663202114858,1085.1527851254175,1122.2040043256736,-335.79668776959068,3133.3676430545806,-2780.4807003960577,-1541.277103642705,1541.277103642705,2780.4807003960577,6140.34805676009,0.0
693296.95196600363,3695566.251970998,-17500.0,-2514.7763248372089,-2644.9285521542565,-2287.7855600019448,1025.046121048536,953.74327310543481,-292.09548059753939,2839.3140748311353,-2803.1262286214237,-1126.8464761721993,1126.8464761721993,2803.1262286214237,5599.579037719338,0.0
698296.95196600363,3695566.251970998,-17500.0,-2570.0929364683893,-2378.4617594559609,-1906.0534885123682,952.12114081786001,806.86535426472312,-252.15249955325174,2567.9835300835093,-2747.9028965695811,-798.40139008087442,798.40139008087442,2747.9028965695811,5091.0246997144086,0.0
523296.95196600363,3700566.251970998,-17500.0,148.5170714079224,1264.2395532848334,-1498.0238666813025,-147.72660806318436,461.00728678789972,-70.684436269613812,1564.6133637399246,1265.2850405630581,-1014.4149891898426,1014.4149891898426,-1265.2850405630581,2810.0141739079531,0.0
528296.95196600363,3700566.251970998,-17500.0,481.908830831562,1266.6004427785988,-1705.6394011628011,-88.858183441906121,503.99188794610677,-69.086181561103061,1734.1740810125632,1522.1992383775867,-1278.8518789044431,1278.8518789044431,-1522.1992383775867,3079.3141201194508,0.0
533296.95196600363,3700566.251970998,-17500.0,909.28576389918749,1214.7681467302966,-1926.3737951204907,0.05314449628581118,539.60184877685504,-61.929290957470251,1932.8965042278091,1805.0846270447237,-1590.3972495531407,1590.3972495531407,-1805.0846270447237,3395.6860850624407,0.0
538296.95196600363,3700566.251970998,-17500.0,1446.4800779100394,1082.8293225438272,-2148.039324021081,129.01952777773519,559.46793787009051,-46.072314823501102,2170.5616584449508,2103.9894459604848,-1948.2207929571957,1948.2207929571957,-2103.9894459604848,3780.1829457414392,0.0
543296.95196600363,3700566.251970998,-17500.0,2106.771383926583,836.73354664087299,-2348.1979261601455,310.1567958473438,550.62555291910849,-17.044758162311794,2461.4087830602484,2399.682162117685,-2343.9792368883836,2343.9792368883836,-2399.682162117685,4265.4820504574991,0.0
548296.95196600363,3700566.251970998,-17500.0,2896.4751575411497,433.75984624346586,-2488.678318500195,557.2461857883136,493.67401246751194,31.331923272606449,2825.6157688518424,2659.3034637311757,-2756.3591336927366,2756.3591336927366,-2659.3034637311757,4899.677796053641,0.0
553296.95196600363,3700566.251970998,-17500.0,3808.0050825642402,-176.09479852694795,-2508.2847139778814,884.38936269976944,360.63827537450322,107.27987289612997,3290.4774929193909,2831.2991325194516,-3143.2317000643461,3143.2317000643461,-2831.2991325194516,5748.5365664238252,0.0
558296.95196600363,3700566.251970998,-17500.0,4810.006915434963,-1044.8310258297699,-2314.1663121847282,1303.1360930357339,112.94358173132942,221.18720582566709,3890.4836250305752,2840.7910071729084,-3431.4149092966209,3431.4149092966209,-2840.7910071729084,6894.0074984982066,0.0
563296.95196600363,3700566.251970998,-17500.0,5835.1420236715339,-2214.3643601332155,-1773.8121037994338,1817.3374608962743,-299.53105010144805,385.21799625320068,4665.2218885795173,2588.1066660321289,-3505.3664087724733,3505.3664087724733,-2588.1066660321289,8427.1682280764508,0.0
568296.95196600363,3700566.251970998,-17500.0,6768.3862469195083,-3694.2660751065791,-712.49301875182732,2415.1437571472429,-936.48829780207632,611.96998301553742,5653.9875269922595,1955.5777129843473,-3198.9495117910874,3198.9495117910874,-1955.5777129843473,10434.663560575611,0.0
573296.95196600363,3700566.251970998,-17500.0,7442.7410672596216,-5427.3399760266511,1074.6640793692829,3058.4305428542257,-1859.4716157961118,911.68074801387263,6886.1813205995259,830.3040394046343,-2299.1291656169069,2299.1291656169069,-830.3040394046343,12977.665905862592,0.0
578296.95196600363,3700566.251970998,-17500.0,7654.4212681178424,-7246.818969013133,3782.2724331926129,3672.0405757647359,-3114.9294651259752,1287.6914701101086,8367.282643188586,-848.97867061057025,-576.1389891899488,576.1389891899488,848.97867061057025,16061.912020313048,0.0
583296.95196600363,3700566.251970998,-17500.0,7212.1498212040487,-8841.630772486782,7512.5477167874351,4138.7403373962488,-4706.088118994774,1730.5741635383001,10062.415397915238,-3019.6129350846404,2143.3155099570049,-2143.3155099570049,3019.6129350846404,19599.417833746698,0.0
588296.95196600363,3700566.251970998,-17500.0,6026.8368499156068,-9764.0031226671545,12152.820636148905,4309.4652219701975,-6557.1899559025323,2212.5758571760439,11884.803001340373,-5416.3241733443938,5854.997396142584,-5854.997396142584,5416.3241733443938,23369.944973357407,0.0
593296.95196600363,3700566.251970998,-17500.0,4219.2056955240214,-9522.8140938105789,17252.310178017888,4038.2689251385036,-8484.2574545291482,2685.3817368930636,13689.668014180676,-7537.7366599784955,10240.174051714395,-10240.174051714395,7537.7366599784955,27002.362905744223,0.0
598296.95196600363,3700566.251970998,-17500.0,2179.0802954469123,-7778.5075488746525,21988.522456089449,3241.4419803860014,-10197.517546181565,3084.556428574534,15233.735305123148,-8730.3837779789901,14599.768694900999,-14599.768694900999,8730.3837779789901,30005.022552413462,0.0
603296.95196600363,3700566.251970998,-17500.0,491.14836957429691,-4574.1850647082629,25325.084121898573,1959.2572563114691,-11358.814012297365,3342.206061718804,16212.738553281552,-8423.2888570853793,17970.254893524681,-17970.254893524681,8423.2888570853793,31865.395849845267,0.0
608296.95196600363,3700566.251970998,-17500.0,-294.6082862815399,-449.88232534479522,26369.249003881625,380.2422857858777,-11689.752679169289,3405.3734321343595,16403.307758893796,-6427.6194055116048,19451.334022661656,-19451.334022661656,6427.6194055116048,32202.286468492483,0.0
613296.95196600363,3700566.251970998,-17500.0,65.133901877634898,3693.7697469749965,24763.278746522486,-1203.0920523314101,-11082.983794494008,3253.3973753601726,15743.306473936511,-3105.0488279480251,18600.049919839563,-18600.049919839563,3105.0488279480251,30906.162416735609,0.0
618296.95196600363,3700566.251970998,-17500.0,1381.1232754841142,6945.2554437282915,20856.73705329571,-2494.7116002741154,-9650.331304006877,2906.1449285380304,14361.782642118624,745.48769454042304,15637.905532073602,-15637.905532073602,-745.48769454042304,28190.275816669735,0.0
623296.95196600363,3700566.251970998,-17500.0,3142.7415616056169,8731.8040205241941,15541.813657113184,-3296.5066309149861,-7676.9904341500505,2418.6020457818158,12550.449748010227,4225.2948661247492,11330.425193254869,-11330.425193254869,-4225.2948661247492,24523.104280891905,0.0
628296.95196600363,3700566.251970998,-17500.0,4773.0648825332491,8964.9061705161585,9877.3508004304713,-3556.5444198243408,-5513.1834020482038,1864.1599999236912,10629.968116998645,6676.3036380932253,6640.7321121081286,-6640.7321121081286,-6676.3036380932253,20484.251775923036,0.0
633296.95196600363,3700566.251970998,-17500.0,5853.8386809256981,7950.559511979347,4737.990831837149,-3351.4104638405138,-3466.2005731069203,1314.4219221595167,8831.734017913268,7841.6614595463598,2386.0972614270881,-2386.0972614270881,-7841.6614595463598,16618.05667629981,0.0
638296.95196600363,3700566.251970998,-17500.0,6217.2805627102134,6180.5002218126447,638.85720656126466,-2829.3834912386633,-1737.9558126874049,823.80000502232656,7309.3472929248373,7824.873517901302,-944.60465562594618,944.60465562594618,-7824.873517901302,13333.970705313775,0.0
643296.95196600363,3700566.251970998,-17500.0,5913.6172941636787,4137.8734316158043,-2260.7066192362295,-2150.7451951154435,-415.35159182609857,423.08450807932132,6135.6137473247172,6940.3687476184587,-3198.4007033174507,3198.4007033174507,-6940.3687476184587,10855.63371670686,0.0
648296.95196600363,3700566.251970998,-17500.0,5119.6142609968001,2184.7969157689231,-4052.9242597053212,-1447.6920109646114,504.73369544674853,121.1681343442981,5298.7382397406491,5558.5603949707793,-4463.0728292182548,4463.0728292182548,-5558.5603949707793,9200.1741521390541,0.0
653296.95196600363,3700566.251970998,-17500.0,4047.8472892263326,532.58737465861543,-4957.7962460618519,-808.29434740133036,1078.9096050117737,-88.678044441160225,4724.8280360627559,4001.525256099279,-4948.8568730326424,4948.8568730326424,-4001.525256099279,8201.432173070285,0.0
658296.95196600363,3700566.251970998,-17500.0,2886.2055775542613,-736.10373053464411,-5226.3298813515457,-278.11571178264859,1384.9839032024006,-221.64257446935875,4319.3897740650227,2497.9533574097418,-4894.5208643946225,4894.5208643946225,-2497.9533574097418,7607.335654747043,0.0
663296.95196600363,3700566.251970998,-17500.0,1771.0151828416601,-1625.6553440634348,-5083.6438323121329,129.50485716169516,1500.2805937553344,-295.58068934105052,4003.4585118895693,1180.9914021802415,-4511.9470667905653,4511.9470667905653,-1180.9914021802415,7198.7821667378557,0.0
668296.95196600363,3700566.251970998,-17500.0,784.32572425659669,-2187.4046951104337,-4705.5498817446769,421.43776002491359,1490.4414992682707,-327.3320335348883,3727.2967251601735,107.71799206746118,-3963.6282509238981,3963.6282509238981,-107.71799206746118,6842.7296584495716,0.0
673296.95196600363,3700566.251970998,-17500.0,-36.309194181011406,-2490.1175053197849,-4216.2600409341403,614.71760193374098,1405.7943593269001,-330.93121276346693,3466.4073369583712,-715.76188218718812,-3361.049712396004,3361.049712396004,715.76188218718812,6480.1039931846371,0.0
678296.95196600363,3700566.251970998,-17500.0,-684.31558601405254,-2602.0550225141469,-3696.2703480938285,729.62316109205869,1282.0566719477474,-317.12582000350824,3212.1144925207268,-1312.2461604132779,-2773.0757709073232,2773.0757709073232,1312.2461604132779,6095.3086550097487,0.0
683296.95196600363,3700566.251970998,-17500.0,-1171.7149530988574,-2582.1695475512843,-3193.2704713423782,785.63933017024306,1142.9362295009134,-293.62467603318271,2963.6763343901953,-1717.4170432252829,-2237.1761564091162,2237.1761564091162,1717.4170432252829,5692.6473064373276,0.0
688296.95196600363,3700566.251970998,-17500.0,-1519.7379897688193,-2477.1977148303458,-2732.3491958890163,799.53060921127474,1003.1392574898496,-265.65177186358335,2723.4077149695213,-1969.7496127395941,-1769.7698613450304,1769.7698613450304,1969.7496127395941,5282.9930371383316,0.0
693296.95196600363,3700566.251970998,-17500.0,-1752.5910336276925,-2321.9937391279186,-2324.1005779466263,784.74621557018622,871.06636012269371,-236.55511305890235,2494.1754925187897,-2105.004751660178,-1374.3185565234598,1374.3185565234598,2105.004751660178,4877.5128419362518,0.0
698296.95196600363,3700566.251970998,-17500.0,-1893.7871107797355,-2141.2966692768259,-1970.4549858351706,751.54817666209385,750.93978637197881,-208.3466675112345,2278.3285804604852,-2153.7859186600203,-1047.0411063813917,1047.0411063813917,2153.7859186600203,4485.2498859660163,0.0
528296.95196600363,3705566.251970998,-17500.0,873.70219053845324,883.46192550757394,-1555.0242772399085,44.773264898462855,398.83296413226014,-36.708280413361805,1549.1631922422266,1480.3772486729665,-1341.2946929377438,1341.2946929377438,-1480.3772486729665,2709.4563164243591,0.0
533296.95196600363,3705566.251970998,-17500.0,1291.6175331999609,758.92997645482296,-1704.6782924451823,144.95307008067641,406.35050661001003,-23.905505318909444,1732.0844434084131,1693.3234183383888,-1605.2798924746935,1605.2798924746935,-1693.3234183383888,3008.8226698374165,0.0
538296.95196600363,3705566.251970998,-17500.0,1794.061951013023,550.14333013340479,-1831.7621186465049,280.80582496182092,392.68414610587575,-2.2904357105734983,1955.0714384857451,1898.4330888686441,-1890.2128111829102,1890.2128111829102,-1898.4330888686441,3386.3484257994137,0.0
543296.95196600363,3705566.251970998,-17500.0,2383.6769503497762,229.53004661826836,-1909.2989140857567,460.73237537097947,345.38552637789394,31.885611312440869,2232.0061508963045,2073.0737659985966,-2180.1336043318011,2180.1336043318011,-2073.0737659985966,3875.1941107332855,0.0
548296.95196600363,3705566.251970998,-17500.0,3054.3879326629071,-234.28440085560851,-1896.2530083185682,693.19997637321353,247.07899057856494,83.528916799659626,2580.9111324257665,2183.4804416489851,-2446.2259997385308,2446.2259997385308,-2183.4804416489851,4518.4713112712816,0.0
553296.95196600363,3705566.251970998,-17500.0,3786.0232803135145,-873.32190936603729,-1732.9861415243313,985.19777305957712,74.427408285957725,158.79416098813181,3023.7952328241104,2182.4480716190324,-2641.3240013669761,2641.3240013669761,-2182.4480716190324,5367.8748255961527,0.0
558296.95196600363,3705566.251970998,-17500.0,4537.8393788548237,-1713.6700516790602,-1337.1901109199744,1339.5894878580884,-202.3721291403908,264.95110222815333,3585.3974987357547,2008.7091064696967,-2694.0287409836919,2694.0287409836919,-2008.7091064696967,6479.7036707341595,0.0
563296.95196600363,3705566.251970998,-17500.0,5242.2690323977858,-2763.9747705153723,-602.51974179039587,1751.0922460162601,-618.75688897932037,409.8310019321861,4290.3599568705795,1590.3112907906784,-2504.3508841072244,2504.3508841072244,-1590.3112907906784,7907.9488871660342,0.0
568296.95196600363,3705566.251970998,-17500.0,5801.8717351102205,-3998.0780604080342,596.07505422616589,2200.9437130852148,-1212.3990505042102,600.61068017636308,5158.4264125730351,855.37404089021015,-1944.719575444856,1944.719575444856,-855.37404089021015,9693.9572258668268,0.0
573296.95196600363,3705566.251970998,-17500.0,6094.5710929677753,-5333.0214732120385,2384.4591069869953,2651.103238548053,-2015.7221297172646,841.72676005514563,6197.4560669644825,-246.08042536422727,-872.50909034636311,872.50909034636311,246.08042536422727,11851.85513632941,0.0
578296.95196600363,3705566.251970998,-17500.0,5993.7141026412482,-6608.2992295872664,4852.6008588610684,3040.1853242123398,-3043.1641602845675,1131.9227547846101,7394.7244196641441,-1707.6055651245911,838.47423508342956,-838.47423508342956,1707.6055651245911,14349.595147911645,0.0
583296.95196600363,3705566.251970998,-17500.0,5407.6390049342535,-7579.2406413382341,7996.8939074755353,3284.9413902464626,-4273.7234078485117,1460.8919015452432,8708.841633156937,-3424.2054565663752,3242.9898012254121,-3242.9898012254121,3424.2054565663752,17088.051648604182,0.0
588296.95196600363,3705566.251970998,-17500.0,4334.8074332086962,-7943.3725361316092,11651.563003059722,3291.9017684483879,-5632.9650695619903,1806.6419726903143,10067.66214882144,-5159.7842193296392,6252.5130527688116,-6252.5130527688116,5159.7842193296392,19885.088415866405,0.0
593296.95196600363,3705566.251970998,-17500.0,2914.1935908873979,-7415.2446872909768,15439.153399258554,2981.748247747802,-6983.5112272076876,2135.2652969340056,11364.433111198749,-6553.8580066912546,9573.7429769447026,-9573.7429769447026,6553.8580066912546,22476.114197108072,0.0
598296.95196600363,3705566.251970998,-17500.0,1434.6146737548688,-5843.0223941418644,18786.550391782272,2322.5104629894554,-8135.8254296721361,2404.7017009031797,12429.256150423547,-7196.2989181298362,12704.562723395393,-12704.562723395393,7196.2989181298362,24543.384387254817,0.0
603296.95196600363,3705566.251970998,-17500.0,270.16253739409268,-3321.4766960647039,21042.658944112965,1358.3750705043353,-8886.5279967943934,2572.8574273696127,13075.242357143525,-6768.8494521055572,15030.001780511771,-15030.001780511771,6768.8494521055572,25778.083709483079,0.0
608296.95196600363,3705566.251970998,-17500.0,-252.80195488519271,-228.59074563102908,21681.009731195012,215.78004944995442,-9077.1917827390644,2608.2842629895576,13175.973194205444,-5198.1717432052355,16011.97757392791,-16011.97757392791,5198.1717432052355,25961.626670224257,0.0
613296.95196600363,3705566.251970998,-17500.0,4.5167530847007678,2863.7816404623468,20499.693713228691,-924.21363576910414,-8649.6132734892035,2499.6304855978024,12700.221531755842,-2729.422273892782,15393.075891342618,-15393.075891342618,2729.422273892782,25035.05045753621,0.0
618296.95196600363,3705566.251970998,-17500.0,930.76823207987957,5378.1696439266552,17706.67489211469,-1879.1860594327918,-7668.8957349186812,2259.7696278574081,11729.07504724144,139.63954098898739,13300.827108342666,-13300.827108342666,-139.63954098898739,23123.71332384101,0.0
623296.95196600363,3705566.251970998,-17500.0,2218.4954055538979,6921.2144569689417,13839.737152348725,-2519.2497375547805,-6301.4467408848805,1922.5543164907256,10443.443263340456,2835.7534963480339,10191.317542858682,-10191.317542858682,-2835.7534963480339,20504.980450799234,0.0
628296.95196600363,3705566.251970998,-17500.0,3496.7470711579467,7379.1564692294096,9572.0531152437597,-2796.6002500921099,-4760.4711652022861,1533.5330615562261,9037.5308839902536,4899.9881626139186,6672.0047992196442,-6672.0047992196442,-4899.9881626139186,17535.555461059492,0.0
633296.95196600363,3705566.251970998,-17500.0,4462.9647516315526,6892.1436929152405,5510.1748511115857,-2742.1022357716461,-3246.6236869601594,1138.5857097461412,7659.4810401616287,6098.8302443816301,3306.0086737596771,-3306.0086737596771,-6098.8302443816301,14570.980491153647,0.0
638296.95196600363,3705566.251970998,-17500.0,4955.2944460551425,5750.541124297315,2067.8560460466992,-2438.3550347327391,-1907.2993583426887,774.71861671202487,6425.1338107502861,6429.4188034428207,483.70697009687638,-483.70697009687638,-6429.4188034428207,11903.765270487547,0.0
643296.95196600363,3705566.251970998,-17500.0,4955.3299065255433,4278.9260693001197,-563.39008324482984,-1986.2159931773072,-822.73184745001788,465.43130719068984,5407.8127524310421,6051.3209154952328,-1612.4769562367278,1612.4769562367278,-6051.3209154952328,9727.8166367537433,0.0
648296.95196600363,3705566.251970998,-17500.0,4546.305959937742,2752.9866723595183,-2374.3389487940794,-1478.1665796580728,-13.546121849902608,220.64842464871913,4629.5700421581923,5196.5134025634861,-2973.6893933281735,2973.6893933281735,-5196.5134025634861,8121.7354010898434,0.0
653296.95196600363,3705566.251970998,-17500.0,3859.11512219838,1362.0808832915488,-3470.1559617074458,-983.85709226978065,541.03455464562853,39.62798329823012,4066.4279641429416,4095.5882728554966,-3700.6400254102268,3700.6400254102268,-4095.5882728554966,7047.021532746011,0.0
658296.95196600363,3705566.251970998,-17500.0,3028.1483404107589,208.05148873005172,-4006.1347865864682,-546.64532901201244,883.77411182198932,-85.070877668544881,3666.0188334353552,2934.8574676969642,-3941.6229851253815,3941.6229851253815,-2934.8574676969642,6375.2252704871607,0.0
663296.95196600363,3705566.251970998,-17500.0,2165.0234432305715,-676.31501219876384,-4141.9321064894066,-187.06371581999571,1064.1232061600831,-163.96137484300641,3370.494532281019,1841.7851832102215,-3848.0142413975927,3848.0142413975927,-1841.7851832102215,5948.723724259582,0.0
668296.95196600363,3705566.251970998,-17500.0,1348.6476996969525,-1303.2924735480533,-4016.1911483407384,90.864128661170938,1128.5752521314021,-208.00370899828658,3133.3456332774131,888.89021149445421,-3549.6516954760891,3549.6516954760891,-888.89021149445421,5638.7059248563346,0.0
673296.95196600363,3705566.251970998,-17500.0,626.13275246120486,-1708.9750898646641,-3736.9385795222793,293.23145717542826,1115.961617645487,-227.06200289131561,2924.8002589391044,106.1741273839009,-3145.7644708435946,3145.7644708435946,-106.1741273839009,5366.3428694781733,0.0
678296.95196600363,3705566.251970998,-17500.0,19.030156005130934,-1937.9690427010919,-3381.6656531715494,431.13747498490056,1056.1559340187546,-229.22604696546171,2729.2727958834516,-504.85437518985304,-2705.4596709187244,2705.4596709187244,504.85437518985304,5094.4406924727791,0.0
683296.95196600363,3705566.251970998,-17500.0,-469.03944317346668,-2034.0363254620058,-3002.0497501404084,517.19651845810461,970.70011931730858,-220.69749282325827,2540.4116885478588,-959.16627707610985,-2272.7392718082701,2272.7392718082701,959.16627707610985,4811.240158247585,0.0
688296.95196600363,3705566.251970998,-17500.0,-845.51560435276826,-2035.362232828257,-2630.0423308822074,563.47427057011919,874.26391059135688,-205.98032945067592,2356.8471387513196,-1279.4176036060608,-1872.7710632238986,1872.7710632238986,1279.4176036060608,4517.5689224963744,0.0
693296.95196600363,3705566.251970998,-17500.0,-1123.6200537726161,-1972.8759145913,-2283.5889575589322,580.47217364569997,776.27687319365168,-188.19339162962035,2179.408344805981,-1490.2494361828949,-1517.6865109662817,1517.6865109662817,1490.2494361828949,4219.1226630281708,0.0
528296.95196600363,3710566.251970998,-17500.0,1139.9390215545309,535.40825351220815,-1364.3146703408834,143.39623001924375,299.4037982206263,-11.494818708482358,1401.0709031284737,1374.1387661194301,-1328.2614153731554,1328.2614153731554,-1374.1387661194301,2429.857059525862,0.0
533296.95196600363,3710566.251970998,-17500.0,1527.1113326912243,360.34897286942788,-1444.4861043518404,246.06452813814465,284.60977015415574,4.5891314696251273,1574.4052835259963,1518.8312936061841,-1536.3027744779954,1536.3027744779954,-1518.8312936061841,2727.3334370097841,0.0
538296.95196600363,3710566.251970998,-17500.0,1974.4171634630752,104.35557424807338,-1484.332614603406,378.74893454030155,245.96791902956019,28.962341281248548,1787.8285934290161,1638.6161209288298,-1743.6761456626505,1743.6761456626505,-1638.6161209288298,3108.6051909847092,0.0
543296.95196600363,3710566.251970998,-17500.0,2477.2134131483626,-252.80727507171298,-1455.8064228621613,546.66960071301673,172.40858245819922,64.609001954434319,2053.4760292570345,1710.9059104993003,-1930.389149559096,1930.389149559096,-1710.9059104993003,3602.4902136753835,0.0
548296.95196600363,3710566.251970998,-17500.0,3022.2489526672384,-731.50069197690982,-1319.5554776672504,754.16455898244237,49.396271657891504,115.23699316561952,2385.7804137387457,1705.0967867228078,-2065.2556703834002,2065.2556703834002,-1705.0967867228078,4242.5463046716277,0.0
553296.95196600363,3710566.251970998,-17500.0,3584.0857996448603,-1348.4931943973106,-1022.7507812575972,1003.275844257158,-141.34892251260632,185.23220339733737,2800.7177348025421,1582.2944847998115,-2102.6908629874024,2102.6908629874024,-1582.2944847998115,5064.7915524969603,0.0
558296.95196600363,3710566.251970998,-17500.0,4121.617273215923,-2110.7353356165568,-498.31268349820363,1291.6488228883127,-421.48754654677253,279.4207356720525,3314.2681836766646,1297.0715970359699,-1980.2950947936126,1980.2950947936126,-1297.0715970359699,6104.0301790231906,0.0
563296.95196600363,3710566.251970998,-17500.0,4576.0407108476702,-3006.1647339034585,332.61185544453917,1609.7474953236481,-814.49600821873491,402.52419863663295,3939.9010783326385,802.82811791122867,-1618.9949034202928,1618.9949034202928,-802.82811791122867,7388.5086176141049,0.0
568296.95196600363,3710566.251970998,-17500.0,4872.5632295825699,-3991.9434045959219,1552.2476267078457,1937.6990569649972,-1342.2007390399517,558.19288109196145,4684.9498612024026,62.518032851556995,-928.516725390445,928.516725390445,-62.518032851556995,8932.4461283666806,0.0
573296.95196600363,3710566.251970998,-17500.0,4928.868117155761,-4982.3702724170234,3228.850932592974,2242.6228159437792,-2018.7809859900417,747.56253934068218,5545.9715737103979,-934.1651841236951,178.32814909964759,-178.32814909964759,934.1651841236951,10726.21206731607,0.0
578296.95196600363,3710566.251970998,-17500.0,4673.0600909576287,-5841.5893713070427,5388.6072220488813,2478.0079574165893,-2842.1558503025522,967.44143357496205,6503.8267041892677,-2148.4129484325836,1759.7355964754604,-1759.7355964754604,2148.4129484325836,12724.888259711868,0.0
583296.95196600363,3710566.251970998,-17500.0,4071.1293813488464,-6389.2506725948506,7979.0480142428523,2587.2649383574767,-3783.9579149067595,1208.50858643896,7520.7256412804882,-3470.6100314316436,3808.1547833050072,-3808.1547833050072,3470.6100314316436,14837.712746949528,0.0
588296.95196600363,3710566.251970998,-17500.0,3158.0212921148345,-6427.9678740077152,10833.899831381221,2513.329062213113,-4781.2838668693266,1454.2258035659454,8542.3814102740762,-4711.099801779862,6211.0043568280498,-6211.0043568280498,4711.099801779862,16923.030632298014,0.0
593296.95196600363,3710566.251970998,-17500.0,2058.505098158339,-5795.9750551278648,13658.196099490895,2214.3561708253005,-5735.3235875157043,1681.3551888489408,9488.8479294717363,-5618.5342144606257,8726.9789069941871,-8726.9789069941871,5618.5342144606257,18794.72814442946,0.0
598296.95196600363,3710566.251970998,-17500.0,979.60877417499012,-4434.6912645708371,16055.769857239311,1681.9533527545977,-6522.0600768546565,1862.7698647119537,10238.025970657458,-5935.4078362373257,11001.461482770443,-11001.461482770443,5935.4078362373257,20244.853461265815,0.0
603296.95196600363,3710566.251970998,-17500.0,163.25705586404092,-2443.7276468692776,17609.919181710848,954.51778140093063,-7016.6691415577379,1972.4989344259329,10673.912357547777,-5482.1857408383203,12635.787536555907,-12635.787536555907,5482.1857408383203,21081.83598022037,0.0
608296.95196600363,3710566.251970998,-17500.0,-191.4340325697994,-88.759115631695181,18000.290861757494,117.28405171507242,-7126.1734033198809,1991.8435779301815,10722.818300480862,-4237.4626297663708,13298.47635007279,-13298.47635007279,4237.4626297663708,21175.45544747436,0.0
613296.95196600363,3710566.251970998,-17500.0,-2.9633663681926672,2256.1462213865443,17109.555873918078,-714.77610195428281,-6818.1019446412047,1914.5116961283077,10368.781513701284,-2370.7392648639534,12835.113644231777,-12835.113644231777,2370.7392648639534,20493.0485968264,0.0
618296.95196600363,3710566.251970998,-17500.0,660.13228350595273,4214.5375108770313,15067.530601588893,-1426.3454780523864,-6132.0451894284761,1748.7200274657607,9664.9570054295873,-202.67069270075353,11323.241497619187,-11323.241497619187,202.67069270075353,19112.057202625132,0.0
623296.95196600363,3710566.251970998,-17500.0,1607.1969872932318,5514.6814515861279,12209.629674186319,-1931.456440797677,-5168.3874600985864,1515.311410197218,8729.577215164918,1892.4674530398611,9044.0754517381356,-9044.0754517381356,-1892.4674530398611,17203.419014371746,0.0
628296.95196600363,3710566.251970998,-17500.0,2597.0285712933601,6050.6357022804905,8971.9857925560627,-2191.4337514314757,-4059.6822127160226,1242.6066264327198,7685.1400809057177,3595.5160087904701,6387.9557468586972,-6387.9557468586972,-3595.5160087904701,14992.988434807703,0.0
633296.95196600363,3710566.251970998,-17500.0,3415.4323570496108,5879.3509004068646,5773.7493077357585,-2215.9058341962559,-2937.448061080695,959.98444051806541,6626.7364047086949,4715.5711699869044,3741.3934493467273,-3741.3934493467273,-4715.5711699869044,12716.069680401892,0.0
638296.95196600363,3710566.251970998,-17500.0,3926.25124130513,5169.5613196235681,2931.9350832346463,-2050.1271732153609,-1906.5547192264005,692.38504217137779,5638.0602355861911,5207.3668731977268,1401.7204110423124,-1401.7204110423124,-5207.3668731977268,10579.134155713744,0.0
643296.95196600363,3710566.251970998,-17500.0,4084.5830755824386,4134.3150211102175,627.54091350536316,-1756.5058991208359,-1033.104801274405,457.12348861352649,4781.0035493862715,5142.6430395688203,-459.62249314627206,459.62249314627206,-5142.6430395688203,8735.2653322958195,0.0
648296.95196600363,3710566.251970998,-17500.0,3920.3248509311925,2974.3514539763905,-1084.3010248307573,-1397.8010835015896,-344.92365821950699,263.23083883834454,4087.021908929717,4660.1843942371543,-1790.2555027235508,1790.2555027235508,-4660.1843942371543,7271.6566034876114,0.0
653296.95196600363,3710566.251970998,-17500.0,3508.230436410056,1844.9418335467835,-2239.8549282949184,-1026.0927681964627,160.08203116489938,112.66282820087639,3556.8246373386655,3917.4284894368561,-2625.0555739076704,2625.0555739076704,-3917.4284894368561,6204.7772927555779,0.0
658296.95196600363,3710566.251970998,-17500.0,2938.5378866913252,845.63597864212898,-2927.0223803444314,-678.11645326698476,502.89196877220905,2.4065290240358941,3166.8638662144995,3056.3586568778251,-3048.1574833146565,3048.1574833146565,-3056.3586568778251,5485.1742506357768,0.0
663296.95196600363,3710566.251970998,-17500.0,2295.7665898747618,25.579683237704106,-3252.2166945391637,-375.41978935529841,713.3392762771723,-73.341122277832369,2880.9893006908583,2186.2818251736953,-3160.8834283400392,3160.8834283400392,-2186.2818251736953,5019.9961827136676,0.0
668296.95196600363,3710566.251970998,-17500.0,1647.3142682726129,-603.8803910874708,-3318.2624282809647,-127.18923278963022,822.78215624387815,-121.40733994390104,2662.8493685031426,1380.0331903885349,-3060.2814977941921,3060.2814977941921,-1380.0331903885349,4709.1466922585814,0.0
673296.95196600363,3710566.251970998,-17500.0,1040.0220154704377,-1055.4520212559796,-3212.746788056832,66.055366419591223,859.70700606209562,-148.45394248288625,2483.9157033403089,678.27428785344978,-2827.9054559973529,2827.9054559973529,-678.27428785344978,4473.9824956963103,0.0
678296.95196600363,3710566.251970998,-17500.0,501.73150273882464,-1354.3555817669424,-3004.0384951644855,209.02561116908373,847.7035671208979,-160.32049178043812,2325.6277959993567,97.188525159696383,-2526.1519058060653,2526.1519058060653,-97.188525159696383,4265.8469685749824,0.0
683296.95196600363,3710566.251970998,-17500.0,45.179553364114518,-1530.1012786439849,-2741.9277545081186,308.98982475146357,805.02667232146121,-161.76444285161739,2177.7700920598172,-363.51023981346577,-2199.1435961855527,2199.1435961855527,363.51023981346577,4060.5757686025222,0.0
688296.95196600363,3710566.251970998,-17500.0,-327.59355062664616,-1611.4191941045942,-2460.4901219982685,373.9500652374299,745.04897614346407,-156.45330085178693,2035.7334370062197,-713.8275857616876,-1875.7647096679161,1875.7647096679161,713.8275857616876,3849.4657503408071,0.0
533296.95196600363,3715566.251970998,-17500.0,1647.0733278093146,27.650109987771092,-1168.3299746230673,311.26348230072398,178.11537181782631,25.007497919068165,1450.2283978906439,1311.9652827452883,-1409.6168769113669,1409.6168769113669,-1311.9652827452883,2525.6578403717526,0.0
538296.95196600363,3715566.251970998,-17500.0,2030.3317895924806,-250.7212757880377,-1133.5158149690683,434.48297554501698,122.4089331884383,49.99609559706365,1655.2433192556305,1360.0793813504301,-1542.9898336902393,1542.9898336902393,-1360.0793813504301,2909.6464505870345,0.0
543296.95196600363,3715566.251970998,-17500.0,2443.582311803656,-615.21997585012105,-1020.036801234904,584.56919238662022,33.044736398628032,84.676624939529873,1908.3966764813874,1352.3581643471825,-1637.9310035583985,1637.9310035583985,-1352.3581643471825,3399.2158976411988,0.0
548296.95196600363,3715566.251970998,-17500.0,2870.4787960933968,-1076.9155038618583,-793.01428141964084,762.95167748302845,-101.50330774185404,131.73632769771046,2220.2910127741789,1263.4043869484615,-1664.4948979543985,1664.4948979543985,-1263.4043869484615,4018.079556388313,0.0
553296.95196600363,3715566.251970998,-17500.0,3285.2144520005595,-1641.1338472656475,-408.83180858754844,968.59698611455156,-294.82938728854481,194.16557783791782,2601.569593751477,1063.7242503237198,-1582.5053345996653,1582.5053345996653,-1063.7242503237198,4789.2961658485683,0.0
558296.95196600363,3715566.251970998,-17500.0,3651.2058321939348,-2302.3799068086173,183.66067802562688,1196.5053510506534,-561.84270410130102,275.00482739498733,3061.541946216611,722.52771920481018,-1341.4467972359103,1341.4467972359103,-722.52771920481018,5732.3825527327745,0.0
563296.95196600363,3715566.251970998,-17500.0,3921.5463535303406,-3037.818282910906,1038.9976660267432,1435.9640745692234,-917.09112313651815,376.88578598640055,3606.2270545603201,213.25146346377767,-882.95977860253868,882.95977860253868,-213.25146346377767,6859.3159588286353,0.0
568296.95196600363,3715566.251970998,-17500.0,4042.6831278429208,-3800.213409735924,2206.5030663133675,1668.9043705413646,-1371.829579101234,501.32387098707727,4235.8157638824132,-477.54255523252243,-147.63056362675957,147.63056362675957,477.54255523252243,8169.2441389190435,0.0
573296.95196600363,3715566.251970998,-17500.0,3962.7948042381736,-4512.470084316491,3716.0951301064711,1869.0233846440108,-1929.6817760661575,647.77501231180918,4941.7952546109418,-1338.1216494238413,912.34604792146479,-912.34604792146479,1338.1216494238413,9642.1119025299431,0.0
578296.95196600363,3715566.251970998,-17500.0,3645.5077280728201,-5067.3802151061082,5558.7797190959664,2002.639919179391,-2581.2115887813393,812.57701490167119,5704.5672981341359,-2318.4368867205494,2314.2367589840496,-2314.2367589840496,2318.4368867205494,11232.139582131174,0.0
583296.95196600363,3715566.251970998,-17500.0,3087.4019839586977,-5337.0892755082114,7665.0890509924402,2032.3339727980242,-3298.5251690898899,988.04607431108457,6493.7499934341795,-3320.560068992711,4021.9975158597049,-4021.9975158597049,3320.560068992711,12863.056531179305,0.0
588296.95196600363,3715566.251970998,-17500.0,2334.3075823141921,-5195.7378910477737,9888.8500012204167,1923.9541493256404,-4031.9902398897088,1162.140848824615,7270.5730780329086,-4199.7767732864449,5926.3943919624835,-5926.3943919624835,4199.7767732864449,14427.854331381333,0.0
593296.95196600363,3715566.251970998,-17500.0,1488.0726862717281,-4554.3247142684886,12007.044083948587,1656.3269775839467,-4711.7631770498647,1319.1425262575651,7970.2151192928559,-4783.3356774402264,7838.8326513632246,-7838.8326513632246,4783.3356774402264,15795.957801738941,0.0
598296.95196600363,3715566.251970998,-17500.0,695.18225357360018,-3399.2750897465417,13745.644131230843,1231.1596105578105,-5256.255547212294,1441.6187567724112,8505.4945790238507,-4908.8546933816951,9509.9888187781289,-9509.9888187781289,4908.8546933816951,16829.364932894081,0.0
603296.95196600363,3715566.251970998,-17500.0,114.1438009279163,-1818.9650245556902,14833.161996257792,679.10757400703164,-5587.4197056045687,1513.5093609029268,8804.5933673692634,-4474.3060573760413,10677.271754997995,-10677.271754997995,4474.3060573760413,17406.253845624931,0.0
608296.95196600363,3715566.251970998,-17500.0,-130.55527030107567,-1.6628544985144078,15069.423427071328,58.131109569137884,-5649.2671780991341,1523.6200958121472,8823.3320927650875,-3480.9663519047563,11131.107638591937,-11131.107638591937,3480.9663519047563,17446.633576062461,0.0
613296.95196600363,3715566.251970998,-17500.0,10.148412385161535,1801.7404008229246,14384.607159906029,-557.12797399175861,-5423.259610953477,1468.4286893707506,8553.3056454522794,-2048.0250490812659,10776.337624853095,-10776.337624853095,2048.0250490812659,16932.066340055913,0.0
618296.95196600363,3715566.251970998,-17500.0,492.49272893081019,3339.6837832821407,12862.904710798643,-1092.1041805318087,-4934.2998496516448,1353.1721231508141,8029.9305016554281,-387.90693656233452,9662.2130500060775,-9662.2130500060775,387.90693656233452,15912.302972516065,0.0
623296.95196600363,3715566.251970998,-17500.0,1195.0656692070163,4422.4954002508939,10719.770281237286,-1489.1932976273281,-4244.6698930411694,1190.7669265196128,7334.1211969320093,1249.6483243203893,7967.3721565161886,-7967.3721565161886,-1249.6483243203893,14496.244855527446,0.0
628296.95196600363,3715566.251970998,-17500.0,1958.7744993419524,4961.3672954471731,8243.1930306328522,-1718.7090472777297,-3438.4440154074591,998.93707877004169,6547.2856162507778,2641.559298461741,5947.4537887286915,-5947.4537887286915,-2641.559298461741,12830.560964084407,0.0
633296.95196600363,3715566.251970998,-17500.0,2633.0007070938277,4972.6323030644471,5723.9198350297675,-1780.9042340591413,-2602.5346317743652,796.56045853435626,5730.2112676348697,3638.8311858898778,3868.7269098840579,-3868.7269098840579,-3638.8311858898778,11073.311040489085,0.0
638296.95196600363,3715566.251970998,-17500.0,3110.0502509568096,4552.7930303794701,3399.3904237780953,-1700.0763144935481,-1810.7504325711404,600.38003637884583,4942.0500437707642,4184.2629666972935,1952.5549269748915,-1952.5549269748915,-4184.2629666972935,9370.1287974098686,0.0
643296.95196600363,3715566.251970998,-17500.0,3339.2730965817636,3839.7284139000485,1424.7008536161472,-1514.437795130948,-1114.6516783583759,422.87546700978993,4231.5415132670942,4302.2178704580701,345.06773506292461,-345.06773506292461,-4302.2178704580701,7837.4588695556813,0.0
648296.95196600363,3715566.251970998,-17500.0,3322.5343946931102,2975.6991583638242,-129.60291611467105,-1265.797586134313,-541.63382573737772,271.52412815927454,3629.499647125625,4071.8664742082356,-886.96858722732554,886.96858722732554,-4071.8664742082356,6553.2127934630316,0.0
653296.95196600363,3715566.251970998,-17500.0,3098.6431956474453,2081.6247205418176,-1261.6531865801053,-991.78576205108914,-98.305644142604535,149.20278073093456,3146.9469287638744,3596.8868137687346,-1742.0461489519153,1742.0461489519153,-3596.8868137687346,5552.5077537269945,0.0
658296.95196600363,3715566.251970998,-17500.0,2724.9973904118378,1244.9268503459464,-2015.0084286513234,-721.57945063053796,223.54813756588649,55.25434151602731,2777.0789923599477,2980.7148178504494,-2261.9679049695824,2261.9679049695824,-2980.7148178504494,4827.2213677219879,0.0
663296.95196600363,3715566.251970998,-17500.0,2262.1159775238175,518.35763447951979,-2456.2529575425342,-474.72752027255012,440.71731231332654,-13.248818309937814,2500.4729163461743,2311.044182146823,-2510.3005979087175,2510.3005979087175,-2311.044182146823,4332.3385842075195,0.0
668296.95196600363,3715566.251970998,-17500.0,1763.4705098973573,-74.551401232439318,-2657.7899817836392,-262.05461946873544,573.40124571683839,-60.367344567079691,2292.3477618865295,1653.1828609094368,-2555.7071952926058,2555.7071952926058,-1653.1828609094368,4002.4149180590507,0.0
673296.95196600363,3715566.251970998,-17500.0,1270.5544207383962,-531.44088162708601,-2686.9180973535194,-87.577777177415626,641.63615302519008,-90.440068960676925,2129.2988030293996,1049.818720090818,-2461.3781055100262,2461.3781055100262,-1049.818720090818,3772.6893768175551,0.0
678296.95196600363,3715566.251970998,-17500.0,811.88629992814344,-863.18939523430743,-2600.3311109991123,49.362664577581114,663.23520279371496,-107.53705009640146,1993.2211636927418,524.39346526754878,-2279.7859451273389,2279.7859451273389,-524.39346526754878,3593.5407622302837,0.0
683296.95196600363,3715566.251970998,-17500.0,404.38325946600594,-1087.4695464485378,-2442.4769679143919,152.22166142844887,652.89783389633874,-115.17351722277442,1872.1478590290501,85.845539839958747,-2051.2376898019115,2051.2376898019115,-85.845539839958747,3433.883801983553,0.0
538296.95196600363,3720566.251970998,-17500.0,1998.8563472359956,-520.08628693917115,-799.39438182989431,458.63086415049014,22.265014627387803,63.032793222011499,1545.7728445980235,1087.2267080323832,-1315.9141155929515,1315.9141155929515,-1087.2267080323832,2757.6590693014305,0.0
543296.95196600363,3720566.251970998,-17500.0,2328.1068056992272,-871.47818204692953,-622.76748458135478,588.59706566138914,-74.63349305530906,95.285946515494288,1783.9159184601854,1021.3754594165785,-1334.763081856086,1334.763081856086,-1021.3754594165785,3230.9204656570228,0.0
548296.95196600363,3720566.251970998,-17500.0,2651.641354738098,-1296.5706231020588,-335.01917638251274,737.72461065759296,-211.11088806687488,137.48612952093103,2071.8610362963932,878.2378084268247,-1277.9579625465285,1277.9579625465285,-878.2378084268247,3813.3832499682335,0.0
553296.95196600363,3720566.251970998,-17500.0,2946.0599710317333,-1792.9761652672596,97.874951962963451,903.31483620701408,-396.82024170044991,191.58637568739792,2416.1268546898496,637.08039498240328,-1112.3483483194348,1112.3483483194348,-637.08039498240328,4518.700569950488,0.0
558296.95196600363,3720566.251970998,-17500.0,3181.2562738309794,-2348.1866891585487,712.70195831926503,1079.4152340689898,-641.48218402839814,259.39238475989583,2821.4027121318727,279.03310586425789,-799.39766205174067,799.39766205174067,-279.03310586425789,5356.3160272249779,0.0
563296.95196600363,3720566.251970998,-17500.0,3322.0460592438449,-2935.3940919116239,1544.5655513772069,1255.8280866300163,-953.39911911745969,342.20946879193923,3289.1196102247191,-208.13074656278133,-298.54614250127582,298.54614250127582,208.13074656278133,6328.514772083814,0.0
568296.95196600363,3720566.251970998,-17500.0,3332.1919450757619,-3509.8023983170328,2619.4564006066353,1417.4056134227712,-1337.2137883716257,440.35410917621482,3815.7705562293977,-823.36704476051307,426.37288203207765,-426.37288203207765,823.36704476051307,7426.7946789325124,0.0
573296.95196600363,3720566.251970998,-17500.0,3181.3551402187018,-4007.0728064773648,3943.6895610747174,1544.0768581689701,-1790.9734136232985,552.5648220477658,4391.2947418361564,-1544.604123695522,1397.1966604558979,-1397.1966604558979,1544.604123695522,8627.9130974316322,0.0
578296.95196600363,3720566.251970998,-17500.0,2854.6940333374359,-4346.1450481035581,5491.2456868963618,1612.1499437729183,-2302.8898576088268,675.41295500472143,4998.4873942220802,-2321.7467206153497,2608.5892514264651,-2608.5892514264651,2321.7467206153497,9890.4183693527484,0.0
583296.95196600363,3720566.251970998,-17500.0,2363.3629880835474,-4438.6438605413887,7191.8833663271298,1597.3415048333129,-2848.631105629524,802.88808063821341,5615.6400499564179,-3073.6378421889963,4014.7459597400998,-4014.7459597400998,3073.6378421889963,11152.925670399341,0.0
588296.95196600363,3720566.251970998,-17500.0,1752.3899588203496,-4205.7824466846787,8924.8991877050084,1479.5845564327205,-3390.4042557393122,926.39117420687433,6213.1864265268769,-3692.8828474806242,5520.3170435016846,-5520.3170435016846,3692.8828474806242,12335.700180116952,0.0
593296.95196600363,3720566.251970998,-17500.0,1101.2483080011521,-3600.722155475587,10524.325856166472,1248.9072272373126,-3879.1783393385858,1035.3489787231495,6734.9435323349817,-4061.4245320903892,6981.6060407512332,-6981.6060407512332,4061.4245320903892,13346.86065579511,0.0
598296.95196600363,3720566.251970998,-17500.0,513.27512586471994,-2630.4205079418202,11799.653561069919,910.77817205922156,-4260.835278504921,1118.535781942506,7122.1791145168718,-4076.2575435945223,8222.9900390242692,-8222.9900390242692,4076.2575435945223,14093.527465527704,0.0
603296.95196600363,3720566.251970998,-17500.0,93.781983182206758,-1368.1368320620002,12570.989706746672,488.76355441298961,-4485.7160083196795,1165.9495119452174,7330.0977301760486,-3679.3043128686768,9068.7767816304258,-9068.7767816304258,3679.3043128686768,14496.537784859582,0.0
608296.95196600363,3720566.251970998,-17500.0,-77.677854341566317,51.374294864084824,12710.343870795841,22.697019839990354,-4519.339200671473,1170.8179430713915,7331.3985725419197,-2880.8988919037743,9383.4152097112947,-9383.4152097112947,2880.8988919037743,14505.488405031694,0.0
613296.95196600363,3720566.251970998,-17500.0,29.078774562754909,1456.1437452270159,12175.343935638964,-437.98064398773101,-4350.9171329587198,1131.1487468785024,7121.4496186922979,-1766.1306055251653,9106.8736192798242,-9106.8736192798242,1766.1306055251653,14109.864142672772,0.0
618296.95196600363,3720566.251970998,-17500.0,385.23574181376426,2674.3509273733789,11022.325663705473,-844.05095237792773,-3996.557900786554,1050.3025977778339,6723.7282267375922,-479.15393870721709,8271.5711231629666,-8271.5711231629666,479.15393870721709,13342.667267837787,0.0
623296.95196600363,3720566.251970998,-17500.0,911.58779316158996,3571.9797117990447,9393.3027826219277,-1156.390971815892,-3495.8690099258633,936.37112579165864,6195.3100383754672,809.99369907801747,6993.9993487276533,-6993.9993487276533,-809.99369907801747,12275.261139358267,0.0
628296.95196600363,3720566.251970998,-17500.0,1501.5656968979306,4077.8785827019551,7481.9769532134978,-1352.74189768767,-2903.1976296210901,800.55683840363952,5594.4360053072878,1944.0024085470018,5444.7113354440826,-5444.7113354440826,-1944.0024085470018,11005.077739091128,0.0
633296.95196600363,3720566.251970998,-17500.0,2049.1451136138653,4189.4832830283385,5491.565317955934,-1429.6358470400323,-2276.5858214770028,655.07132130174239,4959.3935063423869,2809.0346816550896,3808.5451766664178,-3808.5451766664178,-2809.0346816550896,9639.9222974083405,0.0
638296.95196600363,3720566.251970998,-17500.0,2471.7046003235359,3960.8203247639326,3598.1421755380629,-1399.7228643725985,-1667.8418555472085,511.15784524617385,4331.2696906279589,3349.3703494176043,2248.6715609686871,-2248.6715609686871,-3349.3703494176043,8283.0002604286165,0.0
643296.95196600363,3720566.251970998,-17500.0,2721.9730419925927,3480.2962956176566,1928.2398386580476,-1286.22483667193,-1116.0488245852564,377.6947163252924,3747.2178771011295,3565.2686106128758,883.68394868549035,-883.68394868549035,-3565.2686106128758,7021.5473056292249,0.0
648296.95196600363,3720566.251970998,-17500.0,2788.5851482386947,2847.0537722093268,552.47876407892909,-1116.6831122478775,-645.17094104374337,260.55878306026949,3233.9339841674155,3499.1434684616165,-219.84869395546275,219.84869395546275,-3499.1434684616165,5919.8799704396279,0.0
653296.95196600363,3720566.251970998,-17500.0,2688.5968981307815,2152.3021272444189,-508.30307967478336,-917.70960720087407,-265.06427124806589,162.67497314810265,2805.526825614716,3217.1756040333239,-1042.3916249231195,1042.3916249231195,-3217.1756040333239,5015.9639758705853,0.0
658296.95196600363,3720566.251970998,-17500.0,2456.5474811107492,1468.2941439954618,-1270.1640869979756,-711.57986269443222,25.474347536916554,84.523131349087592,2463.7649422101795,2792.2877184437498,-1599.4907946143726,1599.4907946143726,-2792.2877184437498,4320.1476425746541,0.0
663296.95196600363,3720566.251970998,-17500.0,2133.8751681765771,844.54015862724805,-1771.6452472023705,-514.72066376793396,234.96790818624757,24.847426986729058,2200.1919914373307,2291.7745673957211,-1928.0262430237385,1928.0262430237385,-2291.7745673957211,3816.3363197700965,0.0
668296.95196600363,3720566.251970998,-17500.0,1760.8638929680935,309.19920110594757,-2061.2754807244091,-337.66668599921599,375.80064839027403,-18.635762896835139,1999.8469656142565,1770.366282165875,-2074.1635947295499,2074.1635947295499,-1770.366282165875,3467.9129039505451,0.0
673296.95196600363,3720566.251970998,-17500.0,1371.7451949101712,-126.74658600430742,-2188.5015788072956,-185.90443704146048,461.53773561563884,-48.652469313729448,1845.6910539440464,1267.8749985873583,-2084.5816654251093,2084.5816654251093,-1267.8749985873583,3229.0628868709518,0.0
678296.95196600363,3720566.251970998,-17500.0,992.59292605015514,-464.46695346911957,-2198.1506864580429,-61.090956871245574,505.14359493842539,-67.953018427362466,1722.3056132628433,809.94647008385823,-2001.144260342928,2001.144260342928,-809.94647008385823,3057.0520808693154,0.0
543296.95196600363,3725566.251970998,-17500.0,2165.0741154031821,-1039.110836973608,-275.16589015049288,570.08198470592174,-154.33861449314134,99.118801328651656,1671.7436822030579,730.35126595909139,-1042.5224532675911,1042.5224532675911,-730.35126595909139,3076.8834010316677,0.0
548296.95196600363,3725566.251970998,-17500.0,2402.545827186485,-1417.4999534484332,47.929216889943277,692.10043915345636,-286.26974306396056,136.01892458957019,1933.6085150991673,556.24102484242781,-925.72985317728649,925.72985317728649,-556.24102484242781,3613.2174296921494,0.0
553296.95196600363,3725566.251970998,-17500.0,2602.6131228165914,-1841.8451495668055,499.65812305492796,822.86345026302774,-458.35626068203476,181.96030027943084,2240.0645207506877,299.38929914115647,-706.73813670980724,706.73813670980724,-299.38929914115647,4246.2007354624529,0.0
558296.95196600363,3725566.251970998,-17500.0,2741.8366441208004,-2296.5184014384231,1104.9775654244202,956.4613420236268,-676.55154411105445,237.93412490827563,2592.8050353921462,-50.176421836140577,-357.61383632074285,357.61383632074285,50.176421836140577,4978.9467836878666,0.0
563296.95196600363,3725566.251970998,-17500.0,2795.0817362700268,-2754.8662095076093,1884.5305962314633,1083.985501696437,-945.02021557889066,304.44972635301627,2990.6477518318338,-495.23793213100453,148.17220999348388,-148.17220999348388,495.23793213100453,5808.3242157687173,0.0
568296.95196600363,3725566.251970998,-17500.0,2739.1133655638928,-3177.6866095110104,2848.8020715212251,1193.3502567113539,-1264.532264357598,381.21181290102152,3428.4967149580893,-1026.814329793579,830.4034910416176,-830.4034910416176,1026.814329793579,6722.5607567005991,0.0
573296.95196600363,3725566.251970998,-17500.0,2557.8449538171617,-3513.7051022332971,3990.7463920163495,1269.7030263676133,-1630.5719192473464,466.76679059159869,3896.6544824156749,-1619.5305651571155,1694.8794684392312,-1694.8794684392312,1619.5305651571155,7698.9106786077837,0.0
578296.95196600363,3725566.251970998,-17500.0,2248.6697458849535,-3703.3149996864745,5278.0054770742909,1296.7005563418982,-2031.4978399608585,558.19073767956058,4381.8750742980692,-2228.3714356555338,2725.1568754160671,-2725.1568754160671,2228.3714356555338,8701.9823082032981,0.0
583296.95196600363,3725566.251970998,-17500.0,1828.4329149441287,-3686.5082345464898,6646.8596135309517,1258.8060960615221,-2447.3169103189798,650.92750845059936,4870.5979126294678,-2788.8173704649803,3875.2304135090121,-3875.2304135090121,2788.8173704649803,9683.5099912963597,0.0
588296.95196600363,3725566.251970998,-17500.0,1336.7714740170559,-3414.8555991175672,8000.9087079149876,1144.4764812843866,-2849.7924208872942,738.9017210285665,5333.2402241750069,-3222.3665818086797,5066.1368132890038,-5066.1368132890038,3222.3665818086797,10584.403878312098,0.0
593296.95196600363,3725566.251970998,-17500.0,834.30801414463235,-2865.5995009452486,9217.4562376164849,949.68040631501481,-3204.5318487654718,815.00403386101198,5724.9082210018278,-3448.4077107327685,6189.7241064061946,-6189.7241064061946,3448.4077107327685,11339.625573161589,0.0
598296.95196600363,3725566.251970998,-17500.0,394.1168267281115,-2053.9667799827557,10163.062324805358,680.76791015525487,-3475.2846712988662,871.96311289883897,6008.1088628941152,-3401.1932752578841,7121.6197860936545,-7121.6197860936545,3401.1932752578841,11885.792484035484,0.0
603296.95196600363,3725566.251970998,-17500.0,87.160517759397251,-1038.7877573696994,10716.615310722767,355.5426274285943,-3629.9277338152169,903.48708511726352,6154.1400081410065,-3047.8612055577778,7742.483957018796,-7742.483957018796,3047.8612055577778,12170.463823071956,0.0
608296.95196600363,3725566.251970998,-17500.0,-34.702160440010779,82.44086342320189,10794.598092573235,1.6995087627881347,-3646.7919765469837,905.42664111557576,6145.6250419489688,-2401.5019603932105,7962.8420034330975,-7962.8420034330975,2401.5019603932105,12161.180961500999,0.0
613296.95196600363,3725566.251970998,-17500.0,47.454300879946203,1189.5528844031212,10370.881765044156,-347.40146721592669,-3519.5010066440891,876.64395366103452,5979.8903395468797,-1523.712172137165,7744.032796638844,-7744.032796638844,1523.712172137165,11851.939267207328,0.0
618296.95196600363,3725566.251970998,-17500.0,314.14751348741203,2162.8712680986923,9484.1633012645452,-658.64878646423426,-3258.7279919772532,819.31990610271316,5672.2732110749939,-514.40828149212075,7108.0404118251481,-7108.0404118251481,514.40828149212075,11265.228151015524,0.0
623296.95196600363,3725566.251970998,-17500.0,712.55702890905786,2906.4891095971429,8230.2166054182035,-905.10141490878539,-2890.2271804766756,738.59222520228059,5262.983807712003,508.46082455193391,6132.6250727935731,-6132.6250727935731,-508.46082455193391,10448.974189254848,0.0
628296.95196600363,3725566.251970998,-17500.0,1170.168758640448,3364.5734960835366,6741.6303737324433,-1070.2295940522195,-2449.7701824343176,641.62777941331478,4797.8164020598297,1432.7804874034157,4933.6088445571841,-4933.6088445571841,-1432.7804874034157,9469.2473986460354,0.0
633296.95196600363,3725566.251970998,-17500.0,1611.9493864362341,3526.6065666867494,5161.8076103199128,-1149.4643274121511,-1976.5748135396441,536.39677376410884,4300.4459154261358,2172.3359706356168,3640.5496891698631,-3640.5496891698631,-2172.3359706356168,8400.6890460691066,0.0
638296.95196600363,3725566.251970998,-17500.0,1975.4497935068598,3421.8216963604241,3620.959171178245,-1149.0475840308447,-1507.0853678921346,430.47627150405452,3798.6615456452018,2678.000331451095,2373.4016975898794,-2373.4016975898794,-2678.000331451095,7316.9907645764988,0.0
643296.95196600363,3725566.251970998,-17500.0,2220.0410188007368,3106.4939688466202,2219.6169336501007,-1082.9932132252052,-1070.4885871052657,330.14066807239681,3320.3003325907644,2938.8392879544062,1225.9000642746353,-1225.9000642746353,-2938.8392879544062,6283.1756872891219,0.0
648296.95196600363,3725566.251970998,-17500.0,2329.2835256799235,2649.0003933094667,1021.6665700135494,-969.32216326363982,-686.55488079695556,239.87021340808298,2887.2464303215197,2975.3019575587805,258.01293717721751,-258.01293717721751,-2975.3019575587805,5350.4949537968077,0.0
653296.95196600363,3725566.251970998,-17500.0,2307.7673473941859,2116.754848354848,55.683152928181883,-826.60225810167071,-365.6089177368284,162.26603596172271,2513.4018287163267,2828.3183811400713,-503.43730965487225,503.43730965487225,-2828.3183811400713,4553.6783251809265,0.0
658296.95196600363,3725566.251970998,-17500.0,2174.8715442483153,1567.2709297964116,-678.3688930438351,-671.41634219139314,-109.97496159336654,98.26808551529561,2204.3239238096789,2547.9853908737482,-1058.7221806733487,1058.7221806733487,-2547.9853908737482,3909.7201497697229,0.0
663296.95196600363,3725566.251970998,-17500.0,1957.8415839166864,1043.7749834746771,-1200.2357124041391,-516.94687861294142,83.866259315894126,47.540124901726557,1957.9787247343777,2184.3334689306603,-1426.8120218607755,1426.8120218607755,-2184.3334689306603,3417.7515605539043,0.0
668296.95196600363,3725566.251970998,-17500.0,1685.8408140560678,574.54528081162118,-1540.7287606364564,-372.53725464369944,223.04756301720451,8.8977164517326237,1766.4893580258515,1781.2201506249025,-1637.0898748071131,1637.0898748071131,-1781.2201506249025,3060.7230026937082,0.0
548296.95196600363,3730566.251970998,-17500.0,2147.4519055443916,-1464.3932222852698,357.22159399035701,635.78562033607932,-333.90456470201127,129.99750960917231,1802.3452064265941,295.97622211637304,-617.62065195416494,617.62065195416494,-295.97622211637304,3412.3054032126224,0.0
553296.95196600363,3730566.251970998,-17500.0,2275.9451687492733,-1819.1395937729928,806.23525404804343,737.42112095050027,-489.40450067160549,168.45469264620795,2072.1812443416802,40.912104276644868,-369.01808588724441,369.01808588724441,-40.912104276644868,3972.6427352546298,0.0
558296.95196600363,3730566.251970998,-17500.0,2347.0541624713192,-2184.1009218375098,1381.6330258476651,837.1854679691487,-680.33954124677518,214.15823049989146,2376.5231010860252,-285.28943408632301,-9.2721873063743487,9.2721873063743487,285.28943408632301,4606.9789364092294,0.0
563296.95196600363,3730566.251970998,-17500.0,2343.5907201738246,-2534.9667880002744,2093.8867374542283,927.69073969897818,-908.27116962964851,267.1692777103143,2712.8582810913504,-679.6927526658335,477.73945847916599,-477.73945847916599,679.6927526658335,5309.4497934178617,0.0
568296.95196600363,3730566.251970998,-17500.0,2251.5490218078789,-2839.0794001635927,2943.8049911676771,999.60160909669037,-1171.880727653737,326.92712444929833,3075.7431204758709,-1129.6821004389417,1100.8697243224674,-1100.8697243224674,1129.6821004389417,6067.4836418138048,0.0
573296.95196600363,3730566.251970998,-17500.0,2063.8365987577613,-3056.7953304320667,3917.6336285261705,1042.1531424499935,-1465.8012941787697,392.04463048506329,3456.9820379755447,-1610.4219381631797,1856.6961029054842,-1856.6961029054842,1610.4219381631797,6860.5085593847452,0.0
578296.95196600363,3730566.251970998,-17500.0,1784.2650370873776,-3145.1150748443929,4982.5169049991755,1044.2260897014378,-1779.6291654754048,460.15359325200046,3848.8825437550358,-2083.7332445312095,2724.4461759961414,-2724.4461759961414,2083.7332445312095,7659.284483943582,0.0
583296.95196600363,3730566.251970998,-17500.0,1430.7520524525919,-3063.8593848326655,6083.7913625395813,996.00206405928088,-2097.4731296877949,527.86442524498307,4239.975506121712,-2499.5576226362023,3662.2590347064065,-3662.2590347064065,2499.5576226362023,8426.3335101791017,0.0
588296.95196600363,3730566.251970998,-17500.0,1036.3485872630531,-2783.9134808059052,7145.8671674183715,891.03514131066652,-2398.4368223195365,590.90504246794319,4598.491103136892,-2800.9559438119813,4606.5913492600466,-4606.5913492600466,2800.9559438119813,9117.8908796477408,0.0
593296.95196600363,3730566.251970998,-17500.0,646.79256854370828,-2296.0238182503435,8078.1541890395292,728.34412017012016,-2658.3276492358564,644.48032541220562,4894.5126191701347,-2932.7819462028624,5476.4411965566214,-5476.4411965566214,2932.7819462028624,9687.5731358304947,0.0
598296.95196600363,3730566.251970998,-17500.0,314.03960755930319,-1617.6951763202906,8786.3661962439728,513.94071521188596,-2852.6031960828786,683.84121801573019,5103.7201433260097,-2852.8309965250919,6183.0864704949199,-6183.0864704949199,2852.8309965250919,10091.543204547812,0.0
603296.95196600363,3730566.251970998,-17500.0,86.575418612980584,-795.45854762843896,9187.735646055924,261.18126170863218,-2960.1545086303322,704.98308271183305,5207.1307379921063,-2542.8278204405883,6644.2850762582602,-6644.2850762582602,2542.8278204405883,10294.453472139508,0.0
608296.95196600363,3730566.251970998,-17500.0,-1.17458772412034,99.365690782990981,9226.7637635128631,-10.447009988441595,-2967.1107206693537,705.32844583307269,5193.3973533612088,-2015.8056250065661,6799.880251985056,-6799.880251985056,2015.8056250065661,10274.999388794557,0.0
613296.95196600363,3730566.251970998,-17500.0,62.856772176581167,981.34020897059088,8887.1313017567027,-278.04376645993051,-2869.6558392456163,684.22210206805562,5060.9355889324643,-1316.937073626189,6624.5119853882188,-6624.5119853882188,1316.937073626189,10029.785756686957,0.0
618296.95196600363,3730566.251970998,-17500.0,265.19078100065576,1765.6174686020865,8196.0233626123136,-518.93642794993309,-2675.0143415501057,643.09868317912822,4819.7116239643219,-516.79490830583745,6133.4704084375198,-6133.4704084375198,516.79490830583745,9574.4974220160202,0.0
623296.95196600363,3730566.251970998,-17500.0,569.88536021309596,2382.6848430325222,7219.3718539495967,-714.31621761525719,-2400.2772410290609,585.26919183807297,4496.9289391203565,301.38290484206163,5379.7656691727334,-5379.7656691727334,-301.38290484206163,8942.030494991006,0.0
628296.95196600363,3730566.251970998,-17500.0,926.83327562446516,2789.1151919504841,6049.4436764328648,-851.93529285439547,-2069.39557353383,515.37989375206712,4131.5295617552902,1056.7795432180822,4443.3800315739591,-4443.3800315739591,-1056.7795432180822,8178.0323176284828,0.0
633296.95196600363,3730566.251970998,-17500.0,1282.5213451016432,2971.8342213820429,4788.5107837150708,-927.27271762787336,-1709.1974290927219,438.68824129556327,3738.7616782055766,1684.2287687734936,3416.1050690604698,-3416.1050690604698,-1684.2287687734936,7334.947426682701,0.0
638296.95196600363,3730566.251970998,-17500.0,1590.0388329555301,2945.7202949102239,3533.0086846650579,-943.09327388582847,-1345.4479883032748,360.33026408021988,3336.2742817152266,2142.4630582335681,2386.2644469138718,-2386.2644469138718,-2142.4630582335681,6465.8620067012762,0.0
643296.95196600363,3730566.251970998,-17500.0,1815.920303274801,2746.3338519519316,2361.6851402013258,-907.78259600194019,-999.79472687717043,284.73137380898095,2944.6812941491685,2416.266723239929,1426.9051536819566,-1426.9051536819566,-2416.266723239929,5619.260891163126,0.0
648296.95196600363,3730566.251970998,-17500.0,1942.8691616183703,2420.5227180058687,1329.3826704742635,-833.08337629527728,-688.03048267344229,215.24623965043892,2581.4245756844812,2513.3797308981857,589.28570261354764,-589.28570261354764,-2513.3797308981857,4835.3082183969191,0.0
653296.95196600363,3730566.251970998,-17500.0,1968.7929932088398,2017.465846585505,466.22363164639415,-731.84350467678496,-419.67144836061658,154.03821902768655,2258.892107758606,2458.1656700792355,-98.37460548908598,98.37460548908598,-2458.1656700792355,4143.6598678490354,0.0
658296.95196600363,3730566.251970998,-17500.0,1903.4131660644816,1581.8450027259046,-219.22737534874983,-616.20863399091184,-198.55636284263562,102.15540780121117,1983.8738517185564,2284.2702541357239,-628.1739402979822,628.1739402979822,-2284.2702541357239,3562.4182241796675,0.0
663296.95196600363,3730566.251970998,-17500.0,1763.8925124038585,1149.7700236736864,-734.683957434381,-496.45022890128558,-24.041122877694093,59.730591758993306,1757.7346694538289,2028.0059583987868,-1007.6190346756171,1007.6190346756171,-2028.0059583987868,3097.7587203976282,0.0
553296.95196600363,3735566.251970998,-17500.0,1977.0089421397217,-1749.4245271905359,1030.6858663681733,653.31361829163131,-498.33109268632302,153.21682595917505,1912.6463961916691,-150.66604005391559,-95.91666302325109,95.91666302325109,150.66604005391559,3701.7245570389746,0.0
558296.95196600363,3735566.251970998,-17500.0,2001.3141536480089,-2037.4643442824593,1564.4224794651921,726.72558383926594,-663.19110799882947,190.26414786049585,2173.6636268319621,-445.96964754319862,257.26568964934319,-257.26568964934319,445.96964754319862,4247.0206276693179,0.0
563296.95196600363,3735566.251970998,-17500.0,1962.9787141315023,-2301.2072521107393,2203.7752491988504,789.69446899401419,-854.9192860609636,232.31911352924189,2456.9754551005822,-788.23258263472144,711.83326735758101,-711.83326735758101,788.23258263472144,4839.429711368959,0.0
568296.95196600363,3735566.251970998,-17500.0,1854.2681461280115,-2514.3187886810838,2943.9490112703629,835.16727000162155,-1071.2125248192622,278.74714718319234,2757.5500279149232,-1163.8269760469261,1269.7218655974316,-1269.7218655974316,1163.8269760469261,5466.8898590636145,0.0
573296.95196600363,3735566.251970998,-17500.0,1673.4883141450944,-2646.7802968596461,3768.5574732767541,855.45412434930222,-1306.75547658505,328.33517567211629,3070.0289165121635,-1550.3007735968447,1922.7120043279508,-1922.7120043279508,1550.3007735968447,6111.5884453306653,0.0
578296.95196600363,3735566.251970998,-17500.0,1427.3998135810648,-2668.0027648547943,4647.1402250509382,843.06918226977825,-1552.7298199194604,379.22290696445987,3391.9635949576968,-1916.363182213986,2649.4524010307014,-2649.4524010307014,1916.363182213986,6749.8284103018823,0.0
583296.95196600363,3735566.251970998,-17500.0,1132.7964193611167,-2551.4268527964173,5534.2728894088132,791.88790212359038,-1796.7440162467294,428.91556769858408,3704.2361586010538,-2223.7333518803525,3413.7744868808668,-3413.7744868808668,2223.7333518803525,7352.688070351327,0.0
588296.95196600363,3735566.251970998,-17500.0,816.43489079414701,-2280.0975099400048,6371.2622752568423,698.47796948059522,-2023.3935995737429,474.41128167382038,3982.5976532277973,-2431.2465848204374,4165.356304702349,-4165.356304702349,2431.2465848204374,7887.6791829338272,0.0
593296.95196600363,3735566.251970998,-17500.0,512.67530618154649,-1852.1234517667081,7091.090042492986,563.33891204914585,-2215.5730307112981,512.45774934248391,4208.0351790848263,-2501.0491576189725,4843.5577701766397,-4843.5577701766397,2501.0491576189725,8321.4421384668112,0.0
598296.95196600363,3735566.251970998,-17500.0,258.72235970153923,-1284.5041571010288,7626.5113734094593,391.70519123511866,-2356.4826012012722,539.92299902478806,4364.0434272820094,-2405.9275455000761,5384.5604759310518,-5384.5604759310518,2405.9275455000761,8623.2676044328782,0.0
603296.95196600363,3735566.251970998,-17500.0,88.152915149654035,-613.80361266304749,7920.1613698250139,193.58476796327727,-2432.0421438881376,554.2259343810623,4437.7384298444667,-2136.0807530986835,5730.9033862165361,-5730.9033862165361,2136.0807530986835,8768.9491643586516,0.0
608296.95196600363,3735566.251970998,-17500.0,24.204447856263293,107.2335131803878,7934.5481264844375,-17.144920599140455,-2433.2210194624745,553.74273667314174,4421.5538565332045,-1703.3380825577633,5841.4571733593066,-5841.4571733593066,1703.3380825577633,8744.2661539100991,0.0
613296.95196600363,3735566.251970998,-17500.0,74.685196393349528,816.89608062812329,7659.3794740937183,-224.50928259950857,-2357.7138780846253,538.09368280851038,4314.5535019012932,-1141.2326527138416,5699.3092805588803,-5699.3092805588803,1141.2326527138416,8547.346844641721,0.0
618296.95196600363,3735566.251970998,-17500.0,230.07820087910861,1454.0506803933729,7114.1340007214294,-412.72613533643653,-2210.5066292570741,508.23662520866009,4123.3209276144053,-500.46657465847238,5315.3312088969215,-5315.3312088969215,500.46657465847238,8189.357462944341,0.0
623296.95196600363,3735566.251970998,-17500.0,465.46955741808273,1967.6879809503935,6345.049248473606,-568.48723600682865,-2003.1548287650648,466.33807171032066,3865.1797256581067,159.27629483601686,4726.3544157804572,-4726.3544157804572,-159.27629483601686,7693.3192177660176,0.0
628296.95196600363,3735566.251970998,-17500.0,745.71643390608358,2324.1115891087434,5417.3412846210358,-682.69991509002489,-1751.9590086190101,415.45280631000014,3573.2730648109582,779.0631466806999,3988.4932273754212,-3988.4932273754212,-779.0631466806999,7091.3202749008497,0.0
633296.95196600363,3735566.251970998,-17500.0,1032.3079327539078,2510.2408735166437,4404.7489491325077,-751.33813248431625,-1475.5012737929965,359.08858962165561,3260.3973299033869,1309.5418523859259,3167.5079095622295,-3167.5079095622295,-1309.5418523859259,6420.7275244172233,0.0
638296.95196600363,3735566.251970998,-17500.0,1290.0420182771695,2532.7428151372656,3378.9850517059185,-775.32190590543087,-1192.1215947235371,300.75299380647516,2935.9148000638975,1716.9230933885194,2328.7069513629231,-2328.7069513629231,-1716.9230933885194,5720.1517945419619,0.0
643296.95196600363,3735566.251970998,-17500.0,1491.9909959607339,2413.8793074644036,2401.3058016804557,-759.60763621572471,-917.84589268165939,243.5714771949161,2614.8695312811692,1985.2460354393284,1528.6249085855993,-1528.6249085855993,-1985.2460354393284,5025.8716186392785,0.0
648296.95196600363,3735566.251970998,-17500.0,1621.9954405155124,2185.6033258700436,1517.4081717897791,-711.82422032037516,-665.05974147177426,190.03046252256968,2310.9517515303974,2115.1915839521052,809.78800542795477,-809.78800542795477,-2115.1915839521052,4369.1277303673405,0.0
653296.95196600363,3735566.251970998,-17500.0,1674.7386849511463,1883.4931437972336,755.81925933943739,-640.81829037205921,-441.99475972306141,141.86264686973314,2034.6726394220709,2120.4879028019081,198.84371759631392,-198.84371759631392,-2120.4879028019081,3774.4130544139716,0.0
658296.95196600363,3735566.251970998,-17500.0,1654.0245485798666,1541.7079846822012,129.11317237623888,-555.39282253926422,-252.8999579063092,100.05697330690688,1792.7913470759513,2023.2287292340397,-292.51479109059619,292.51479109059619,-2023.2287292340397,3258.5819545777363,0.0
563296.95196600363,3740566.251970998,-17500.0,1645.3432313585567,-2069.5502061786847,2240.1854541687871,670.17165578886693,-793.1303328863828,200.81885752129108,2223.3099975225277,-842.1987203368667,870.49101670063237,-870.49101670063237,842.1987203368667,4402.6609582466326,0.0
568296.95196600363,3740566.251970998,-17500.0,1532.0387809764125,-2214.0378727425523,2879.5813547186135,697.25002471414848,-970.06672972465708,236.88975506457714,2472.9740978085752,-1152.6393534689389,1363.2447961584592,-1363.2447961584592,1152.6393534689389,4921.9917427996443,0.0
573296.95196600363,3740566.251970998,-17500.0,1364.9794989117427,-2286.0461213551957,3574.9006602796903,703.19937616626271,-1158.8059274287048,274.73268881622545,2734.1078611015973,-1461.4680216071724,1923.083958191447,-1923.083958191447,1461.4680216071724,5447.1764585216315,0.0
578296.95196600363,3740566.251970998,-17500.0,1151.9018632027155,-2264.0534043858743,4299.2729494263176,683.02506658501636,-1352.1004751048908,312.9132613655367,2998.9154977467042,-1743.5788826144969,2529.9837731028101,-2529.9837731028101,1743.5788826144969,5959.2252313806166,0.0
583296.95196600363,3740566.251970998,-17500.0,907.59109268685927,-2130.7451495428636,5015.6579946961247,632.96765818131098,-1540.3916095369182,349.60517630524021,3247.1784901167011,-1969.9409588369781,3153.6123162962922,-3153.6123162962922,1969.9409588369781,6435.8677120607454,0.0
588296.95196600363,3740566.251970998,-17500.0,653.3520850102891,-1876.7440726879374,5678.6896278257564,551.35255455346999,-1712.3260243232357,382.69458027670078,3464.3582107823754,-2110.8074012921379,3754.4586352590095,-3754.4586352590095,2110.8074012921379,6852.8879551581258,0.0
593296.95196600363,3740566.251970998,-17500.0,414.99059135089533,-1503.9844684538882,6238.5917185693497,439.32196403882762,-1855.7302753826987,409.9600387240169,3637.4097747184014,-2140.0888492160493,4287.0244509511904,-4287.0244509511904,2140.0888492160493,7186.0820410413044,0.0
598296.95196600363,3740566.251970998,-17500.0,219.36414873015957,-1027.8004771110311,6646.9439768180455,301.24702101935765,-1958.9759803413997,429.31404017074505,3754.7713119128339,-2040.1895941342643,4704.9971038290932,-4704.9971038290932,2040.1895941342643,7413.6713682329637,0.0
603296.95196600363,3740566.251970998,-17500.0,90.026960829787953,-476.87827476938253,6863.4590178611752,144.64336216928703,-2012.5373556025845,439.07144002465895,3807.5239524676977,-1806.2284114614411,4967.7033084115401,-4967.7033084115401,1806.2284114614411,7518.8369055031362,0.0
608296.95196600363,3740566.251970998,-17500.0,42.907646321023691,109.35812321225117,6862.4270454034813,-20.489540529061372,-2010.4422278486531,438.19470449030803,3790.5351482372489,-1448.4697002442895,5046.5867149633195,-5046.5867149633195,1448.4697002442895,7491.9423280700948,0.0
613296.95196600363,3740566.251970998,-17500.0,83.124132116958847,685.68522085299094,6637.3163731179711,-182.83963934357732,-1951.2901871036481,426.46326218630088,3703.2718579918997,-992.0931932235585,4930.1998334694326,-4930.1998334694326,992.0931932235585,7332.0113801192047,0.0
618296.95196600363,3740566.251970998,-17500.0,203.83340167056326,1207.400723836764,6202.3274395906246,-331.25171439236595,-1838.5825737810624,404.52608884114255,3550.2283816025197,-474.09133071308952,4626.4217353940676,-4626.4217353940676,474.09133071308952,7047.1373372924854,0.0
623296.95196600363,3740566.251970998,-17500.0,387.46903368894436,1636.6250850711922,5590.4403603537648,-456.18689238719901,-1680.2691316877954,373.82275457545188,3342.1417234299356,62.105022758189989,4161.2920423208916,-4161.2920423208916,-62.105022758189989,6653.7174241390976,0.0
628296.95196600363,3740566.251970998,-17500.0,609.03089061915273,1947.180142125781,4848.4295714175641,-550.8653650997677,-1487.6163078677753,336.39032970126425,3104.3736690567257,573.02909806353887,3574.7694923766767,-3574.7694923766767,-573.02909806353887,6174.6710351134725,0.0
633296.95196600363,3740566.251970998,-17500.0,840.53583081670911,2127.0829313721715,4030.045296565534,-611.87841069563422,-1273.6538911468429,294.59705831692474,2852.7592865175325,1021.1460306581786,2914.4922793014453,-2914.4922793014453,-1021.1460306581786,5636.9770551740312,0.0
638296.95196600363,3740566.251970998,-17500.0,1055.5120249275531,2178.396887836936,3188.9211499945213,-639.20524693770801,-1051.5410948153608,250.85924535160666,2589.6738726777153,1379.1652009750953,2229.0345585005707,-2229.0345585005707,-1379.1652009750953,5068.9998265203776,0.0
643296.95196600363,3740566.251970998,-17500.0,1232.5684839279975,2114.8681037269171,2372.5858590625949,-635.718344407112,-833.1565287100251,207.39199478608415,2325.7239608951777,1632.0629579038548,1562.0446892989114,-1562.0446892989114,-1632.0629579038548,4498.0228537022149,0.0
648296.95196600363,3740566.251970998,-17500.0,1357.4776845844838,1958.2128525552246,1618.4576313940513,-606.36009265591758,-628.11582379064794,166.02926680540784,2071.5604696699238,1776.8378304170051,948.19463108270963,-948.19463108270963,-1776.8378304170051,3948.2911350971071,0.0
573296.95196600363,3745566.251970998,-17500.0,1120.6079259236451,-1972.6418641711791,3358.3621323171024,579.39755528380829,-1024.3580759959784,229.99920467214213,2443.207016191705,-1358.6017725804602,1879.9332057785252,-1879.9332057785252,1358.6017725804602,4860.3160342158226,0.0
578296.95196600363,3745566.251970998,-17500.0,937.9692984172334,-1923.8974592107381,3955.9979268678749,555.60393203293961,-1176.7857315965139,258.79058099908474,2658.3586293634098,-1575.4335099460038,2386.2778248686259,-2386.2778248686259,1575.4335099460038,5272.9751382075729,0.0
583296.95196600363,3745566.251970998,-17500.0,735.76752209734059,-1785.4690005594234,4536.371347407925,508.7728538825387,-1322.8872138410334,286.06425940368285,2856.1013020680198,-1741.4051256861246,2896.2536614364171,-2896.2536614364171,1741.4051256861246,5652.1063551513753,0.0
588296.95196600363,3745566.251970998,-17500.0,530.81365960159633,-1552.6441569190954,5064.458690550553,438.23537832925302,-1454.2767812147051,310.32566557632259,3026.6100730521616,-1834.992472002406,3378.9602991056986,-3378.9602991056986,1834.992472002406,5979.5645129305021,0.0
593296.95196600363,3745566.251970998,-17500.0,342.53213763294298,-1229.1697030497367,5503.0986954550635,345.34047526951736,-1562.227473589928,330.04520829868505,3160.4965777374509,-1838.1389181054201,3800.1262168672292,-3800.1262168672292,1838.1389181054201,6237.6326757056095,0.0
598296.95196600363,3745566.251970998,-17500.0,190.47681341360692,-828.3572790927393,5817.0916716049314,233.65720419177848,-1638.601487272467,343.8162685966397,3249.5023283301689,-1739.4633844004682,4125.8383767380401,-4125.8383767380401,1739.4633844004682,6410.6851902912831,0.0
603296.95196600363,3745566.251970998,-17500.0,91.375400482543483,-372.74172766550191,5977.7901099232204,108.85337478826712,-1676.8670653340416,350.52437451552453,3287.3544316024841,-1536.9187163944239,4326.9493586315493,-4326.9493586315493,1536.9187163944239,6486.8778169641309,0.0
608296.95196600363,3745566.251970998,-17500.0,56.303047979662331,107.9045576915625,5967.3205309614968,-21.782843205722568,-1673.0170526091354,349.49748638492497,3270.5208359044304,-1239.2008493652986,4383.3487871214711,-4383.3487871214711,1239.2008493652986,6459.5917087654407,0.0
613296.95196600363,3745566.251970998,-17500.0,88.651358241318562,579.9972238815418,5781.5275637570157,-150.12814911335542,-1626.1997493013964,340.60772290035732,3198.7222555814378,-865.42171758536961,4287.1843161517463,-4287.1843161517463,865.42171758536961,6328.3763876927042,0.0
618296.95196600363,3745566.251970998,-17500.0,183.41899719313716,1010.4010283229391,5430.924367087262,-268.18424354228017,-1538.9130907210781,324.30114231939297,3075.1390579769027,-442.95439165311518,4044.2629841333378,-4044.2629841333378,442.95439165311518,6099.1917624182088,0.0
623296.95196600363,3745566.251970998,-17500.0,328.02367794651434,1370.6663540375464,4939.4049899354786,-369.0290496377998,-1416.7158138412201,301.54902668638715,2906.6913973947148,-3.838111260566393,3673.2924102517618,-3673.2924102517618,3.838111260566393,5783.9087472095944,0.0
628296.95196600363,3745566.251970998,-17500.0,504.43922445882185,1640.3865067017132,4340.9768504922122,-447.57772661152876,-1267.5084462408181,273.72868128725474,2709.6170990467172,419.51158526634777,3203.1246517481068,-3203.1246517481068,-419.51158526634777,5399.1380897657727,0.0
633296.95196600363,3745566.251970998,-17500.0,692.13045927340454,1809.0605589082904,3675.2457548304301,-501.02070894665894,-1100.5389186940085,242.45847906538376,2504.8465789312318,798.38652849515563,2668.6516587412539,-2668.6516587412539,-798.38652849515563,4964.6075799569444,0.0
638296.95196600363,3745566.251970998,-17500.0,871.10933124913174,1876.2584478976369,2982.589723883611,-528.89163004285172,-925.32991778353551,209.41849277893459,2290.2466921008745,1110.8948423670995,2106.246230715823,-2106.246230715823,-1110.8948423670995,4501.3613690478887,0.0
593296.95196600363,3750566.251970998,-17500.0,287.79962950993797,-1010.8136403425135,4868.3435247438929,273.53628201915097,-1321.8332146031019,267.4148083658543,2759.7608178416694,-1585.0888369033501,3375.248554244683,-3375.248554244683,1585.0888369033501,5441.1946818763108,0.0
598296.95196600363,3750566.251970998,-17500.0,168.58960589236187,-672.15274396123675,5111.6192455628379,182.6850270613196,-1378.8360138550267,277.3058593568008,2827.7624916310779,-1490.9503127262344,3631.1355518780165,-3631.1355518780165,1490.9503127262344,5573.7805150123595,0.0
603296.95196600363,3750566.251970998,-17500.0,91.908549085891707,-292.88277441876028,5231.5405795744782,82.436135821505403,-1406.3564269800866,281.94956471356818,2854.923090573353,-1315.5851892645617,3786.4050798720737,-3786.4050798720737,1315.5851892645617,5629.0705638377158,0.0
608296.95196600363,3750566.251970998,-17500.0,65.559024341251956,104.28976863057873,5215.5261618609056,-21.839545782985418,-1401.6699055201118,280.9049483503494,2838.7823506358213,-1066.2653102036434,3826.7085223069157,-3826.7085223069157,1066.2653102036434,5602.4643229207095,0.0
613296.95196600363,3750566.251970998,-17500.0,91.809677591652843,494.11600150053869,5060.9351234735641,-124.23179320985174,-1364.2597650019829,274.0982950889985,2779.2176591781863,-757.64395442360069,3746.5923427741564,-3746.5923427741564,757.64395442360069,5493.8136510659288,0.0
618296.95196600363,3750566.251970998,-17500.0,166.95060367445083,851.72381276582973,4775.6629970130016,-218.92870499641506,-1295.9352391066875,261.8407396796805,2678.5517784022695,-410.24127562534795,3550.4036164129361,-3550.4036164129361,410.24127562534795,5307.5744782148276,0.0
598296.95196600363,3550566.251970998,-22500.0,335.92567807481657,1337.2625735172669,3807.1027621696649,437.61112292580731,1376.2518820988842,369.523235058995,2440.8451822268785,234.39135280671167,2833.9018839713017,-2833.9018839713017,-234.39135280671167,4853.3604708853918,0.0
603296.95196600363,3550566.251970998,-22500.0,193.33553558461185,1084.8110561859262,4261.1600495599778,350.14209262899573,1515.5515493036,402.0820801774297,2591.8362466243648,-123.84457257595545,3188.3704163312186,-3188.3704163312186,123.84457257595545,5150.7824763648459,0.0
608296.95196600363,3550566.251970998,-22500.0,82.506415418127261,766.0468258150953,4622.3870495609444,242.86067286054376,1626.2946730816514,427.99724108083171,2717.5000408866135,-485.05613724688578,3456.6549774874256,-3456.6549774874256,485.05613724688578,5388.2579005235284,0.0
613296.95196600363,3550566.251970998,-22500.0,16.031811360228009,398.65979979840353,4867.8835039018486,121.04338517918583,1701.9306122664777,445.8273434943726,2806.8686113568983,-824.52412469516958,3619.6039955446681,-3619.6039955446681,824.52412469516958,5554.3074909435518,0.0
618296.95196600363,3550566.251970998,-22500.0,1.9228772079986385,5.4179183751163746,4982.7773833734891,-8.6141259971387214,1738.1713296104263,454.61993593097873,2854.7009751254823,-1118.8537639780729,3666.064124450691,-3666.064124450691,1118.8537639780729,5641.1929091243574,0.0
623296.95196600363,3550566.251970998,-22500.0,42.37877277993195,-388.36839695946884,4962.0561662925311,-138.69155712614526,1733.491816378559,454.0177321501593,2858.9965825588256,-1348.8306595049187,3594.3644512940018,-3594.3644512940018,1348.8306595049187,5645.5928934069179,0.0
628296.95196600363,3550566.251970998,-22500.0,133.49575082987388,-757.80878207466628,4811.0525864777574,-261.85412280637115,1689.2739174453773,444.29149562662502,2820.4101765063974,-1501.6679922350959,3412.4490422595873,-3412.4490422595873,1501.6679922350959,5568.826760196439,0.0
633296.95196600363,3550566.251970998,-22500.0,265.97376351877972,-1081.2684250784739,4544.4844114818225,-371.63422741028114,1609.5633536168318,426.29274123095371,2741.9571642327105,-1572.219831046792,3136.6245097383962,-3136.6245097383962,1572.219831046792,5416.573813049913,0.0
638296.95196600363,3550566.251970998,-22500.0,426.64504845194341,-1342.5721499166539,4184.290083175084,-463.05260743603355,1500.5016646085678,401.33852042086767,2628.6095219599874,-1562.991934882632,2789.2143787226701,-2789.2143787226701,1562.991934882632,5198.1629830332568,0.0
643296.95196600363,3550566.251970998,-22500.0,600.47004931138747,-1532.2307382210079,3756.7149768489753,-532.98465873966006,1369.5459739388903,371.04990004374179,2486.777356063254,-1483.0457858424461,2395.6116243685756,-2395.6116243685756,1483.0457858424461,4925.5457970561702,0.0
648296.95196600363,3550566.251970998,-22500.0,772.57951801532988,-1647.597927884844,3289.221547187366,-580.24239536779032,1224.6261191759538,337.17469723048407,2323.8168188807617,-1346.1281162284217,1981.3025413866203,-1981.3025413866203,1346.1281162284217,4612.1286230991773,0.0
583296.95196600363,3555566.251970998,-22500.0,959.54167185019355,1850.9671110567335,2263.6995948902295,661.80098041785959,968.21764145272266,294.12379369038041,2151.1535521884816,1311.6258471226395,1544.8715436037039,-1544.8715436037039,-1311.6258471226395,4173.2402751441832,0.0
588296.95196600363,3555566.251970998,-22500.0,788.97725649968118,1855.3967509799218,2928.3197969960302,649.87294833384635,1185.5710638066821,347.92604427315348,2366.7769950778015,1057.9873209994421,2091.6220508068595,-2091.6220508068595,-1057.9873209994421,4639.6233034389325,0.0
593296.95196600363,3555566.251970998,-22500.0,597.03939184053854,1764.1290146095798,3594.434477450885,607.27728663160087,1401.0513741455577,400.84451612132352,2577.6698612586547,727.46875959215413,2636.2301291690937,-2636.2301291690937,-727.46875959215413,5093.3867704039249,0.0
598296.95196600363,3555566.251970998,-22500.0,402.11022637250238,1571.0409025690512,4224.8748794769099,532.62004191872086,1603.3836406093565,450.26656018149095,2776.7063865647065,335.90788976152908,3144.5100028487795,-3144.5100028487795,-335.90788976152908,5513.6046713124842,0.0
603296.95196600363,3555566.251970998,-22500.0,225.05886960688244,1279.1819706618703,4780.0765826541938,427.22101724768646,1780.7212938749949,493.47242381387315,2959.114972749659,-92.70653964460007,3580.676840224326,-3580.676840224326,92.70653964460007,5879.3691517657771,0.0
608296.95196600363,3555566.251970998,-22500.0,86.459765534662736,901.72737553277079,5222.4533273045436,295.34686238967413,1921.8935030582936,527.90981471544069,3112.0926131995498,-528.3318412467836,3911.6025413491234,-3911.6025413491234,528.3318412467836,6171.5535645449008,0.0
613296.95196600363,3555566.251970998,-22500.0,3.470037201001885,461.36183244879641,5521.1116927028233,144.0092232144834,2017.7332262831144,551.48350935914607,3220.7513980441581,-938.29447186794437,4111.2659923375186,-4111.2659923375186,938.29447186794437,6374.595559736661,0.0
618296.95196600363,3555566.251970998,-22500.0,-12.982949043746148,-12.004221902762165,5656.01009382144,-17.693751188395996,2062.2439152646216,562.80921350025665,3277.4319181853712,-1291.4947453377508,4164.5087452772123,-4164.5087452772123,1291.4947453377508,6478.0227214455217,0.0
623296.95196600363,3555566.251970998,-22500.0,39.95494444029849,-484.87055344421549,5620.6906118636416,-179.60587865545892,2053.3728541769692,561.38357715869381,3279.3387019413813,-1562.576193758819,4069.2681130217884,-4069.2681130217884,1562.576193758819,6477.4714550192866,0.0
628296.95196600363,3555566.251970998,-22500.0,156.64543584162655,-924.44505081217244,5422.9624685755189,-331.72607888817072,1993.2209312493801,547.63404283591399,3227.4615617084883,-1735.1791362167105,3836.7528848258808,-3836.7528848258808,1735.1791362167105,6374.9987287773165,0.0
633296.95196600363,3555566.251970998,-22500.0,324.05758465743969,-1302.7357380696044,5083.4218714632225,-465.37448334377996,1887.6575210617445,522.8418424465076,3126.0780698613676,-1803.6203044047766,3489.5395498580369,-3489.5395498580369,1803.6203044047766,6178.6577092280577,0.0
638296.95196600363,3555566.251970998,-22500.0,524.09090666448844,-1599.6242543204003,4632.1529277696845,-574.0905643897421,1745.421889984746,488.95278517970502,2982.124887901864,-1772.7247044113726,3058.0303605392246,-3058.0303605392246,1772.7247044113726,5901.3882904534485,0.0
643296.95196600363,3555566.251970998,-22500.0,736.53839767377895,-1804.4236413124891,4104.4389217275238,-654.12418393181918,1576.9359240697006,448.32337276629266,2804.4838838578589,-1656.0334749712447,2576.1334170623095,-2576.1334170623095,1656.0334749712447,5559.5100032098499,0.0
648296.95196600363,3555566.251970998,-22500.0,942.01515764807709,-1915.8108072495429,3536.3087745827142,-704.47832362352915,1393.0399070799037,403.44401650068005,2603.4509534931863,-1472.9231514105106,2077.0099808778091,-2077.0099808778091,1472.9231514105106,5170.9933996988175,0.0
653296.95196600363,3555566.251970998,-22500.0,1124.2911443569412,-1940.4229525836406,2960.7657672667169,-726.57117723819692,1203.8915600696894,356.69218282225751,2391.0907987807423,-1245.369526253502,1589.6692879459561,-1589.6692879459561,1245.369526253502,4753.843562477874,0.0
658296.95196600363,3555566.251970998,-22500.0,1271.7074604176591,-1890.6264293391951,2405.1653210647733,-723.64620018751089,1018.1623511472493,310.14519171008368,2179.5019668252248,-994.99756783763803,1136.80659720419,-1136.80659720419,994.99756783763803,4324.7634739253936,0.0
573296.95196600363,3560566.251970998,-22500.0,1396.7901952765581,1765.341907359493,924.66801530392956,702.09990578086945,581.29512996099686,215.68969536773596,1919.8287521641935,1830.5576217285984,403.53630340301231,-403.53630340301231,-1830.5576217285984,3591.9514289594545,0.0
578296.95196600363,3560566.251970998,-22500.0,1306.0712835779298,1974.1657211251825,1583.5661157330894,757.95594175310282,815.41426300756734,277.98901747509217,2156.0953953712983,1763.0822667103671,941.51978105096384,-941.51978105096384,-1763.0822667103671,4102.3685618047557,0.0
583296.95196600363,3560566.251970998,-22500.0,1157.0900696749204,2109.2744660022531,2322.6244890803709,787.2169911023675,1072.6672253936867,345.41756890643825,2408.9743388258439,1592.4248171673491,1550.0187368371896,-1550.0187368371896,-1592.4248171673491,4649.8825780424349,0.0
588296.95196600363,3560566.251970998,-22500.0,958.84445926774129,2146.0119468475054,3114.1279251033452,782.59831335692297,1343.6938568739611,415.60503199567029,2669.5054325650558,1314.1867761804817,2202.9360986159813,-2202.9360986159813,-1314.1867761804817,5213.5604513885846,0.0
593296.95196600363,3560566.251970998,-22500.0,728.04923490340548,2064.6742583754944,3919.1182042603509,738.52566431474122,1615.8533832609839,485.43978058341628,2927.1005233876276,934.60113061981497,2863.8507935559483,-2863.8507935559483,-934.60113061981497,5768.345545701045,0.0
598296.95196600363,3560566.251970998,-22500.0,488.17236748033525,1854.5114821453024,4689.6836932918268,652.28102054592171,1873.9761976104717,551.25419740184475,3171.4077971405081,472.05493759041155,3488.4615576024521,-3488.4615576024521,-472.05493759041155,6286.5768256239235,0.0
603296.95196600363,3560566.251970998,-22500.0,266.88725827375072,1517.1031903246571,5373.4028207655947,524.94023400430683,2101.7225025310636,609.14299309167018,3394.4555082908628,-43.27801360300009,4029.0791725681042,-4029.0791725681042,43.27801360300009,6740.1121201974747,0.0
608296.95196600363,3560566.251970998,-22500.0,92.156960854090471,1068.1456867708466,5919.517216652911,361.83796441580961,2283.4128325242523,655.38194479562833,3582.1495882038666,-572.09876472601968,4440.6777321490299,-4440.6777321490299,572.09876472601968,7102.8686669608514,0.0
613296.95196600363,3560566.251970998,-22500.0,-12.360230300094281,536.90514754318178,6285.8452294703657,172.3623560152806,2406.0476888130893,686.88421168568175,3715.3297218937023,-1070.7770348472732,4687.4643963929957,-4687.4643963929957,1070.7770348472732,7353.4667906449658,0.0
618296.95196600363,3560566.251970998,-22500.0,-31.556019186506422,-36.918273514607236,6445.0287591416345,-30.98295287606312,2461.1239006939259,701.60967023982221,3782.9223018423763,-1497.4854495331915,4748.5595289566154,-4748.5595289566154,1497.4854495331915,7477.5419654762281,0.0
623296.95196600363,3560566.251970998,-22500.0,38.315012658299594,-608.4711502938203,6388.6543676735873,-234.12238876831572,2445.8407533661011,698.83869607904319,3780.9670934132259,-1818.3743462574516,4621.3983898442293,-4621.3983898442293,1818.3743462574516,7469.2780234729562,0.0
628296.95196600363,3560566.251970998,-22500.0,189.01897459749915,-1134.0863326206475,6128.260023042747,-423.2570970010421,2363.4240727993015,679.25267410972867,3710.9752254390792,-2012.3693808146979,4321.9886579837621,-4321.9886579837621,2012.3693808146979,7331.8832767480717,0.0
633296.95196600363,3560566.251970998,-22500.0,402.08138642864645,-1577.2666470795346,5692.978819302286,-586.62859455445471,2222.4889244972619,644.80174014459976,3579.0911101063652,-2073.5026957412683,3881.9415596572298,-3881.9415596572298,2073.5026957412683,7076.8906257811586,0.0
638296.95196600363,3560566.251970998,-22500.0,652.37300080177795,-1913.0221994457638,5124.503024389388,-715.83628466933806,2035.6233287423993,598.39743347212868,3395.1590260307776,-2010.397587709921,3343.0904645694682,-3343.0904645694682,2010.397587709921,6722.4816578822092,0.0
643296.95196600363,3560566.251970998,-22500.0,912.56274242679046,-2129.7906931508028,4470.6080596816373,-806.48264605547888,1817.5232069014203,543.49832627869102,3171.730883267493,-1843.2904974786252,2751.0219286186293,-2751.0219286186293,1843.2904974786252,6291.1431972642258,0.0
648296.95196600363,3560566.251970998,-22500.0,1157.3456205289078,-2228.8854612529467,3778.7381869754677,-858.11200415671715,1583.0990670964941,483.6796672526296,2923.6329042307607,-1599.5756098288703,2148.9968442310646,-2148.9968442310646,1599.5756098288703,5807.1452132803352,0.0
653296.95196600363,3560566.251970998,-22500.0,1366.5925778313731,-2222.0218992164882,3090.8316285464725,-873.57667618301332,1345.8919238499054,422.261700285171,2667.3628521349992,-1309.0347537927264,1573.3546820357278,-1573.3546820357278,1309.0347537927264,5294.2271473292831,0.0
658296.95196600363,3560566.251970998,-22500.0,1527.0100373167786,-2127.806257730841,2440.0492813065944,-858.06442252248951,1117.0054092537425,362.04606073130032,2414.2409224191679,-999.74376909476211,1050.9316641846967,-1050.9316641846967,999.74376909476211,4773.7872679962229,0.0
663296.95196600363,3560566.251970998,-22500.0,1632.3485455085283,-1968.084153418029,1849.4954872494923,-818.03772473462607,904.60539381812657,305.17659044845874,2169.134949440122,-695.24302692127276,598.44703471141338,-598.44703471141338,695.24302692127276,4263.7172914556768,0.0
668296.95196600363,3560566.251970998,-22500.0,1682.5136935935463,-1764.8204684786085,1332.5806592688748,-760.28378773489953,713.91068469236643,253.11304231267852,1936.4764550088419,-413.11561571219806,223.40805709433198,-223.40805709433198,413.11561571219806,3777.8722069360642,0.0
568296.95196600363,3565566.251970998,-22500.0,1652.7807477019335,1583.8436422520108,99.30653798026681,703.18380422773498,339.88958464899906,169.39866240533834,1879.9221053409826,2056.98774299249,-309.44045759680523,309.44045759680523,-2056.98774299249,3415.4015788377433,0.0
573296.95196600363,3565566.251970998,-22500.0,1645.993797569068,1914.7111012044229,721.95961908289985,805.39308271546474,581.2188085961152,238.51189174289468,2123.6656236864987,2130.7516277999048,186.98115610445336,-186.98115610445336,-2130.7516277999048,3935.9952817980138,0.0
578296.95196600363,3565566.251970998,-22500.0,1563.235138208428,2197.9761985150021,1472.6461100946071,887.0856019766635,863.25693526069085,317.52450809613958,2399.9520714799078,2096.6986658185911,797.93020800576721,-797.93020800576721,-2096.6986658185911,4531.7603580663599,0.0
583296.95196600363,3565566.251970998,-22500.0,1403.3654919699795,2399.3215247105541,2335.5942183421994,937.27120387133971,1179.5961507472705,404.58525002234529,2701.4669631956717,1935.0184630395722,1508.4489479025194,-1508.4489479025194,-1935.0184630395722,5184.3715631758005,0.0
588296.95196600363,3565566.251970998,-22500.0,1175.0072171378811,2484.3192987582147,3279.199305373214,945.28778619278557,1518.8491257429034,496.63913638406598,3017.2897692495771,1635.5040609756109,2288.6409112630135,-2288.6409112630135,-1635.5040609756109,5867.8928480881941,0.0
593296.95196600363,3565566.251970998,-22500.0,897.77975614058528,2423.7175647198997,4255.5255681048275,902.43570663287755,1864.6388799195461,589.45372122509195,3333.7334416810877,1201.9267268847516,3093.4649590500949,-3093.4649590500949,-1201.9267268847516,6549.9486949107641,0.0
598296.95196600363,3565566.251970998,-22500.0,601.54249545762616,2199.4347474530859,5202.7437879666286,803.76911951591694,2196.4784254732685,677.85372980948341,3636.3587720035412,654.96989761619511,3865.4356992470139,-3865.4356992470139,-654.96989761619511,7193.7458828224426,0.0
603296.95196600363,3565566.251970998,-22500.0,323.17034416913464,1809.9696637785253,6050.9366550931727,649.66177849131657,2491.6376490374432,756.17986212609935,3912.6238601082341,32.474548673155368,4540.5664021845978,-4540.5664021845978,-32.474548673155368,7761.0278429425862,0.0
608296.95196600363,3565566.251970998,-22500.0,101.03768714213591,1273.6695362622736,6730.8504872833655,446.70407711809219,2727.8486847785193,818.93265164813647,4145.2535572734505,-613.82730060808262,5057.0159890892774,-5057.0159890892774,613.82730060808262,8215.7831593606352,0.0
613296.95196600363,3565566.251970998,-22500.0,-31.815278912776286,628.49747100255752,7184.15676250652,207.55626168800836,2886.4204846311095,861.50201507344991,4310.0068303198259,-1225.0545748487652,5364.9081854398246,-5364.9081854398246,1225.0545748487652,8528.2267402737743,0.0
618296.95196600363,3565566.251970998,-22500.0,-54.1929236143704,-72.275562578003402,7372.9680861496327,-50.391550291543936,2955.1061709606602,880.83498838814296,4391.1842243450246,-1744.2391941302553,5435.0498840408309,-5435.0498840408309,1744.2391941302553,8678.3432549609242,0.0
623296.95196600363,3565566.251970998,-22500.0,38.880157720102403,-767.849837385245,7286.2020510318252,-307.37094113812452,2930.0340855862592,875.88866933555528,4383.1624824116461,-2125.6334502578147,5264.2356816006859,-5264.2356816006859,2125.6334502578147,8658.2733726448714,0.0
628296.95196600363,3565566.251970998,-22500.0,235.23304821449304,-1399.4052266065712,6941.0649661845946,-544.10137808480158,2816.2059627262597,847.75874738095104,4288.2799622167395,-2341.9007354597452,4875.6153394421481,-4875.6153394421481,2341.9007354597452,8473.019947297782,0.0
633296.95196600363,3565566.251970998,-22500.0,508.34404590032921,-1918.9964669230167,6379.287882974797,-744.504639053902,2626.4447944314156,799.45472029047789,4115.5193915028849,-2387.3902732195734,4314.0173802948884,-4314.0173802948884,2387.3902732195734,8139.3349304844342,0.0
638296.95196600363,3565566.251970998,-22500.0,822.96674321464934,-2295.7153714412011,5659.2300286029194,-897.65400725799327,2379.0900933887683,735.38275961500426,3879.0837210139944,-2276.9052199206976,3637.5792571808274,-3637.5792571808274,2276.9052199206976,7683.044780012915,0.0
643296.95196600363,3565566.251970998,-22500.0,1141.909703220492,-2517.9659026535228,4846.0723520880747,-998.60568824111533,2095.0663694574359,660.6719587891929,3597.0973252214708,-2040.7524372738208,2908.0081594975509,-2908.0081594975509,2040.7524372738208,7135.4747336048531,0.0
648296.95196600363,3565566.251970998,-22500.0,1432.1690936457283,-2591.9086497331969,4002.4463205664983,-1048.0915328137867,1794.9927910605813,580.48991296254508,3290.7564951838899,-1717.7664050148389,2181.7963346299734,-2181.7963346299734,1717.7664050148389,6529.6393730297814,0.0
653296.95196600363,3565566.251970998,-22500.0,1669.126129608682,-2537.1741916752171,3181.3969808090733,-1051.3571812856364,1496.9143406595199,499.48426178724179,2979.5964390631957,-1348.267063739878,1504.1009502840523,-1504.1009502840523,1348.267063739878,5896.9409496660646,0.0
658296.95196600363,3565566.251970998,-22500.0,1838.3223979350371,-2381.3628247571091,2422.477500886042,-1016.5643432080223,1214.9227020244675,421.41804643396472,2674.3236136544888,-968.43768840488735,905.8733410626968,-905.8733410626968,968.43768840488735,5264.7444809471872,0.0
663296.95196600363,3565566.251970998,-22500.0,1935.0748538179696,-2154.7423070165846,1750.8573407238725,-953.17009343652012,958.67902965190558,349.01212030776134,2381.8557636231544,-606.86435691752024,403.9093479702326,-403.9093479702326,606.86435691752024,4654.9854897810092,0.0
668296.95196600363,3565566.251970998,-22500.0,1962.6357456924507,-1886.078544660528,1178.6941357489022,-870.57941186540052,733.65731977122493,283.96265296394529,2108.2220849101782,-283.24394858090102,2.9304157549329659,-2.9304157549329659,283.24394858090102,4083.7345247590251,0.0
673296.95196600363,3565566.251970998,-22500.0,1929.7015344026449,-1599.9672933711233,707.78600148292833,-777.21056804503189,541.83584701858661,227.07592188666655,1857.7293277475135,-8.7789710813326849,-301.33806027213564,301.33806027213564,8.7789710813326849,3561.4828287475043,0.0
678296.95196600363,3565566.251970998,-22500.0,1847.9304696502236,-1315.5929924541417,332.63084310051596,-679.98301248282587,382.57844456180482,178.46184347563764,1632.7229282537612,212.39913631171527,-518.94720501730626,518.94720501730626,-212.39913631171527,3093.8806573837192,0.0
558296.95196600363,3570566.251970998,-22500.0,1620.5762398850484,793.86978753092262,-1130.8493380499622,486.95495487279686,-122.66261004891591,46.392930021913223,1661.4987051896219,1792.7530712325974,-1289.7272842573293,1289.7272842573293,-1792.7530712325974,2892.1184331647892,0.0
563296.95196600363,3570566.251970998,-22500.0,1793.554175281568,1198.2593974581739,-765.96379494090979,631.41010760073436,48.48341887562767,102.49274477627628,1846.1018305486884,2085.6230115209291,-1035.3136771162087,1035.3136771162087,-2085.6230115209291,3254.7017881758661,0.0
568296.95196600363,3570566.251970998,-22500.0,1905.8913864827116,1625.7678794695714,-251.62919385023,778.25039674286415,273.16638626935116,173.03998583992919,2075.3112853868283,2322.1224460636699,-648.06416494739221,648.06416494739221,-2322.1224460636699,3726.8285081719137,0.0
573296.95196600363,3570566.251970998,-22500.0,1938.0698688819621,2048.2084573799129,427.54182160888104,917.0411951688028,555.08405644042045,258.6587249611303,2351.7781441956331,2467.9656204773714,-113.17265871515792,113.17265871515792,-2467.9656204773714,4312.5446526186197,0.0
578296.95196600363,3570566.251970998,-22500.0,1875.0751509811362,2427.8222481600565,1275.4533146828303,1034.5156589088799,893.73956264052401,358.82661003812098,2673.384913373211,2487.9543268419516,573.1638138071736,-573.1638138071736,-2487.9543268419516,5003.9306569061491,0.0
583296.95196600363,3570566.251970998,-22500.0,1710.6551987366124,2719.4496730552573,2279.0583510356382,1115.4407202156426,1282.7869377223653,471.48846982084177,3032.5637400499318,2351.3082883185193,1398.5286321574858,-1398.5286321574858,-2351.3082883185193,5780.8678550106206,0.0
588296.95196600363,3570566.251970998,-22500.0,1451.425087295733,2875.2707804873712,3403.767957614843,1144.2609216771157,1708.7399244354567,592.77737420959738,3416.3166026372592,2038.3972268633618,2330.0455750565879,-2330.0455750565879,-2038.3972268633618,6611.6726371862933,0.0
593296.95196600363,3570566.251970998,-22500.0,1119.5779134483882,2852.0926573169077,4591.3744274659903,1107.4713397463138,2150.537895751404,716.9581927332722,3807.1202721204904,1547.7155763920855,3312.734024193599,-3312.734024193599,-1547.7155763920855,7454.5625641708239,0.0
598296.95196600363,3570566.251970998,-22500.0,752.80699052116256,2620.2777696289545,5762.1717635090245,996.40836736825759,2580.4501948521561,836.69971962001728,4185.2153330856472,901.24962123965702,4272.0672266424936,-4272.0672266424936,-901.24962123965702,8260.3117032619848,0.0
603296.95196600363,3570566.251970998,-22500.0,400.41774334850135,2172.4324341906063,6822.3607758569606,809.87389666570095,2966.60177662761,943.73010090794742,4531.7671703302767,146.11122410647931,5121.6720110520873,-5121.6720110520873,-146.11122410647931,8976.395331852189,0.0
608296.95196600363,3570566.251970998,-22500.0,115.57655688682262,1529.2817964919745,7676.4689453178898,555.82890523461947,3276.9883613738716,1029.8326841255289,4823.6477984531111,-649.23294651195192,5775.7089122302095,-5775.7089122302095,649.23294651195192,9552.4483614820092,0.0
613296.95196600363,3570566.251970998,-22500.0,-54.954616727966354,740.28547941753391,8242.7370297712787,251.45427393855667,3484.3333329977536,1088.0241370887577,5029.6897240092212,-1404.4457704039928,6163.7067098903735,-6163.7067098903735,1404.4457704039928,9946.3306645949451,0.0
618296.95196600363,3570566.251970998,-22500.0,-80.969758461110018,-122.2508236654236,8467.8784917012254,-78.759381691026292,3570.7035071264991,1113.6639864844078,5127.9838601303345,-2040.8849590122522,6244.1891958213091,-6244.1891958213091,2040.8849590122522,10129.680602491579,0.0
623296.95196600363,3570566.251970998,-22500.0,44.232080447368716,-974.80763523921132,8337.1010960170333,-406.65134454420973,3530.6629984081019,1105.217277367753,5110.5834588267871,-2495.8886295129009,6013.1155026030501,-6013.1155026030501,2495.8886295129009,10091.696794006719,0.0
628296.95196600363,3570566.251970998,-22500.0,302.41967399748347,-1737.176314310045,7876.3646232988503,-704.91915340888988,3372.0648641571934,1064.4660642638978,4981.1950974339143,-2733.765398088759,5504.4391405488132,-5504.4391405488132,2733.765398088759,9840.2338087594198,0.0
633296.95196600363,3570566.251970998,-22500.0,655.00827475011238,-2345.9117708577542,7146.2315002799915,-951.37180511111433,3114.2704916523921,996.11779913409373,4753.189712360052,-2750.4244155066799,4782.5816659787743,-4782.5816659787743,2750.4244155066799,9399.9675390030916,0.0
638296.95196600363,3570566.251970998,-22500.0,1052.043845303903,-2763.1561785669514,6229.2922271764746,-1131.8440492516738,2784.3401380453911,906.92373384795178,4447.4397627045655,-2570.744995063138,3929.2036903287844,-3929.2036903287844,2570.744995063138,8808.0782572870557,0.0
643296.95196600363,3570566.251970998,-22500.0,1442.6589745045933,-2979.0855552924909,5215.069014386665,-1241.2116316411832,2412.3360535401389,804.5619891955505,4090.3814888949578,-2240.2472113912754,3028.3205917473606,-3028.3205917473606,2240.2472113912754,8108.648200033831,0.0
648296.95196600363,3570566.251970998,-22500.0,1783.9930779939691,-3008.389198601014,4186.302559109371,-1282.5589098808889,2026.8940538717677,696.5458106158419,3710.7002962368588,-1814.0958341331161,2153.6011397941629,-2153.6011397941629,1814.0958341331161,7346.9044217687469,0.0
653296.95196600363,3570566.251970998,-22500.0,2046.6431826040666,-2882.9065141002834,3209.4926002702759,-1265.0734401418663,1651.9856396881073,589.38287123905729,3329.8519611046358,-1346.6969679631752,1360.3790926119159,-1360.3790926119159,1346.6969679631752,6564.4689566555944,0.0
658296.95196600363,3570566.251970998,-22500.0,2216.191398431341,-2643.056648941465,2330.5973237159506,-1201.4285588419743,1305.2204386976277,488.08454050717597,2960.2444920083631,-884.1151558234933,682.90916991848758,-682.90916991848758,884.1151558234933,5796.1613131056574,0.0
663296.95196600363,3570566.251970998,-22500.0,2291.5746214455535,-2330.2519522476859,1575.2484540610617,-1105.331459432907,997.58000336746738,396.02093578611868,2611.4323892604766,-460.13344571966536,135.89862078520457,-135.89862078520457,460.13344571966536,5068.4716852747097,0.0
668296.95196600363,3570566.251970998,-22500.0,2281.6387987164512,-1981.5121380468256,951.95622892274321,-989.65564040839297,734.17580223759501,315.04125892344189,2290.6262695862411,-95.576024532185954,-281.39141413069683,281.39141413069683,95.576024532185954,4399.4408047730294,0.0
673296.95196600363,3570566.251970998,-22500.0,2201.1888447636506,-1626.5344260526424,456.6572448205801,-865.29663709737292,515.54618146199653,245.75111544702932,2002.1401927361449,200.12955993874641,-580.15454775559374,580.15454775559374,-200.12955993874641,3799.5033135267181,0.0
678296.95196600363,3570566.251970998,-22500.0,2067.462683113587,-1286.8320073045845,77.319542673470863,-740.68466821283198,339.08365726031542,187.84788932975459,1747.6080557503924,426.27717277566478,-777.3732538155931,777.3732538155931,-426.27717277566478,3272.8433146185939,0.0
683296.95196600363,3570566.251970998,-22500.0,1897.4936493018809,-976.28066609200232,-202.1613829371326,-621.7831558521807,200.32244553479188,140.44287759789847,1526.5475178632055,587.99285476124896,-892.12625974054572,892.12625974054572,-587.99285476124896,2818.8969680105729,0.0
553296.95196600363,3575566.251970998,-22500.0,1461.9847741898898,216.17090860302318,-1765.7576091114117,314.16332743662423,-390.3980353079794,-29.738049032353462,1701.9730130575638,1455.364219907877,-1766.5104528201161,1766.5104528201161,-1455.364219907877,2953.3333956130518,0.0
558296.95196600363,3575566.251970998,-22500.0,1748.0445667091885,623.50910323522305,-1570.4126751043311,476.17130453461249,-266.9907176455427,17.855953705066881,1854.1353540715143,1859.1457082452873,-1674.4849290063414,1674.4849290063414,-1859.1457082452873,3213.1782457485438,0.0
563296.95196600363,3575566.251970998,-22500.0,1997.3552639909667,1095.3670262043736,-1229.1546764196573,655.99761733938044,-85.539831214698637,82.547341620042616,2049.4331130793407,2249.6288093220878,-1455.7397494630729,1455.7397494630729,-2249.6288093220878,3579.2660638685707,0.0
568296.95196600363,3575566.251970998,-22500.0,2182.5083708387401,1613.7084071993993,-709.40650897285695,845.52277443949777,164.21650698697235,166.79432040815246,2298.4321936392726,2590.4166696897023,-1079.0669690274494,1079.0669690274494,-2590.4166696897023,4078.5773609777448,0.0
573296.95196600363,3575566.251970998,-22500.0,2275.0946601546143,2147.1560517158377,15.946836728973945,1032.1499694987513,489.91707891075362,272.19503177778279,2608.1604574694475,2836.9112906557621,-518.39381070855666,518.39381070855666,-2836.9112906557621,4726.2462606118297,0.0
578296.95196600363,3575566.251970998,-22500.0,2250.3811339348604,2649.9092688764185,961.45856582823706,1198.7076404681961,894.16471570006922,398.86082208953223,2979.6149531390765,2940.1253403043102,240.3054784968806,-240.3054784968806,-2940.1253403043102,5520.7183929898156,0.0
583296.95196600363,3575566.251970998,-22500.0,2093.4979338728463,3063.3743363267308,2120.7839297138739,1324.2836501493057,1371.8381544819151,544.75185220148251,3406.129191235867,2853.5082552227636,1190.9764339747935,-1190.9764339747935,-2853.5082552227636,6442.1585146622856,0.0
588296.95196600363,3575566.251970998,-22500.0,1806.1049522956303,3321.6443219477346,3458.7154170157478,1386.297056024421,1907.6802626387243,705.11972340408352,3872.8854230401798,2542.5297801332827,2299.9824024431446,-2299.9824024431446,-2542.5297801332827,7452.9150722184668,0.0
593296.95196600363,3575566.251970998,-22500.0,1411.6951166205552,3361.2912271945738,4906.1131117446866,1363.8797158595266,2474.9730279712544,872.25743252854295,4357.7759764034527,1995.6046170099462,3501.6599333308095,-3501.6599333308095,-1995.6046170099462,8499.3402766217987,0.0
598296.95196600363,3575566.251970998,-22500.0,957.15326877275606,3134.5645356171312,6360.698491794009,1242.206608566815,3036.1967713914828,1035.7631587427766,4834.0865675976756,1233.6014218445762,4699.8163065349308,-4699.8163065349308,-1233.6014218445762,9515.2980594082601,0.0
603296.95196600363,3575566.251970998,-22500.0,508.47985334082108,2623.3188464991654,7696.0537205987084,1016.8923439775842,3546.3304234277398,1183.4545693415105,5274.2735210708388,314.33280289184722,5777.3029075862778,-5777.3029075862778,-314.33280289184722,10427.961074919858,0.0
608296.95196600363,3575566.251970998,-22500.0,140.00600914228309,1849.4862875838742,8779.1748543315734,697.15464601922179,3958.8080307040232,1302.9113449802032,5645.62695641154,-671.23570363197496,6613.6913721333658,-6613.6913721333658,671.23570363197496,11165.903772902355,0.0
613296.95196600363,3575566.251970998,-22500.0,-81.157682201544304,877.67542497111901,9493.8053768455447,306.42600702737934,4233.196565381033,1383.4032169580953,5906.6314605764937,-1612.2591350851108,7107.9458267920672,-7107.9458267920672,1612.2591350851108,11668.514572724749,0.0
618296.95196600363,3575566.251970998,-22500.0,-111.2293693046928,-192.78638534372914,9763.7206776602015,-120.35182000981617,4342.7592168625679,1417.7617232427265,6026.8132829059141,-2398.5927256860646,7200.0967627529262,-7200.0967627529262,2398.5927256860646,11894.846271800927,0.0
623296.95196600363,3575566.251970998,-22500.0,58.959752229044234,-1245.5044566757331,9568.8821743719873,-542.4486922696633,4279.7316228321324,1403.6911580056917,5995.0305901501406,-2943.1455640879612,6884.9937018557848,-6884.9937018557848,2943.1455640879612,11829.773445748848,0.0
628296.95196600363,3575566.251970998,-22500.0,401.69998807761692,-2169.6566154035404,8948.9720945655918,-920.64913619662616,4056.6173932567935,1344.1251994688143,5817.313669279928,-3199.0402588510051,6213.2018468792858,-6213.2018468792858,3199.0402588510051,11485.743729845728,0.0
633296.95196600363,3575566.251970998,-22500.0,860.05262968987302,-2880.7171365474173,7993.1232416975827,-1224.0452819100487,3703.1016547572431,1246.5292120604129,5513.9395255954087,-3166.192928578821,5278.6211339167676,-5278.6211339167676,3166.192928578821,10899.662176781558,0.0
638296.95196600363,3575566.251970998,-22500.0,1362.4778760598001,-3333.1830804187657,6819.5596946765681,-1434.4407926935025,3259.6490998571944,1121.3779671703162,5116.0693375178307,-2885.9734862225614,4197.2097790963126,-4197.2097790963126,2885.9734862225614,10125.843142129635,0.0
643296.95196600363,3575566.251970998,-22500.0,1839.1640254417759,-3522.6002524583505,5551.9705842352932,-1547.4487653144861,2769.831236184822,980.26882680053563,4661.9433072982129,-2427.0013025620506,3083.8978652105193,-3083.8978652105193,2427.0013025620506,9226.9914448109703,0.0
648296.95196600363,3575566.251970998,-22500.0,2234.9864681550175,-3478.2579025600853,4299.4241802890392,-1570.5738583920856,2273.5109000235198,834.17148535907427,4188.2681667346014,-1867.6873352709113,2034.2531832765194,-2034.2531832765194,1867.6873352709113,8265.4447698384192,0.0
653296.95196600363,3575566.251970998,-22500.0,2516.2433205519083,-3250.6204434167921,3143.9778997234757,-1519.422819660783,1802.2839240115266,692.16957818845913,3719.4819123169132,-1280.9301310244796,1114.4719227252513,-1114.4719227252513,1280.9301310244796,7296.3380422616383,0.0
658296.95196600363,3575566.251970998,-22500.0,2671.086288651929,-2898.0959201910077,2136.7661184880712,-1413.4430128232375,1377.5967282992724,560.83802112345018,3271.6185110381984,-724.22941791121275,359.79606183396413,-359.79606183396413,724.22941791121275,6363.5492579455567,0.0
663296.95196600363,3575566.251970998,-22500.0,2705.4763170204042,-2476.4221667759366,1300.6714723232672,-1272.2662111115251,1011.0863059681383,444.18655839096624,2856.7411706514149,-235.8116036539671,-221.00777525648249,221.00777525648249,235.8116036539671,5498.282272713459,0.0
668296.95196600363,3575566.251970998,-22500.0,2637.1305014723994,-2032.0920151696905,636.69553690070029,-1113.2169406892538,706.31968109875368,343.99718804395059,2482.6535982910345,164.48768362009525,-638.21288336200644,638.21288336200644,-164.48768362009525,4719.6979355901667,0.0
673296.95196600363,3575566.251970998,-22500.0,2489.5070496494136,-1599.6394998272049,131.35240295250034,-950.04222444791174,461.08475510719114,260.35399689909633,2152.9440590243689,471.58538232979521,-913.37754865332818,913.37754865332818,-471.58538232979521,4036.7569617061927,0.0
678296.95196600363,3575566.251970998,-22500.0,2287.0284183786989,-1201.7662399691724,-236.69244647448971,-792.62021252464081,269.61424068369297,192.20322434349586,1867.7471703641913,690.5825342141211,-1072.8703270191099,1072.8703270191099,-690.5825342141211,3450.5431099593975,0.0
683296.95196600363,3575566.251970998,-22500.0,2051.9414513159536,-851.10361860554713,-491.56333956001282,-647.30106896636414,124.40558652498842,137.84362212700557,1624.7185596926543,832.4962256958305,-1143.2856012914253,1143.2856012914253,-832.4962256958305,2956.556866104338,0.0
688296.95196600363,3575566.251970998,-22500.0,1802.6816674981794,-552.61016174471149,-656.82699397397596,-517.55991384544234,17.526775435826234,95.302405744900128,1419.9519525211094,910.89897915475797,-1148.6924803851255,1148.6924803851255,-910.89897915475797,2546.6984599757357,0.0
548296.95196600363,3580566.251970998,-22500.0,1089.6394571060853,-432.31884253569217,-2221.7135646128581,81.051116297377149,-632.51398992735881,-111.17766353847223,1804.2362494794029,897.18523090483473,-2047.5651453503945,2047.5651453503945,-897.18523090483473,3195.5155496816019,0.0
553296.95196600363,3580566.251970998,-22500.0,1463.4958290086781,-83.027239276206274,-2211.2166358201434,239.8625152589681,-571.8914657045309,-78.157555268644728,1931.4744227789142,1359.248630583425,-2127.3408880538559,2127.3408880538559,-1359.248630583425,3374.838683622404,0.0
558296.95196600363,3580566.251970998,-22500.0,1838.4260236249261,362.08680101281089,-2082.4197659306992,431.06773988024833,-457.15144974081193,-27.407091647540099,2089.2569613369092,1858.5630923042024,-2110.0050776914709,2110.0050776914709,-1858.5630923042024,3621.6656517400634,0.0
563296.95196600363,3580566.251970998,-22500.0,2186.2956122151754,901.14413105993822,-1791.8750677068911,651.52708863115197,-272.52696621778449,45.390523977593823,2292.606860478294,2366.4922864965474,-1954.3487790081672,1954.3487790081672,-2366.4922864965474,3978.0508321727038,0.0
568296.95196600363,3580566.251970998,-22500.0,2471.6234365548839,1519.2238821742176,-1292.9574069124149,893.08777263414026,-2.0386017241737289,144.37746044196211,2557.8431154206032,2840.4786110541554,-1615.7784625871936,1615.7784625871936,-2840.4786110541554,4488.2057138355422,0.0
573296.95196600363,3580566.251970998,-22500.0,2654.4782716823547,2183.7367049973368,-541.93984674198316,1141.220726519969,368.10469079722685,272.81254946780092,2898.8354602294448,3224.1707786381294,-1052.2623451383888,1052.2623451383888,-3224.1707786381294,5186.1735753811108,0.0
578296.95196600363,3580566.251970998,-22500.0,2696.2152464423571,2841.1414734601531,492.60682469569144,1374.2684293318089,846.06080913590881,432.11532986899869,3322.6132603572905,3450.9641505565874,-233.52966460868902,233.52966460868902,-3450.9641505565874,6084.6036277863486,0.0
583296.95196600363,3580566.251970998,-22500.0,2568.1038603112315,3416.9855795086823,1817.5497475170901,1563.9406827719642,1430.1195386722636,620.75493034811063,3825.8030055710251,3452.1898422977174,847.01318293859254,-847.01318293859254,-3452.1898422977174,7169.0122748469812,0.0
588296.95196600363,3580566.251970998,-22500.0,2261.7896146889093,3821.4836039741404,3401.9879402777306,1677.7170365457271,2104.414580534783,833.19776012614295,4392.8953140831982,3170.3192331871069,2159.6609375537892,-2159.6609375537892,-3170.3192331871069,8397.0769497426918,0.0
593296.95196600363,3580566.251970998,-22500.0,1798.9864030328522,3962.1415141384205,5166.8156711876118,1683.5215080946011,2835.8553469752101,1059.2472018700623,4996.7272933155546,2575.7138476401533,3628.8507009175946,-3628.8507009175946,-2575.7138476401533,9700.7968839362093,0.0
598296.95196600363,3580566.251970998,-22500.0,1236.488247377177,3762.9677931328124,6982.0802845888411,1556.3700376625754,3573.89138258098,1284.16563789928,5601.5934702093145,1683.0381063702375,5131.6266671827507,-5131.6266671827507,-1683.0381063702375,10991.128600768154,0.0
603296.95196600363,3580566.251970998,-22500.0,662.4222263867938,3186.7358279343057,8676.9613188371331,1285.7327747041595,4254.5669255569201,1489.9028058275446,6167.7651079720954,561.36153355149327,6508.6640991260865,-6508.6640991260865,-561.36153355149327,12166.136885169813,0.0
608296.95196600363,3580566.251970998,-22500.0,181.56071735659347,2253.5591538809508,10064.276314679186,881.41037121080012,4809.296000581573,1657.4762881285799,6647.4694609370536,-668.29232824887185,7589.253454603675,-7589.253454603675,668.29232824887185,13123.054670662486,0.0
613296.95196600363,3580566.251970998,-22500.0,-108.38964928789179,1047.7922576612534,10976.164938459586,375.44072841068311,5177.1290366171124,1770.1566593784812,6983.0694373700107,-1851.2686372565386,8226.2677297879545,-8226.2677297879545,1851.2686372565386,13773.086284169534,0.0
618296.95196600363,3580566.251970998,-22500.0,-142.79412920491356,-292.39304323083019,11301.547612629314,-181.64484519753944,5317.4128588233289,1816.6848009605644,7131.740381967249,-2830.8762981267942,8331.3199441173456,-8331.3199441173456,2830.8762981267942,14055.87682170709,0.0
623296.95196600363,3580566.251970998,-22500.0,91.12861869363671,-1602.2223138204072,11012.799245831648,-729.96640187573007,5218.8350711054509,1793.5682531395182,7077.9278193054488,-3484.1164567761962,7897.7318167711137,-7897.7318167711137,3484.1164567761962,13949.778687030606,0.0
628296.95196600363,3580566.251970998,-22500.0,550.58316901605872,-2726.3867068373793,10171.481604215003,-1212.3359049199535,4901.6203041211893,1705.6995212342713,6831.6800536177034,-3749.114284082737,7002.0749078014478,-7002.0749078014478,3749.114284082737,13474.76146965499,0.0
633296.95196600363,3580566.251970998,-22500.0,1150.2654751866146,-3551.6437800884723,8910.8316553655877,-1585.3429786091936,4412.0666570751964,1565.0923846578432,6424.3469973203419,-3634.5170391944139,5783.3493693009204,-5783.3493693009204,3634.5170391944139,12687.026104580713,0.0
638296.95196600363,3580566.251970998,-22500.0,1786.6706906509935,-4025.2096769356531,7402.0276009800473,-1826.0524595023585,3811.5130012831441,1388.194340554182,5902.9118268239208,-3208.8237731712948,4408.0000376696235,-4408.0000376696235,3208.8237731712948,11667.126433676371,0.0
643296.95196600363,3580566.251970998,-22500.0,2363.9215685799845,-4154.8825069295317,5816.7665884359722,-1932.8444933919982,3163.6329191328332,1192.6659273874634,5321.726219515248,-2575.8721740870456,3033.697141392588,-3033.697141392588,2575.8721740870456,10505.268768716802,0.0
648296.95196600363,3580566.251970998,-22500.0,2812.4253522619856,-3994.4687393162826,4297.8547616402002,-1921.2709333434314,2523.8797278669394,994.55073006391308,4726.9388928342341,-1846.9159260064739,1783.0200696466541,-1783.0200696466541,1846.9159260064739,9287.7654614509938,0.0
653296.95196600363,3580566.251970998,-22500.0,3096.3932943114701,-3622.4860044307725,2943.84755692095,-1817.2830876991954,1933.2852930466292,806.43036089639304,4148.4206735809375,-1118.3983831746741,731.95017008388868,-731.95017008388868,1118.3983831746741,8087.3617729436601,0.0
658296.95196600363,3580566.251970998,-22500.0,3211.3516613055554,-3122.0022040750437,1807.3898016182432,-1650.34540632281,1416.8364035072912,636.71375295949838,3606.764704868272,-459.82608096280671,-88.319974466402044,88.319974466402044,459.82608096280671,6958.38093143063,0.0
663296.95196600363,3580566.251970998,-22500.0,3175.6765726875778,-2566.3482841226146,902.82036510972659,-1448.1249282304709,985.23762430809222,489.84668281709327,3115.9467608412529,88.653002151092721,-681.39370028705321,681.39370028705321,-88.653002151092721,5936.0559211110976,0.0
668296.95196600363,3580566.251970998,-22500.0,3020.5006339671777,-2011.8861355027298,217.74747179176705,-1233.3789329161143,638.42711051784227,367.07728268240163,2683.3078381988307,512.09994995634804,-1072.9773588231878,1072.9773588231878,-512.09994995634804,5038.7186714803593,0.0
673296.95196600363,3580566.251970998,-22500.0,2780.9767238859772,-1496.5390881357544,-275.52660486310725,-1022.8156982240666,369.42430274629419,267.41360339548595,2310.4753003970909,813.71415351509859,-1299.3812656583364,1299.3812656583364,-813.71415351509859,4271.3305474381268,0.0
678296.95196600363,3580566.251970998,-22500.0,2490.2280811118403,-1041.9257298088612,-610.91771492977193,-827.33453400057363,167.65362886692697,188.52673576967169,1994.8742853685326,1007.5911106657678,-1399.0342503447705,1399.0342503447705,-1007.5911106657678,3629.2728019790829,0.0
683296.95196600363,3580566.251970998,-22500.0,2176.0297761961501,-657.07719298268921,-822.43579443019689,-653.00095132094134,21.388040369459311,127.46878831187398,1731.2530575153039,1112.811747093541,-1407.2683124566013,1407.2683124566013,-1112.811747093541,3101.7273723714702,0.0
688296.95196600363,3580566.251970998,-22500.0,1859.6252262737678,-342.35149935347022,-940.70258599092926,-502.26413908490389,-80.689960009404501,81.173749493770742,1512.9707396937883,1149.3328531462944,-1353.785284770966,1353.785284770966,-1149.3328531462944,2674.4031915015466,0.0
693296.95196600363,3580566.251970998,-22500.0,1555.917243037663,-92.801316529900987,-991.4252938788286,-375.11341964865699,-148.64358283576274,46.763566350141716,1332.9759191473806,1135.5391913009139,-1261.9645968619802,1261.9645968619802,-1135.5391913009139,2331.6128955894251,0.0
543296.95196600363,3585566.251970998,-22500.0,514.04032488969574,-1066.2160030680243,-2451.9232341647435,-191.93010847907274,-821.76210405835093,-190.24188099380052,1953.2856496678314,170.59692685175469,-2092.6923143853019,2092.6923143853019,-170.59692685175469,3570.8427525499833,0.0
548296.95196600363,3585566.251970998,-22500.0,925.87730943668691,-828.39810761506214,-2609.2488745418568,-59.679889225840604,-829.6525833377907,-176.47075637575497,2077.3902438894252,620.67340381422298,-2320.8330592593179,2320.8330592593179,-620.67340381422298,3734.9343303853889,0.0
553296.95196600363,3585566.251970998,-22500.0,1381.478913150055,-482.92424551562584,-2693.9326063673175,114.7056781917823,-795.75997326284869,-146.87569263324929,2216.1091131927815,1152.8120309888095,-2498.5010337213375,2498.5010337213375,-1152.8120309888095,3918.5449278792144,0.0
558296.95196600363,3585566.251970998,-22500.0,1860.7637199876101,-14.545258790507608,-2661.9464160493894,334.56196665952649,-701.73518697498855,-95.805755271876151,2381.2796555011123,1754.5899592592114,-2584.8996229997665,2584.8996229997665,-1754.5899592592114,4153.0472100246934,0.0
563296.95196600363,3585566.251970998,-22500.0,2332.0312888202079,583.83654254616056,-2458.1151753499007,599.30675074044439,-525.78437370037898,-16.840640607950732,2590.6683628485043,2398.4217614248546,-2528.0168741497719,2528.0168741497719,-2398.4217614248546,4487.8403062148636,0.0
568296.95196600363,3585566.251970998,-22500.0,2751.3604794848784,1304.6332742074305,-2018.5315414086804,902.11483115457918,-244.06016370870731,96.685168107356901,2866.9457679493817,3037.4142130145888,-2266.9116124590232,2266.9116124590232,-3037.4142130145888,4986.2801616858587,0.0
573296.95196600363,3585566.251970998,-22500.0,3064.7616895924648,2117.9893149528548,-1276.9637759620991,1227.4356727732149,166.4618121183714,250.74197548601504,3233.5923746960143,3603.1522042536867,-1737.9761289083913,1737.9761289083913,-3603.1522042536867,5710.7044861513778,0.0
578296.95196600363,3585566.251970998,-22500.0,3214.5103310280151,2964.8317207007453,-176.54468669192471,1549.0101561340266,723.29125680811183,449.19747245502248,3708.1249310564372,4007.7085329824863,-886.41951624373951,886.41951624373951,-4007.7085329824863,6701.2917268633846,0.0
583296.95196600363,3585566.251970998,-22500.0,3150.5303721674645,3753.4844254006734,1312.9574475563479,1829.4147352422899,1431.9908218202729,692.01667966657226,4295.024153719889,4152.4238923868324,316.83438222938685,-316.83438222938685,-4152.4238923868324,7959.9792456027499,0.0
588296.95196600363,3585566.251970998,-22500.0,2846.1511329381051,4363.7531073275604,3174.1516485549928,2022.3927109100084,2278.8562849746363,973.3559355690021,4981.0881819896667,3945.1920822938864,1854.8596783204966,-1854.8596783204966,-3945.1920822938864,9444.8939781862809,0.0
593296.95196600363,3585566.251970998,-22500.0,2314.9459726019022,4662.0687558472619,5322.3638222151321,2078.9908931162136,3224.5912230097165,1280.082706096164,5734.5819498595702,3325.4230605165385,3646.2580340333989,-3646.2580340333989,-3325.4230605165385,11072.17235606408,0.0
598296.95196600363,3585566.251970998,-22500.0,1622.5084377176092,4528.7567046061467,7595.5331304833862,1957.5825572741296,4201.8065008493923,1591.4482492343946,6508.605822535761,2291.6888004649882,5536.7396001222342,-5536.7396001222342,-2291.6888004649882,12722.198940214241,0.0
603296.95196600363,3585566.251970998,-22500.0,885.53053725785594,3893.3206479330674,9762.9575533736679,1636.1285221938274,5119.3203923690571,1880.6020798503675,7246.2544272856285,922.46705771184043,7309.7083893040299,-7309.7083893040299,-922.46705771184043,14251.03902428216,0.0
608296.95196600363,3585566.251970998,-22500.0,252.6417807322027,2767.2886329237353,11558.69493829497,1123.0669684735747,5874.8925773905903,2118.2363324704879,7876.1871951786889,-621.6929057473958,8720.8466837371416,-8720.8466837371416,621.6929057473958,15508.557496720678,0.0
613296.95196600363,3585566.251970998,-22500.0,-131.80813446113234,1260.1698625656475,12736.439177506903,462.13133308698565,6374.9939016402932,2277.8891862381834,8315.1696086799257,-2122.6653797029576,9552.3880775574435,-9552.3880775574435,2122.6653797029576,16362.037497881594,0.0
618296.95196600363,3585566.251970998,-22500.0,-170.48004847834881,-433.33226474588355,13130.927448520941,-272.58414547910655,6556.4340199302815,2341.5637405329858,8501.7015844727739,-3353.7651689646609,9671.2534792570532,-9671.2534792570532,3353.7651689646609,16720.370970418106,0.0
623296.95196600363,3585566.251970998,-22500.0,154.85220323201639,-2075.9019055429412,12703.26361612947,-991.47214206467163,6402.3423227842559,2303.8502423896862,8413.9773850956644,-4138.1583725723585,9068.5410878798539,-9068.5410878798539,4138.1583725723585,16551.7802330415,0.0
628296.95196600363,3585566.251970998,-22500.0,776.92068255192805,-3446.5035292319603,11550.582492703834,-1609.7630750187857,5946.0309605702732,2173.0245523985741,8069.0856360113648,-4393.9106963699596,7862.3679659454519,-7862.3679659454519,4393.9106963699596,15888.825243725278,0.0
633296.95196600363,3585566.251970998,-22500.0,1565.8415042221702,-4392.8606187821497,9875.4454080634277,-2066.0473469705789,5261.07377729771,1968.7129916902697,7516.409538836102,-4147.4190833518651,6261.9578286977057,-6261.9578286977057,4147.4190833518651,14818.844085405583,0.0
638296.95196600363,3585566.251970998,-22500.0,2370.4263554560248,-4857.960331195919,7928.6130051496275,-2332.5008167022979,4441.8032504002422,1717.0501929753905,6827.2811300228614,-3512.1631313014818,4508.7794746341096,-4508.7794746341096,3512.1631313014818,13463.349886637685,0.0
643296.95196600363,3585566.251970998,-22500.0,3059.5016539442095,-4874.6951982672017,5948.9559628487959,-2414.4925434495667,3581.9108776090816,1445.105704334158,6078.1546347132826,-2645.7722464579156,2819.0456925843373,-2819.0456925843373,2645.7722464579156,11953.555244310994,0.0
648296.95196600363,3585566.251970998,-22500.0,3548.1986768853189,-4537.4331775165929,4120.8581842071962,-2341.9344410681656,2758.1369850892502,1176.3051619432169,5327.9022579962884,-1705.2075497244168,1346.6402659729679,-1346.6402659729679,1705.2075497244168,10409.271555438334,0.0
653296.95196600363,3585566.251970998,-22500.0,3804.3297337642093,-3966.1707713685823,2557.1860886180812,-2157.2238981136238,2022.3413721002257,927.80949318598414,4614.3126653362506,-815.26904411740816,172.34918874809824,-172.34918874809824,815.26904411740816,8925.4844410032365,0.0
658296.95196600363,3585566.251970998,-22500.0,3839.3322706813015,-3276.569044112518,1304.0217816905258,-1904.3024190689828,1401.3560412837587,709.91565175092364,3962.4931899875351,-55.546969161025913,-686.35417459652683,686.35417459652683,55.546969161025913,7567.3785651096296,0.0
663296.95196600363,3585566.251970998,-22500.0,3692.1094164477709,-2561.9689394653333,357.465535959421,-1621.275577635028,901.73747372726098,526.90397341949017,3386.9052561340604,537.55383483770561,-1255.5629087518776,1255.5629087518776,-537.55383483770561,6371.7808967357296,0.0
668296.95196600363,3585566.251970998,-22500.0,3413.0514369824477,-1887.1062788916288,-316.70914473455764,-1336.9838477261958,516.33657885148227,378.60005731057782,2892.477424910131,960.53600296255945,-1584.4260095439517,1584.4260095439517,-960.53600296255945,5352.3013898887039,0.0
673296.95196600363,3585566.251970998,-22500.0,3052.1500814804494,-1289.8442756846323,-766.3603420624537,-1070.599182298296,230.46107656233903,262.03116262107278,2476.8664739737869,1230.4666035273253,-1729.0626710348811,1729.0626710348811,-1230.4666035273253,4505.6261250671296,0.0
678296.95196600363,3585566.251970998,-22500.0,2652.1172441383351,-786.84602031281497,-1041.4019957941098,-832.98101460800865,26.579813913452739,172.82070437214901,2133.0194564260764,1374.3178261117134,-1742.3524294982647,1742.3524294982647,-1374.3178261117134,3817.4255444454861,0.0
683296.95196600363,3585566.251970998,-22500.0,2245.6563045538542,-380.15028803812851,-1187.1586615413594,-628.7143788030404,-112.62719187846439,106.18879681827568,1851.4192871919006,1421.4207041810791,-1668.8455915542554,1668.8455915542554,-1421.4207041810791,3267.1985577790078,0.0
688296.95196600363,3585566.251970998,-22500.0,1855.4584370749976,-62.964394736979251,-1241.4363527251408,-458.13959051353089,-202.61093190560669,57.572878151901968,1621.7990616543484,1398.9781639187404,-1543.2374953152512,1543.2374953152512,-1398.9781639187404,2831.9622471661032,0.0
693296.95196600363,3585566.251970998,-22500.0,1495.6233338954228,175.95757474627706,-1233.951889910607,-319.03782651635305,-256.27908395867655,22.950067216287181,1434.3132809663166,1329.9347550963248,-1390.9023150087487,1390.9023150087487,-1329.9347550963248,2488.9456616244129,0.0
698296.95196600363,3585566.251970998,-22500.0,1173.5825835832745,349.36416925731407,-1187.025521674344,-207.87636643075083,-283.92513823045402,-1.0439856582549976,1280.2304744191822,1232.3881058513866,-1229.3696765168702,1229.3696765168702,-1232.3881058513866,2217.4375697130795,0.0
538296.95196600363,3590566.251970998,-22500.0,-214.28212648163051,-1599.3701728398094,-2450.3563323380231,-476.17534288652593,-939.11406037137158,-259.28417706416246,2116.7375011537201,-637.28204570877335,-1905.0421982459525,1905.0421982459525,637.28204570877335,3987.6577699351947,0.0
543296.95196600363,3590566.251970998,-22500.0,171.57241564936712,-1504.5506033562108,-2730.587766265774,-391.19182825540918,-1010.2564034274782,-266.96173270170988,2261.3127930752512,-270.14120853202212,-2230.4559268804951,2230.4559268804951,270.14120853202212,4201.6799345818654,0.0
548296.95196600363,3590566.251970998,-22500.0,636.61398740091192,-1313.0401565963377,-2989.9745751906762,-262.14185451777848,-1057.8110422384473,-263.14945905614127,2410.8562518683307,205.66056215820731,-2556.5942762976038,2556.5942762976038,-205.66056215820731,4408.3917765280012,0.0
553296.95196600363,3590566.251970998,-22500.0,1175.3669103426412,-997.45301496224022,-3194.176856521321,-79.728230991910891,-1064.7325870709294,-241.85447140017044,2569.8284522281278,797.0329763570071,-2853.3714522635992,2853.3714522635992,-797.0329763570071,4616.6646066271078,0.0
558296.95196600363,3590566.251970998,-22500.0,1770.8107675799283,-530.98458778554038,-3293.7073621967488,163.92728888567393,-1008.1301082336412,-195.4153947277355,2748.2862777852965,1499.8650012850917,-3075.7439097408401,3075.7439097408401,-1499.8650012850917,4851.0648802953001,0.0
563296.95196600363,3590566.251970998,-22500.0,2390.3674350714432,106.99677550264549,-3221.7694179866717,472.87884645837335,-858.99036405300706,-114.59139561411664,2964.5131728680444,2292.3358545215756,-3161.3809512480025,3161.3809512480025,-2292.3358545215756,5160.5724981433887,0.0
568296.95196600363,3590566.251970998,-22500.0,2982.9264459334281,922.35565484171616,-2894.7050882183626,843.97753935055391,-583.13675842682017,10.924597250184256,3246.3971117198016,3127.4820751806287,-3030.9313290855184,3030.9313290855184,-3127.4820751806287,5623.1908392281885,0.0
573296.95196600363,3590566.251970998,-22500.0,3478.8943816754886,1894.7878779796542,-2217.4407455764444,1262.7506231024422,-144.26450619387273,191.35254327265312,3628.9381952718795,3926.9296834152246,-2593.2877226808068,2593.2877226808068,-3926.9296834152246,6336.0825929042094,0.0
578296.95196600363,3590566.251970998,-22500.0,3795.8715513470047,2965.2738163884087,-1096.6715360929898,1699.3127739669558,490.09561050588155,434.8515320732435,4145.9412473465045,4579.1354970120801,-1758.5592367171312,1758.5592367171312,-4579.1354970120801,7385.9066757209921,0.0
583296.95196600363,3590566.251970998,-22500.0,3852.4213862901556,4026.303252195698,536.22394108573576,2105.8346831272238,1339.2543560600354,744.71069584335714,4817.6939900049547,4946.7142957439282,-460.61844880477156,460.61844880477156,-4946.7142957439282,8812.8899030675766,0.0
588296.95196600363,3590566.251970998,-22500.0,3590.5825783175555,4921.1904249912668,2693.3390953739445,2417.7799764793394,2397.3662241848788,1116.0249780001238,5640.0824429714003,4887.2491243492841,1311.8354998322943,-1311.8354998322943,-4887.2491243492841,10589.694074173156,0.0
593296.95196600363,3590566.251970998,-22500.0,3003.7703193549655,5459.8544012591065,5295.4852440760687,2561.244090346248,3621.2991291206467,1532.661299935206,6579.8698047884309,4288.9980643823073,3482.0561789091967,-3482.0561789091967,-4288.9980643823073,12618.987590391698,0.0
598296.95196600363,3590566.251970998,-22500.0,2161.0469745069959,5455.8453532517642,8147.1899062572711,2467.5691079648718,4923.058874327322,1965.7978011865214,7577.3581119751843,3116.1561943855222,5862.7365272554753,-5862.7365272554753,-3116.1561943855222,14741.63431922159,0.0
603296.95196600363,3590566.251970998,-22500.0,1214.1482242701193,4781.441685760682,10938.653478225177,2093.555091189522,6172.6693312267789,2375.47149022146,8551.4725638760192,1449.1811579858404,8161.0876840513283,-8161.0876840513283,-1449.1811579858404,16752.981600941515,0.0
608296.95196600363,3590566.251970998,-22500.0,374.63227563493501,3425.4401557930983,13288.963183737245,1441.5752697980013,7215.9728247566536,2716.0282607480403,9393.6249520472065,-501.09528626078645,10024.597810265977,-10024.597810265977,501.09528626078645,18430.155870353814,0.0
613296.95196600363,3590566.251970998,-22500.0,-141.12323444552518,1527.8502121492859,14830.520507409861,570.78627167752859,7906.6462172024203,2944.9919335581485,9979.2450600284683,-2424.0073669100411,11125.395102247679,-11125.395102247679,2424.0073669100411,19570.271823601157,0.0
618296.95196600363,3590566.251970998,-22500.0,-183.3051657935834,-633.35808073264957,15311.710790409343,-408.63067855559365,8143.9955991259803,3033.0565309895478,10217.34924966662,-3985.6067798873405,11258.312830080566,-11258.312830080566,3985.6067798873405,20032.006481137894,0.0
623296.95196600363,3590566.251970998,-22500.0,274.83685113652587,-2709.8099383358344,14676.265499327152,-1359.9458985004815,7902.1076651576795,2971.6641759988033,10076.839838875829,-4926.4954955071953,10410.895923126243,-10410.895923126243,4926.4954955071953,19767.229025208399,0.0
628296.95196600363,3590566.251970998,-22500.0,1125.4847225925007,-4381.541284668293,13080.448246169712,-2155.2399511339258,7237.0208745032214,2775.0376397758755,9587.3039808194753,-5138.1303316779313,8769.1510880945862,-8769.1510880945862,5138.1303316779313,18830.139031991952,0.0
633296.95196600363,3590566.251970998,-22500.0,2167.4200342276417,-5443.728594732157,10838.021774313052,-2707.202018130009,6268.1515095617651,2475.7589713486377,8828.0906966608327,-4681.9160257535113,6653.7912190014104,-6653.7912190014104,4681.9160257535113,17359.708081971294,0.0
638296.95196600363,3590566.251970998,-22500.0,3177.9946227407268,-5844.3630778358493,8320.5874233889099,-2984.7027851621601,5142.8051440194859,2115.8461531584876,7908.5001009185262,-3746.5839237479331,4418.6431237416273,-4418.6431237416273,3746.5839237479331,15542.748885240491,0.0
643296.95196600363,3590566.251970998,-22500.0,3979.8211545112204,-5665.0664552171993,5859.8652251127987,-3008.628992947929,3999.4941624682783,1736.972617942957,6936.4299763166937,-2571.7763182415893,2358.4459099909145,-2358.4459099909145,2571.7763182415893,13572.174811075001,0.0
648296.95196600363,3590566.251970998,-22500.0,4476.0706034904651,-5066.253416647196,3687.626893814283,-2834.1038082754667,2943.0305945591322,1373.0978777791584,5988.4312795573396,-1376.2218758498589,658.77477796180983,-658.77477796180983,1376.2218758498589,11614.002555871868,0.0
653296.95196600363,3590566.251970998,-22500.0,4650.4421455665488,-4227.5672341056188,1921.9833624946277,-2529.1940211157275,2035.7981018349456,1046.9962713969394,5111.7729292994518,-315.34130632261889,-607.55331554126269,607.55331554126269,315.34130632261889,9789.7047470588841,0.0
658296.95196600363,3590566.251970998,-22500.0,4544.5629147383015,-3305.1950575464366,586.90250831912135,-2158.0078471683933,1301.9170723757263,770.32101092013761,4334.4705878361556,528.39276310219077,-1453.884138877253,1453.884138877253,-528.39276310219077,8173.1090164468696,0.0
663296.95196600363,3590566.251970998,-22500.0,4229.2294597440323,-2412.0749298067212,-354.87768464902058,-1771.2544576130715,737.86834152965048,545.8330729134035,3668.4007056393039,1133.1113738107485,-1943.6993228027125,1943.6993228027125,-1133.1113738107485,6796.7680622068165,0.0
668296.95196600363,3590566.251970998,-22500.0,3780.6964170234219,-1616.2241901287332,-970.57805856799462,-1403.5070732048587,324.0237386192095,370.37208417052034,3112.6405147318737,1516.7694806038342,-2159.4651553225285,2159.4651553225285,-1516.7694806038342,5662.3799415907388,0.0
673296.95196600363,3590566.251970998,-22500.0,3266.0571211287415,-948.95413643990946,-1334.7266529031547,-1074.7345873168185,33.963693958877101,237.58806416921016,2657.7733441557966,1717.4706114641824,-2181.9521838874307,2181.9521838874307,-1717.4706114641824,4751.3861791256068,0.0
678296.95196600363,3590566.251970998,-22500.0,2736.919056283301,-416.10802610386258,-1515.9630224290925,-793.70201274635701,-159.34868433230184,139.98498894557051,2289.8915233605976,1779.1164936237137,-2079.626313886054,2079.626313886054,-1779.1164936237137,4033.8716518781739,0.0
683296.95196600363,3590566.251970998,-22500.0,2228.6977650128515,-8.3402018834366718,-1571.1906834931165,-561.61793994122343,-280.18896064407045,70.217021387688249,1993.6954628223368,1742.8610647915345,-1905.2284072074838,1905.2284072074838,-1742.8610647915345,3475.3669830623867,0.0
688296.95196600363,3590566.251970998,-22500.0,1762.8593882350708,291.1274056296341,-1544.3634758417675,-375.21202171662691,-348.68731844815272,21.77325423908195,1754.581114122931,1643.1191167540562,-1696.4787190016616,1696.4787190016616,-1643.1191167540562,3041.7610604343449,0.0
693296.95196600363,3590566.251970998,-22500.0,1350.1996870186347,501.39430693663769,-1467.6800826262186,-228.98910289984383,-380.65217208568936,-10.759698323456572,1559.8201600825601,1506.5127360086103,-1478.6131522819028,1478.6131522819028,-1506.5127360086103,2702.5584054054002,0.0
698296.95196600363,3590566.251970998,-22500.0,994.06593204112062,640.91082164327099,-1363.7151496903612,-116.71045834962852,-388.00758224487498,-31.687132485174928,1399.0239414728717,1352.4061420510996,-1267.3564276098889,1267.3564276098889,-1352.4061420510996,2432.6145394388332,0.0
533296.95196600363,3595566.251970998,-22500.0,-1014.2470952058678,-1965.7219176625231,-2251.2645734626299,-740.92423637911645,-977.75498589080189,-312.22417396783379,2260.2709690810307,-1424.4028849498718,-1529.8476206922915,1529.8476206922915,1424.4028849498718,4358.7350951125727,0.0
538296.95196600363,3595566.251970998,-22500.0,-716.49874996143728,-2015.9360268635473,-2594.4992678124754,-716.42878353520916,-1097.3583453838669,-340.59689407503311,2440.3087825148605,-1193.9081511414884,-1887.823562022249,1887.823562022249,1193.9081511414884,4660.3135992899315,0.0
543296.95196600363,3595566.251970998,-22500.0,-321.64905234478272,-1998.8532126421019,-2961.763507404035,-654.45878400430809,-1213.1818472533357,-363.47176343660743,2625.2598021197473,-852.83192201376607,-2288.7555921573494,2288.7555921573494,852.83192201376607,4954.6098445122589,0.0
548296.95196600363,3595566.251970998,-22500.0,180.66474044919443,-1883.7842019027357,-3334.5202040286049,-542.2296851788401,-1312.8879906569136,-375.67038550757252,2813.9218858098366,-378.61316376723948,-2719.1432123482236,2719.1432123482236,378.61316376723948,5235.3992768388944,0.0
553296.95196600363,3595566.251970998,-22500.0,793.70161083624157,-1633.7635206846501,-3680.3394661348361,-365.44654242257229,-1377.6412253361573,-369.82166807882794,3007.2966589483426,247.8760412251836,-3152.1957583781818,3152.1957583781818,-247.8760412251836,5501.5514469126229,0.0
558296.95196600363,3595566.251970998,-22500.0,1508.2220164782132,-1207.9044148426242,-3947.604098283231,-109.79756733279309,-1380.2801628385671,-335.92893055076973,3211.3972800996444,1036.20754121095,-3542.3819646354223,3542.3819646354223,-1036.20754121095,5764.9241227374841,0.0
563296.95196600363,3595566.251970998,-22500.0,2295.8713230689332,-566.98234354678243,-4060.2590297997995,236.23061998876264,-1283.868023462438,-261.16938242831088,3441.4687867181283,1977.3885095969629,-3819.9531050663518,3819.9531050663518,-1977.3885095969629,6063.2284425582557,0.0
568296.95196600363,3595566.251970998,-22500.0,3102.5135752691672,316.36081733689508,-3914.5540896757243,676.83285637058452,-1041.5000770161482,-130.2159432804898,3726.7608577243659,3032.220957322781,-3887.4191251457833,3887.4191251457833,-3032.220957322781,6475.6640476703351,0.0
573296.95196600363,3595566.251970998,-22500.0,3844.0563509711988,1441.9342098607269,-3381.1858731882421,1202.5943432489703,-598.72510312338534,73.526527026922906,4112.6333768489676,4118.8204426449611,-3621.4300170518591,3621.4300170518591,-4118.8204426449611,7129.4927285809508,0.0
578296.95196600363,3595566.251970998,-22500.0,4408.915598087634,2761.7275084923149,-2317.7015152208105,1783.1143896524861,99.68904913742216,365.34485465662465,4654.4916494465515,5103.5735281065399,-2884.9363820158178,2884.9363820158178,-5103.5735281065399,8176.0632933796069,0.0
583296.95196600363,3595566.251970998,-22500.0,4672.2450401867209,4159.4378438563908,-596.29481933329055,2360.5244719078414,1097.1070644790202,755.03970135548252,5400.5487355865071,5802.7913045720861,-1554.6471538401893,1554.6471538401893,-5802.7913045720861,9731.083498937458,0.0
588296.95196600363,3595566.251970998,-22500.0,4525.7519067612857,5439.0664353483517,1850.6216197529543,2847.4730012768168,2406.2936298222276,1241.367058266592,6369.646039199989,6004.1080565583034,434.18799930793921,-434.18799930793921,-6004.1080565583034,11815.360093761868,0.0
593296.95196600363,3595566.251970998,-22500.0,3921.4855709490535,6336.096823382788,4972.3576188824391,3134.257243182582,3987.4129355537339,1806.1870098135546,7536.3458686600088,5514.3428788072824,3031.5759766225265,-3031.5759766225265,-5514.3428788072824,14332.103412124688,0.0
598296.95196600363,3595566.251970998,-22500.0,2917.9258613266747,6563.9838820534378,8547.161627713318,3108.9301567880957,5729.9781492175698,2410.4682810495156,8829.4611935205339,4230.92034267909,6023.530740563403,-6023.530740563403,-4230.92034267909,17074.96263576092,0.0
603296.95196600363,3595566.251970998,-22500.0,1705.4840022397477,5897.8554391196103,12164.873877745589,2689.9216827635128,7449.8688378837451,2994.9989848406262,10134.417147744754,2216.9881515940151,9019.8604453432381,-9019.8604453432381,-2216.9881515940151,19751.883832443251,0.0
608296.95196600363,3595566.251970998,-22500.0,584.71362388950843,4275.2741346983494,15276.938387191949,1862.9768374689902,8912.2935717181572,3488.1495488379978,11282.879974267922,-256.97268334853197,11509.249693968472,-11509.249693968472,256.97268334853197,22026.492241554373,0.0
613296.95196600363,3595566.251970998,-22500.0,-115.57059728347978,1869.2751025596606,17325.100569695594,706.25158130646241,9883.4927823081252,3820.6861417743376,12082.198552312067,-2745.1714121572504,12989.393638987443,-12989.393638987443,2745.1714121572504,23580.699720428427,0.0
618296.95196600363,3595566.251970998,-22500.0,-159.23488323420068,-918.26763966122348,17916.123726864967,-614.13146554874095,10198.245945620729,3943.8428379839625,12392.697571396722,-4745.9354244250753,13135.432176069233,-13135.432176069233,4745.9354244250753,24188.075870170076,0.0
623296.95196600363,3595566.251970998,-22500.0,494.50801101492056,-3564.8748610519547,16965.709975823847,-1884.9034705077427,9815.1974722800096,3843.717025014791,12168.567446530793,-5869.8322011240434,11928.528694748451,-11928.528694748451,5869.8322011240434,23772.885457109867,0.0
628296.95196600363,3595566.251970998,-22500.0,1669.0358800021938,-5598.4799138091084,14730.909576981969,-2909.0914353859685,8830.9983614543362,3545.2112766842638,11462.009768698221,-5973.6741927652183,9668.5050693994945,-9668.5050693994945,5973.6741927652183,22427.73237945449,0.0
633296.95196600363,3595566.251970998,-22500.0,3046.7401889609441,-6745.2175021335152,11707.955410421413,-3562.4017628556753,7444.2944529102288,3103.423556541497,10403.60271327028,-5187.2388070244942,6856.9234590405831,-6856.9234590405831,5187.2388070244942,20380.075352870332,0.0
638296.95196600363,3595566.251970998,-22500.0,4297.9297038781315,-6981.0030261905213,8453.4780391483309,-3816.567766120439,5888.8916799005056,2586.7362861827578,9163.4523340549968,-3826.3718389439077,4016.6480315507729,-4016.6480315507729,3826.3718389439077,17923.354200198599,0.0
643296.95196600363,3595566.251970998,-22500.0,5188.8799217291253,-6479.2000783390822,5423.9974964176499,-3724.9546646013719,4369.7421192189558,2059.3898587583135,7895.6285946556027,-2254.6601580008119,1543.1685153944832,-1543.1685153944832,2254.6601580008119,15343.881117001009,0.0
648296.95196600363,3595566.251970998,-22500.0,5624.1502760501153,-5505.5949288295578,2896.3448332204202,-3386.2596344394383,3026.1607803566799,1569.8392782649939,6700.0043962403242,-769.68518670920275,-356.72481610938922,356.72481610938922,769.68518670920275,12869.612476538679,0.0
653296.95196600363,3595566.251970998,-22500.0,5627.3569608516846,-4321.6814064343707,971.05181630537152,-2907.4439173810006,1926.1717322721515,1146.8455692380737,5632.4118608366589,448.0317630991816,-1645.4623458476512,1645.4623458476512,-448.0317630991816,10649.620896889286,0.0
658296.95196600363,3595566.251970998,-22500.0,5292.5745898327123,-3128.6371425217535,-377.29187019074084,-2379.0049576885604,1081.2188403310111,801.57168839174312,4718.9902223589797,1330.2589811921348,-2395.2279293627421,2395.2279293627421,-1330.2589811921348,8758.0998755085293,0.0
663296.95196600363,3595566.251970998,-22500.0,4736.6671107987568,-2052.1224456834148,-1240.978109363363,-1864.8621948613713,467.58085324571965,532.58211616552001,3962.9487790807152,1887.9537411077047,-2726.844431461167,2726.844431461167,-1887.9537411077047,7211.0119001129879,0.0
668296.95196600363,3595566.251970998,-22500.0,4067.3500011024344,-1152.3683488929896,-1733.2017123238843,-1402.7674478565573,45.341513577615579,331.16668442232128,3351.8238277916416,2174.2572131779862,-2766.3194350160065,2766.3194350160065,-2174.2572131779862,5985.5523511350011,0.0
673296.95196600363,3595566.251970998,-22500.0,3368.2819723463904,-443.62948906464658,-1960.6340296670267,-1009.8555582883728,-228.61051555287031,185.58629508576243,2864.7572877122138,2256.1428687680018,-2621.7782461838215,2621.7782461838215,-2256.1428687680018,5037.1831440260485,0.0
678296.95196600363,3595566.251970998,-22500.0,2696.2459101021118,86.925461151331604,-2011.214368273151,-689.35981568686009,-393.40734566191804,83.85396914492938,2478.2862365656647,2197.4297037410006,-2375.591355542133,2375.591355542133,-2197.4297037410006,4312.733428437029,0.0
683296.95196600363,3595566.251970998,-22500.0,2084.7053019354644,464.94465321452765,-1951.5048384070251,-436.41614722444854,-481.25447777678357,15.234235597907928,2170.1889156793177,2050.9906460789543,-2085.1757882167158,2085.1757882167158,-2050.9906460789543,3759.7337748554019,0.0
688296.95196600363,3595566.251970998,-22500.0,1549.5768697317155,719.72832778030613,-1828.8351159385245,-242.279308730282,-517.0028112642035,-29.158947443385227,1921.5361085160537,1856.7969812691117,-1787.5090800065118,1787.5090800065118,-1856.7969812691117,3332.3346810773164,0.0
693296.95196600363,3595566.251970998,-22500.0,1094.9074996911347,879.14431795727023,-1675.1686505109874,-97.022532066844434,-518.95472648679458,-56.300900376922115,1717.3612197804441,1642.9846441610698,-1504.4334842270691,1504.4334842270691,-1642.9846441610698,2994.0831752590962,0.0
698296.95196600363,3595566.251970998,-22500.0,717.4857812056897,967.30074180049019,-1511.0651038544108,8.9308789638814243,-500.10588839353284,-71.461963878459798,1546.4468512653063,1428.0959418147145,-1247.3730989424112,1247.3730989424112,-1428.0959418147145,2718.1310770601663,0.0
703296.95196600363,3595566.251970998,-22500.0,410.18938570013142,1003.8630552013948,-1349.0520115723773,84.065809245563187,-469.39996977189742,-78.510554794515301,1400.6840451388425,1223.4828292926575,-1021.0128560905785,1021.0128560905785,-1223.4828292926575,2485.8499625011045,0.0
528296.95196600363,3600566.251970998,-22500.0,-1793.1580707588337,-2133.6172034239908,-1916.9810588470364,-959.82657927920866,-943.5692783931114,-345.63772086909728,2358.3713445674775,-2097.8311272195124,-1040.6482141904494,1040.6482141904494,2097.8311272195124,4624.0264747577558,0.0
533296.95196600363,3600566.251970998,-22500.0,-1628.3760874632696,-2303.4578147466896,-2264.4053718037326,-998.93919386119694,-1091.3330839700502,-391.29015178386913,2577.1942626815203,-2028.5330111222634,-1370.0855570682738,1370.0855570682738,2028.5330111222634,5020.5730447513588,0.0
538296.95196600363,3600566.251970998,-22500.0,-1370.1640808863247,-2443.8661498700699,-2664.7243468568149,-1013.8592983476177,-1252.3821788985347,-437.91787560700516,2808.1070948264546,-1869.4366923686075,-1766.6062820880738,1766.6062820880738,1869.4366923686075,5427.5573545556945,0.0
543296.95196600363,3600566.251970998,-22500.0,-996.77047156773131,-2529.5277951855383,-3115.3159896757779,-991.76662644820328,-1420.7992375334263,-482.08962314720117,3048.1887598208427,-1590.8166446368193,-2232.8285964348197,2232.8285964348197,1590.8166446368193,5834.8824698265007,0.0
548296.95196600363,3600566.251970998,-22500.0,-487.06936371813532,-2525.4774118066148,-3604.7472720336286,-916.15857534086149,-1585.3398229743073,-518.21449948254485,3293.9022839784188,-1158.9546453061689,-2763.6271669111097,2763.6271669111097,1158.9546453061689,6230.2359665448275,0.0
553296.95196600363,3600566.251970998,-22500.0,175.29111500957026,-2385.8873290399724,-4107.0995075436758,-766.92696427451381,-1726.8785000006353,-537.72451958592603,3542.1972864226364,-539.21452255522422,-3340.4332457534165,3340.4332457534165,539.21452255522422,6601.6727637388803,0.0
558296.95196600363,3600566.251970998,-22500.0,995.24182901589768,-2054.6166760086953,-4574.2848126447616,-521.42844284368323,-1815.2802639312663,-528.18905157889481,3793.0709494386037,297.70496452463885,-3923.409445026663,3923.409445026663,-297.70496452463885,6944.1643854959084,0.0
563296.95196600363,3600566.251970998,-22500.0,1956.8289415319059,-1469.3851603964433,-4926.7783007120479,-157.28619947490549,-1806.1088209189106,-472.57159758668428,4054.5116234953834,1365.0053455472464,-4441.9077457286676,4441.9077457286676,-1365.0053455472464,7273.278408872714,0.0
568296.95196600363,3600566.251970998,-22500.0,3011.5826256307564,-572.13301737551444,-5044.5365462569307,342.20052906814897,-1638.1784736353561,-349.02712176206575,4350.387824752389,2643.6260735437445,-4785.0102401362583,4785.0102401362583,-2643.6260735437445,7648.8874798998067,0.0
573296.95196600363,3600566.251970998,-22500.0,4067.3155927556859,671.68850536759078,-4762.2507398031676,979.3094544513491,-1233.8784901183121,-131.87959524158589,4729.5949830407308,4061.433077101718,-4796.375717238082,4796.375717238082,-4061.433077101718,8204.5971957655784,0.0
578296.95196600363,3600566.251970998,-22500.0,4983.007506854342,2243.605806416193,-3876.3158635399,1729.9150651765506,-505.25900654944979,205.386090632736,5269.2226089405976,5472.1088399531272,-4280.8625118904656,4280.8625118904656,-5472.1088399531272,9155.9687277398825,0.0
583296.95196600363,3600566.251970998,-22500.0,5578.6998031806488,4035.6246747413575,-2173.6605135674736,2530.294320535455,630.52358665356212,684.32656167877599,6059.5454676553163,6643.7488329344305,-3033.0360214988541,3033.0360214988541,-6643.7488329344305,10741.028004189018,0.0
588296.95196600363,3600566.251970998,-22500.0,5670.313460133375,5818.4433686669854,508.24697799901531,3267.8252785482041,2223.8081765505158,1312.7173263423986,7167.6030123400033,7273.1878482951379,-896.46962308828142,896.46962308828142,-7273.1878482951379,13098.71130153931,0.0
593296.95196600363,3600566.251970998,-22500.0,5133.6467170740561,7236.5946072191873,4190.2269434565751,3784.0031590904323,4254.686512274101,2073.8682998935269,8599.1321630724888,7043.383316160558,2147.158419284433,-2147.158419284433,-7043.383316160558,16178.184248386526,0.0
598296.95196600363,3600566.251970998,-22500.0,3985.9810061774451,7858.2715422867759,8650.0800848954059,3899.1710772093602,6594.661013667117,2917.37282206181,10281.897343809964,5730.1976716242707,5881.5510836413296,-5881.5510836413296,-5730.1976716242707,19728.568116688657,0.0
603296.95196600363,3600566.251970998,-22500.0,2450.108509228613,7296.4557585724087,13360.231905072251,3463.1430502055209,8987.3125786102955,3756.629022433609,12056.953919487838,3336.4708834194435,9801.6030575472796,-9801.6030575472796,-3336.4708834194435,23334.38942358697,0.0
608296.95196600363,3600566.251970998,-22500.0,948.2306669048661,5381.5173943948321,17530.336445194054,2422.1552222449905,11072.443716910069,4478.7322744606508,13658.873536815661,192.53725898458015,13165.585931903159,-13165.585931903159,-192.53725898458015,26479.562841733423,0.0
613296.95196600363,3600566.251970998,-22500.0,-14.23247384203701,2311.7156417578162,20297.944562571432,873.89691372268351,12467.946568693624,4968.8341473080318,14780.004005852752,-3060.0968353002772,15190.830537132117,-15190.830537132117,3060.0968353002772,28650.843050567673,0.0
618296.95196600363,3600566.251970998,-22500.0,-55.237855061691171,-1325.5637401103347,21030.196689706718,-927.95921058814747,12893.024845856446,5143.4613947433127,15196.1708514407,-5651.9921771348208,15347.378161547502,-15347.378161547502,5651.9921771348208,29471.174776150063,0.0
623296.95196600363,3600566.251970998,-22500.0,890.73333959461206,-4727.4217894175272,19594.700040848715,-2642.0842323473626,12278.049781291824,4979.0565810170719,14836.269041515558,-6982.2841515086639,13603.230684246106,-13603.230684246106,6982.2841515086639,28815.339533132777,0.0
628296.95196600363,3600566.251970998,-22500.0,2527.1096217884565,-7182.0082350746634,16425.409668827182,-3957.7711577708524,10794.899778529883,4520.3091869941918,13794.691782862932,-6864.4152696397196,10454.747722980081,-10454.747722980081,6864.4152696397196,26846.949012072124,0.0
633296.95196600363,3600566.251970998,-22500.0,4342.2978703581557,-8329.7609182314118,12325.652899897168,-4699.098862661629,8783.9825178282135,3862.6953453258452,12293.060405315497,-5562.179686154037,6703.9002569964487,-6703.9002569964487,5562.179686154037,23951.350717412672,0.0
638296.95196600363,3600566.251970998,-22500.0,5847.9283353223427,-8227.3431175217593,8136.4176181130988,-4858.3258861509967,6622.9362086363562,3119.1062397814562,10602.199204191262,-3608.1057485231931,3127.2575452146139,-3127.2575452146139,3608.1057485231931,20600.87136473311,0.0
643296.95196600363,3600566.251970998,-22500.0,6752.6973564356358,-7217.1221364360517,4471.9381578306038,-4554.7804647125331,4613.1029041770553,2388.2590785004345,8944.6460169692891,-1548.9278446208459,237.28262469222159,-237.28262469222159,1548.9278446208459,17223.145401181791,0.0
648296.95196600363,3600566.251970998,-22500.0,6997.9066969198348,-5727.5612981043832,1629.7311539029504,-3960.8987477251089,2929.6266135098422,1737.1244461420165,7447.2019512965262,228.70042471249474,-1774.0613988840391,1774.0613988840391,-228.70042471249474,14123.792130959617,0.0
653296.95196600363,3600566.251970998,-22500.0,6690.382979940523,-4123.2740270900986,-355.23547351179616,-3239.6288225633161,1630.7275622460527,1198.642075381088,6167.1902748710581,1543.017441139064,-2956.6090020888255,2956.6090020888255,-1543.017441139064,11470.606543416938,0.0
658296.95196600363,3600566.251970998,-22500.0,6007.8503475788893,-2643.7425515487412,-1601.2230541335264,-2512.1127953596642,695.72964857506395,778.96542192745767,5117.6584719333887,2373.7662996204176,-3483.1160902892821,3483.1160902892821,-2373.7662996204176,9316.9008660669679,0.0
663296.95196600363,3600566.251970998,-22500.0,5127.1294378864732,-1408.3020530304075,-2282.8248014493083,-1851.8182378384088,64.78060684364884,467.64020351576755,4282.0704876379623,2792.1420960562555,-3554.4017746951095,3554.4017746951095,-2792.1420960562555,7638.1860219330274,0.0
668296.95196600363,3600566.251970998,-22500.0,4187.9421899499985,-449.80256819188514,-2570.8495955871476,-1293.0320868027006,-332.51530656807148,246.50973631355359,3627.8836364641338,2902.3736643945426,-3346.6292087926709,3346.6292087926709,-2902.3736643945426,6366.4194934674069,0.0
673296.95196600363,3600566.251970998,-22500.0,3284.0486384999194,249.24528109325385,-2605.4431726647153,-843.54950966997455,-561.14126022517667,95.801974207466102,3117.7137041077021,2806.2570333612089,-2992.4884737145726,2992.4884737145726,-2806.2570333612089,5416.6053449407154,0.0
678296.95196600363,3600566.251970998,-22500.0,2468.8995832032183,729.22433551176039,-2490.1316639084303,-496.03159165603364,-674.14098440739735,-2.5052213643562613,2716.6608204902172,2587.2297614175272,-2581.6999606678714,2581.6999606678714,-2587.2297614175272,4705.4121586318488,0.0
683296.95196600363,3600566.251970998,-22500.0,1766.225236115931,1036.322522963593,-2295.9018797260942,-236.17921970917564,-711.60631596351777,-63.291902510042974,2395.9301885992954,2306.6335344715026,-2169.432066026402,2169.432066026402,-2306.6335344715026,4162.290730007292,0.0
688296.95196600363,3600566.251970998,-22500.0,1180.4094366628424,1213.5842961982833,-2068.5334278206747,-47.805495284328707,-702.24234523779592,-98.081501096370047,2133.6858980394004,2005.9493676113455,-1786.1532932390303,1786.1532932390303,-2005.9493676113455,3733.7748147795146,0.0
693296.95196600363,3600566.251970998,-22500.0,704.6560717188712,1297.2148376494399,-1835.8289137401662,84.42915791407242,-665.75459037236487,-115.40403355613169,1914.2949894636295,1711.0964133432612,-1446.0962278374586,1446.0962278374586,-1711.0964133432612,3382.6888018200566,0.0
698296.95196600363,3600566.251970998,-22500.0,326.66390122289596,1315.8185186568953,-1613.4971480928091,173.79987002709584,-615.18729707509613,-121.36306582502492,1726.9525491530687,1436.8055421909501,-1153.5744329029778,1153.5744329029778,-1436.8055421909501,3084.7737563730389,0.0
703296.95196600363,3600566.251970998,-22500.0,32.215282506950771,1291.044937922615,-1409.4861636406054,231.17988858759534,-558.87172280457435,-120.20890757371346,1564.3011046902852,1190.2676890087394,-907.30511401160015,907.30511401160015,-1190.2676890087394,2824.8402333227878,0.0
708296.95196600363,3600566.251970998,-22500.0,-192.75206245715123,1238.7591489277577,-1226.9804011456208,265.15483804347832,-501.91620854163619,-114.8325901341717,1421.3115695813717,973.87814222712234,-703.18253721714302,703.18253721714302,-973.87814222712234,2593.5573677646248,0.0
523296.95196600363,3605566.251970998,-22500.0,-2467.9497834827007,-2108.8375675725874,-1519.4856402196024,-1115.8353154327422,-852.23199788089573,-359.09262076556399,2398.7926430389953,-2593.1941021166494,-518.9230292803768,518.9230292803768,2593.1941021166494,4754.2021948011088,0.0
528296.95196600363,3605566.251970998,-22500.0,-2454.6703718094291,-2355.4769438344729,-1826.3619016349803,-1211.9327906693202,-1007.3113785192711,-416.8620208966571,2649.7591431842984,-2678.5031716197755,-776.01943303461508,776.01943303461508,2678.5031716197755,5230.8937063623462,0.0
533296.95196600363,3605566.251970998,-22500.0,-2370.0175073830364,-2608.0352208477266,-2196.5844108269102,-1300.2813928390619,-1187.0512207979878,-481.38098510027686,2923.2285257633298,-2708.7904278121423,-1104.3319709806481,1104.3319709806481,2708.7904278121423,5742.3414140561254,0.0
538296.95196600363,3605566.251970998,-22500.0,-2188.4936071072766,-2851.6720435409284,-2638.7953778519486,-1371.0931404510075,-1391.6281589952259,-551.3957428734775,3217.5988711819987,-2656.3614566308597,-1517.1646169831772,1517.1646169831772,2656.3614566308597,6282.1752203198585,0.0
543296.95196600363,3605566.251970998,-22500.0,-1879.7915738122529,-3062.5804448506965,-3158.8008483196736,-1410.2080694180613,-1618.1503698970378,-624.02848617637528,3529.6737978750225,-2485.2338038989578,-2026.37327664184,2026.37327664184,2485.2338038989578,6839.4756737421039,0.0
548296.95196600363,3605566.251970998,-22500.0,-1410.1855236839956,-3204.7234867292846,-3755.7366719307015,-1397.9851517473396,-1858.3771303644689,-693.85985150853151,3854.3455706853492,-2150.7171866267181,-2638.7226452870627,2638.7226452870627,2150.7171866267181,7397.9357370306279,0.0
553296.95196600363,3605566.251970998,-22500.0,-746.07653074309223,-3226.4231889916664,-4415.7505724602725,-1308.4577668427164,-2095.3492988184034,-751.69177735583753,4184.8207985320296,-1600.8042912598062,-3349.6758710210966,3349.6758710210966,1600.8042912598062,7936.1832134290862,0.0
558296.95196600363,3605566.251970998,-22500.0,139.05125118419895,-3057.8940730644858,-5102.3107172498812,-1109.3653328762894,-2298.7399874891239,-783.02187576727977,4514.1452624786316,-781.07909032058114,-4133.659911788227,4133.659911788227,781.07909032058114,8431.2522508658876,0.0
563296.95196600363,3605566.251970998,-22500.0,1252.9433412823148,-2611.9331939290018,-5742.5849506486429,-764.10118772032615,-2419.0387122763573,-766.41617862182056,4839.4300969625128,354.44569706885386,-4930.194974526743,4930.194974526743,-354.44569706885386,8869.1670453944371,0.0
568296.95196600363,3605566.251970998,-22500.0,2567.4688131187881,-1791.5661451808558,-6210.625998019832,-237.12101870227659,-2381.4185024592211,-672.25527143214538,5170.8982585112844,1823.7894276106165,-5626.6117675940686,5626.6117675940686,-1823.7894276106165,9269.4889084033093,0.0
573296.95196600363,3605566.251970998,-22500.0,3997.5741082887471,-510.0636875236155,-6311.1841348018825,495.32487346397016,-2081.5555290698026,-462.76915754373476,5547.5190988231407,3586.9749575571841,-6041.2542619597007,6041.2542619597007,-3586.9749575571841,9731.3777803295579,0.0
578296.95196600363,3605566.251970998,-22500.0,5382.3740937000339,1271.1042687302509,-5773.4891511619835,1427.7554218985899,-1387.8251326497839,-94.780711680787036,6055.8699790814262,5507.7438280098067,-5916.6878336032278,5916.6878336032278,-5507.7438280098067,10492.41965120918,0.0
583296.95196600363,3605566.251970998,-22500.0,6481.4848673649703,3484.9946876301287,-4271.7382262064748,2502.19074050878,-156.70418978588444,473.09455342435592,6834.6473933908965,7318.0735483336321,-4939.777360865246,4939.777360865246,-7318.0735483336321,11933.78010603095,0.0
588296.95196600363,3605566.251970998,-22500.0,7006.2560436844933,5893.4508534744837,-1494.0402288519738,3584.9482105855591,1730.9718770952823,1267.4389098196766,8036.4561246304756,8609.8625656053209,-2810.057065089497,2810.057065089497,-8609.8625656053209,14427.406341670085,0.0
593296.95196600363,3605566.251970998,-22500.0,6703.8089529441104,8044.7905225920795,2725.3654028837645,4456.8842430974482,4309.5003626907082,2281.7010477583271,9750.4672442613755,8889.3804163824061,630.16544675872956,-630.16544675872956,-8889.3804163824061,18090.12824684869,0.0
598296.95196600363,3605566.251970998,-22500.0,5490.933361809005,9307.6401978626291,8226.4323430843106,4836.6906251095998,7453.2368940978731,3456.7825609805891,11939.298712199001,7723.8736209445688,5222.3373448531711,-5222.3373448531711,-7723.8736209445688,22669.684359664021,0.0
603296.95196600363,3605566.251970998,-22500.0,3591.3174162207956,9031.489676021738,14367.570376583499,4453.8178052591966,10818.154016984541,4669.664164968216,14392.435568906336,4968.5115011294001,10348.47883089376,-10348.47883089376,-4968.5115011294001,27585.869347728796,0.0
608296.95196600363,3605566.251970998,-22500.0,1581.3882715218904,6832.6171114826366,20019.715291671881,3166.4928563334734,13850.872087332194,5742.3283802601381,16685.641731134194,985.14806174744353,14942.55653556413,-14942.55653556413,-985.14806174744353,32034.957858521477,0.0
613296.95196600363,3605566.251970998,-22500.0,242.92897894670475,2897.5822749209151,23830.607851402903,1080.518509645211,15911.299468240539,6479.9117947800742,18311.256208486458,-3309.1137879641901,17767.454575178755,-17767.454575178755,3309.1137879641901,35161.932023356901,0.0
618296.95196600363,3605566.251970998,-22500.0,211.75772491701403,-1909.4808010251672,24748.480951670699,-1413.1227583002362,16501.138971170658,6733.2319590100287,18889.798612954,-6708.939393654442,17929.921266019766,-17929.921266019766,6708.939393654442,36309.181555029521,0.0
623296.95196600363,3605566.251970998,-22500.0,1600.9207072319678,-6319.9356379962037,22552.244028251494,-3750.5714830186494,15494.068957721245,6459.2331979390428,18302.344808516737,-8256.2810425777789,15367.444241519261,-15367.444241519261,8256.2810425777789,35256.158479402009,0.0
628296.95196600363,3605566.251970998,-22500.0,3898.0609179623852,-9232.4974145906526,17996.827684840231,-5426.2966042640928,13207.700379650316,5741.1250915307446,16725.340223027993,-7714.8547714860761,10927.392031371761,-10927.392031371761,7714.8547714860761,32304.308319087108,0.0
633296.95196600363,3605566.251970998,-22500.0,6260.6954850979491,-10196.069937700666,12416.612456161713,-6196.3693439596655,10247.414674291365,4750.7566201029222,14550.226910968966,-5614.7562197124998,5923.5264826536632,-5923.5264826536632,5614.7562197124998,28134.735036949081,0.0
638296.95196600363,3605566.251970998,-22500.0,7972.6872012049262,-9466.0295771955425,7086.3672436834904,-6119.8649557790186,7234.4094039374677,3678.3289320784484,12220.495364026823,-2859.9809969811654,1506.4163029950864,-1506.4163029950864,2859.9809969811654,23528.840344209853,0.0
643296.95196600363,3605566.251970998,-22500.0,8715.0879475888887,-7689.1034694518939,2791.4698198289948,-5447.798869511751,4602.3196642670955,2673.8377989840019,10057.982268001922,-254.06933568598754,-1709.4082454214399,1709.4082454214399,254.06933568598754,19124.497617532514,0.0
648296.95196600363,3605566.251970998,-22500.0,8545.7884890992154,-5530.2488797082633,-225.10861751369907,-4473.0318751299528,2545.3255819867086,1823.8689598809412,8210.2088093694474,1745.4325657563522,-3637.0085054215187,3637.0085054215187,-1745.4325657563522,15309.037236209497,0.0
653296.95196600363,3605566.251970998,-22500.0,7725.3161230592032,-3462.1161354437832,-2083.0491714717782,-3431.4560127476011,1074.2939045595958,1157.9900742954449,6714.3882620410277,3016.4575558229299,-4503.3712273703295,4503.3712273703295,-3016.4575558229299,12233.756821821105,0.0
658296.95196600363,3605566.251970998,-22500.0,6550.6472638984951,-1730.359692238404,-3054.1516603698351,-2470.7691620837377,102.03366379218201,667.79246547753587,5547.2288782034075,3643.8903294035877,-4634.9314333233369,4634.9314333233369,-3643.8903294035877,9883.5354439366802,0.0
663296.95196600363,3605566.251970998,-22500.0,5263.3822031207792,-409.71878761299524,-3421.8246858934335,-1661.264933049097,-489.8268601668575,325.83684305863591,4654.3819849072552,3793.4237690760215,-4329.4653281405808,4329.4653281405808,-3793.4237690760215,8150.5443351071326,0.0
668296.95196600363,3605566.251970998,-22500.0,4023.5245946969226,523.34426474310567,-3417.792790249096,-1020.7105649828138,-813.22694201702632,99.178066197487212,3972.8902335514731,3632.9335835779111,-3808.626244522161,3808.626244522161,-3632.9335835779111,6892.2147427774044,0.0
673296.95196600363,3605566.251970998,-22500.0,2918.5445597266466,1134.8611296703555,-3208.1008594332884,-537.63899383132821,-958.59094180715931,-42.991153273947241,3445.6028024013281,3298.166589069157,-3216.7632189689098,3216.7632189689098,-3298.166589069157,5970.744078996845,0.0
678296.95196600363,3605566.251970998,-22500.0,1983.8898602001852,1500.0115621994182,-2901.5036848362215,-187.83605184642477,-992.52717716243853,-126.0892002611217,3027.5251206445109,2885.4493694931798,-2637.6107563337728,2637.6107563337728,-2885.4493694931798,5274.6834448014606,0.0
683296.95196600363,3605566.251970998,-22500.0,1222.7885513987173,1686.9329381859309,-2564.1418399261916,55.846904495436,-961.11210548098438,-169.52155194689871,2686.4267530968318,2456.6963528917081,-2113.4982465179669,2113.4982465179669,-2456.6963528917081,4724.8896336371263,0.0
688296.95196600363,3605566.251970998,-22500.0,621.17298411265972,1750.9295427881734,-2233.2726743197968,218.53030952600497,-894.71224847227268,-187.32899918019754,2400.573919910476,2048.0185186337453,-1661.0939347467956,1661.0939347467956,-2048.0185186337453,4270.33602899781,0.0
693296.95196600363,3605566.251970998,-22500.0,157.47526823975434,1734.0065420942065,-1927.818454464857,321.33396491771651,-812.50304444009475,-189.27135623603246,2155.7596871663072,1677.9214893985131,-1282.5054474824897,1282.5054474824897,-1677.9214893985131,3880.2320522009049,0.0
698296.95196600363,3605566.251970998,-22500.0,-191.5940502129468,1666.646218956153,-1655.6860408458233,381.02276399807198,-726.06744428248908,-181.91627396526096,1942.7338152231764,1353.7432930174616,-972.41217065893966,972.41217065893966,-1353.7432930174616,3536.6670566448929,0.0
703296.95196600363,3605566.251970998,-22500.0,-447.99780607646176,1570.2063139830359,-1418.530682239093,410.40742857327388,-642.02579422537769,-169.55747441632479,1755.3469173428141,1076.2185086594864,-722.33260279136721,722.33260279136721,-1076.2185086594864,3229.2779869479264,0.0
708296.95196600363,3605566.251970998,-22500.0,-631.0130332405439,1459.199994414997,-1214.7118211813242,419.01492774289727,-563.85684705005451,-154.92160236588626,1589.3392443883292,842.50008702840023,-523.00725592214212,523.00725592214212,-842.50008702840023,2951.877258416815,0.0
523296.95196600363,3610566.251970998,-22500.0,-3111.3461151390889,-2203.1573360296425,-1364.733376015025,-1342.5853231419378,-869.48981937268525,-418.8800919690508,2654.6255890265793,-3092.8022821524182,-199.3054332904976,199.3054332904976,3092.8022821524182,5275.8586334641659,0.0
528296.95196600363,3610566.251970998,-22500.0,-3202.4197241043307,-2510.4422915105411,-1665.3063702482609,-1490.1847589369511,-1044.1372987095633,-494.02638774601792,2956.4536348502807,-3284.8406225097092,-423.32908280634001,423.32908280634001,3284.8406225097092,5862.9843767665907,0.0
533296.95196600363,3610566.251970998,-22500.0,-3232.4395977026479,-2844.8170100433063,-2038.3291471411028,-1640.7994613415285,-1252.7521698384037,-580.97012550220018,3292.6278392828385,-3440.235065876645,-724.10675216909249,724.10675216909249,3440.235065876645,6507.9817762550183,0.0
538296.95196600363,3610566.251970998,-22500.0,-3172.1536419996451,-3196.6705854404713,-2498.9034863433785,-1785.7362802382888,-1499.0564895750949,-679.690032685191,3662.7629223889326,-3530.9382632507859,-1121.5250216563543,1121.5250216563543,3530.9382632507859,7207.7576861920033,0.0
543296.95196600363,3610566.251970998,-22500.0,-2983.9153692926147,-3547.3843961197645,-3062.3118420746214,-1911.0826986712909,-1784.6433492006331,-788.60071763654275,4064.6102271767086,-3517.6650296916473,-1637.4412460478256,1637.4412460478256,3517.6650296916473,7953.6804316353655,0.0
548296.95196600363,3610566.251970998,-22500.0,-2621.4109152773203,-3864.7670044832671,-3740.9828396151843,-1995.7420548643847,-2106.575534995367,-903.39977088183127,4493.0292670472518,-3347.3922686147694,-2293.0455593996435,2293.0455593996435,3347.3922686147694,8729.2412687707929,0.0
553296.95196600363,3610566.251970998,-22500.0,-2031.3538059923508,-4097.2238920142136,-4538.6041948985576,-2009.2881883699652,-2453.4479643189684,-1015.3715434246778,4939.0485147742529,-2951.8978078166815,-3103.3256492286478,3103.3256492286478,2951.8978078166815,9507.7607810659138,0.0
558296.95196600363,3610566.251970998,-22500.0,-1158.9628552445881,-4167.2843200161997,-5439.6967112216298,-1910.2005205546859,-2799.3097740545149,-1109.0616649777221,5389.6429548558772,-2249.2647504415286,-4066.8517748848321,4066.8517748848321,2249.2647504415286,10251.564062142876,0.0
563296.95196600363,3610566.251970998,-22500.0,40.205755162600958,-3966.4403180096642,-6392.6221022064183,-1645.671046182852,-3094.9394233931566,-1159.3894301938217,5829.6323437332348,-1151.7072737214194,-5148.7400470510274,5148.7400470510274,1151.7072737214194,10916.139866935468,0.0
568296.95196600363,3610566.251970998,-22500.0,1579.1373819827345,-3355.7593858790365,-7284.5305370793394,-1155.1796145375952,-3256.6111996155296,-1128.6363898854231,6248.6944322693016,415.16417217231947,-6255.1949961758546,6255.1949961758546,-415.16417217231947,11467.304512172899,0.0
573296.95196600363,3610566.251970998,-22500.0,3407.3499926996092,-2180.4454472645507,-7909.5579003187049,-381.20462079815758,-3154.1777659359113,-964.404488550152,6658.7036556025068,2475.5372489526358,-7200.9483898934996,7200.9483898934996,-2475.5372489526358,11927.086349138712,0.0
578296.95196600363,3610566.251970998,-22500.0,5371.5481672097249,-310.36669169557422,-7938.9792325546241,708.82424726449449,-2603.7634725737144,-600.6185638610151,7127.063075603126,4945.3020433949005,-7678.5007902707839,7678.5007902707839,-4945.3020433949005,12469.132157752885,0.0
583296.95196600363,3610566.251970998,-22500.0,7183.9439088614063,2281.7349341168597,-6915.9063588610843,2086.6483533929677,-1375.8254289902275,35.281109357263333,7819.6059570350335,7559.410552267188,-7252.0981963905806,7252.0981963905806,-7559.410552267188,13545.258067670442,0.0
588296.95196600363,3610566.251970998,-22500.0,8430.1827221725889,5405.7019102288605,-4314.7027828980526,3617.0814214691618,764.93899924501511,1005.3508308957248,9006.3006736784228,9814.6188625210671,-5416.5781543635694,5416.5781543635694,-9814.6188625210671,15861.956729086942,0.0
593296.95196600363,3610566.251970998,-22500.0,8660.3172256713842,8539.478982301267,288.530728155828,5019.1341585880164,3971.5193756564704,2332.3161797697758,10959.51119748209,10989.26204167413,-1765.8144584338434,1765.8144584338434,-10989.26204167413,19970.374511045768,0.0
598296.95196600363,3610566.251970998,-22500.0,7587.9093434732458,10802.660141668826,6922.6006187486446,5869.8277006073804,8178.7091424931759,3962.2211857619127,13779.133208794772,10316.483142042614,3721.7139945128133,-3721.7139945128133,-10316.483142042614,25793.544312053458,0.0
603296.95196600363,3610566.251970998,-22500.0,5352.2829681733392,11135.421274399303,14890.466100210546,5694.3555920557692,12960.444475446799,5731.5157986706236,17220.281241354278,7340.9803340736144,10370.994275778517,-10370.994275778517,-7340.9803340736144,32568.279099728697,0.0
608296.95196600363,3610566.251970998,-22500.0,2692.9200129705487,8744.5245477298031,22618.403360433109,4162.525152033224,17475.623970504585,7362.2931580201166,20601.086362641021,2356.5324488315,16689.501115378036,-16689.501115378036,-2356.5324488315,39030.253527870431,0.0
613296.95196600363,3610566.251970998,-22500.0,813.16981343046189,3694.9386709286409,27968.887905573367,1339.106303646015,20626.095778261591,8513.4424018611608,23055.540571317015,-3359.2538735486323,20707.571503806117,-20707.571503806117,3359.2538735486323,43706.585373113019,0.0
618296.95196600363,3610566.251970998,-22500.0,802.0776201282373,-2747.0481306811921,29136.727560234434,-2173.5138146476402,21480.328712342096,8898.7170938610852,23900.610838540997,-7882.1701350639123,20869.221686267159,-20869.221686267159,7882.1701350639123,45387.41438759803,0.0
623296.95196600363,3610566.251970998,-22500.0,2873.7752319698416,-8513.3170471364647,25724.484188103146,-5405.2943882051568,19785.082710198531,8427.8578267604462,22917.061103297336,-9623.4003724466165,17035.287272327922,-17035.287272327922,9623.4003724466165,43652.237349632516,0.0
628296.95196600363,3610566.251970998,-22500.0,6113.185989213096,-11847.862808632919,19091.156333957431,-7497.767619182534,16156.780887938356,7265.6459765360905,20449.381731199257,-8302.5739964621389,10704.078940272208,-10704.078940272208,8302.5739964621389,39085.663739347699,0.0
633296.95196600363,3610566.251970998,-22500.0,9099.6831787792416,-12248.823052367627,11513.193489970223,-8131.8566175468668,11723.493608834813,5742.3587707604802,17223.750860865523,-4990.3444198691741,4082.1369910806152,-4082.1369910806152,4990.3444198691741,32954.556257344761,0.0
638296.95196600363,3610566.251970998,-22500.0,10817.797189556146,-10429.373796357877,4903.8621507818334,-7552.2917819884515,7523.7314197191872,4189.0180818641647,13988.00141147013,-1224.1368360038202,-1159.5260289347978,1159.5260289347978,1224.1368360038202,26588.712291754371,0.0
643296.95196600363,3610566.251970998,-22500.0,11038.30562113656,-7564.4069681335659,153.0744361169468,-6268.827475180241,4146.4475141504008,2826.4118683343358,11195.908798356169,1876.3956345856509,-4417.0938849670219,4417.0938849670219,-1876.3956345856509,20920.552765994122,0.0
648296.95196600363,3610566.251970998,-22500.0,10096.004655778786,-4621.7315956848106,-2729.2086347279051,-4757.231385804168,1737.5568555962809,1749.0248384973195,8978.1801257740772,3879.5314705086003,-5901.0110552337046,5901.0110552337046,-3879.5314705086003,16374.939487219113,0.0
653296.95196600363,3610566.251970998,-22500.0,8501.4011295685777,-2134.1931178119357,-4160.3754939321716,-3328.1828529374925,181.48307569172238,961.76955404456066,7298.8094186505541,4846.9632506354719,-6147.7909244700149,6147.7909244700149,-4846.9632506354719,12988.265979170859,0.0
658296.95196600363,3610566.251970998,-22500.0,6691.2695634932688,-275.1408132030711,-4631.1501940212584,-2130.1641568699083,-729.18081472147185,423.43295607219312,6055.8541828820407,5048.1196982118954,-5684.0105475647988,5684.0105475647988,-5048.1196982118954,10580.68557563873,0.0
663296.95196600363,3610566.251970998,-22500.0,4949.7528726423443,986.5408265778683,-4542.5388753994284,-1201.8796061400526,-1197.0522556368921,77.811050123088862,5133.9633839065682,4771.7020599367079,-4896.7294138141187,4896.7294138141187,-4771.7020599367079,8896.3847191863315,0.0
668296.95196600363,3610566.251970998,-22500.0,3423.3355219181708,1764.4533454842326,-4170.6111297384414,-523.62988712684376,-1383.0934149468717,-129.02517972990171,4433.849912175855,4246.5846427240476,-4025.8839037359626,4025.8839037359626,-4246.5846427240476,7694.9430427859925,0.0
673296.95196600363,3610566.251970998,-22500.0,2163.9012049977982,2185.8101354207975,-3685.5724812807316,-52.277121483725509,-1401.8169507701359,-241.43740034220315,3882.7536375851951,3627.5816999462527,-3200.2751481631744,3200.2751481631744,-3627.5816999462527,6794.7627008817499,0.0
678296.95196600363,3610566.251970998,-22500.0,1168.7122206802012,2361.4034129001216,-3183.170943559976,259.29357117605389,-1329.0353013861888,-292.72266705013323,3432.6247916450429,3007.7108898129609,-2477.3696866680075,2477.3696866680075,-3007.7108898129609,6078.1631537205703,0.0
683296.95196600363,3610566.251970998,-22500.0,408.59663298644591,2377.0526226434858,-2711.9755551014546,453.20073420890287,-1212.242186703603,-306.3511289440969,3053.5887097618725,2436.3305728686091,-1873.7649400373259,1873.7649400373259,-2436.3305728686091,5476.675868455618,0.0
688296.95196600363,3610566.251970998,-22500.0,-154.95008676901216,2294.7669231310147,-2292.8081135416678,563.5648686296139,-1079.7236079885902,-298.10144427437029,2727.4584595786696,1934.9862740938961,-1385.1017322132047,1385.1017322132047,-1934.9862740938961,4953.0781300115232,0.0
693296.95196600363,3610566.251970998,-22500.0,-560.59047086022792,2157.2332758118123,-1931.2265049886955,616.44851692418604,-947.39013821594699,-278.17239869464424,2442.9672193981341,1508.9272286453127,-997.84084208559432,997.84084208559432,-1508.9272286453127,4487.6644543421735,0.0
698296.95196600363,3610566.251970998,-22500.0,-842.89705119988037,1992.7120952602957,-1625.0445537979515,630.99393194378774,-823.49771331542638,-252.91819858371812,2192.7693476768723,1154.6910986408827,-695.68912186464274,695.68912186464274,-1154.6910986408827,4069.7530895941331,0.0
703296.95196600363,3610566.251970998,-22500.0,-1030.8868369550753,1819.2287780212157,-1368.6292938205097,620.8659502859399,-711.74247703208755,-226.14276734222673,1971.711716347369,864.75671591593823,-462.79699096080441,462.79699096080441,-864.75671591593823,3693.022462674156,0.0
708296.95196600363,3610566.251970998,-22500.0,-1147.9795464489785,1647.799357856908,-1155.2319708231912,595.60056161246541,-613.21460524436065,-200.00896520775848,1775.8894065944812,630.22524764328443,-285.13634594357541,285.13634594357541,-630.22524764328443,3353.1508495745775,0.0
518296.95196600363,3615566.251970998,-22500.0,-3553.3569511956957,-1904.6510855893018,-944.19125631427039,-1391.9502353520527,-704.29939338582346,-401.62595038036011,2602.6711947965373,-3267.0586973873269,291.01832143008369,-291.01832143008369,3267.0586973873269,5167.3534881208943,0.0
523296.95196600363,3615566.251970998,-22500.0,-3793.4131600255873,-2213.2740726288675,-1160.976244418046,-1578.7876905493033,-856.88336812822183,-480.28840389817049,2916.3931454583776,-3572.0639262382247,178.51887386478415,-178.51887386478415,3572.0639262382247,5793.1971524541204,0.0
528296.95196600363,3615566.251970998,-22500.0,-4013.6908334216987,-2569.1145890234498,-1436.9439145650515,-1785.8924411459343,-1044.7107872297399,-574.68338513481558,3273.1990597240087,-3882.5219956158062,10.694021826751168,-10.694021826751168,3882.5219956158062,6499.8839760721967,0.0
533296.95196600363,3615566.251970998,-22500.0,-4193.3513638273371,-2974.2766465539071,-1788.7628883973953,-2010.9520800890334,-1275.148847206538,-687.11702669034207,3678.0890199417809,-4183.0284022754195,-231.94610570118061,231.94610570118061,4183.0284022754195,7293.3831345542367,0.0
538296.95196600363,3615566.251970998,-22500.0,-4302.5141509714622,-3426.7624559965652,-2236.9559846767888,-2248.2042827977893,-1556.0404473220017,-819.44618352994928,4134.3172817509412,-4448.9459402722005,-574.31650951285178,574.31650951285178,4448.9459402722005,8176.7334200410087,0.0
543296.95196600363,3615566.251970998,-22500.0,-4299.6147968755686,-3917.0788425776336,-2805.7549533256797,-2486.4369011329177,-1894.6790761437687,-972.31824315938195,4642.6287149748268,-4642.5447531761602,-1047.1679970816563,1047.1679970816563,4642.5447531761602,9147.6257384607361,0.0
548296.95196600363,3615566.251970998,-22500.0,-4128.8317417439212,-4422.9668638018629,-3521.6931347770078,-2706.1965019380496,-2295.7030698583353,-1143.8690938563968,5200.282364040896,-4708.2308453931528,-1686.3419759814474,1686.3419759814474,4708.2308453931528,10194.876023989251,0.0
553296.95196600363,3615566.251970998,-22500.0,-3718.5751270411179,-4901.6479619060701,-4409.6041749913265,-2876.1604703957032,-2757.1602740370877,-1327.6283406635096,5799.2133957647202,-4567.3845235001299,-2529.4897113442908,2529.4897113442908,4567.3845235001299,11293.693597483933,0.0
558296.95196600363,3615566.251970998,-22500.0,-2983.0149313265092,-5279.2429475055151,-5483.7258725358524,-2948.9249194296322,-3263.6373208796535,-1509.3522301047024,6423.7455085556367,-4114.3373892345471,-3607.8618961010798,3607.8618961010798,4114.3373892345471,12400.166125235139,0.0
563296.95196600363,3615566.251970998,-22500.0,-1830.2237647311713,-5438.1093807210054,-6730.3079754322689,-2857.1870065148041,-3775.0359646602069,-1662.6047053801963,7048.9171255388537,-3217.0285584962949,-4929.3996364243512,4929.3996364243512,3217.0285584962949,13447.029865782277,0.0
568296.95196600363,3615566.251970998,-22500.0,-182.47965971989413,-5205.6220278124965,-8076.9365059647989,-2512.6792043550936,-4209.629273314049,-1743.2519063891814,7642.0858750407115,-1729.2151016888756,-6448.1262959642618,6448.1262959642618,1729.2151016888756,14346.989860336991,0.0
573296.95196600363,3615566.251970998,-22500.0,1984.4098492692633,-4353.6928458689472,-9344.3684289018383,-1812.5310692593741,-4421.2732281896833,-1683.8313950506947,8174.3227211112116,474.38604499855637,-8015.4538074360335,8015.4538074360335,-474.38604499855637,15020.093910134899,0.0
578296.95196600363,3615566.251970998,-22500.0,4578.5570758432405,-2627.8073986659929,-10183.145414221741,-660.79093633716514,-4174.7029691097414,-1390.1894662438256,8655.3110220362905,3425.5104676279589,-9315.7049369795714,9315.7049369795714,-3425.5104676279589,15483.391708373918,0.0
583296.95196600363,3615566.251970998,-22500.0,7315.2646680395219,165.69673893301015,-10016.793040042678,985.08639269439448,-3132.0411972160236,-744.90436070477699,9211.6052181069517,6943.926789678937,-9808.0608188669776,9808.0608188669776,-6943.926789678937,16065.174522531535,0.0
588296.95196600363,3615566.251970998,-22500.0,9666.3085684094785,3989.0341447431429,-8051.474630371752,3037.1274755561635,-878.95384938413622,375.56686747541369,10198.725762164097,10495.272482974709,-8735.2074907946226,8735.2074907946226,-10495.272482974709,17701.798365127182,0.0
593296.95196600363,3615566.251970998,-22500.0,10917.547899160609,8339.4608439962067,-3453.8755749522761,5183.0422530455717,2966.7273636768746,2061.9987466154444,12204.348948802517,13113.052328205162,-5298.9804455253279,5298.9804455253279,-13113.052328205162,21756.096450093049,0.0
598296.95196600363,3615566.251970998,-22500.0,10424.917027774991,12078.307300072807,4215.204544628421,6829.4520603859373,8531.1293497237875,4308.0127715567787,15724.660324105285,13543.676295722478,916.05216900930736,-916.05216900930736,-13543.676295722478,28877.570917071585,0.0
603296.95196600363,3615566.251970998,-22500.0,8062.4439468108239,13556.31001204518,14375.311488982235,7175.7005940188055,15378.016904954968,6930.9447427883824,20596.139403511301,10750.494698130442,9345.5615652409469,-9345.5615652409469,-10750.494698130442,38255.959848277889,0.0
608296.95196600363,3615566.251970998,-22500.0,4657.6764600714878,11242.697805282203,24944.164033213467,5505.0140267987454,22273.661087662811,9513.510684116578,25734.147826627206,4710.1765317455238,18012.98499034061,-18012.98499034061,-4710.1765317455238,47906.900529004823,0.0
613296.95196600363,3615566.251970998,-22500.0,2009.7123992164209,4808.2911344808026,32567.550019723494,1684.3005976683512,27303.088774151543,11434.786496753408,29616.983122327456,-2912.8555211148378,23810.533985568432,-23810.533985568432,2912.8555211148378,55216.384743940478,0.0
618296.95196600363,3615566.251970998,-22500.0,2028.5878559973123,-3942.3271393878558,34070.402880406618,-3383.9595314517587,28622.716067066958,12082.032122229954,30933.888649582856,-9016.5982018380473,23957.276506400485,-23957.276506400485,9016.5982018380473,57830.597882583301,0.0
623296.95196600363,3615566.251970998,-22500.0,5166.0315627599866,-11526.838329261223,28684.56696225761,-7941.7358162720657,25662.138487910295,11223.119159330843,29233.029349137731,-10846.447027493086,18115.474672628508,-18115.474672628508,10846.447027493086,54870.844286226893,0.0
628296.95196600363,3615566.251970998,-22500.0,9723.0129875975508,-15049.425074605975,18947.505766031194,-10439.962248192747,19693.938222032164,9219.9299888708338,25223.056775714558,-8125.7071579934618,9037.8118826351874,-9037.8118826351874,8125.7071579934618,47539.169887062126,0.0
633296.95196600363,3615566.251970998,-22500.0,13248.973261187655,-14155.772602923784,8829.3317934031784,-10534.070242872926,12940.549577637234,6780.5039370741806,20327.573853683523,-3048.5871419268251,506.70026494447734,-506.70026494447734,3048.5871419268251,38330.367628801621,0.0
638296.95196600363,3615566.251970998,-22500.0,14434.882526688631,-10571.794893400576,1080.1989842682797,-8961.0379894144189,7144.0893720399254,4508.6466555787374,15834.417841289463,1806.5930596701003,-5202.7895097233777,5202.7895097233777,-1806.5930596701003,29557.049556335376,0.0
643296.95196600363,3615566.251970998,-22500.0,13474.220064581536,-6317.8563082486235,-3604.7254501073489,-6721.6467092149514,2982.6210853595126,2697.7480783514006,12324.427860857673,5070.3653966145212,-7864.0963191987412,7864.0963191987412,-5070.3653966145212,22488.831995733868,0.0
648296.95196600363,3615566.251970998,-22500.0,11254.147495459896,-2635.2836710496504,-5798.7933394691072,-4523.8801793982429,365.10729552173228,1394.9771331402369,9788.7197704330938,6607.4932176487755,-8332.0803642392511,8332.0803642392511,-6607.4932176487755,17392.778047448242,0.0
653296.95196600363,3615566.251970998,-22500.0,8616.4342079675844,49.697644423974658,-6392.9434072739432,-2699.5541832846684,-1093.7978089504184,529.16047962640471,8007.0662524603276,6864.0465232614097,-7591.2903127430345,7591.2903127430345,-6864.0465232614097,13955.638156715841,0.0
658296.95196600363,3615566.251970998,-22500.0,6094.5851721138715,1776.3510135172555,-6121.9570123092481,-1328.9226600869426,-1788.4662309400737,-4.5921014859624414,6740.2498712627603,6365.3495558258664,-6357.2018956122001,6357.2018956122001,-6365.3495558258664,11674.468697211329,0.0
663296.95196600363,3615566.251970998,-22500.0,3939.4985276693765,2754.1436662293409,-5464.6340954002171,-370.31838380164038,-2022.6202042617911,-305.59839212753383,5800.3258078869967,5514.5890757817024,-5043.5331536982167,5043.5331536982167,-5514.5890757817024,10098.386525088972,0.0
668296.95196600363,3615566.251970998,-22500.0,2221.3703019890013,3208.9153204569361,-4692.2644116566216,259.47597972029331,-2001.3814439532337,-453.63595776713726,5064.0239442132706,4565.9359819215715,-3848.8701159582506,3848.8701159582506,-4565.9359819215715,8920.1999032049189,0.0
673296.95196600363,3615566.251970998,-22500.0,916.93193556678705,3326.0469214053305,-3941.4368127725843,645.94725457087748,-1852.6770023505451,-506.94726114731458,4459.1119238992596,3658.0147132604493,-2845.7146267408293,2845.7146267408293,-3658.0147132604493,7965.5629326054441,0.0
678296.95196600363,3615566.251970998,-22500.0,-35.364251150450009,3240.2815978092644,-3271.0415655053948,861.50529153641924,-1651.5678691486555,-505.26152166582352,3945.5524253283588,2854.5565455144138,-2042.0614206367932,2042.0614206367932,-2854.5565455144138,7146.8771550753318,0.0
683296.95196600363,3615566.251970998,-22500.0,-705.65181954425316,3042.8123527020234,-2698.8655638722753,961.93134095177948,-1439.5297003672194,-474.25462937323238,3501.1385364547318,2175.9040384021637,-1417.5214881303077,1417.5214881303077,-2175.9040384021637,6423.1194742233201,0.0
688296.95196600363,3615566.251970998,-22500.0,-1158.8451628276887,2792.2568167472646,-2222.8116637070984,987.79832684438486,-1237.7708107540457,-429.74307295497954,3112.7861395005311,1619.67606862036,-942.37474589693034,942.37474589693034,-1619.67606862036,5775.1983089089354,0.0
693296.95196600363,3615566.251970998,-22500.0,-1449.5521965094997,2524.6178270931514,-1832.4265542124051,967.4792988423003,-1055.8015943250757,-381.00731439630334,2771.9244763497318,1173.1249298860168,-586.6754891475789,586.6754891475789,-1173.1249298860168,5193.3403984069309,0.0
698296.95196600363,3615566.251970998,-22500.0,-1621.3007169192458,2260.9074281356025,-1514.7688216885808,920.22340656012454,-896.67980180987956,-333.17837934022765,2472.2234566102197,819.97643985023819,-323.99962034540749,323.99962034540749,-819.97643985023819,4671.2981748140683,0.0
703296.95196600363,3615566.251970998,-22500.0,-1707.6320359241909,2012.5435961257233,-1257.1786122584979,858.7507125973716,-760.11173973539417,-288.85019121729465,2208.546756109602,543.93304094716063,-132.52772768377173,132.52772768377173,-543.93304094716063,4203.9764722354557,0.0
708296.95196600363,3615566.251970998,-22500.0,-1733.8077603361128,1784.9900889015905,-1048.4177073577193,791.2471975864845,-644.22472106493285,-249.1217493691486,1976.4886664938947,330.26611279047859,5.0854209669909096,-5.0854209669909096,-330.26611279047859,3786.5980459192515,0.0
713296.95196600363,3615566.251970998,-22500.0,-1718.5423868738269,1580.1355353261683,-878.99776962460271,722.82031669874732,-546.54437747017664,-214.24873677424159,1772.1746051940206,166.3767856714604,102.31010668478487,-102.31010668478487,-166.3767856714604,3414.5040260205515,0.0
518296.95196600363,3620566.251970998,-22500.0,-4120.6762738299303,-1797.1804590915021,-740.7692728912167,-1576.8372640590496,-656.41417902613011,-447.04369354402644,2807.5246074914821,-3596.8453156084415,642.86995956761621,-642.86995956761621,3596.8453156084415,5562.7574093990524,0.0
523296.95196600363,3620566.251970998,-22500.0,-4482.8878261455529,-2120.1227728985041,-920.06180067806156,-1813.973718099252,-808.93487254186243,-540.67377437718017,3170.1611685689777,-3996.1665902112754,597.41166762106604,-597.41166762106604,3996.1665902112754,6285.5985113989282,0.0
528296.95196600363,3620566.251970998,-22500.0,-4851.9235066778383,-2503.6749376912162,-1153.5487185636114,-2086.0276152005681,-1000.5815637585898,-655.34711946087373,3587.5237613030376,-4427.5464724079993,507.77222793117562,-507.77222793117562,4427.5464724079993,7115.6100056450196,0.0
533296.95196600363,3620566.251970998,-22500.0,-5211.3818491716993,-2956.4426754581991,-1459.1116346095532,-2394.8698868218576,-1241.3948314326042,-795.28572143381234,4067.6517782252849,-4882.3744254900885,354.3512879544005,-354.3512879544005,4882.3744254900885,8066.1080698506821,0.0
538296.95196600363,3620566.251970998,-22500.0,-5535.22947145942,-3485.4759947832604,-1860.3561140978343,-2739.8285139095028,-1543.3328262327079,-964.88657404464675,4618.6853131871221,-5343.6973533270593,110.2724164602173,-110.2724164602173,5343.6973533270593,9149.2368681758071,0.0
543296.95196600363,3620566.251970998,-22500.0,-5783.7896841668135,-4093.4990774617399,-2387.8798137369849,-3115.5688650047928,-1919.8922298009059,-1168.0706876648267,5247.4734229988044,-5781.5958247366543,-260.59521993187764,260.59521993187764,5781.5958247366543,10373.570777454224,0.0
548296.95196600363,3620566.251970998,-22500.0,-5898.7380891444627,-4774.0110760799844,-3080.0889882671891,-3508.8162299625333,-2384.8184010439149,-1407.0088340643945,5957.6697214766373,-6146.6355089562512,-805.38451468848007,805.38451468848007,6146.6355089562512,11740.13635001844,0.0
553296.95196600363,3620566.251970998,-22500.0,-5797.5141591473066,-5503.0413241911683,-3982.4803987714727,-3893.5126333378385,-2949.0357952644649,-1679.8363496604063,6747.19354310571,-6361.0907996361038,-1582.6808498485102,1582.6808498485102,6361.0907996361038,13236.126455495971,0.0
558296.95196600363,3620566.251970998,-22500.0,-5368.564308099777,-6225.9978721767484,-5143.093344708951,-4224.1059874837692,-3614.3092049488391,-1976.8469462148532,7604.3999460905798,-6308.3130870720206,-2659.3413048000411,2659.3413048000411,6308.3130870720206,14825.582815443762,0.0
563296.95196600363,3620566.251970998,-22500.0,-4470.8273348741495,-6838.1506755902919,-6599.6592417862439,-4427.1325482086995,-4361.2418345389697,-2274.6057962194682,8502.701954693317,-5822.4228473869143,-4099.0878747970373,4099.0878747970373,5822.4228473869143,16436.891848014529,0.0
568296.95196600363,3620566.251970998,-22500.0,-2944.5141572110238,-7158.9631141105256,-8350.5152665316418,-4392.5421533483923,-5128.1295936194711,-2527.5988975339915,9394.6641218618788,-4684.6666305736453,-5934.6930988339809,5934.6930988339809,4684.6666305736453,17949.406351891259,0.0
573296.95196600363,3620566.251970998,-22500.0,-645.73165968626381,-6906.296140289136,-10297.255467851663,-3969.143276709794,-5776.5788587149909,-2657.6638288843719,10210.042750676728,-2640.9778365970651,-8111.3515676263851,8111.3515676263851,2640.9778365970651,19189.612704787374,0.0
578296.95196600363,3620566.251970998,-22500.0,2477.3131506324912,-5691.0074691114987,-12146.638823338111,-2974.3449519464189,-6041.8503633509008,-2542.8064381115619,10872.130447655651,531.80256536567867,-10388.333809012529,10388.333809012529,-531.80256536567867,19971.538083288302,0.0
583296.95196600363,3620566.251970998,-22500.0,6253.8272925182382,-3079.461069670037,-13275.844182845614,-1237.6544737276129,-5476.203864059431,-2009.5538777401134,11371.504266162989,4872.6560878609507,-12202.840022495095,12202.840022495095,-4872.6560878609507,20281.061369658149,0.0
588296.95196600363,3620566.251970998,-22500.0,10132.070144745237,1200.2456711422308,-12624.587852787783,1294.585819448645,-3421.8441399633471,-837.91373909741219,11976.078301356862,9976.8639000339826,-12559.90484681182,12559.90484681182,-9976.8639000339826,20809.674107131963,0.0
593296.95196600363,3620566.251970998,-22500.0,13115.93384946999,6860.0940576516359,-8792.8980515567619,4379.7896631323656,900.07256055323478,1203.1992256681028,13584.745294382754,14715.525561308128,-10126.391721314365,10126.391721314365,-14715.525561308128,23708.158867619124,0.0
598296.95196600363,3620566.251970998,-22500.0,14016.742104396424,12595.709418206547,-602.44416422236327,7283.2883274097985,8065.4087272539464,4264.1072275743891,17611.544181761506,17218.329948914787,-3778.2299142432448,3778.2299142432448,-17218.329948914787,31567.481938861139,0.0
603296.95196600363,3620566.251970998,-22500.0,12136.372849764954,16002.926987672105,11826.224534693119,8741.0991347107702,17855.021762477692,8250.610890947004,24446.397916580321,15488.693406938379,6368.5507511712976,-6368.5507511712976,-15488.693406938379,44360.985568809374,0.0
608296.95196600363,3620566.251970998,-22500.0,8127.3770061844325,14351.46547748802,25977.495160680624,7300.9275637583341,28603.208210569603,12611.250974377379,32439.16240230517,8699.6944962028938,17946.729353465944,-17946.729353465944,-8699.6944962028938,59084.084468746099,0.0
613296.95196600363,3620566.251970998,-22500.0,4467.4778791044027,6355.4817528222238,36781.827012922724,2202.1313558056522,36992.185501283275,16183.474225182141,38869.550978581268,-1304.4830447343429,26254.446636200693,-26254.446636200693,1304.4830447343429,71020.256905238057,0.0
618296.95196600363,3620566.251970998,-22500.0,4517.0351050457575,-5615.6288818333824,38663.522890164677,-5346.0258133562274,39196.848261345011,17470.988749582379,41081.672610548165,-9600.4469329053409,26319.018018231414,-26319.018018231414,9600.4469329053409,75372.276755232,0.0
623296.95196600363,3620566.251970998,-22500.0,9327.0535701397257,-15547.082143896721,30079.969074878067,-11957.110599956086,33790.278014063879,15735.890690476044,38039.650533888125,-11212.313529054363,17307.382450321686,-17307.382450321686,11212.313529054363,70129.566346933789,0.0
628296.95196600363,3620566.251970998,-22500.0,15604.254517466452,-18522.907753338699,15924.082558742786,-14603.163004745973,23596.322857224754,11903.890219839855,31285.634855278127,-6058.1704997641618,4460.4785759465367,-4460.4785759465367,6058.1704997641618,57917.089597710663,0.0
633296.95196600363,3620566.251970998,-22500.0,19072.278173288891,-15023.715636370289,3127.0450854421911,-13216.588669924746,13239.327230215438,7734.7392370011639,23760.473826570851,1306.8289732594526,-5738.5183217847971,5738.5183217847971,-1306.8289732594526,43920.617546656031,0.0
638296.95196600363,3620566.251970998,-22500.0,18512.217658208356,-8889.1625429242849,-4860.1230943278679,-9811.9885456715911,5519.7245239988724,4371.5566958023592,17660.856890470212,6807.3189834829263,-10759.246408830111,10759.246408830111,-6807.3189834829263,32140.369078375523,0.0
643296.95196600363,3620566.251970998,-22500.0,15321.738115242444,-3235.827841612826,-8365.4255917768751,-6229.1388167607574,805.79127337513262,2057.1755748511227,13499.658067091445,9334.1246753222622,-11651.60842137341,11651.60842137341,-9334.1246753222622,23928.991513657249,0.0
648296.95196600363,3620566.251970998,-22500.0,11273.815656888164,765.62598129314699,-9058.0062682610915,-3319.395269166791,-1654.2928930429782,608.32993042970861,10812.481555448205,9599.8426562111836,-10366.429211130579,10366.429211130579,-9599.8426562111836,18796.557431035246,0.0
653296.95196600363,3620566.251970998,-22500.0,7466.6378090695489,3147.6187439440605,-8379.7746585278819,-1246.0260519802873,-2713.12709789574,-228.17620748223138,9026.4144787699224,8637.9500858170704,-8329.8018527252807,8329.8018527252807,-8637.9500858170704,15647.593554957652,0.0
658296.95196600363,3620566.251970998,-22500.0,4343.5148787349435,4332.1334144575267,-7201.6644920959106,108.55095327492403,-2992.6394123122282,-661.80149052490003,7742.0879820261898,7200.7062500570728,-6285.4280506749446,6285.4280506749446,-7200.7062500570728,13555.893368454208,0.0
663296.95196600363,3620566.251970998,-22500.0,1975.7257165365763,4744.2228500643023,-5958.6747576909629,925.90463931155978,-2878.947909090537,-844.92069043588845,6737.2367809911939,5711.3853093853204,-4531.0200303210358,4531.0200303210358,-5711.3853093853204,11978.751671011523,0.0
668296.95196600363,3620566.251970998,-22500.0,275.84833202272642,4702.8424498228433,-4834.3777528778564,1370.9746538795605,-2592.5822487347232,-881.78804285942294,5902.5801536790696,4367.2565525071132,-3137.5661558788329,3137.5661558788329,-4367.2565525071132,10662.649435912588,0.0
673296.95196600363,3620566.251970998,-22500.0,-889.61724237980309,4419.7325718171915,-3886.1890940103717,1571.4911046310019,-2251.8372536496222,-840.0754481773813,5186.7151784465705,3237.5414249773307,-2079.4351141499724,2079.4351141499724,-3237.5414249773307,9505.4472142590457,0.0
678296.95196600363,3620566.251970998,-22500.0,-1650.9490301892465,4025.8502199832387,-3114.8319228754985,1618.919981889283,-1915.8095413900614,-761.42265292690013,4564.3442303904521,2327.3638770465818,-1299.1600941349911,1299.1600941349911,-2327.3638770465818,8469.5021723094505,0.0
683296.95196600363,3620566.251970998,-22500.0,-2117.7672438929753,3597.806472134826,-2499.1641193239179,1575.5894337988229,-1610.8386877841792,-670.03007951863344,4021.0158990169462,1613.9626689010418,-736.0392638423084,736.0392638423084,-1613.9626689010418,7540.4279164596983,0.0
688296.95196600363,3620566.251970998,-22500.0,-2375.8504381215666,3177.8224675685415,-2012.3980862841047,1482.413220587895,-1345.9603311252324,-579.04221905971895,3546.6190468291934,1065.5142801467932,-336.96606016601652,336.96606016601652,-1065.5142801467932,6710.4921302304801,0.0
693296.95196600363,3620566.251970998,-22500.0,-2489.5330279278705,2787.2209606287997,-1628.9583033833801,1365.3672058702111,-1121.598306633904,-494.92910512847101,3132.8379075920925,650.08599714335719,-59.200914990205604,59.200914990205604,-650.08599714335719,5972.8520071209123,0.0
698296.95196600363,3620566.251970998,-22500.0,-2505.7609168828112,2435.0879421189566,-1326.9121080881755,1240.3850744187837,-934.30335027999627,-420.32356846786263,2772.2937064198959,339.36515366784107,130.14495576960883,-130.14495576960883,-339.36515366784107,5320.1232712486135,0.0
703296.95196600363,3620566.251970998,-22500.0,-2458.1260216478258,2123.6258259569031,-1088.4108343407638,1116.8315971866439,-779.23138838667865,-355.76851152574449,2458.3007795218796,109.76886395153278,255.72239303190972,-255.72239303190972,-109.76886395153278,4744.3965737826975,0.0
708296.95196600363,3620566.251970998,-22500.0,-2370.2971089719977,1851.3799366504682,-899.33408130672706,999.87653195241899,-651.37327244118774,-300.75178883691996,2184.824045668704,-57.652256040450368,335.70921789369385,-335.70921789369385,57.652256040450368,4237.625405572122,0.0
713296.95196600363,3620566.251970998,-22500.0,-2258.724841806712,1615.1340979419767,-748.68324195567482,892.07316826732676,-546.11168841098481,-254.29569325274844,1946.4760499028923,-177.79150769746897,383.37105741956668,-383.37105741956668,177.79150769746897,3791.9997957373762,0.0
518296.95196600363,3625566.251970998,-22500.0,-4650.9837237447664,-1596.7452733302305,-528.23305899869433,-1747.7922429836594,-578.84157109995454,-488.65134091017495,2989.7172235539401,-3844.1663589495361,999.12122708316701,-999.12122708316701,3844.1663589495361,5914.399173334642,0.0
523296.95196600363,3625566.251970998,-22500.0,-5139.3846214625046,-1910.5867270209972,-660.75181403510987,-2035.0634252136219,-722.19881877797218,-596.81887021372836,3399.9728227940354,-4326.9592786094381,1031.437036333446,-1031.437036333446,4326.9592786094381,6729.6923543807261,0.0
528296.95196600363,3625566.251970998,-22500.0,-5666.8436146455742,-2292.7744592357635,-837.43430960829619,-2373.4295479067719,-905.70739149991834,-731.58021813283426,3878.5239336204427,-4869.3423475853988,1036.9324102120083,-1036.9324102120083,4869.3423475853988,7679.614398852701,0.0
533296.95196600363,3625566.251970998,-22500.0,-6224.8234676275688,-2757.6045169430404,-1074.9838028817701,-2770.2162297748941,-1141.2965946525271,-899.37796038245313,4437.2908291815766,-5471.6462767721687,998.89496805016643,-998.89496805016643,5471.6462767721687,8786.3043176974024,0.0
538296.95196600363,3625566.251970998,-22500.0,-6796.2769125549557,-3320.835244718653,-1396.7262684770126,-3231.9412532019942,-1444.1976699217037,-1107.6940680858702,5089.6467003931075,-6128.3506021614112,892.72309918606243,-892.72309918606243,6128.3506021614112,10073.56066463949,0.0
543296.95196600363,3625566.251970998,-22500.0,-7350.9490290297254,-3998.240316407444,-1835.0795760429082,-3762.5603898251961,-1833.405712716991,-1364.6716995170332,5849.8166105904947,-6823.6332949431289,682.68950748025418,-682.68950748025418,6823.6332949431289,11565.176016646545,0.0
548296.95196600363,3625566.251970998,-22500.0,-7838.6460339136629,-4802.3574048536348,-2434.5918759422962,-4360.4020797807143,-2331.6574964508918,-1678.1193362184779,6731.4432257851786,-7524.3288607878631,317.79959757026063,-317.79959757026063,7524.3288607878631,13281.610575736739,0.0
553296.95196600363,3625566.251970998,-22500.0,-8180.0009433993719,-5735.9364783975416,-3255.1408019789969,-5013.0699425960956,-2964.1734560258624,-2053.4146881544239,7744.9135540335374,-8169.1057443934405,-272.94960451317411,272.94960451317411,8169.1057443934405,15233.883665599476,0.0
558296.95196600363,3625566.251970998,-22500.0,-8254.6981929242811,-6779.6035336624891,-4373.9149835742692,-5689.3510586684142,-3754.6671116936009,-2489.595317994088,8892.780586151659,-8652.5102632586531,-1184.6380308573425,1184.6380308573425,8652.5102632586531,17412.971286528289,0.0
563296.95196600363,3625566.251970998,-22500.0,-7888.5357097738042,-7869.8996818481319,-5882.5058135444951,-6327.008979446804,-4715.7501984548808,-2972.6990803663625,10162.049317313937,-8803.0323843472797,-2536.2360064956711,2536.2360064956711,8803.0323843472797,19772.260395710015,0.0
568296.95196600363,3625566.251970998,-22500.0,-6844.4498509932955,-8862.7131164485272,-7870.4915773459361,-6815.5888585766807,-5828.4579631098877,-3465.3147440260027,11511.66177660078,-8357.0535315164943,-4457.5585239287821,4457.5585239287821,8357.0535315164943,22200.248237760163,0.0
573296.95196600363,3625566.251970998,-22500.0,-4831.3266622870569,-9478.6677440662825,-10377.338853262318,-6974.9440306385877,-7001.7346007818105,-3891.3599925686885,12854.17002783922,-6939.1531940450532,-7044.9724511519962,7044.9724511519962,6939.1531940450532,24482.905806504707,0.0
578296.95196600363,3625566.251970998,-22500.0,-1561.4717097758712,-9239.2943424526511,-13280.093716201469,-6535.9532375418603,-7998.0467327442484,-4115.033348108087,14036.341537264456,-4081.2464116793813,-10252.519551299043,10252.519551299043,4081.2464116793813,26269.34608602653,0.0
583296.95196600363,3625566.251970998,-22500.0,3090.1346604315031,-7444.1757480024353,-16077.290381627756,-5146.8515173499236,-8312.3130169824944,-3912.3080204130065,14849.230248821674,644.15961465678993,-13676.966049210941,13676.966049210941,-644.15961465678993,27114.695894447043,0.0
588296.95196600363,3625566.251970998,-22500.0,8781.5257301403035,-3329.4941724124742,-17581.92267034866,-2465.7136238571888,-7022.954346005984,-2935.750325560281,15190.745932260079,7259.7178748029701,-16246.989305649709,16246.989305649709,-7259.7178748029701,26886.421398863313,0.0
593296.95196600363,3625566.251970998,-22500.0,14360.993852175992,3369.7835176806589,-15755.26000488968,1563.6345625272897,-2746.4000804013199,-695.34864080423392,15746.530519202228,14760.250228527706,-16047.027466402595,16047.027466402595,-14760.250228527706,27281.32850834063,0.0
598296.95196600363,3625566.251970998,-22500.0,17936.832447863842,11451.437059677653,-8279.2509747830518,6240.6071813744902,5988.8671345290422,3363.6147401974827,19264.362643365319,20646.1232725749,-10867.281202007704,10867.281202007704,-20646.1232725749,33696.444442325308,0.0
603296.95196600363,3625566.251970998,-22500.0,17850.774318056512,17658.078694273176,5671.3930506103807,9757.556106263055,19675.33004453751,9569.6535784182379,28299.325346251619,21543.641319602142,101.61638678174131,-101.61638678174131,-21543.641319602142,49984.638960954435,0.0
608296.95196600363,3625566.251970998,-22500.0,14103.149900475899,17606.15510813626,23350.2452425958,9456.3183873826292,36378.386425795361,17469.29566018729,40720.05973692832,15178.571782288112,14361.622253136535,-14361.622253136535,-15178.571782288112,72346.870015265624,0.0
613296.95196600363,3625566.251970998,-22500.0,9478.8313714012565,8265.7762565596258,37708.556326672646,2998.7875820831882,50644.532381465207,24967.802418733336,51677.118569088147,2882.2205970328068,25461.660461143329,-25461.660461143329,-2882.2205970328068,92337.043137187109,0.0
618296.95196600363,3625566.251970998,-22500.0,9565.2935886749838,-7822.6654804460832,39591.109487285918,-8592.8631924321489,54494.304066911674,28047.313688986796,55650.242039843244,-8108.8757440826266,25066.228625489977,-25066.228625489977,8108.8757440826266,100010.89271073804,0.0
623296.95196600363,3625566.251970998,-22500.0,16925.202098197264,-20287.962121505199,26103.841496921934,-18442.653050490488,44188.395068770369,24031.164853274717,50078.48104548682,-8692.6699241231454,11314.645018875299,-11314.645018875299,8692.6699241231454,90457.506101998573,0.0
628296.95196600363,3625566.251970998,-22500.0,24925.624943473034,-20819.42854345886,6765.4814364877184,-20139.559339884938,26442.106333282467,15731.797595531018,38501.388882055275,321.64375209098398,-5657.7821272372685,5657.7821272372685,-321.64375209098398,69728.490427842,0.0
633296.95196600363,3625566.251970998,-22500.0,26351.53887075992,-12791.414203618066,-7078.0767325353199,-15228.011979397523,11092.030786694197,8136.4439433163061,27188.356965847488,9634.9565595926051,-15448.069253306638,15448.069253306638,-9634.9565595926051,48949.38794751573,0.0
638296.95196600363,3625566.251970998,-22500.0,21746.039035078458,-3843.6826119814709,-12810.074302137828,-8838.7101394215497,1828.1090378646381,3243.1926136894813,19520.432739526808,13953.559402593144,-17144.983685443516,17144.983685443516,-13953.559402593144,34435.590070208935,0.0
643296.95196600363,3625566.251970998,-22500.0,15084.882325789582,2332.9006240640065,-13339.731045381433,-3801.0881243085005,-2578.1848650545498,565.83494526383595,15099.626738621853,13983.844993451237,-14625.716180913298,14625.716180913298,-13983.844993451237,26185.421023464343,0.0
648296.95196600363,3625566.251970998,-22500.0,8994.35061505255,5598.9686539646864,-11687.979746896021,-544.32173045292245,-4205.8690084378068,-779.25631126115582,12453.402340120461,11957.790139460041,-11009.91165038538,11009.91165038538,-11957.790139460041,21659.718950725048,0.0
653296.95196600363,3625566.251970998,-22500.0,4322.3951785925638,6885.9043819496956,-9511.211994833262,1338.6273106443211,-4473.8341149713633,-1379.731058875723,10626.782789241015,9394.158128403049,-7699.5835165673107,7699.5835165673107,-9394.158128403049,18779.519120615882,0.0
658296.95196600363,3625566.251970998,-22500.0,1046.2178318678955,7046.9784162908045,-7483.5431599640633,2313.7650730030882,-4149.8540481223181,-1569.0170069929954,9193.6597259020436,6993.9837063909281,-5090.1698048976496,5090.1698048976496,-6993.9837063909281,16552.735557226737,0.0
663296.95196600363,3625566.251970998,-22500.0,-1116.7362979526149,6641.1627039244086,-5804.2844324320877,2726.9401353089024,-3614.6477116527121,-1539.6292014288331,7989.1100775290488,4994.4740708544659,-3172.5914532081124,3172.5914532081124,-4994.4740708544659,14628.410132438597,0.0
668296.95196600363,3625566.251970998,-22500.0,-2465.2342006087683,5992.2112371859603,-4483.4678948020446,2808.2391726276469,-3046.6713078363609,-1405.0445335758732,6949.9836396373184,3424.7353484062774,-1818.6699171034538,1818.6699171034538,-3424.7353484062774,12905.8903738524,0.0
673296.95196600363,3625566.251970998,-22500.0,-3244.6449036921799,5275.1487433057919,-3469.2831734333449,2704.5747372513415,-2522.6913567239217,-1230.6130966653693,6048.2530780801735,2235.1461489825242,-888.84611745381881,888.84611745381881,-2235.1461489825242,11361.200924914918,0.0
678296.95196600363,3625566.251970998,-22500.0,-3638.7588962175905,4578.4664211039908,-2698.6123812470232,2507.1176663791139,-2069.6573188464886,-1051.7453700001238,5266.8570636644963,1354.928364403765,-265.33755820513181,265.33755820513181,-1354.928364403765,9986.9298707207363,0.0
683296.95196600363,3625566.251970998,-22500.0,-3779.1648167646345,3942.3964052606875,-2114.666245586985,2270.70057046294,-1691.193999751966,-885.78968797576601,4591.8639230203535,715.52560736651276,142.20088532668905,-142.20088532668905,-715.52560736651276,8775.0942608456826,0.0
688296.95196600363,3625566.251970998,-22500.0,-3757.5370161548021,3381.205261547695,-1671.4975429629624,2026.9876193936927,-1380.9745891134457,-739.76177181607159,4010.3904065686979,258.65196756308853,399.90885382272279,-399.90885382272279,-258.65196756308853,7714.1613779565841,0.0
693296.95196600363,3625566.251970998,-22500.0,-3636.4990049466969,2895.8369677130313,-1333.7001144696521,1793.2195167652449,-1129.2874282553555,-615.14864825102325,3510.3431834762009,-62.224821330404353,554.96585621939414,-554.96585621939414,62.224821330404353,6790.0127159112481,0.0
698296.95196600363,3625566.251970998,-22500.0,-3458.1206502659911,2480.9232291220119,-1074.6449975747275,1577.8890273560698,-926.08935521826959,-510.73647962392914,3080.586597935629,-282.96836117500101,640.50524923839475,-640.50524923839475,282.96836117500101,5987.4934039512618,0.0
703296.95196600363,3625566.251970998,-22500.0,-3250.2016400201851,2128.5747030144225,-874.5414860443401,1384.3461349586387,-762.28545805889701,-424.1892428951528,2711.1115036450101,-430.63840849426157,679.56329449397003,-679.56329449397003,430.63840849426157,5291.638027224556,0.0
708296.95196600363,3625566.251970998,-22500.0,-3030.7674189912573,1830.3531207759022,-718.7516205684957,1213.0380020760224,-630.14299045090536,-352.87869754030692,2393.1036212509634,-525.38130492983362,688.04353365411191,-688.04353365411191,525.38130492983362,4688.4310611445671,0.0
713296.95196600363,3625566.251970998,-22500.0,-2811.2221483181402,1578.2337249234536,-596.45446606034795,1062.8711910192712,-523.30801128141229,-294.2873449653614,2118.9210638150184,-582.06802891476195,676.86296784353249,-676.86296784353249,582.06802891476195,4165.1933006108875,0.0
513296.95196600363,3630566.251970998,-22500.0,-4569.4382189535618,-1079.0175471539851,-265.12082859633779,-1616.3398061064618,-376.03143962163557,-427.69373502499326,2754.6724941999773,-3510.7182324581818,1221.6922892087339,-1221.6922892087339,3510.7182324581818,5441.3703601995057,0.0
518296.95196600363,3630566.251970998,-22500.0,-5108.3690438585645,-1303.1398159777054,-325.61404852692567,-1893.9470966026597,-472.02462321366852,-523.93866426810678,3139.1918629309357,-3982.1323883818641,1333.7348159599787,-1333.7348159599787,3982.1323883818641,6203.997795039375,0.0
523296.95196600363,3630566.251970998,-22500.0,-5716.0334811511057,-1581.1127385896293,-407.55202154645889,-2227.2381180814859,-596.28943306045335,-645.15119515095432,3591.6942579467141,-4527.2528668520172,1447.2144928914986,-1447.2144928914986,4527.2528668520172,7100.9395582980651,0.0
528296.95196600363,3630566.251970998,-22500.0,-6397.3157794287363,-1927.0280377220274,-519.97464100099455,-2627.8434860375964,-758.09085680365388,-798.27677785409628,4125.9476270448067,-5156.3987938938244,1555.5859422451044,-1555.5859422451044,5156.3987938938244,8158.7998453407408,0.0
533296.95196600363,3630566.251970998,-22500.0,-7154.2111531827431,-2358.5558606264508,-676.10337057940239,-3109.2944023785867,-969.89731616431311,-992.07636866957637,4758.5393795691316,-5879.5015051520004,1647.867570364017,-1647.867570364017,5879.5015051520004,9409.1661127493226,0.0
538296.95196600363,3630566.251970998,-22500.0,-7983.1833486934893,-2897.503272321117,-895.38262146038051,-3686.776114301671,-1248.4350526862199,-1237.3795704129195,5509.2660881445618,-6704.3600418637652,1706.1915865765563,-1706.1915865765563,6704.3600418637652,10888.947381229271,0.0
543296.95196600363,3630566.251970998,-22500.0,-8870.8806123920585,-3570.0377937805797,-1206.5169361144526,-4376.3036080551246,-1615.9674092325611,-1547.1317202220271,6401.3568315142484,-7633.4241463546232,1702.1066346808757,-1702.1066346808757,7633.4241463546232,12640.156437887865,0.0
548296.95196600363,3630566.251970998,-22500.0,-9787.3150551038834,-4406.0020706630094,-1651.9270138936952,-5192.8401006279555,-2101.6878124213217,-1935.9517278576716,7461.2691894892214,-8658.0706665427224,1591.0837600308205,-1591.0837600308205,8658.0706665427224,14708.540376685509,0.0
553296.95196600363,3630566.251970998,-22500.0,-10675.192498261609,-5436.1184110805625,-2294.0910629804762,-6146.5668293103072,-2742.8602095777992,-2418.7085849185619,8717.5950496171572,-9748.6539403132083,1304.5724486728777,-1304.5724486728777,9748.6539403132083,17139.976855017198,0.0
558296.95196600363,3630566.251970998,-22500.0,-11433.572597113227,-6684.6600509608361,-3224.0037815941323,-7236.0214382228969,-3584.7749672615637,-3007.3556724723571,10198.24424202525,-10837.539612789562,739.08847170335048,-739.08847170335048,10837.539612789562,19972.692296038414,0.0
563296.95196600363,3630566.251970998,-22500.0,-11893.635651864326,-8152.7704767091154,-4570.8215185117751,-8435.973688703707,-4677.3205836488924,-3704.9949797333625,11924.204057409368,-11790.76006233555,-257.20313590206024,257.20313590206024,11790.76006233555,23221.659896225294,0.0
568296.95196600363,3630566.251970998,-22500.0,-11785.091287842812,-9783.2268148783587,-6507.8723164352059,-9676.3648930074505,-6063.1054339089005,-4495.9921129334534,13896.242952250221,-12362.38646387164,-1896.3524643565142,1896.3524643565142,12362.38646387164,26848.245199148092,0.0
573296.95196600363,3630566.251970998,-22500.0,-10697.485070575887,-11390.686961615214,-9239.0844492247033,-10805.877352111665,-7745.399487886265,-5330.6324928616914,16067.027585311269,-12127.3395547693,-4446.0372300542986,4446.0372300542986,12127.3395547693,30702.131227803311,0.0
578296.95196600363,3630566.251970998,-22500.0,-8062.8272070777339,-12537.31783741809,-12922.325517604399,-11530.94163870064,-9609.2074026938863,-6100.0134375936859,18285.5585734169,-10405.708104734309,-8165.4514166342451,8165.4514166342451,10405.708104734309,34415.9427233807,0.0
583296.95196600363,3630566.251970998,-22500.0,-3248.0974776475955,-12360.326094517208,-17433.531145953762,-11330.675531618575,-11241.673004040264,-6584.8246732136349,20204.436560651073,-6259.9466087168948,-13081.925430876385,13081.925430876385,6259.9466087168948,37251.021431898764,0.0
588296.95196600363,3630566.251970998,-22500.0,4049.3910755849051,-9502.5319861160569,-21838.911565585062,-9417.7820640948885,-11584.309112332909,-6336.4200933461643,21211.767974587427,1184.6353002950309,-18462.292821081624,18462.292821081624,-1184.6353002950309,38062.64726545236,0.0
593296.95196600363,3630566.251970998,-22500.0,12963.296333079146,-2657.8851267322057,-23672.39154593174,-5013.454703712041,-8499.4006401861334,-4460.9302117222851,20828.190420725099,11692.20816733999,-22059.050438309408,22059.050438309408,-11692.20816733999,36342.061716291835,0.0
598296.95196600363,3630566.251970998,-22500.0,20841.205042295915,7626.6438718190775,-19090.071727646759,1680.4720430436842,1069.5778046471455,505.40786789075656,21463.9246717692,22375.787968308941,-20212.994761720787,20212.994761720787,-22375.787968308941,37180.884941503464,0.0
603296.95196600363,3630566.251970998,-22500.0,24644.356292355591,17056.327734696999,-5796.3111162963723,8305.6870113766417,19146.636398807637,10104.211681223696,30949.002117985583,27981.814696448135,-10682.355035766892,10682.355035766892,-27981.814696448135,53618.35175714652,0.0
608296.95196600363,3630566.251970998,-22500.0,23578.488645224628,19246.252835983447,12857.063783684876,10628.678538502547,43653.59481853537,24727.265875286423,49158.010853598535,24554.373466262175,3638.3059387915891,-3638.3059387915891,-24554.373466262175,85414.608573636637,0.0
613296.95196600363,3630566.251970998,-22500.0,19529.445184253025,9556.5802733070323,27970.259822310618,3583.0409722342015,66457.405872936055,41291.186181997211,67500.285630910003,12217.046211370842,15062.576971076698,-15062.576971076698,-12217.046211370842,117997.43011824733,0.0
618296.95196600363,3630566.251970998,-22500.0,19921.873967282627,-10173.566727229678,27572.420324693052,-14052.427697610665,72389.533203912331,49203.542982626561,74789.540143028149,-472.47348539675204,12490.133744825031,-12490.133744825031,472.47348539675204,131588.66341200401,0.0
623296.95196600363,3630566.251970998,-22500.0,30584.814081996312,-23314.416117768469,8158.5879002928696,-28274.394529238609,52505.060004861312,38739.879678082245,64655.201620385735,1900.2892837924696,-6804.5349068904925,6804.5349068904925,-1900.2892837924696,114243.95911503854,0.0
628296.95196600363,3630566.251970998,-22500.0,38130.847937956321,-17493.292122348867,-12980.639459727892,-25327.823829073612,23250.011059767032,19588.414025587768,45551.822148049381,15230.09473055751,-24257.810756993487,24257.810756993487,-15230.09473055751,80453.125809908088,0.0
633296.95196600363,3630566.251970998,-22500.0,32558.624443834484,-3825.3540786686126,-21691.093722028021,-13362.439960641965,3754.2804143394792,6142.9925142731308,30412.732210694259,22731.667391698436,-27307.687729978505,27307.687729978505,-22731.667391698436,53194.221630145417,0.0
638296.95196600363,3630566.251970998,-22500.0,20845.243276478355,5897.7635031581704,-20787.182135532843,-3525.4900700667977,-4515.0200767981223,49.741248409780326,22381.067883174273,21619.711421773925,-21651.232310290568,21651.232310290568,-21619.711421773925,38765.175941801521,0.0
643296.95196600363,3630566.251970998,-22500.0,10358.984232853467,10141.252506095238,-16657.685864129733,1901.841364059555,-6820.1430790504692,-2197.575125780068,18127.262098893472,16930.611088690028,-14630.095078247261,14630.095078247261,-16930.611088690028,31737.364226825404,0.0
648296.95196600363,3630566.251970998,-22500.0,3110.7929402126988,11054.803865291529,-12483.595824780014,4346.66078659492,-6766.7611465546133,-2882.5996813602924,15268.710957084482,12058.645213043459,-9025.8771913238161,9025.8771913238161,-12058.645213043459,27318.785409181899,0.0
653296.95196600363,3630566.251970998,-22500.0,-1366.3313251918044,10440.623551052988,-9145.3499931746555,5204.8244123514751,-5940.5391300548372,-2927.6132701606812,13011.081462036189,8099.9569170168552,-5133.3674978899626,5133.3674978899626,-8099.9569170168552,23769.012573398777,0.0
658296.95196600363,3630566.251970998,-22500.0,-3938.8538712506297,9263.9659443241489,-6674.8374620675722,5273.8169299360234,-4953.0413044267107,-2695.3250336283627,11122.211460243705,5156.9653132886642,-2580.0210678238345,2580.0210678238345,-5156.9653132886642,20662.398922873475,0.0
663296.95196600363,3630566.251970998,-22500.0,-5291.5350177169203,7971.2590085478669,-4896.0225615191075,4965.8376366911234,-4027.5583887654434,-2354.5400915396463,9517.6640377916228,3056.359735448551,-957.80280143907453,957.80280143907453,-3056.359735448551,17913.290367574882,0.0
668296.95196600363,3630566.251970998,-22500.0,-5885.1469631892287,6751.6336127576178,-3624.8296353966189,4495.9105113258111,-3234.7569483095131,-1993.0106168826378,8152.2855080519157,1593.2691719015756,44.020766842965827,-44.020766842965827,-1593.2691719015756,15499.824430589128,0.0
673296.95196600363,3630566.251970998,-22500.0,-6017.0729867163773,5674.2782496590571,-2715.0376273068869,3978.0057065813749,-2584.3264656192509,-1654.8028017540782,6992.8316217583051,594.38026773776653,640.41427156021894,-640.41427156021894,-594.38026773776653,13402.633595473026,0.0
678296.95196600363,3630566.251970998,-22500.0,-5877.1380515186347,4753.9369488166567,-2059.9617531562094,3471.3790357125276,-2062.6971833755874,-1358.5219497302226,6010.6902105178096,-73.367757937225065,975.21238373713038,-975.21238373713038,73.367757937225065,11595.503346669275,0.0
683296.95196600363,3630566.251970998,-22500.0,-5585.7227084528722,3981.8509035343986,-1584.2590690572322,3004.594110841947,-1649.2938142583746,-1108.6537983460184,5180.1661356476761,-508.0454909206004,1143.3145247049101,-1143.3145247049101,508.0454909206004,10047.373102074684,0.0
688296.95196600363,3630566.251970998,-22500.0,-5218.3771357130036,3340.403343514512,-1235.3584435327466,2588.9785111255569,-1323.4201214385835,-902.65029051067449,4478.2585395491678,-780.39436104181038,1206.8490520202381,-1206.8490520202381,780.39436104181038,8725.7063065780803,0.0
693296.95196600363,3630566.251970998,-22500.0,-4821.7319532701622,2809.9926986876776,-976.6829098510151,2226.4879001166541,-1066.8801621445809,-735.05515249490145,3884.748067547976,-940.77002840558657,1206.2504213748541,-1206.2504213748541,940.77002840558657,7599.1103785886553,0.0
698296.95196600363,3630566.251970998,-22500.0,-4423.8172065952267,2372.0728474187363,-782.72704763511115,1914.3010745030265,-864.65459294531138,-599.6966748734427,3382.1773035190108,-1024.7000139904426,1167.6767123403056,-1167.6767123403056,1024.7000139904426,6638.8391334103771,0.0
703296.95196600363,3630566.251970998,-22500.0,-4040.7853010550107,2010.3262423035549,-635.61656391826114,1647.4593991486549,-704.75827267446323,-490.73431050206983,2955.6992117805257,-1057.0903142552736,1107.9259414448127,-1107.9259414448127,1057.0903142552736,5819.464614665957,0.0
708296.95196600363,3630566.251970998,-22500.0,-3681.282219064648,1710.938075217395,-522.74069452234335,1420.3279391398632,-577.8048891240328,-403.07491923450158,2592.8273634025154,-1055.3125258402572,1037.6755626938032,-1037.6755626938032,1055.3125258402572,5119.0009675544188,0.0
713296.95196600363,3630566.251970998,-22500.0,-3349.2834442344924,1462.4658964974394,-435.13231139465245,1227.3623748519067,-476.5171833510388,-332.46945068876772,2283.1451084773303,-1031.4290868207968,963.61230798723545,-963.61230798723545,1031.4290868207968,4518.7246155053099,0.0
513296.95196600363,3635566.251970998,-22500.0,-4841.8460223716356,-754.90755158835248,-129.21069670494654,-1699.522896315101,-266.45669928379954,-446.88034456978698,2837.4363442841923,-3497.7997952732912,1448.4374730280979,-1448.4374730280979,3497.7997952732912,5603.6213729060082,0.0
518296.95196600363,3635566.251970998,-22500.0,-5456.6859737616796,-925.39583295892078,-153.44445391920553,-2004.526183017824,-339.13952051539712,-550.44856628176092,3246.8190740804475,-3989.4659478482681,1618.4843104477479,-1618.4843104477479,3989.4659478482681,6414.4422229914935,0.0
523296.95196600363,3635566.251970998,-22500.0,-6164.1223902463707,-1140.6452363770732,-188.0167053629543,-2375.3731491646222,-434.6741847413748,-682.08215647916109,3732.5908875872647,-4566.2688348216079,1807.141524696515,-1807.141524696515,4566.2688348216079,7375.8107944503336,0.0
528296.95196600363,3635566.251970998,-22500.0,-6977.3714435962747,-1413.9143828165309,-238.24949267300738,-2827.8887098036134,-561.17072561282521,-850.15386109199221,4311.7142008349492,-5244.0276509238229,2013.4873884181702,-2013.4873884181702,5244.0276509238229,8520.5373378204822,0.0
533296.95196600363,3635566.251970998,-22500.0,-7909.8867789000233,-1762.680310304776,-312.39388203608718,-3381.6912146785839,-729.88790871832066,-1065.5488230082162,5005.3244111321646,-6040.8343807359597,2234.0656059489829,-2234.0656059489829,6040.8343807359597,9889.079456143827,0.0
538296.95196600363,3635566.251970998,-22500.0,-8973.9069427653503,-2209.953569120094,-423.33966321742787,-4060.862446993242,-956.51251575505819,-1342.2644396112553,5839.7762617191456,-6976.6278168385688,2460.9965040755592,-2460.9965040755592,6976.6278168385688,11531.15517946641,0.0
543296.95196600363,3635566.251970998,-22500.0,-10177.743591515999,-2785.8864749555923,-591.37912581878015,-4894.5042033088048,-1262.9431137259182,-1697.9693808400043,6847.9107590801214,-8071.9357595179417,2678.8579677871885,-2678.8579677871885,8071.9357595179417,13507.47306608586,0.0
548296.95196600363,3635566.251970998,-22500.0,-11520.918214275034,-3529.5680569077463,-848.6975930140419,-5916.9484956634151,-1679.7377813164494,-2154.3101135235524,8070.5448314964069,-9345.0053107277672,2859.5531958578413,-2859.5531958578413,9345.0053107277672,15891.38382035368,0.0
553296.95196600363,3635566.251970998,-22500.0,-12985.579903723223,-4490.6002266646537,-1246.6858496355349,-7167.2002157846855,-2249.3862282529794,-2736.5830121678505,9558.1276653550267,-10805.826179026044,2953.8773728646329,-2953.8773728646329,10805.826179026044,18770.019856774808,0.0
558296.95196600363,3635566.251970998,-22500.0,-14521.371085238132,-5729.2649311486794,-1867.7860857478502,-8686.8485602973997,-3030.4823679941546,-3472.2235687086013,11372.340988550424,-12444.103186254262,2877.7022628491668,-2877.7022628491668,12444.103186254262,22243.975830316554,0.0
563296.95196600363,3635566.251970998,-22500.0,-16018.399975758866,-7312.0737940931167,-2844.2861955906496,-10514.854300019575,-4102.5224390008862,-4387.622618120251,13586.7904456575,-14205.174402751793,2489.5579243422299,-2489.5579243422299,14205.174402751793,26423.188585495707,0.0
568296.95196600363,3635566.251970998,-22500.0,-17258.312296876313,-9294.2445879901024,-4386.3674426289217,-12675.117526092863,-5569.7020276026951,-5503.5349536251933,16283.66174610837,-15941.513478037623,1555.4760676807618,-1555.4760676807618,15941.513478037623,31412.488142420436,0.0
573296.95196600363,3635566.251970998,-22500.0,-17826.920576267341,-11667.541439072464,-6816.8892995023762,-15144.881717661001,-7556.9022046412947,-6830.86183182898,19535.881308806536,-17315.802001766991,-300.26012202766833,300.26012202766833,17315.802001766991,37267.738798374347,0.0
578296.95196600363,3635566.251970998,-22500.0,-16974.115234874353,-14223.299751605253,-10586.848425735547,-17770.601272135453,-10171.749038964528,-8366.2260290189552,23344.242293512012,-17619.394358921745,-3638.6139645084686,3638.6139645084686,17619.394358921745,43870.206981240044,0.0
583296.95196600363,3635566.251970998,-22500.0,-13471.137827605242,-16242.076737699599,-16163.539842654682,-20059.30100359883,-13343.750739191602,-10056.978827436678,27458.800668315271,-15503.386962062625,-9137.6437192843368,9137.6437192843368,15503.386962062625,50604.413747703504,0.0
588296.95196600363,3635566.251970998,-22500.0,-5787.8007771512603,-15988.745525560891,-23483.356529258821,-20791.738186304006,-16303.422756016271,-11589.932026457971,30991.417266381086,-8879.5557297328014,-17075.424583581997,17075.424583581997,8879.5557297328014,55725.571732894845,0.0
593296.95196600363,3635566.251970998,-22500.0,6573.8138423009241,-10637.065201197189,-30521.933906759456,-17837.403374723814,-16391.126948980203,-11681.787617815817,31990.500188037098,3972.7680597135222,-25822.008282226467,25822.008282226467,-3972.7680597135222,55965.380126242395,0.0
598296.95196600363,3635566.251970998,-22500.0,20485.161779706672,1158.85642405046,-31883.959473306677,-9753.6425377081068,-8026.179305783673,-7012.9717534661941,29063.343650094335,20768.488231897041,-30210.790319567706,30210.790319567706,-20768.488231897041,50411.380213512908,0.0
603296.95196600363,3635566.251970998,-22500.0,30355.674487088054,13597.308109623242,-22763.211414419875,275.92608571198105,13868.652149433761,6866.8786408482511,32492.136994884851,33096.912572811649,-25460.089882357042,25460.089882357042,-33096.912572811649,57074.9350383153,0.0
608296.95196600363,3635566.251970998,-22500.0,36037.96376550405,16535.221297387361,-9240.3852744558499,5512.0995370698347,45250.445593113633,31574.951723756902,53539.005866861451,35541.200733979967,-17098.59120598049,17098.59120598049,-35541.200733979967,94457.230450505303,0.0
613296.95196600363,3635566.251970998,-22500.0,38417.270394929052,7615.2473952394457,-3804.9411558188408,48.303053732243356,73293.776807485789,63688.651025384119,81036.661113499169,29915.304345243632,-14869.383648126917,14869.383648126917,-29915.304345243632,140635.29976754682,0.0
618296.95196600363,3635566.251970998,-22500.0,40795.926708603074,-10214.850969656183,-13254.293812049698,-22812.884397069152,76480.538817763663,80388.803939771009,93169.344400664515,21763.625429864212,-24561.592190977255,24561.592190977255,-21763.625429864212,161403.70841238633,0.0
623296.95196600363,3635566.251970998,-22500.0,52672.366626509378,-16052.455048098936,-33168.717756278696,-37649.088117063126,41557.600246336042,52766.229635928459,76447.337838759791,29829.500718357896,-43836.933108967096,43836.933108967096,-29829.500718357896,132601.90701058996,0.0
628296.95196600363,3635566.251970998,-22500.0,50429.263155150948,-235.9509206338912,-41147.354097817326,-20968.383698191115,4648.3465431797285,14055.306184750527,50803.927728420444,40666.780568336639,-47232.240064813835,47232.240064813835,-40666.780568336639,88104.173441091392,0.0
633296.95196600363,3635566.251970998,-22500.0,29961.054437461949,14089.814486000978,-34114.821887700178,-244.64062728838184,-10083.683448261463,-3166.2734130744379,36397.231628141322,35735.027054278304,-33626.016908527694,33626.016908527694,-35735.027054278304,63097.269311229888,0.0
638296.95196600363,3635566.251970998,-22500.0,10612.820670568644,18547.716946152734,-23861.671154665626,9397.9463433208712,-11991.47413466312,-6697.7024705490203,29072.623739346534,24263.370182937077,-19100.525606558578,19100.525606558578,-24263.370182937077,51183.759762592897,0.0
643296.95196600363,3635566.251970998,-22500.0,-1042.5002754611596,17624.456230492284,-15851.147762305116,11752.014215522693,-10346.29196055033,-6459.9873965095003,23750.73337591688,14557.044291555729,-9393.8583323711355,9393.8583323711355,-14557.044291555729,42845.661491943574,0.0
648296.95196600363,3635566.251970998,-22500.0,-6863.3791314158316,15086.323324538371,-10493.598530218113,11324.413483411194,-8280.3394371573031,-5612.7104752997147,19492.557411418264,8032.3912483532076,-3773.9081479196798,3773.9081479196798,-8032.3912483532076,35951.264327679703,0.0
653296.95196600363,3635566.251970998,-22500.0,-9394.1854300395426,12440.948024185202,-7041.7742821640159,10090.109553973549,-6485.6967621410231,-4742.9200853566081,16095.047813194487,3924.6419064693114,-672.45539846579459,672.45539846579459,-3924.6419064693114,30202.345971680355,0.0
658296.95196600363,3635566.251970998,-22500.0,-10209.643615503281,10126.55525478311,-4815.9315808295596,8719.2307831457474,-5044.2715306398923,-3933.9755903574842,13378.525946009348,1384.8070617153674,987.06201164253946,-987.06201164253946,-1384.8070617153674,25429.85133028197,0.0
663296.95196600363,3635566.251970998,-22500.0,-10146.264263071605,8214.5162915870678,-3362.0505665209848,7424.2389838924901,-3916.0965197538944,-3211.7740203879093,11186.801619637785,-165.62130813844078,1827.3283555584214,-1827.3283555584214,165.62130813844078,21467.833839572864,0.0
668296.95196600363,3635566.251970998,-22500.0,-9643.1865321676596,6669.1672470584263,-2396.8744153427738,6270.8554579232787,-3043.7281856461527,-2591.4273242243762,9402.809153906197,-1088.7448317576168,2200.3141919988925,-2200.3141919988925,1088.7448317576168,18175.098422355379,0.0
673296.95196600363,3635566.251970998,-22500.0,-8937.3196836493553,5430.9910594703024,-1745.1997797766155,5273.9093672590488,-2373.4156894556904,-2075.5672781424664,7941.2659884052109,-1611.5497124959286,2307.9916334962654,-2307.9916334962654,1611.5497124959286,15436.591156931621,0.0
678296.95196600363,3635566.251970998,-22500.0,-8159.3153617118996,4441.6608371892253,-1297.6871240497298,4427.6756463720349,-1859.638342814714,-1656.6074176240627,6738.3110262705632,-1878.9194624088727,2268.3256370270578,-2268.3256370270578,1878.9194624088727,13157.535498415044,0.0
683296.95196600363,3635566.251970998,-22500.0,-7381.0748874406409,3650.8527758420369,-985.16712464605087,3717.5938045129351,-1465.6674334391857,-1321.5876101634174,5744.4413425273979,-1984.6473752435675,2150.8709566649586,-2150.8709566649586,1984.6473752435675,11258.833536089791,0.0
688296.95196600363,3635566.251970998,-22500.0,-6640.7455226672828,3017.2710353859052,-763.24469471282669,3125.9398803531708,-1162.7623083158799,-1056.1328220548257,4920.3751305402866,-1989.8670539400732,1996.6041398643556,-1996.6041398643556,1989.8670539400732,9674.278872008812,0.0
693296.95196600363,3635566.251970998,-22500.0,-5956.7736554422108,2507.8569622191335,-603.02056648554799,2634.8440511422309,-928.88218768030742,-846.73971310260538,4234.5895051970192,-1934.4570658181685,1829.3825844406881,-1829.3825844406881,1934.4570658181685,8348.7109503229767,0.0
698296.95196600363,3635566.251970998,-22500.0,-5336.1478495569918,2096.4901221287355,-485.42084563684517,2227.8130900224151,-747.33127293575387,-681.76061003165285,3661.6762055567369,-1844.3332052835081,1662.7428735185531,-1662.7428735185531,1844.3332052835081,7236.4693916196875,0.0
703296.95196600363,3635566.251970998,-22500.0,-4779.3530632536349,1762.6761493281838,-397.68700211577232,1890.3729318530595,-605.5471923834117,-551.62547180304193,3181.1363518506982,-1736.2050992834436,1504.0038637563132,-1504.0038637563132,1736.2050992834436,6299.9889562549761,0.0
708296.95196600363,3635566.251970998,-22500.0,-4283.3606315467241,1490.3856702633702,-331.17286245334537,1610.2101572699228,-494.10256484452572,-448.69456662768874,2776.4383407767618,-1620.709712220925,1356.7650747665932,-1356.7650747665932,1620.709712220925,5508.5045425364942,0.0
713296.95196600363,3635566.251970998,-22500.0,-3843.4193901650847,1267.0883394993725,-279.9437802599362,1377.053111882032,-405.9203807509669,-366.97186085716083,2434.2631390675506,-1504.485265326126,1222.4335839138298,-1222.4335839138298,1504.485265326126,4836.8882902400246,0.0
718296.95196600363,3635566.251970998,-22500.0,-3454.1108455002704,1082.977100994779,-239.87522911338286,1182.4391563955169,-335.67554117570086,-301.79649117059444,2143.8892686306749,-1391.5466171103008,1101.1570735860005,-1101.1570735860005,1391.5466171103008,4264.6400552483701,0.0
513296.95196600363,3640566.251970998,-22500.0,-4998.791964711485,-382.00514940287945,-34.146509919834443,-1747.3612295596627,-142.41489248874873,-457.85504846691157,2880.3553579999425,-3371.238756982244,1611.6745312030225,-1611.6745312030225,3371.238756982244,5690.5284776012177,0.0
518296.95196600363,3640566.251970998,-22500.0,-5663.9570153022478,-482.32254537688357,-30.899561154532471,-2070.1046350702604,-186.19775123478195,-566.0539938618117,3305.1315452620461,-3854.2576700139875,1826.4769137952539,-1826.4769137952539,3854.2576700139875,6531.5453304514995,0.0
523296.95196600363,3640566.251970998,-22500.0,-6439.3433803843718,-611.93948623333858,-28.725720236394402,-2465.8973789850747,-244.97670348204468,-704.43308357868261,3812.107862776852,-4425.3202591724457,2074.30770864428,-2074.30770864428,4425.3202591724457,7534.3412373066631,0.0
528296.95196600363,3640566.251970998,-22500.0,-7345.0662198762557,-780.53732215725677,-29.405096911739719,-2953.8164384657357,-324.52656081701656,-882.41085752628715,4420.6827434840334,-5102.998270357547,2359.5570348051669,-2359.5570348051669,5102.998270357547,8736.4167751672067,0.0
533296.95196600363,3640566.251970998,-22500.0,-8404.4886447848967,-1001.3668747653817,-36.161580828000176,-3558.3625454691232,-433.09232311575079,-1112.47036415046,5155.5801484132444,-5909.9258347317073,2686.2546660601574,-2686.2546660601574,5909.9258347317073,10185.145078760961,0.0
538296.95196600363,3640566.251970998,-22500.0,-9644.2177864256882,-1292.6863392683833,-54.722949795039128,-4311.0376866781735,-582.54302171195934,-1411.0626996233698,6048.5290488162454,-6873.5071716691546,3057.1321870955617,-3057.1321870955617,6873.5071716691546,11940.59364313777,0.0
543296.95196600363,3640566.251970998,-22500.0,-11093.600213512356,-1679.8184940524179,-95.171749420397376,-5252.3782459014201,-790.10822655185814,-1799.6411808298253,7140.5880581460115,-8026.541641351926,3471.8678126035893,-3471.8678126035893,8026.541641351926,14079.232041333122,0.0
548296.95196600363,3640566.251970998,-22500.0,-12783.230474013189,-2198.0982468190932,-175.20803476967851,-6434.6233997496065,-1081.0214759635589,-2305.7181930196753,8485.4609720271565,-9407.5008725072294,3923.8641370267533,-3923.8641370267533,9407.5008725072294,16698.911592464006,0.0
553296.95196600363,3640566.251970998,-22500.0,-14741.491622282309,-2897.0811996600437,-325.9710846956358,-7925.3746026232757,-1492.6169840739808,-2963.7617809554872,10154.410079952395,-11059.830284915433,4394.3450378016551,-4394.3450378016551,11059.830284915433,19925.804595109767,0.0
558296.95196600363,3640566.251970998,-22500.0,-16986.931019194803,-3846.4129818908073,-602.56355019119928,-9812.9731344093743,-2080.8566178584633,-3815.8411493696294,12243.821570489063,-13028.681488973849,4841.4135785742801,-4841.4135785742801,13028.681488973849,23924.527702920685,0.0
563296.95196600363,3640566.251970998,-22500.0,-19511.088587335409,-5143.3439522041044,-1103.3059529960492,-12214.884932639672,-2931.1371400736134,-4912.7965263773622,14887.049996093077,-15350.790117642931,5179.3016899918093,-5179.3016899918093,15350.790117642931,28913.341264995008,0.0
568296.95196600363,3640566.251970998,-22500.0,-22237.81851788795,-6919.445738600476,-2005.1506313153593,-15290.062568068775,-4176.8608776586871,-6319.9464995147418,18271.815611585276,-18025.479322729898,5237.9247774876676,-5237.9247774876676,18025.479322729898,35185.383467593092,0.0
573296.95196600363,3640566.251970998,-22500.0,-24923.768794462838,-9333.951823406227,-3627.6586890392327,-19249.342973149956,-6031.0498383601434,-8139.7859533004839,22658.468912124063,-20933.586203141975,4683.1203135405303,-4683.1203135405303,20933.586203141975,43126.478063007366,0.0
578296.95196600363,3640566.251970998,-22500.0,-26921.41465718011,-12505.141902380055,-6538.7269105777414,-24322.579193511923,-8830.2175668695309,-10576.457284713455,28366.830291533868,-23620.100591409111,2866.7648958477803,-2866.7648958477803,23620.100591409111,53172.125720469849,0.0
583296.95196600363,3640566.251970998,-22500.0,-26690.497253982518,-16226.302102145799,-11675.258142939425,-30519.956018538134,-13031.423519868145,-14044.312175473355,35611.130151579702,-24773.850101808843,-1395.1258767617564,1395.1258767617564,24773.850101808843,65492.24146812129,0.0
588296.95196600363,3640566.251970998,-22500.0,-21178.493015195025,-19122.51668698807,-20220.843333979308,-36774.190389277217,-18827.179616705951,-19076.270433885609,43869.697664163694,-21310.927507614051,-9848.6156785983512,9848.6156785983512,21310.927507614051,78871.709037908047,0.0
593296.95196600363,3640566.251970998,-22500.0,-6580.5073825904183,-17174.169699804446,-32245.140124220503,-39224.417702610976,-24277.036685133447,-24905.585677381358,50361.284836695086,-8182.1329265119311,-23384.875872552533,23384.875872552533,8182.1329265119311,88276.951360302584,0.0
598296.95196600363,3640566.251970998,-22500.0,15754.622716325233,-4941.0536826638745,-42864.363015675262,-31836.985073719919,-21051.318745688292,-25129.205181702939,48662.894739351454,16258.831084897742,-37365.47660995066,37365.47660995066,-16258.831084897742,84584.876311639688,0.0
603296.95196600363,3640566.251970998,-22500.0,34236.801486878729,11967.244856116415,-42960.395377665496,-18029.981544978615,3120.5656538120506,-7291.6652850559631,43961.752412698042,39003.030530639626,-41800.917306165436,41800.917306165436,-39003.030530639626,76891.084484288251,0.0
608296.95196600363,3640566.251970998,-22500.0,49443.720336186445,13358.648534891614,-40690.864774865113,-14046.469952259728,37909.090109752338,27667.984098639034,58614.482985668394,48921.746861886626,-45085.462403551835,45085.462403551835,-48921.746861886626,109882.87826505573,0.0
613296.95196600363,3640566.251970998,-22500.0,68893.87932012236,4667.0583694922743,-56793.893107420787,-16714.429412801852,52900.604293823861,66920.929828546912,85721.332597726636,58981.49023938489,-64410.182299845706,64410.182299845706,-58981.49023938489,157645.85499784179,0.0
618296.95196600363,3640566.251970998,-22500.0,76102.580488210806,1141.9524594368368,-77321.78399841809,-30761.284013312626,35332.043492572026,79958.714444394005,98788.307269951401,65792.59529082058,-82317.899026631028,82317.899026631028,-65792.59529082058,175309.07600464267,0.0
623296.95196600363,3640566.251970998,-22500.0,75624.19779430276,13122.889909020856,-75670.457551767788,-24716.533251154669,-5563.9471252885533,22218.344421111848,81741.210570457304,73030.10602994675,-79637.968304820723,79637.968304820723,-73030.10602994675,141790.20424783762,0.0
628296.95196600363,3640566.251970998,-22500.0,45334.887733851363,28951.572659844493,-53001.037444694157,12401.647376840747,-23907.991695875757,-21705.170017067056,63929.201558121611,59421.188351357807,-51065.639726840876,51065.639726840876,-59421.188351357807,110736.79096493078,0.0
633296.95196600363,3640566.251970998,-22500.0,8953.5673837340564,30953.534349601639,-31368.940947777301,30292.303213092724,-21026.927858960753,-23980.910144030167,52139.952875669172,33108.017874515826,-22716.365591349244,22716.365591349244,-33108.017874515826,91302.867409955594,0.0
638296.95196600363,3640566.251970998,-22500.0,-10807.899980279462,25660.51811905851,-17920.251986752814,29704.961692326855,-14892.384630906372,-16772.727855051802,40760.524349890977,14220.286031923424,-6762.5402463921964,6762.5402463921964,-14220.286031923424,73018.017947382148,0.0
643296.95196600363,3640566.251970998,-22500.0,-17884.02446333913,19739.610418054042,-10410.120918615061,24265.490714867094,-10428.099596506932,-11556.968251502865,31386.327665631838,4191.9463029466806,494.37545864753406,-494.37545864753406,-4191.9463029466806,57534.664572827875,0.0
648296.95196600363,3640566.251970998,-22500.0,-19169.203119358433,15017.951650243554,-6230.1652174290057,19126.136828737082,-7515.2765419220941,-8495.5283295360096,24429.906892029609,-671.49683545246194,3487.2877166452172,-3487.2877166452172,671.49683545246194,45680.641878969342,0.0
653296.95196600363,3640566.251970998,-22500.0,-18273.294812131971,11519.730029067749,-3846.8111584272328,15128.103827940815,-5552.9966991430292,-6529.6953036188406,19371.658696920756,-2957.8806894611557,4559.2096040497872,-4559.2096040497872,2957.8806894611557,36794.227085488681,0.0
658296.95196600363,3640566.251970998,-22500.0,-16665.166739144781,8943.1972007042132,-2449.7555581218871,12086.69129735324,-4169.5359630014573,-5102.1495152264588,15626.932737199784,-3967.9095274049823,4766.6622750215274,-4766.6622750215274,3967.9095274049823,30029.485119459103,0.0
663296.95196600363,3640566.251970998,-22500.0,-14902.130063302973,7023.3268837130736,-1609.6914613900037,9738.9788621181051,-3164.5312999712132,-3997.332690388525,12777.924377652515,-4321.9485202238393,4583.7810508768453,-4583.7810508768453,4321.9485202238393,24763.268051823921,0.0
668296.95196600363,3640566.251970998,-22500.0,-13195.762218379767,5572.8501827692689,-1092.7333225174425,7897.5008052560934,-2422.4118165942891,-3128.4756274228043,10558.306349584404,-4328.7061170442012,4233.3005878973581,-4233.3005878973581,4328.7061170442012,20588.216985902967,0.0
673296.95196600363,3640566.251970998,-22500.0,-11626.022765508404,4463.4962042594616,-767.62697814661033,6437.7927575071853,-1869.1928508661042,-2447.2296670738087,8798.5827597448697,-4152.4725590573453,3824.6748077890229,-3824.6748077890229,4152.4725590573453,17235.823192093208,0.0
678296.95196600363,3640566.251970998,-22500.0,-10219.005911846591,3606.1219057213571,-558.78027953970275,5273.4055864600923,-1453.9062311962746,-1916.668774951223,7386.0198648378228,-3885.4632151410165,3412.5778456235807,-3412.5778456235807,3885.4632151410165,14519.869359119284,0.0
683296.95196600363,3640566.251970998,-22500.0,-8976.7086879008602,2937.3745670873764,-421.68863148018505,4340.6671742635526,-1140.1310674775179,-1505.5577775739721,6241.5849531301192,-3580.7849646223658,3023.5278061668087,-3023.5278061668087,3580.7849646223658,12304.429989098691,0.0
688296.95196600363,3640566.251970998,-22500.0,-7889.8752836866688,2411.3537621488244,-329.64613852490163,3590.8159661401905,-901.45064595285271,-1187.7210557683575,5307.4439379474243,-3268.9713374317439,2669.0690024526443,-2669.0690024526443,3268.9713374317439,10486.644501502651,0.0
693296.95196600363,3640566.251970998,-22500.0,-6944.2818985062131,1994.3124151592147,-266.35271809860706,2985.7976400515795,-718.59344223279697,-941.91183870617499,4540.0109877968016,-2967.0788850959216,2352.74464264371,-2352.74464264371,2967.0788850959216,8986.9750514189545,0.0
698296.95196600363,3640566.251970998,-22500.0,-6124.0713331661627,1661.1611207440087,-221.70391344623462,2495.7103827086903,-577.45717726819146,-751.35861527393126,3905.8180630617053,-2684.0300361924678,2073.9335619228491,-2073.9335619228491,2684.0300361924678,7743.1717486957696,0.0
703296.95196600363,3640566.251970998,-22500.0,-5413.5204656613878,1393.0739412916912,-189.34424168454484,2097.0114458365174,-467.68902397105137,-603.07515122953953,3378.8363666958162,-2423.8509004150901,1829.983161255137,-1829.983161255137,2423.8509004150901,6706.1406489100373,0.0
708296.95196600363,3640566.251970998,-22500.0,-4797.9848805119736,1175.8189662198545,-165.22118751312647,1771.1735923357273,-381.66104576281953,-487.13060963382657,2938.6443209017907,-2187.690284716869,1617.4087381600516,-1617.4087381600516,2187.690284716869,5837.0034003820001,0.0
713296.95196600363,3640566.251970998,-22500.0,-4264.2852023204086,998.55646913116368,-146.71609682604591,1503.6075650921223,-313.72485706344401,-395.97889713836906,2569.0531242840038,-1975.0507196600697,1432.5318122601361,-1432.5318122601361,1975.0507196600697,5104.8283545857312,0.0
718296.95196600363,3640566.251970998,-22500.0,-3800.8288472988147,852.97455471533613,-132.11495917020318,1282.8166585304275,-259.67484150960604,-323.90180679401146,2257.099073922856,-1784.5545515626486,1271.8162807705016,-1271.8162807705016,1784.5545515626486,4484.9167548077712,0.0
513296.95196600363,3645566.251970998,-22500.0,-5023.8062666674796,18.24824802588298,9.6643097947739705,-1755.2088153553441,-10.293394420958348,-459.61398824052947,2879.9733502468962,-3132.5406831394189,1695.8819819780269,-1695.8819819780269,3132.5406831394189,5695.3964281569224,0.0
518296.95196600363,3645566.251970998,-22500.0,-5706.9790237269272,-1.4359612086883293,27.342840139379366,-2083.899907650461,-21.700588961370091,-569.23740483804386,3309.2096942386306,-3576.8484918370536,1936.127077180498,-1936.127077180498,3576.8484918370536,6545.7396444360693,0.0
523296.95196600363,3645566.251970998,-22500.0,-6508.6421053586564,-30.476944920447973,49.385388513070673,-2488.7871327253006,-38.587146890883304,-709.88202705772449,3823.1461529691755,-4102.4332996123121,2218.3485001794606,-2218.3485001794606,4102.4332996123121,7562.6948004331462,0.0
528296.95196600363,3645566.251970998,-22500.0,-7452.7583248472383,-72.8163836600108,76.343359021954029,-2990.6213338760899,-63.508190527157652,-891.45178157898738,4442.4483327427706,-4727.0103395971882,2550.5685448353752,-2550.5685448353752,4727.0103395971882,8786.1724324849365,0.0
533296.95196600363,3645566.251970998,-22500.0,-8568.4932833529092,-134.14409394252843,108.45065731689414,-3616.5366021488403,-100.28742939002731,-1127.2027058300587,5193.7844015772826,-5472.631627366598,2942.1324673089562,-2942.1324673089562,5472.631627366598,10267.261953637069,0.0
538296.95196600363,3645566.251970998,-22500.0,-9891.3289071865038,-222.75065010687246,145.16897733086091,-4402.2408960863459,-154.70446516510944,-1434.8238143300409,6111.9231805899426,-6366.8427944163577,3403.6549837401144,-3403.6549837401144,6366.8427944163577,12071.864039537773,0.0
543296.95196600363,3645566.251970998,-22500.0,-11464.40222461604,-350.84930373164815,184.3017148559349,-5395.110516629099,-235.59592311272357,-1837.762897410548,7242.7972939844967,-7444.1933366682897,3946.673916413582,-3946.673916413582,7444.1933366682897,14285.799635636415,0.0
548296.95196600363,3645566.251970998,-22500.0,-13340.1283186783,-536.67200751218672,220.28505103092121,-6658.7624828720845,-356.66160173957991,-2366.7766878401235,8648.1807279166169,-8748.2500839559107,4582.7095756187573,-4582.7095756187573,8748.2500839559107,17022.311800733511,0.0
553296.95196600363,3645566.251970998,-22500.0,-15582.120610623768,-807.87476440056173,240.8977091209203,-8280.2790222911208,-539.52466758469268,-3061.7112152993041,10413.22110909197,-10334.304396955384,5321.1179557267969,-5321.1179557267969,10334.304396955384,20433.751503510779,0.0
558296.95196600363,3645566.251970998,-22500.0,-18267.011292513729,-1207.2177462015943,220.88103726813449,-10382.605792621185,-819.16507144955574,-3973.9163236313229,12659.258205168593,-12272.821846083225,6164.3895040846692,-6164.3895040846692,12272.821846083225,24731.078690203722,0.0
563296.95196600363,3645566.251970998,-22500.0,-21483.802606904199,-1802.1759191200806,109.39482708994439,-13147.483747672728,-1254.1701630276734,-5171.5738102861478,15566.602299897637,-14652.552057381203,7097.6555388776287,-7097.6555388776287,14652.552057381203,30218.423783391139,0.0
568296.95196600363,3645566.251970998,-22500.0,-25320.614048649473,-2700.8439406768985,-195.18889820995662,-16859.199566132804,-1947.445089969129,-6756.9101931718287,19415.254957862475,-17577.054447598755,8063.9613082491196,-8063.9613082491196,17577.054447598755,37355.538668737885,0.0
573296.95196600363,3645566.251970998,-22500.0,-29802.111237890447,-4074.702963469776,-897.28189997641289,-21983.142209127087,-3090.3466011398523,-8924.1072740883537,24652.56043511086,-21128.863819884449,8902.5221514674649,-8902.5221514674649,21128.863819884449,46863.002787952573,0.0
578296.95196600363,3645566.251970998,-22500.0,-34661.912404652663,-6171.7207091421751,-2413.478662208227,-29270.731988232434,-5056.3698818350485,-12133.298163124611,31977.959525507191,-25211.10793087913,9190.3897339554169,-9190.3897339554169,25211.10793087913,59852.198847401974,0.0
583296.95196600363,3645566.251970998,-22500.0,-38649.122035176086,-9218.7487012303409,-5597.3683326466016,-39725.733277282074,-8570.3437839570088,-17533.215871093791,42336.377362861516,-28998.614403681178,7854.8334460449296,-7854.8334460449296,28998.614403681178,77782.338612504085,0.0
588296.95196600363,3645566.251970998,-22500.0,-37881.394092131937,-12804.133360333506,-12120.515349176618,-53659.01418291741,-14804.098107751521,-27558.095223814827,56381.71905137931,-29414.269425433286,2407.2714898223494,-2407.2714898223494,29414.269425433286,101446.76923237552,0.0
593296.95196600363,3645566.251970998,-22500.0,-23956.363263958181,-13716.054518046012,-24573.914916907495,-66810.496389580061,-24148.515894613072,-44777.893517996003,72209.221273911709,-18497.829453126906,-11530.144203178601,11530.144203178601,18497.829453126906,126987.51639262811,0.0
598296.95196600363,3645566.251970998,-22500.0,10009.231011777774,-3124.2270047185871,-43758.041242291634,-64468.872265107413,-29439.229628694349,-61455.212756374967,80078.179795777891,14065.960289464962,-35896.15168235384,35896.15168235384,-14065.960289464962,138757.45624684467,0.0
603296.95196600363,3645566.251970998,-22500.0,46057.859136128311,20448.310598772252,-62240.814552663651,-40084.967846848667,-8741.3549263268869,-43854.851926749172,65715.172789775097,56343.649629329091,-59032.353637370215,59032.353637370215,-56343.649629329091,127982.49488222616,0.0
608296.95196600363,3645566.251970998,-22500.0,71400.872995663201,26108.231274856134,-79085.98772866615,-33553.476969257579,27128.168650164047,6570.3972354958232,90589.766297637747,79730.785359446963,-79319.277264175456,79319.277264175456,-79730.785359446963,157236.73341671753,0.0
613296.95196600363,3645566.251970998,-22500.0,105826.50389566901,20132.35348256438,-104454.90213584303,-29729.923522540943,18002.522193092598,25191.958443145955,113043.88580715819,103039.98147889586,-110193.93686786412,110193.93686786412,-103039.98147889586,196479.17572761668,0.0
618296.95196600363,3645566.251970998,-22500.0,104842.35757108379,30209.163516188539,-105100.71218704112,-11708.238172345202,-16118.576183210676,311.91058248356131,111033.56661762543,109222.15285068334,-109241.62634159971,109241.62634159971,-109222.15285068334,192316.71446338779,0.0
623296.95196600363,3645566.251970998,-22500.0,71859.003481634703,39846.863782014014,-69586.885625510971,28793.789030099331,-27527.659129428885,-64793.077635355381,96729.281298906717,86944.71673485158,-70988.366852735475,70988.366852735475,-86944.71673485158,169928.62112762459,0.0
628296.95196600363,3645566.251970998,-22500.0,15881.877687509843,35078.379567143886,-35667.330338809457,64986.955406234854,-19503.855841348661,-71074.899332551926,87973.839640941893,41133.984400226356,-27756.118311895469,27756.118311895469,-41133.984400226356,152442.91182629022,0.0
633296.95196600363,3645566.251970998,-22500.0,-21533.88203769151,25652.935501882512,-17245.755565484968,63384.785559488111,-12031.812333547965,-44588.199977054144,69760.804261972778,7354.0412104878169,-2665.7616858065185,2665.7616858065185,-7354.0412104878169,122923.37198552823,0.0
638296.95196600363,3645566.251970998,-22500.0,-33420.407695701986,18148.28680434628,-8490.470631233562,48119.085698719478,-7849.9050985390286,-25294.926229819339,51490.828345954011,-7009.5011017466913,6950.0009057628922,-6950.0009057628922,7009.5011017466913,92759.046280869967,0.0
643296.95196600363,3645566.251970998,-22500.0,-33273.61534602219,13058.208114028252,-4257.0160507312967,34648.919488453233,-5514.0296435251548,-15587.499932942772,37829.687966562124,-11232.51519561534,9461.3703408211095,-9461.3703408211095,11232.51519561534,69613.056392931321,0.0
648296.95196600363,3645566.251970998,-22500.0,-29587.894265976985,9655.8338083105064,-2132.8312773557177,25311.535333174375,-4066.4921959449166,-10716.425074336001,28432.496392826313,-11652.145348698663,9416.3380635747217,-9416.3380635747217,11652.145348698663,53321.021900594453,0.0
653296.95196600363,3645566.251970998,-22500.0,-25469.103986312806,7320.4591938420836,-1046.0846231056034,19025.387296955178,-3076.7129025705849,-7889.7830562817808,21972.505642951426,-10862.572109276034,8578.7568726212758,-8578.7568726212758,10862.572109276034,41847.798560838586,0.0
658296.95196600363,3645566.251970998,-22500.0,-21760.165573669467,5662.0069933092354,-490.61791032924583,14655.113498658784,-2358.5554921617322,-5984.4249216643311,17389.87759652052,-9762.6922365077771,7561.5879496893976,-7561.5879496893976,9762.6922365077771,33509.777077466373,0.0
663296.95196600363,3645566.251970998,-22500.0,-18593.86006747976,4448.7460894699479,-212.51554933357301,11489.505708471137,-1822.6655931531716,-4587.2062477145046,14016.191715241053,-8645.7949929561055,6571.0061945782627,-6571.0061945782627,8645.7949929561055,27239.046005469834,0.0
668296.95196600363,3645566.251970998,-22500.0,-15924.480993863992,3540.4512861091025,-79.693244280090184,9121.3882788102328,-1417.9192152818264,-3530.1210403985356,11453.823959489207,-7605.6448258764376,5673.581456267324,-5673.581456267324,7605.6448258764376,22394.78728991215,0.0
673296.95196600363,3645566.251970998,-22500.0,-13677.597930097429,2848.418763672149,-22.236984500507187,7311.0369868331481,-1110.3696192835807,-2724.5225615433683,9462.1416506668247,-6670.0082198904765,4886.1059687677171,-4886.1059687677171,6670.0082198904765,18581.269086484823,0.0
678296.95196600363,3645566.251970998,-22500.0,-11784.48912015142,2313.8415950501476,-2.9257811351522642,5907.2017980701394,-875.60439437687876,-2110.5080774623966,7887.9998673072841,-5843.1138677044819,4206.4893302850342,-4206.4893302850342,5843.1138677044819,15539.08815623856,0.0
683296.95196600363,3645566.251970998,-22500.0,-10187.069476929853,1896.1702591677802,-1.992153980667303,4807.6284937194405,-695.53370649059616,-1642.707638565199,6628.3132410118787,-5119.8554280627613,3625.3585598266322,-3625.3585598266322,5119.8554280627613,13087.952279370355,0.0
688296.95196600363,3645566.251970998,-22500.0,-8836.8306367779223,1566.6005276267676,-9.0518693057519126,3939.5566283809949,-556.65254968070133,-1285.9286418539382,5610.3168608338201,-4491.2473173960434,3130.9310178794476,-3130.9310178794476,4491.2473173960434,11096.8790074357,0.0
693296.95196600363,3645566.251970998,-22500.0,-7693.2310265161032,1304.2232587714791,-18.774281520453183,3249.5181006785697,-448.87702479418522,-1013.0706025423519,4780.8144147668027,-3946.935726666366,2711.240278547843,-2711.240278547843,3946.935726666366,9467.8824313388413,0.0
698296.95196600363,3645566.251970998,-22500.0,-6722.3623505694022,1093.6116499455693,-28.541463616935395,2697.4594162723897,-364.68238841414961,-803.51765230380624,4099.9290712201391,-3476.4851347569866,2355.1480363789769,-2355.1480363789769,3476.4851347569866,8126.2583840392335,0.0
703296.95196600363,3645566.251970998,-22500.0,-5895.9187574801845,923.24099160583626,-37.177348189420812,2253.0322649728882,-298.45153263402619,-641.73967503019276,3537.2367175709846,-3070.0632883704707,2052.7610033722463,-2052.7610033722463,3070.0632883704707,7014.3550714217172,0.0
708296.95196600363,3645566.251970998,-22500.0,-5190.3155411049856,784.41034060068455,-44.257202062620799,1893.0592124707061,-245.98249166758259,-516.10355104011239,3069.2104605785325,-2718.7575112498653,1795.5256708181714,-1795.5256708181714,2718.7575112498653,6087.2692579410368,0.0
713296.95196600363,3645566.251970998,-22500.0,-4585.9505696831839,670.49167061397554,-49.733037838295488,1599.7349241447546,-204.12143273183855,-417.91554396024981,2677.4841425129416,-2414.6928638816726,1576.1741915539747,-1576.1741915539747,2414.6928638816726,5309.7835470400387,0.0
718296.95196600363,3645566.251970998,-22500.0,-4066.5579675484132,576.39428083815005,-53.732272783648099,1359.3085939117184,-170.49050287611561,-340.67591637261938,2347.6248766547287,-2151.0268386724269,1388.5972032254872,-1388.5972032254872,2151.0268386724269,4654.1060990619435,0.0
513296.95196600363,3650566.251970998,-22500.0,-4909.7812645456552,420.42624828703612,-2.847454935805505,-1721.0694061581753,122.42698664273502,-451.72908231451316,2835.2732501860919,-2792.9016108755909,1692.1755460192603,-1692.1755460192603,2792.9016108755909,5615.9007458960223,0.0
518296.95196600363,3650566.251970998,-22500.0,-5575.1973380215923,483.81010718513119,13.841528480343115,-2042.8446438949568,144.16864721577554,-559.31969219454561,3257.5324121370431,-3171.0426843834689,1934.7740177712753,-1934.7740177712753,3171.0426843834689,6453.4225082715238,0.0
523296.95196600363,3650566.251970998,-22500.0,-6356.2012909031901,559.2897675214366,35.264960207557237,-2439.2818867600859,170.4789621710467,-697.34186848166803,3763.3985209268285,-3614.5670538922559,2220.9823288727766,-2220.9823288727766,3614.5670538922559,7455.2675682800391,0.0
528296.95196600363,3650566.251970998,-22500.0,-7276.481980745526,649.57335889903015,62.369255102945026,-2930.8265218707725,202.37356767961708,-875.51773705408277,4373.4229604341772,-4136.7178493564279,2559.7453697421247,-2559.7453697421247,4136.7178493564279,8661.0213308164712,0.0
533296.95196600363,3650566.251970998,-22500.0,-8365.1276797570517,758.03052535820893,96.072480388576366,-3544.3109477899648,241.0458625688716,-1106.8680476427244,5114.1822086824777,-4753.6724668552633,2961.8720894833004,-2961.8720894833004,4753.6724668552633,10121.522312141842,0.0
538296.95196600363,3650566.251970998,-22500.0,-9657.9936255451757,888.8493836568498,137.01908576673469,-4315.2307947647605,287.8333320161621,-1408.782588710975,6020.4316421383455,-5485.2390522564347,3440.331290695176,-3440.331290695176,5485.2390522564347,11902.646091466469,0.0
543296.95196600363,3650566.251970998,-22500.0,-11199.544812457674,1047.2202260847944,185.066967651955,-5291.0424083377029,344.09941860080266,-1804.3423587427651,7138.3201308275093,-6355.7722347254776,4010.5129644699055,-4010.5129644699055,6355.7722347254776,14090.745017028572,0.0
548296.95196600363,3650566.251970998,-22500.0,-13045.483395035606,1239.5334824434035,238.25968680793454,-6536.201912142049,410.93264482298406,-2323.8922457366371,8530.4325076294826,-7395.4541250404473,4690.3758151267411,-4690.3758151267411,7395.4541250404473,16800.869553930941,0.0
553296.95196600363,3650566.251970998,-22500.0,-15266.686188796666,1473.5698563841163,290.81662168577787,-8140.4650731151278,488.46517759651823,-3006.9307890953814,10284.168698720459,-8642.1784914296768,5500.3112470891647,-5500.3112470891647,8642.1784914296768,20190.043361665201,0.0
558296.95196600363,3650566.251970998,-22500.0,-17955.161450475498,1758.6210390956505,329.25102958946479,-10233.837679016755,574.38781820507097,-3904.9390640316346,12526.560503613851,-10144.321667232231,6462.3003763898787,-6462.3003763898787,10144.321667232231,24480.415359941249,0.0
563296.95196600363,3650566.251970998,-22500.0,-21231.957185319185,2105.4301977083605,324.89862335560036,-13015.771052021208,660.73627432833962,-5088.2162840038254,15451.85907159108,-11964.043678733582,7597.0656699037972,-7597.0656699037972,11964.043678733582,30002.486934974946,0.0
568296.95196600363,3650566.251970998,-22500.0,-25251.472262552317,2525.8322364961323,219.42246210087356,-16814.825431007597,726.82778381806588,-6668.6321040004714,19374.065561723757,-14176.953645065165,8914.8143772111252,-8914.8143772111252,14176.953645065165,37278.763998255934,0.0
573296.95196600363,3650566.251970998,-22500.0,-30172.780581638777,3032.5174234595993,-104.0902731627711,-22208.417216726401,723.31090848697602,-8878.0320027927064,24823.733498575551,-16847.811212697226,10384.318859729801,-10384.318859729801,16847.811212697226,47181.422840853964,0.0
578296.95196600363,3650566.251970998,-22500.0,-35984.123960363992,3643.4569859557796,-882.37010741333586,-30232.584351170073,535.61019766752156,-12317.327106762059,32703.530528296091,-19904.014503589526,11829.411236223665,-11829.411236223665,19904.014503589526,61190.005394253581,0.0
583296.95196600363,3650566.251970998,-22500.0,-41815.944053540159,4418.326379251228,-2615.3828993761044,-42588.037927953366,-95.48797905997489,-18643.224780685217,44444.945760913884,-22649.513570636293,12596.7727255227,-12596.7727255227,22649.513570636293,81640.004996555741,0.0
588296.95196600363,3650566.251970998,-22500.0,-43841.70425568903,5661.1411922612351,-6437.9610653838172,-61039.440916038351,-1694.2875831082329,-31990.705092810967,61794.789538698737,-22234.194834355643,10599.746800915418,-10599.746800915418,22234.194834355643,111258.31154855176,0.0
593296.95196600363,3650566.251970998,-22500.0,-30968.391011608681,8787.1461051765618,-15066.763324174875,-82709.622545131933,-4826.4447720724802,-59510.647715324572,84819.767184615543,-10172.462640251375,269.03152353404039,-269.03152353404039,10172.462640251375,149484.3169781419,0.0
598296.95196600363,3650566.251970998,-22500.0,13757.038579286769,18258.856770864193,-34291.002025517257,-86237.100359226839,-7114.0132531524987,-98011.681033806366,104703.30094166665,28391.2496877429,-27861.137311668768,27861.137311668768,-28391.2496877429,181364.52368677646,0.0
603296.95196600363,3650566.251970998,-22500.0,74110.184917409439,35774.922456008717,-69851.669044545022,-42993.099764641272,3162.3280377365795,-89639.520935714696,98397.443266554837,85724.488249784554,-72382.337700773103,72382.337700773103,-85724.488249784554,182702.01528986907,0.0
608296.95196600363,3650566.251970998,-22500.0,105929.4465109458,39444.503677683897,-109259.20529113772,-11668.686009477919,14911.781277696293,-15675.421081482935,116262.78518370631,116936.52113152006,-111660.84463689236,111660.84463689236,-116936.52113152006,201665.75601749105,1.0
613296.95196600363,3650566.251970998,-22500.0,120251.66002835621,34877.77847883106,-117911.48779520624,8930.1382161778274,-9937.905141395835,-7288.3444861515591,124821.92683061943,124831.54570937021,-123332.80295086799,123332.80295086799,-124831.54570937021,216327.79539512648,0.0
618296.95196600363,3650566.251970998,-22500.0,87144.076550217113,39263.428885866175,-89954.19324710776,34465.911896860052,-20470.419868420428,-40887.680830881989,105705.73275225201,100713.32829992265,-91169.390310013565,91169.390310013565,-100713.32829992265,185815.46602217006,0.0
623296.95196600363,3650566.251970998,-22500.0,42522.86161142568,28799.43673513861,-55620.091508372738,63184.600950898617,1862.3158448866359,-81931.490749150398,92426.690882115363,58152.430732701832,-52065.032009015486,52065.032009015486,-58152.430732701832,165475.42452268093,0.0
628296.95196600363,3650566.251970998,-22500.0,-5848.3500545062352,10769.271802883915,-29866.584339354711,81101.821153018434,12232.059815826753,-73722.657328537593,89538.628989908859,10186.101909068548,-18838.533920671674,18838.533920671674,-10186.101909068548,155186.64195921517,0.0
633296.95196600363,3650566.251970998,-22500.0,-34734.684785012309,2447.9376591219775,-14286.485386532981,71405.33235280255,9143.5866402451993,-45945.377180199204,72440.976780982397,-16889.025382090775,1417.5593234459611,-1417.5593234459611,16889.025382090775,127820.2024237392,0.0
638296.95196600363,3650566.251970998,-22500.0,-42029.805094789634,710.2136975787987,-6337.2268030026162,53123.180607985698,4822.0000983820091,-26718.479163893262,54036.168151713864,-24391.877054586916,9526.5084352562881,-9526.5084352562881,24391.877054586916,97464.76987301097,0.0
643296.95196600363,3650566.251970998,-22500.0,-39301.307554865234,758.12842197908537,-2576.2645538002876,38050.086520066223,2238.8768819117149,-16764.067074273153,39861.129912256503,-23501.671793358735,11382.768298044641,-11382.768298044641,23501.671793358735,73410.926324889224,0.0
648296.95196600363,3650566.251970998,-22500.0,-33955.213100345216,975.31083572448642,-842.27276487211975,27675.26195759335,941.28707813034748,-11581.86774779621,29959.398794842738,-20405.321422689987,10887.215561973771,-10887.215561973771,20405.321422689987,56209.058711159618,0.0
653296.95196600363,3650566.251970998,-22500.0,-28694.891331669689,1073.6467490801811,-69.757758534563067,20688.386161358681,314.83702895966854,-8501.0419858204841,23102.880498974202,-17224.261465984047,9700.1086769928261,-9700.1086769928261,17224.261465984047,44010.472317123742,0.0
658296.95196600363,3650566.251970998,-22500.0,-24178.09425217703,1067.9158250017547,244.50081550380958,15839.546509854432,16.36409671879683,-6411.4284403326319,18229.45928532393,-14473.63923392974,8414.1509315667845,-8414.1509315667845,14473.63923392974,35132.681593874404,0.0
663296.95196600363,3650566.251970998,-22500.0,-20430.014743626092,1004.8221162481244,342.03273680613563,12343.842001867313,-120.85955242457608,-4885.715197583706,14646.666018076519,-12192.847431636035,7220.5931351374184,-7220.5931351374184,12192.847431636035,28467.532494708816,0.0
668296.95196600363,3650566.251970998,-22500.0,-17335.679643368479,916.76658690726185,340.91991370775565,9745.4057804345575,-177.35319539909568,-3740.0215497409745,11933.90847882946,-10315.208588350793,6171.2392444738907,-6171.2392444738907,10315.208588350793,23334.815918117194,0.0
673296.95196600363,3650566.251970998,-22500.0,-14774.382181710962,821.91588673609931,299.10506567390757,7772.4072785226035,-193.20270059524026,-2873.3467847410134,9833.1367579728103,-8766.2939218032952,5270.1705498746887,-5270.1705498746887,8766.2939218032952,19308.65401225461,0.0
678296.95196600363,3650566.251970998,-22500.0,-12645.87533645069,729.5729341050444,244.5682696479231,6252.3352825350048,-189.00743705477842,-2217.045275305195,8178.8903339222334,-7483.5669354679812,4505.3276378629253,-4505.3276378629253,7483.5669354679812,16108.099761098345,0.0
683296.95196600363,3650566.251970998,-22500.0,-10870.260806030839,644.08406330817854,190.2385069876938,5068.7231921181192,-175.56292363023772,-1719.7597418738103,6859.5575153088466,-6417.0973029126981,3859.8697683758564,-3859.8697683758564,6417.0973029126981,13537.7275900267,0.0
688296.95196600363,3650566.251970998,-22500.0,-9383.7318496827393,567.12718923004911,141.52636227754766,4139.2084548611629,-158.54588014086772,-1342.2468102880632,5796.4873721594677,-5527.086135272848,3316.5368501039179,-3316.5368501039179,5527.086135272848,11455.926600169823,0.0
693296.95196600363,3650566.251970998,-22500.0,-8134.8692152186695,498.98151173841228,100.16619173478747,3403.7577133876566,-140.89224882889854,-1054.6710606850206,4932.3891267579274,-4781.5773082871228,2859.3709041187876,-2859.3709041187876,4781.5773082871228,9757.1784245885337,0.0
698296.95196600363,3650566.251970998,-22500.0,-7081.9534434533334,439.22722771027264,66.175321249887887,2817.7855233475875,-124.05296899254481,-834.56860276202144,4224.5262998281751,-4154.7561960909898,2474.3313197553407,-2474.3313197553407,4154.7561960909898,8361.4069245167284,0.0
703296.95196600363,3650566.251970998,-22500.0,-6190.9897268804007,387.12841108162161,38.842778816460886,2347.774157424074,-108.67447009921621,-665.15219697682767,3640.4626326127955,-3625.6844209360352,2149.4008357174589,-2149.4008357174589,3625.6844209360352,7207.0671784779415,0.0
708296.95196600363,3650566.251970998,-22500.0,-5434.2324448872623,341.84130139251783,17.217386003271773,1968.316438820689,-94.973497530857372,-533.93076658868029,3155.2765066807979,-3177.3495112357082,1874.4719336790472,-1874.4719336790472,3177.3495112357082,6246.4348370320113,0.0
713296.95196600363,3650566.251970998,-22500.0,-4788.9874106171364,302.52313572453812,0.33745345555147477,1660.0150962520679,-82.944698086000372,-431.61831970770078,2749.625643516958,-2795.895655507602,1641.1255313213196,-1641.1255313213196,2795.895655507602,5442.2047453330242,0.0
718296.95196600363,3650566.251970998,-22500.0,-4236.6775433805624,268.38686925800619,-12.670406563611518,1407.9742140558185,-72.475600575690578,-351.30365840219241,2408.385586563571,-2470.0254365335927,1442.3959335020804,-1442.3959335020804,2470.0254365335927,4765.0337180073193,0.0
513296.95196600363,3655566.251970998,-22500.0,-4660.3749840391674,797.98553388376047,-70.381226746966036,-1645.9699139782074,247.96067933058788,-434.4244845817887,2748.2574540414507,-2372.4252918083494,1599.8506465927892,-1599.8506465927892,2372.4252918083494,5454.54498654287,0.0
518296.95196600363,3655566.251970998,-22500.0,-5272.9288754790196,938.13131693726837,-69.97305882532757,-1948.1975158121368,300.71170977583182,-536.5892360236171,3152.9670886799527,-2663.1557403157012,1821.0783206735671,-1821.0783206735671,2663.1557403157012,6257.6889436971132,0.0
523296.95196600363,3655566.251970998,-22500.0,-5987.0132013835309,1109.8908260121511,-69.619958352729029,-2318.897734846541,367.33090145964053,-667.18001914304421,3636.9422206568634,-2996.5118511293936,2079.7968681452926,-2079.7968681452926,2996.5118511293936,7215.874997352792,0.0
528296.95196600363,3655566.251970998,-22500.0,-6821.7992654491245,1321.9360175974964,-70.042894133370396,-2776.2000137169839,452.10586293603734,-835.06865390458358,4219.2593248415797,-3378.5980355522552,2382.8568476014398,-2382.8568476014398,3378.5980355522552,8365.6329198223248,0.0
533296.95196600363,3655566.251970998,-22500.0,-7800.1408819106691,1585.7398491306117,-72.662833971404709,-3343.6166252404305,560.81654641963246,-1052.02283644406,4924.3327418840117,-3815.8152170620542,2738.1351585701786,-2738.1351585701786,3815.8152170620542,9753.5457495732444,0.0
538296.95196600363,3655566.251970998,-22500.0,-8949.1749745663001,1916.6315877710542,-80.153190147400082,-4051.8184369948276,701.29433120302326,-1333.5688711934631,5783.7695144772561,-4314.4152760283932,3154.4451199189402,-3154.4451199189402,4314.4152760283932,11439.475354561979,0.0
543296.95196600363,3655566.251970998,-22500.0,-10300.98693523558,2335.3342551868341,-97.42069735159717,-4941.1412931343921,884.19921959607586,-1699.9925774898397,6839.1125060467621,-4879.6811104602775,3641.2055578899663,-3641.2055578899663,4879.6811104602775,13501.128365371478,0.0
548296.95196600363,3655566.251970998,-22500.0,-11893.381270082029,2870.2680689163699,-133.35539731065214,-6065.3375252572769,1124.1075276607787,-2177.4095532210054,8146.0848153256684,-5514.4934519741528,4207.6627607604642,-4207.6627607604642,5514.4934519741528,16040.865425878073,0.0
553296.95196600363,3655566.251970998,-22500.0,-13770.803217519951,3561.1506564851384,-203.98242292814976,-7497.7026438919866,1441.0777459723606,-2798.8574129626891,9781.6019579428212,-6216.8199502696252,4861.2729139919184,-4861.2729139919184,6216.8199502696252,19196.612480470281,0.0
558296.95196600363,3655566.251970998,-22500.0,-15985.2054409006,4464.9123989875025,-338.20201927320682,-9342.1594559281803,1863.0630871503222,-3605.7991075171908,11856.187569612362,-6975.0579312703831,5604.4138189330042,-5604.4138189330042,6975.0579312703831,23160.850033607032,0.0
563296.95196600363,3655566.251970998,-22500.0,-18595.078529431037,5665.9614347301849,-588.4057483105579,-11755.127044622135,2430.1548019262796,-4652.5418718688679,14537.183660948205,-7758.2576217734322,6427.3659379526371,-6427.3659379526371,7758.2576217734322,28216.15224107384,0.0
568296.95196600363,3655566.251970998,-22500.0,-21653.915229702099,7294.798456627077,-1050.5592911658396,-14990.259115680032,3203.511580302009,-6023.7927029475468,18092.949779491191,-8492.0893373709823,7291.6896185220785,-7291.6896185220785,8492.0893373709823,34804.013365116611,0.0
573296.95196600363,3655566.251970998,-22500.0,-25153.63294273194,9562.0035395067134,-1903.5635066439529,-19485.743522432545,4287.2342196965028,-7899.4510915782739,22973.502510224178,-8992.1418783748813,8085.968554558006,-8085.968554558006,8992.1418783748813,43653.534367009459,0.0
578296.95196600363,3655566.251970998,-22500.0,-28804.887286060584,12815.280285629618,-3490.7884587700514,-26000.765532749636,5885.367345240028,-10762.135224646026,29935.882838223268,-8770.4644842726975,8498.2691416296202,-8498.2691416296202,8770.4644842726975,55985.130081286894,0.0
583296.95196600363,3655566.251970998,-22500.0,-31307.475832843109,17603.322101683196,-6502.1145798623165,-35659.757629298547,8442.9842727300838,-15948.66255915793,40154.387114588426,-6495.9901978233802,7644.1871131739963,-7644.1871131739963,6495.9901978233802,73678.7345186686,0.0
588296.95196600363,3655566.251970998,-22500.0,-28346.096227615602,24583.145463473364,-12407.298646241048,-49049.608082880302,12917.777851367711,-26643.047458178404,54988.838164684341,1295.6764852333731,3064.9656530903835,-3064.9656530903835,-1295.6764852333731,98797.739496321708,0.0
593296.95196600363,3655566.251970998,-22500.0,-9088.3748632785628,33534.313486761188,-24430.670585472511,-61305.310850614187,20820.09766173346,-47233.835074008326,74304.726657194697,21961.799468389469,-11272.780734371994,11272.780734371994,-21961.799468389469,130592.21492949799,0.0
598296.95196600363,3655566.251970998,-22500.0,39441.910625567085,39851.621593136435,-48551.987970617272,-50295.364984692809,31185.795906451604,-68237.785892707339,91530.815359290646,61927.41606632591,-44626.939332369977,44626.939332369977,-61927.41606632591,158536.03685825146,0.0
603296.95196600363,3655566.251970998,-22500.0,90712.252056040976,33483.090614408538,-86313.497998938241,1331.768783908786,29270.092337919541,-31013.503999620054,100434.67820887649,98308.40079062838,-90318.053055046897,90318.053055046897,-98308.40079062838,174772.91098753826,0.0
608296.95196600363,3655566.251970998,-22500.0,102636.57941973169,20479.621827361203,-108316.21828629353,18953.808901856366,1194.6676644194877,40195.258274378175,110036.24316431516,102144.65920982769,-111926.08249325116,111926.08249325116,-102144.65920982769,193824.91350966299,0.0
613296.95196600363,3655566.251970998,-22500.0,96203.650106595349,14720.735953790405,-87149.105340757364,26588.954108405389,-21690.695437242619,13966.157684196227,99055.883113353484,89545.902120000363,-94819.248004251887,94819.248004251887,-89545.902120000363,171712.67775498476,0.0
618296.95196600363,3655566.251970998,-22500.0,57686.987112621602,17061.677252246725,-60117.64115856585,41654.220321902023,-14545.898651482796,-21394.515013128308,74574.376649790822,60903.266651579877,-61743.481316989652,61743.481316989652,-60903.266651579877,132396.83404870506,0.0
623296.95196600363,3655566.251970998,-22500.0,24903.578852014907,8377.2528496162959,-48046.388301015977,51465.323733228564,12639.166037781122,-44187.747789215719,63928.82083314949,31942.072208772905,-42800.104584351517,42800.104584351517,-31942.072208772905,117008.19803263988,0.0
628296.95196600363,3655566.251970998,-22500.0,-4770.5669884294866,-7338.5380803737689,-35635.120841862685,59468.617764795024,24563.275548090536,-44773.589057492114,68056.52230832947,207.35686580488982,-25416.006051652806,25416.006051652806,-207.35686580488982,117895.55745349423,0.0
633296.95196600363,3655566.251970998,-22500.0,-26065.74315581792,-14043.170901736736,-21878.518459168979,55378.888266152622,20777.663588460517,-32747.686957668127,59956.285484540211,-20641.017976448911,-8874.3542739915756,8874.3542739915756,20641.017976448911,105723.17475386824,0.0
638296.95196600363,3655566.251970998,-22500.0,-34433.5240783552,-13138.786465758683,-11836.195595597019,44569.260770672263,13907.847915327602,-21897.424970871321,47795.215471167918,-27542.648735317554,1422.3782858255672,-1422.3782858255672,27542.648735317554,86266.653657045914,0.0
643296.95196600363,3655566.251970998,-22500.0,-34506.750369356196,-10045.721449576082,-5981.0073332533148,33993.737396748751,8780.5999825157396,-15102.795635879143,36930.285263417536,-26866.954520929707,6091.7018031257103,-6091.7018031257103,26866.954520929707,68099.105438565748,0.0
648296.95196600363,3655566.251970998,-22500.0,-31276.513653409482,-7186.5344524345855,-2872.7427728126204,25810.82486658261,5571.0240929912097,-10992.983956459313,28614.299776631746,-23659.885181178914,7605.3264944607072,-7605.3264944607072,23659.885181178914,53746.728724313041,0.0
653296.95196600363,3655566.251970998,-22500.0,-27286.569615967885,-5054.2550907208079,-1284.3922127075296,19835.720033735724,3610.3912305031063,-8280.3035789900114,22495.86876065495,-20114.732892040156,7666.447274368692,-7666.447274368692,20114.732892040156,42886.544544417309,0.0
658296.95196600363,3655566.251970998,-22500.0,-23478.82074140531,-3556.4480393062472,-492.68888198950691,15456.377655814649,2388.3605581963948,-6327.1746843136953,17967.815356865554,-16922.739493729805,7133.5284678239086,-7133.5284678239086,16922.739493729805,34641.706361062206,0.0
663296.95196600363,3655566.251970998,-22500.0,-20117.422244160658,-2516.6297448363107,-112.25122186944273,12183.524026108988,1605.8763964097488,-4857.0405323905507,14549.635869300808,-14219.535595832844,6398.0233654651092,-6398.0233654651092,14219.535595832844,28281.639583206379,0.0
668296.95196600363,3655566.251970998,-22500.0,-17231.812215746628,-1791.9234631286847,57.418435848983449,9692.6657644564511,1093.3592720057611,-3735.4474528124661,11916.545432275419,-11974.428780673852,5632.8884873541774,-5632.8884873541774,11974.428780673852,23297.857765133314,0.0
673296.95196600363,3655566.251970998,-22500.0,-14781.356768169999,-1282.6661105252695,120.56634488955929,7771.3807838017965,751.79733804654109,-2879.1988873182663,9854.1806556862684,-10119.718505554458,4912.0307690501349,-4912.0307690501349,10119.718505554458,19343.681286006435,0.0
678296.95196600363,3655566.251970998,-22500.0,-12709.481065486205,-921.67355946089788,131.54446632400055,6275.1179918111739,521.06552532895216,-2226.9265787970098,8217.6106185681892,-8587.9225036704756,4263.7588023371536,-4263.7588023371536,8587.9225036704756,16176.013946642897,0.0
683296.95196600363,3655566.251970998,-22500.0,-10960.306725607827,-663.69330728993395,118.6332938393157,5101.1482937209157,363.44952837185622,-1730.6055437110113,6905.2545933635001,-7320.5929260111534,3695.0450828711982,-3695.0450828711982,7320.5929260111534,13618.292290555406,0.0
688296.95196600363,3655566.251970998,-22500.0,-9483.4394704955794,-477.9780911758711,96.375888751086308,4174.1032344202576,254.72885775296777,-1352.6320166660905,5843.5588241328915,-6269.1899302922538,3203.0168630935063,-3203.0168630935063,6269.1899302922538,11538.662011423863,0.0
693296.95196600363,3655566.251970998,-22500.0,-8235.0578871176695,-343.41461097931108,72.04536859364174,3437.5972208753828,179.08038394790853,-1064.0009249761349,4977.9189441014069,-5394.0054103473485,2780.6105442109661,-2780.6105442109661,5394.0054103473485,9836.7955104285975,0.0
698296.95196600363,3655566.251970998,-22500.0,-7177.7931253834504,-245.35865446596506,49.07504276434787,2848.9705891810709,126.02926210209132,-842.6666132617994,4267.0648446469959,-4662.7719870666278,2419.3995860574146,-2419.3995860574146,4662.7719870666278,8435.430060137518,0.0
703296.95196600363,3655566.251970998,-22500.0,-6280.1384219446491,-173.55859126740455,28.891851090006146,2375.7150798206399,88.563179352502615,-672.04278518360866,3679.3775708626304,-4049.3363212077656,2110.9712811282698,-2110.9712811282698,4049.3363212077656,7274.5390916681263,0.0
708296.95196600363,3655566.251970998,-22500.0,-5515.7696250395629,-120.77636797221085,11.900056256463184,1992.9434321741423,61.9404763258241,-539.72640811554629,3190.4026659862316,-3532.5455862504405,1847.5725036050926,-1847.5725036050926,3532.5455862504405,6307.2146159574668,0.0
713296.95196600363,3655566.251970998,-22500.0,-4862.7911420493892,-81.860549921924758,-1.9927088848961847,1681.5128786867454,42.924425035879722,-436.46150930097025,2781.0631096742177,-3095.2825074160628,1622.3444891143752,-1622.3444891143752,3095.2825074160628,5496.5759280965804,0.0
513296.95196600363,3660566.251970998,-22500.0,-4289.9069209560348,1126.4679243541277,-185.28190728844208,-1533.9324065048652,359.09242294422785,-408.57045423894056,2625.3500635750142,-1897.9407424503122,1426.6847792153883,-1426.6847792153883,1897.9407424503122,5218.5981321201407,0.0
518296.95196600363,3660566.251970998,-22500.0,-4819.3059491133417,1329.0902262209963,-213.75487680235605,-1805.5268403160853,438.03416311291949,-502.29728800220187,3004.7439915458467,-2088.901372940195,1605.5446303644781,-1605.5446303644781,2088.901372940195,5968.2749917537521,0.0
523296.95196600363,3660566.251970998,-22500.0,-5426.9560785317453,1577.784043979389,-251.10674602323252,-2135.4467309718771,538.22389426532629,-621.2199197565792,3456.4663082293396,-2296.3923654224691,1809.1608980004382,-1809.1608980004382,2296.3923654224691,6857.7263449934453,0.0
528296.95196600363,3660566.251970998,-22500.0,-6124.1827536676228,1885.0524721398019,-301.23733333554389,-2537.8600272848748,666.32878386525874,-772.80010039941169,3996.8440605686774,-2518.3645831899394,2039.828048920941,-2039.828048920941,2518.3645831899394,7918.1836126493045,0.0
533296.95196600363,3660566.251970998,-22500.0,-6922.8692462170266,2267.2830307552235,-370.06598253992962,-3030.5249654090808,831.34556265818617,-966.71213237545157,4646.4767670087704,-2750.0981299773207,2298.9648494428616,-2298.9648494428616,2750.0981299773207,9188.7366084178011,0.0
538296.95196600363,3660566.251970998,-22500.0,-7834.5908456261195,2746.0891902776757,-466.70555731442806,-3635.6293296960316,1045.4602485089661,-1215.3485645484209,5431.5429197407821,-2982.5104465387699,2586.1059346911838,-2586.1059346911838,2982.5104465387699,10718.473070365882,0.0
543296.95196600363,3660566.251970998,-22500.0,-8868.987284880197,3350.1694243658781,-605.39418674659191,-4380.7817327340717,1325.2224388126303,-1534.2655615295837,6385.5759797904857,-3199.4754034401744,2897.1364292736239,-2897.1364292736239,3199.4754034401744,12569.298017914009,0.0
548296.95196600363,3660566.251970998,-22500.0,-10030.848765397161,4117.9227783796532,-808.72885936847331,-5300.2304019200574,1693.1451995086002,-1942.380323474322,7552.059531081869,-3373.5447667095164,3221.2191621238812,-3221.2191621238812,3373.5447667095164,14819.831457741848,0.0
553296.95196600363,3660566.251970998,-22500.0,-11314.898664082077,5101.2123591302379,-1113.1834695674952,-6436.5445769672551,2179.9081539190697,-2461.6410935266954,8988.5160823543811,-3458.9559876032586,3535.3926894922938,-3535.3926894922938,3458.9559876032586,17571.202855620268,0.0
558296.95196600363,3660566.251970998,-22500.0,-12696.095864323082,6370.9289920059209,-1578.7412821325852,-7843.4269828537881,2827.5351525077217,-3116.0314889361343,10773.492040322129,-3379.7213206825581,3794.8337564328458,-3794.8337564328458,3379.7213206825581,20956.55859264456,0.0
563296.95196600363,3660566.251970998,-22500.0,-14109.974040177902,8025.3372414430496,-2306.1633017196059,-9591.0568664799175,3694.515468339931,-3930.8861591254895,13019.158320240587,-3007.9263451239922,3914.4593103193511,-3914.4593103193511,3007.9263451239922,25157.967203327396,0.0
568296.95196600363,3660566.251970998,-22500.0,-15408.000139005719,10201.96584042633,-3468.8988092497075,-11775.381058267736,4865.5433563572506,-4937.6581746927777,15893.911740721094,-2120.7612388287935,3731.7537766110872,-3731.7537766110872,2120.7612388287935,30436.875372324121,0.0
573296.95196600363,3660566.251970998,-22500.0,-16246.403334310929,13089.555932159381,-5373.8281191760643,-14525.278955424428,6472.5023344854053,-6200.385357038208,19658.35088439145,-309.39767958202992,2926.0512390173194,-2926.0512390173194,309.39767958202992,37182.653913482143,0.0
578296.95196600363,3660566.251970998,-22500.0,-15802.06968148916,16913.092397623692,-8578.3503543103816,-17956.691853530483,8737.5468607971889,-7897.2262171362836,24701.899192425597,3215.242245878494,835.36680296576901,-835.36680296576901,-3215.242245878494,45957.446690993456,0.0
583296.95196600363,3660566.251970998,-22500.0,-12102.717968443088,21767.925956613046,-14103.885481115436,-21841.040128416458,12022.922003227246,-10456.758450143665,31505.842385419055,9980.1057654307642,-3943.6470162592145,3943.6470162592145,-9980.1057654307642,57413.243754232884,0.0
588296.95196600363,3660566.251970998,-22500.0,-878.51519539003607,26872.556440419852,-23711.168747895324,-24235.698571967034,16629.16837677544,-14314.027159400301,40338.44439152554,22537.138471896746,-14225.177607317142,14225.177607317142,-22537.138471896746,71785.600975842201,0.0
593296.95196600363,3660566.251970998,-22500.0,24108.426321077877,28375.233832391925,-39545.442941107096,-17933.063390194875,20913.772522608731,-16785.261002130559,50735.293551742943,42729.217576604337,-34101.357591898588,34101.357591898588,-42729.217576604337,88393.839856614257,0.0
598296.95196600363,3660566.251970998,-22500.0,59494.53771200074,17742.564386097973,-59969.63588870786,9686.101535704518,14177.545044319271,-491.19497906003227,64633.82204604453,62450.002184696721,-62167.359000183969,62167.359000183969,-62450.002184696721,111949.52759671908,0.0
603296.95196600363,3660566.251970998,-22500.0,71459.752260594629,-1277.0590720845403,-70563.60462177734,41179.883730326575,-23693.786230961916,62408.424192902727,92426.769854264028,59767.607092872822,-76049.995435026372,76049.995435026372,-59767.607092872822,160447.77366213378,0.0
608296.95196600363,3660566.251970998,-22500.0,61206.224007950957,2644.8770634939101,-61303.311466492334,18467.473731687442,-61805.672140276838,105713.85044514955,106168.73812887695,53854.798068456024,-65366.979610808099,65366.979610808099,-53854.798068456024,186938.69567694463,0.0
613296.95196600363,3660566.251970998,-22500.0,63404.077636617832,11509.328659893823,-47193.941235653088,-655.22893621388187,-48898.783382203015,58237.372518075797,73104.836913398525,57899.649412101833,-54758.791614559421,54758.791614559421,-57899.649412101833,138777.31886841226,0.0
618296.95196600363,3660566.251970998,-22500.0,47324.451790327817,9788.4856234016079,-38700.886749010679,10876.474266082672,-19289.874260381188,9646.1780698765124,48850.674151040075,44790.575858705386,-43298.431548661436,43298.431548661436,-44790.575858705386,85658.386079275471,0.0
623296.95196600363,3660566.251970998,-22500.0,26110.125253465914,1882.4469870706178,-38635.686120408391,22825.8037211714,6419.3610950220827,-13301.791776368291,38616.532782764996,26287.13158352788,-36988.282282588727,36988.282282588727,-26287.13158352788,69934.756063533889,0.0
628296.95196600363,3660566.251970998,-22500.0,6506.4794732935679,-9824.154467427943,-35745.182670794893,31239.058554983258,19457.892193114749,-20346.158347644385,43683.300251802277,5645.1469641180393,-29553.949523642237,29553.949523642237,-5645.1469641180393,75661.784329964867,0.0
633296.95196600363,3660566.251970998,-22500.0,-9894.7126955088297,-16811.654160766349,-27189.828011050275,33478.735953660427,20380.34892167653,-18942.656437811467,42749.806000680343,-11155.857748130027,-18513.149828229376,18513.149828229376,11155.857748130027,75372.072851198158,0.0
638296.95196600363,3660566.251970998,-22500.0,-19780.746966988409,-17549.657596134428,-17977.541458006996,30593.569740011626,16341.078221943559,-15267.748022394691,37292.859913980406,-19904.194383036353,-8496.1595667632992,8496.1595667632992,19904.194383036353,67442.155443944575,0.0
643296.95196600363,3660566.251970998,-22500.0,-23648.378277406329,-15145.20344592682,-11053.887065957861,25801.126370892285,11922.731442101378,-11957.968230790946,30874.134539497019,-22297.437019345351,-1841.6673756567179,1841.6673756567179,22297.437019345351,57094.068279814805,0.0
648296.95196600363,3660566.251970998,-22500.0,-23871.273189358828,-12054.425606875797,-6592.7503988527496,21073.821462909862,8460.359823949364,-9390.9845712984534,25135.545371031098,-21402.507552360967,1851.9745688936528,-1851.9745688936528,21402.507552360967,47339.27079838793,0.0
653296.95196600363,3660566.251970998,-22500.0,-22369.754243082465,-9284.1008511189066,-3895.750937894803,17044.634885233718,5984.2229717414966,-7390.2691124751664,20451.662230488655,-19242.677047177909,3633.7647202183698,-3633.7647202183698,19242.677047177909,39070.677109130011,0.0
658296.95196600363,3660566.251970998,-22500.0,-20219.538569950066,-7069.337996718562,-2302.7076213417577,13765.188810297606,4252.6821644944794,-5799.9168090504609,16728.004628410392,-16794.888474096042,4325.0220949875966,-4325.0220949875966,16794.888474096042,32298.733758417009,0.0
663296.95196600363,3660566.251970998,-22500.0,-17939.224217865951,-5373.1128348841385,-1367.6600121682534,11131.320078529468,3043.2488991558707,-4532.7288218541225,13774.485276468986,-14459.651011249985,4432.0201300973849,-4432.0201300973849,14459.651011249985,26801.086471751434,0.0
668296.95196600363,3660566.251970998,-22500.0,-15760.199426147326,-4094.2586933591074,-819.03272379486225,9023.5592027650855,2194.5422040815988,-3531.8548105873997,11419.652529016685,-12376.155577600894,4243.2769465360916,-4243.2769465360916,12376.155577600894,22340.006945563597,0.0
673296.95196600363,3660566.251970998,-22500.0,-13776.476625998534,-3134.1785341124778,-496.95500963343926,7338.4670483824739,1595.282118060501,-2749.8774472582545,9529.6684562523533,-10574.170610285764,3918.7182275132241,-3918.7182275132241,10574.170610285764,18712.747470088394,0.0
678296.95196600363,3660566.251970998,-22500.0,-12016.867041647056,-2412.731749379654,-308.04659763292909,5991.1796243700637,1169.2712252673998,-2144.127377189835,8002.9683827513009,-9039.8710101922261,3545.4475866475086,-3545.4475866475086,9039.8710101922261,15754.917886272659,0.0
683296.95196600363,3660566.251970998,-22500.0,-10479.255692861943,-1868.6910308865035,-197.65901315064414,4912.9119235358012,864.21270793261567,-1677.26219389068,6762.2340156650935,-7743.8385457809418,3169.6286246971217,-3169.6286246971217,7743.8385457809418,13334.710073038093,0.0
688296.95196600363,3660566.251970998,-22500.0,-9147.3840645151686,-1456.4114289180598,-133.64699323460584,4048.2731725049953,644.0788191802194,-1318.0869905596564,5748.0339726330994,-6653.020176326022,2814.4227980524893,-2814.4227980524893,6653.020176326022,11346.699332815459,0.0
693296.95196600363,3660566.251970998,-22500.0,-7999.4044645924751,-1142.1980253307606,-96.998638023781837,3352.975320860241,483.95074090142685,-1041.5364205739409,4914.2943018637752,-5735.7939125100556,2490.1510013733578,-2490.1510013733578,5735.7939125100556,9706.6911482323285,0.0
698296.95196600363,3660566.251970998,-22500.0,-7012.2886773058435,-901.25406621536456,-76.418911775164844,2791.8482799586714,366.51555213767529,-828.01575058055391,4225.0583366934552,-4963.9332167300017,2200.0912923531732,-2200.0912923531732,4963.9332167300017,8347.5288261123278,0.0
703296.95196600363,3660566.251970998,-22500.0,-6164.0391814004297,-715.32248510973545,-65.179243154986509,2337.1145326221354,279.68126700358829,-662.4779538144536,3652.1167280679319,-4313.1436237237431,1943.7960205085276,-1943.7960205085276,4313.1436237237431,7215.681100264449,0.0
708296.95196600363,3660566.251970998,-22500.0,-5434.6950440140872,-570.92572673920938,-59.270382973582855,1966.9125369458991,214.95108898883785,-533.49061926330421,3173.2354716827494,-3762.9465010575841,1718.9802403754636,-1718.9802403754636,3762.9465010575841,6268.465140560992,0.0
713296.95196600363,3660566.251970998,-22500.0,-4806.687010473579,-458.07582890011764,-56.311066734551552,1664.0676488906079,166.31456505892828,-432.41592304727686,2770.8174537265249,-3296.2957301038946,1522.5843264026939,-1522.5843264026939,3296.2957301038946,5471.8125358072939,0.0
513296.95196600363,3665566.251970998,-22500.0,-3821.7066568342843,1386.4201487600956,-334.63999262144216,-1391.5350353554727,449.97910054813934,-375.59267266815374,2478.5537017874281,-1399.7937534127987,1187.8914943671443,-1187.8914943671443,1399.7937534127987,4919.5062395108234,0.0
518296.95196600363,3665566.251970998,-22500.0,-4245.8486362410267,1631.3593518750231,-399.8709195958271,-1624.043214117843,548.25326433414637,-458.51520138475666,2827.0523795842519,-1488.691535674167,1308.9723704928706,-1308.9723704928706,1488.691535674167,5600.6904183435427,0.0
523296.95196600363,3665566.251970998,-22500.0,-4719.1708471949441,1929.6853440077991,-484.78928048983113,-1902.00683498339,672.41043691074765,-562.51332868946406,3238.5252654952133,-1568.6692725096291,1437.8928019890536,-1437.8928019890536,1568.6692725096291,6402.1300339605705,0.0
528296.95196600363,3665566.251970998,-22500.0,-5243.5100067918011,2294.7554001325288,-596.94653297979903,-2234.6557409096858,830.22653271322724,-693.27350056921307,3726.1750336926088,-1630.3552587863298,1571.167604856648,-1571.167604856648,1630.3552587863298,7348.3900140794085,0.0
533296.95196600363,3665566.251970998,-22500.0,-5817.6975301375369,2743.4567510213301,-747.27292795354708,-2632.6471518852018,1031.974129607124,-857.8570108238481,4306.2323331771568,-1659.4057613486311,1702.2008615745281,-1702.2008615745281,1659.4057613486311,8469.2264084223134,0.0
538296.95196600363,3665566.251970998,-22500.0,-6435.1763814584883,3297.0361569709789,-951.77549964427283,-3107.8314722332998,1291.1844204761608,-1064.7875464732424,4998.6022264311359,-1634.0838123437293,1819.3267621376713,-1819.3267621376713,1634.0838123437293,9800.4811034839549,0.0
543296.95196600363,3665566.251970998,-22500.0,-7080.1267343424897,3981.968951778787,-1234.1734202331181,-3672.557788270994,1625.5509115806037,-1323.8659858026117,5827.6371703561699,-1521.6678227995699,1902.6643886700981,-1902.6643886700981,1521.6678227995699,11384.96359141762,0.0
548296.95196600363,3665566.251970998,-22500.0,-7721.1789400683356,4830.6780756332173,-1630.0300359691985,-4338.1670466121559,2057.8926453309105,-1645.4108422238367,6823.0865603770026,-1273.112571151634,1919.0448914742067,-1919.0448914742067,1273.112571151634,13273.237855294139,0.0
553296.95196600363,3665566.251970998,-22500.0,-8301.0890659101369,5881.6376108114919,-2193.2921055512797,-5112.0962234534381,2616.9464916876182,-2038.4408321059232,8021.3504384618227,-815.04824898576908,1813.7449377399707,-1813.7449377399707,815.04824898576908,15524.231250933484,0.0
558296.95196600363,3665566.251970998,-22500.0,-8719.3448096560987,7177.7497759404087,-3006.7108897148955,-5992.6043869219548,3337.4670724016373,-2507.1817648977353,9467.3646760302163,-37.621825251523092,1496.8024069934522,-1496.8024069934522,37.621825251523092,18205.702392460298,0.0
563296.95196600363,3665566.251970998,-22500.0,-8801.5579076126305,8760.2189253335073,-4198.4515029904069,-6959.0292770956676,4258.5277359948923,-3045.4715733646362,11217.777000191711,1224.3495402561537,819.85224743401261,-819.85224743401261,-1224.3495402561537,21394.835552565182,0.0
568296.95196600363,3665566.251970998,-22500.0,-8242.7215620644129,10650.463319310815,-5967.9872320005479,-7951.7514595333469,5417.4426540903078,-3629.6049030039349,13346.274798030952,3220.7696231093996,-463.94649208573719,463.94649208573719,-3220.7696231093996,25179.274454422153,0.0
573296.95196600363,3665566.251970998,-22500.0,-6498.8212722488861,12798.991882815268,-8622.8543032211328,-8822.9512896140532,6831.5662865136655,-4210.9401087776487,15950.856345652304,6328.6006491643584,-2768.9115038217874,2768.9115038217874,-6328.6006491643584,29657.921935022521,0.0
578296.95196600363,3665566.251970998,-22500.0,-2592.0441559966862,14942.392512030214,-12612.433138798073,-9198.565874809563,8438.3952348399471,-4698.3735746045631,19159.953082133274,11086.915278722039,-6782.6639520386143,6782.6639520386143,-11086.915278722039,34943.157351825597,0.0
583296.95196600363,3665566.251970998,-22500.0,5130.5588650436421,16225.704813649934,-18467.474579018002,-8098.8424414550427,9874.92182036745,-4838.6013042208915,23152.325796413934,18084.929555515671,-13543.776835935316,13543.776835935316,-18084.929555515671,41232.696267316154,0.0
588296.95196600363,3665566.251970998,-22500.0,18734.791426341912,14400.793420046008,-26260.963570482319,-3133.7948971770279,9681.3700229227052,-3573.1561877957602,28420.40279148105,27147.180326537913,-24044.308671670995,24044.308671670995,-27147.180326537913,49510.573521997256,0.0
593296.95196600363,3665566.251970998,-22500.0,37732.649433072729,5265.5298301662169,-33534.061307086136,9838.4014673697493,3049.7231758835273,3138.0292480956136,37435.1049358171,34639.941272160599,-36768.77139659525,36768.77139659525,-34639.941272160599,64897.991443502971,0.0
598296.95196600363,3665566.251970998,-22500.0,51134.678863245972,-12518.880953761778,-31592.374482347928,30687.339244625651,-20433.401336093142,24742.904640865192,57044.82290234643,30844.861889292333,-41776.143221907878,41776.143221907878,-30844.861889292333,99523.135848420963,0.0
603296.95196600363,3665566.251970998,-22500.0,42080.360401746162,-21771.567543911457,-12003.001430143804,38170.732096085696,-63300.577700756701,62771.81684657617,85475.666080942261,14655.797996804209,-25330.351500174449,25330.351500174449,-14655.797996804209,149285.35480930901,0.0
608296.95196600363,3665566.251970998,-22500.0,29348.057673301839,-2184.4839087851078,6168.6892487217128,11873.546036936219,-88383.605168482085,80462.338512415896,96566.679873645466,15524.179270082601,-5553.0089956238553,5553.0089956238553,-15524.179270082601,167949.37855687601,0.0
613296.95196600363,3665566.251970998,-22500.0,35401.656780727106,17848.737446364197,785.20770814974321,-11159.076670378148,-67328.844044446072,54835.016120666944,75666.915060101077,33749.490716789238,-9365.533414854177,9365.533414854177,-33749.490716789238,131062.94242961124,0.0
618296.95196600363,3665566.251970998,-22500.0,36895.929936820932,17768.108802848732,-13776.499344351216,-9083.628897263181,-31561.825210914241,21946.602233056456,45012.198014986265,37914.651377446899,-20589.922987259015,20589.922987259015,-37914.651377446899,78846.427834315706,0.0
623296.95196600363,3665566.251970998,-22500.0,28167.564349468856,8047.4692204713156,-25121.348082615197,1322.4872705191463,-4788.2549887161676,2334.8339481309231,28252.672388033625,28596.328140831039,-27064.628472241431,27064.628472241431,-28596.328140831039,48977.08033111252,0.0
628296.95196600363,3665566.251970998,-22500.0,15752.100815337815,-3328.9371871031058,-29298.987797442616,10466.381983467727,9790.3487605502796,-6555.6116513744282,26900.257303986647,14262.441570699973,-27208.285385220959,27208.285385220959,-14262.441570699973,46601.304703045091,0.0
633296.95196600363,3665566.251970998,-22500.0,3383.678605593363,-11497.3212116416,-26568.667811913198,15895.413653577922,14712.281426751655,-9440.1852290907373,28226.138966040726,517.96169022538561,-21935.899188887954,21935.899188887954,-517.96169022538561,49813.663915669895,0.0
638296.95196600363,3665566.251970998,-22500.0,-6240.2464167818453,-14896.465912111029,-20628.18183392004,17651.742775040548,14297.502665198042,-9534.6879076269433,26916.47246379402,-9085.3538543824397,-14703.880104447158,14703.880104447158,9085.3538543824397,48828.14480689598,0.0
643296.95196600363,3665566.251970998,-22500.0,-12184.588118844014,-14843.887509950222,-14674.804447185852,17039.619026398257,11947.871564244748,-8592.9514134001092,24016.780761477774,-14111.357152660232,-8322.046917120213,8322.046917120213,14111.357152660232,44591.128351061197,0.0
648296.95196600363,3665566.251970998,-22500.0,-15055.035463215248,-13149.111091429497,-9993.5615579310906,15330.724071639939,9357.3278767974971,-7359.1365332876012,20707.37109360085,-15843.674586259021,-3729.5011709469327,3729.5011709469327,15843.674586259021,39145.398337099839,0.0
653296.95196600363,3665566.251970998,-22500.0,-15886.137075685558,-10988.151767506193,-6685.1586108789634,13291.13218914848,7118.0988032548921,-6115.6242783843045,17576.918510998414,-15683.047403820703,-781.00904342626472,781.00904342626472,15683.047403820703,33680.939139492213,0.0
658296.95196600363,3665566.251970998,-22500.0,-15533.571065503364,-8915.2265484143245,-4457.3297610394311,11288.63555475829,5346.0668096491036,-4977.7893236174941,14829.166423025754,-14596.474031629044,965.43141395082148,-965.43141395082148,14596.474031629044,28699.725193448659,0.0
663296.95196600363,3665566.251970998,-22500.0,-14565.080866263512,-7128.7744875514181,-2987.1339518113805,9475.8249507227611,3996.9871131929795,-3993.7012109874836,12494.698923075053,-13142.902163702733,1916.4478226960155,-1916.4478226960155,13142.902163702733,24355.036863674715,0.0
668296.95196600363,3665566.251970998,-22500.0,-13323.875499896989,-5664.1622685618722,-2022.7851678669003,7902.2715980412459,2988.5606074523312,-3174.9163854366143,10540.557525547287,-11617.135833382355,2368.6788463866087,-2368.6788463866087,11617.135833382355,20649.50569446569,0.0
673296.95196600363,3665566.251970998,-22500.0,-12007.161482641275,-4493.1783653167113,-1389.4197267859226,6569.5944063198231,2241.0669828137216,-2511.7478668791191,8915.7266625720258,-10163.337119122534,2520.0669358061514,-2520.0669358061514,10163.337119122534,17526.873115701805,0.0
678296.95196600363,3665566.251970998,-22500.0,-10722.885870160542,-3568.6910771046109,-971.20153658453171,5457.8933093737278,1688.5099549324943,-1984.1356716854543,7568.1298424913221,-8844.0350818732768,2497.2146833167849,-2497.2146833167849,8844.0350818732768,14912.049916500842,0.0
683296.95196600363,3665566.251970998,-22500.0,-9525.7933778206025,-2842.9364294647103,-692.87808808071088,4539.042115134328,1279.723669752482,-1568.9667660415923,6450.554191535839,-7678.9114136301187,2379.0706782116913,-2379.0706782116913,7678.9114136301187,12728.635332047163,0.0
688296.95196600363,3665566.251970998,-22500.0,-8439.5137197392251,-2274.0562238363614,-505.88098195224558,3783.5016696787661,976.34147767349896,-1244.199308914388,5522.3365923342171,-6666.0665620744367,2213.8603874373216,-2213.8603874373216,6666.0665620744367,10906.350156871375,0.0
693296.95196600363,3665566.251970998,-22500.0,-7469.9796072639538,-1827.6577746865769,-378.86468240934374,3163.6643102508265,750.11445153608918,-990.70321737135248,4749.4012936349309,-5793.5759249670391,2030.3827464982,-2030.3827464982,5793.5759249670391,9383.7609412581151,0.0
698296.95196600363,3665566.251970998,-22500.0,-6613.5168357494267,-1476.4048965826071,-291.527999644408,2655.2629751225377,580.44248254946308,-792.74516706130487,4103.6435319896254,-5045.6734966913245,1845.3168972246999,-1845.3168972246999,5045.6734966913245,8108.723157171522,0.0
703296.95196600363,3665566.251970998,-22500.0,-5861.6640784226875,-1198.9594439781306,-230.65150299689267,2237.7295322188365,452.36686775240781,-637.79731306881251,3562.0980528645132,-4405.9615082251157,1667.8712116185823,-1667.8712116185823,4405.9615082251157,7037.7657058786835,0.0
708296.95196600363,3665566.251970998,-22500.0,-5203.9806067566578,-978.82345052614846,-187.56997016039662,1894.0201265358357,355.03122251555158,-516.07682897237578,3106.0918429741846,-3858.9722844449375,1502.7117270420008,-1502.7117270420008,3858.9722844449375,6135.0412711288509,0.0
713296.95196600363,3665566.251970998,-22500.0,-4629.632104266183,-803.29961513658338,-156.56327775688393,1610.2099452418072,280.54173005452355,-420.03094564898339,2720.4762093996183,-3390.8368087710774,1351.791681138197,-1351.791681138197,3390.8368087710774,5371.178728350149,0.0
513296.95196600363,3670566.251970998,-22500.0,-3285.2239018482737,1565.4723080443473,-502.2458821074926,-1227.1399734384113,516.73284137427959,-337.31253306392944,2315.372131081544,-908.22642786291976,903.93844796402777,-903.93844796402777,908.22642786291976,4571.8641959439328,0.0
518296.95196600363,3670566.251970998,-22500.0,-3592.1715188176681,1829.6705068368271,-606.32809072700002,-1415.4142891001072,626.35396549989798,-407.88123825241217,2627.9292137199191,-902.34397288984167,959.18186356119475,-959.18186356119475,902.34397288984167,5174.6890294045752,0.0
523296.95196600363,3670566.251970998,-22500.0,-3917.5648589995235,2146.8062990952835,-740.47912028688245,-1635.0667228762652,763.41406551682678,-494.93075399587434,2993.3519882728242,-866.2724287792837,1004.2583730892961,-1004.2583730892961,866.2724287792837,5876.1688652208659,0.0
528296.95196600363,3670566.251970998,-22500.0,-4254.0488171581364,2528.0981404170225,-915.22266987043156,-1890.2076108538649,935.44985607012973,-602.24260990280789,3421.6656358975692,-785.6322485912799,1030.1768628528878,-1030.1768628528878,785.6322485912799,6693.9074482953129,0.0
533296.95196600363,3670566.251970998,-22500.0,-4588.2983994367532,2986.6595086811722,-1145.2410505763969,-2184.3117907682454,1152.0085486441658,-734.12642347900862,3924.7268946447166,-640.12093497797139,1023.0883520033061,-1023.0883520033061,640.12093497797139,7648.1749804060173,0.0
538296.95196600363,3670566.251970998,-22500.0,-4897.6983529635254,3537.2306094000492,-1451.1314797300206,-2519.0903618940156,1424.970634146049,-895.12520973163168,4516.4050805752531,-401.21719958974171,961.84973395959878,-961.84973395959878,401.21719958974171,8761.8121873481396,0.0
543296.95196600363,3670566.251970998,-22500.0,-5145.3304220632745,4195.2115244842371,-1861.8942846919192,-2892.4956613384388,1768.6579859165618,-1089.2894802866126,5212.6802796566808,-29.1226356885158,814.40473082260382,-814.40473082260382,29.1226356885158,10059.727404765888,0.0
548296.95196600363,3670566.251970998,-22500.0,-5272.4438823998171,4974.2857511905631,-2418.3836000281531,-3295.307310214027,2199.351488184926,-1318.6645637573092,6031.6082763469549,531.15733020288326,532.45821447303047,-532.45821447303047,-531.15733020288326,11567.750619408374,0.0
553296.95196600363,3670566.251970998,-22500.0,-5187.2042163860124,5881.2811837774434,-3177.8908114714832,-3705.4255468721931,2733.4408664742996,-1580.4368570642041,6993.1523191259112,1354.49227989216,43.766702546583474,-43.766702546583474,-1354.49227989216,13310.635694424347,0.0
558296.95196600363,3670566.251970998,-22500.0,-4747.9664502878204,6905.6454528998156,-4219.6542366925351,-4078.4377118552397,3382.6253954163185,-1861.9585622048462,8119.0704482854189,2540.3840683996559,-758.67734286872656,758.67734286872656,-2540.3840683996559,15309.300626689892,0.0
563296.95196600363,3670566.251970998,-22500.0,-3738.7043033549717,7998.3530606418553,-5649.7554865044631,-4331.8840361800076,4142.9272008375856,-2132.6880120836254,9433.6449121247788,4215.515833347371,-2030.7942450440169,2030.7942450440169,-4215.515833347371,17578.64427699495,0.0
568296.95196600363,3670566.251970998,-22500.0,-1834.547976998005,9029.8584239383199,-7599.6616776840647,-4317.9737161183684,4970.5693640026684,-2331.8210890541181,10967.842578896714,6527.2225248219866,-3992.4930471290872,3992.4930471290872,-6527.2225248219866,20131.725718725083,0.0
573296.95196600363,3670566.251970998,-22500.0,1438.0691445702187,9706.8878053159078,-10199.998116535793,-3773.2909837186912,5728.5213413712845,-2348.3438365984603,12775.272542076844,9607.5757861779621,-6930.8142624160555,6930.8142624160555,-9607.5757861779621,23011.889563850968,0.0
578296.95196600363,3670566.251970998,-22500.0,6707.6386501678589,9415.9103134304423,-13474.977038509049,-2224.4308440349137,6063.2785809185498,-1978.426722247083,14988.830217287699,13450.141638717161,-11141.386989459623,11141.386989459623,-13450.141638717161,26430.864698556008,0.0
583296.95196600363,3670566.251970998,-22500.0,14563.22574333282,6985.2003149266548,-17013.758285445543,1157.0582923655534,5115.6683638514896,-801.51372102284176,18015.400713150368,17557.231170300765,-16647.278339136807,16647.278339136807,-17557.231170300765,31255.633362810506,0.0
588296.95196600363,3670566.251970998,-22500.0,24679.265443509841,609.31881273703289,-19145.386173131261,7564.2875577073637,914.88148168307271,2164.9019649454676,23093.418410489408,20156.55006480444,-22306.310924898804,22306.310924898804,-20156.55006480444,40200.655314766584,0.0
593296.95196600363,3670566.251970998,-22500.0,33679.769250373218,-10860.985380953958,-15645.30830990761,17485.930311987071,-10313.730254609742,9009.4802939117726,32972.459485889885,17425.086268482661,-24001.834855455698,24001.834855455698,-17425.086268482661,58437.983363292697,0.0
598296.95196600363,3670566.251970998,-22500.0,33953.241259065493,-23073.007051025637,-624.23424646889407,26911.567373367619,-32412.591321539196,22094.246720537936,49586.647986322292,6147.1721819448285,-14371.265255187725,14371.265255187725,-6147.1721819448285,88587.245344686962,0.0
603296.95196600363,3670566.251970998,-22500.0,22460.076315819158,-22458.893808519977,23734.421080520508,24900.033691936875,-60132.161625003544,38219.662030227453,67366.879738345277,-6129.3983657929703,7476.6006518442,-7476.6006518442,6129.3983657929703,120211.38341643297,0.0
608296.95196600363,3670566.251970998,-22500.0,13518.770367970341,-2864.1534451604398,37880.651470845856,7546.626624959812,-73082.460747489939,44604.437732553066,73541.426281267763,-1976.9263883779076,23020.152121376224,-23020.152121376224,1976.9263883779076,130465.00559874203,0.0
613296.95196600363,3670566.251970998,-22500.0,17842.546495990882,16810.771046272079,28441.183583115089,-8910.6275903498954,-59857.402252612635,35007.394120192737,62456.835451730403,15844.486740538521,16765.197640663653,-16765.197640663653,-15844.486740538521,109816.97886213871,0.0
618296.95196600363,3670566.251970998,-22500.0,24280.916031769757,21152.870240145508,7657.2214709958353,-12485.122076908492,-34493.06582880608,19516.64404374723,42943.587544740927,27424.964460485891,-215.79880763168876,215.79880763168876,-27424.964460485891,74827.314898496101,0.0
623296.95196600363,3670566.251970998,-22500.0,24161.417186207134,14366.120084803855,-9894.4374818702854,-7617.8035353914711,-12447.529215871442,7345.5411768401227,26603.855523153885,26827.956838374157,-13828.310483540408,13828.310483540408,-26827.956838374157,46129.901965738027,0.0
628296.95196600363,3670566.251970998,-22500.0,18561.275174880611,4356.5302874590925,-19439.728771249756,-846.40885980338066,1558.2442967327097,8.2383518829078213,19572.528513233348,18869.793547797406,-20060.760930762419,20060.760930762419,-18869.793547797406,33906.18113148828,0.0
633296.95196600363,3670566.251970998,-22500.0,10614.423133346401,-4140.9559510211693,-21723.614991188457,4713.5816940383293,8397.7034492235416,-3766.9524821244672,19003.192660411551,8804.4869646866937,-19998.026108433485,19998.026108433485,-8804.4869646866937,33424.05685712149,0.0
638296.95196600363,3670566.251970998,-22500.0,2879.6545514307791,-9325.9103965527047,-19582.216542998591,8166.5959085764462,10497.451743446803,-5336.9688936700404,18953.073583596084,60.664141866218415,-16389.933595728875,16389.933595728875,-60.664141866218415,34337.661203691881,0.0
643296.95196600363,3670566.251970998,-22500.0,-3189.7530716456722,-11437.249694186401,-15765.512687034339,9724.9227150879287,10116.689688158827,-5664.2484578292369,17978.686011697304,-5990.2342481763371,-11773.763736728943,11773.763736728943,5990.2342481763371,33411.83676571145,0.0
648296.95196600363,3670566.251970998,-22500.0,-7238.0375441455217,-11514.991754531424,-11927.634587432116,9973.815841209007,8739.1378000885798,-5345.812266344813,16359.390340786471,-9439.2251290829663,-7599.2313772328926,7599.2313772328926,9439.2251290829663,30980.321368394532,0.0
653296.95196600363,3670566.251970998,-22500.0,-9542.5430388209952,-10537.623531781977,-8732.3017257975989,9460.6227963081528,7142.4113840388345,-4732.651914234475,14497.507438789477,-10956.057601466151,-4368.0782889993388,4368.0782889993388,10956.057601466151,27831.118777848955,0.0
658296.95196600363,3670566.251970998,-22500.0,-10570.390727853091,-9153.6199259836121,-6295.8190189131565,8573.1748873204506,5665.3081774473685,-4027.0286667511714,12648.343154519878,-11234.775924067764,-2079.6346886184456,2079.6346886184456,11234.775924067764,24520.784784341526,0.0
663296.95196600363,3670566.251970998,-22500.0,-10753.407793449049,-7718.5201060934469,-4518.560639187639,7552.6196995444961,4421.5849541722082,-3339.9356163949506,10939.20146252363,-10802.661768324229,-554.31707317488235,554.31707317488235,10802.661768324229,21356.851692931952,0.0
668296.95196600363,3670566.251970998,-22500.0,-10420.995369821138,-6398.7950539578242,-3250.4425939516673,6536.1523530287477,3423.3040665601829,-2725.1214650976317,9420.2312845616416,-10009.495595750439,410.77602457267949,-410.77602457267949,10009.495595750439,18482.809895920436,0.0
673296.95196600363,3670566.251970998,-22500.0,-9801.8933338661354,-5255.7645129144976,-2354.2591527853256,5594.2842232361036,2642.7448541595672,-2201.7028407909879,8100.5218257251581,-9069.7750673853861,986.72046252165092,-986.72046252165092,9069.7750673853861,15947.922835796553,0.0
678296.95196600363,3670566.251970998,-22500.0,-9045.9073544568055,-4297.9932817914214,-1722.3257235837318,4757.2053062735786,2041.0969571105131,-1769.65985661791,6969.0916366487127,-8107.1413578439679,1302.1121480161978,-1302.1121480161978,8107.1413578439679,13751.360264754587,0.0
683296.95196600363,3670566.251970998,-22500.0,-8246.5795835678509,-3510.4705306649194,-1275.6501429059801,4032.0856662505262,1580.6448508924918,-1419.8393326514599,6006.3441282562144,-7188.0091188564302,1448.1119670324852,-1448.1119670324852,7188.0091188564302,11867.947760889932,0.0
688296.95196600363,3670566.251970998,-22500.0,-7459.4309875785384,-2869.7525161854282,-958.19915497291811,3413.9424629215559,1229.1386616377008,-1139.8457960205596,5190.1718247845001,-6344.2663903442735,1487.1407375754338,-1487.1407375754338,6344.2663903442735,10262.644756586658,0.0
693296.95196600363,3670566.251970998,-22500.0,-6715.207172082215,-2351.2842703590813,-730.88281074250904,2892.1617974510814,960.65767120050214,-917.14700090528197,4499.0697464523946,-5587.7498014152252,1460.9555413229227,-1460.9555413229227,5587.7498014152252,8898.3239607891428,0.0
698296.95196600363,3670566.251970998,-22500.0,-6029.0167206153874,-1932.5998052486516,-566.6334522095591,2454.226802101331,755.063037777771,-740.48819282275201,3913.5738853691155,-4919.1829273954918,1396.9902773997546,-1396.9902773997546,4919.1829273954918,7739.7073199694405,0.0
703296.95196600363,3670566.251970998,-22500.0,-5406.4130003392165,-1594.4333231689611,-446.74330541731331,2087.7049552358867,597.0046414365911,-600.36766270579585,3416.7463670837305,-4333.5399215225571,1312.9713511615532,-1312.9713511615532,4333.5399215225571,6755.1040176127763,0.0
708296.95196600363,3670566.251970998,-22500.0,-4847.3392935337351,-1320.8401280301839,-358.26204580818143,1781.202942157551,474.90451046580711,-489.04471330294007,2994.1692981426008,-3823.1798844782124,1220.1438845630209,-1220.1438845630209,3823.1798844782124,5916.9532465784705,0.0
713296.95196600363,3670566.251970998,-22500.0,-4348.6426047180803,-1098.8940089816736,-292.19041589608656,1524.7404524493327,380.07423014990599,-400.34715241755339,2633.7281281692808,-3379.6268347686309,1125.4777536687998,-1125.4777536687998,3379.6268347686309,5201.7634838063486,0.0
513296.95196600363,3675566.251970998,-22500.0,-2712.4785447457966,1659.2249852787897,-670.96526333154372,-1049.9361625298927,557.69199425354293,-295.7477909446003,2139.4541351732546,-450.03539968637619,597.70434419101935,-597.70434419101935,450.03539968637619,4192.1137455846256,0.0
518296.95196600363,3675566.251970998,-22500.0,-2900.7613062759842,1919.9112947088838,-810.28766707076306,-1192.3074338068097,670.54454519077854,-353.28653211127181,2413.9112353536912,-364.29923971666085,586.79445066662288,-586.79445066662288,364.29923971666085,4712.3389149472632,0.0
523296.95196600363,3675566.251970998,-22500.0,-3079.0158799883552,2226.1570625662935,-987.48408670278934,-1352.2727983774969,809.48576886852288,-422.65990166589455,2731.3376678650966,-233.6739823637277,549.6113236406693,-549.6113236406693,233.6739823637277,5309.7958471382553,0.0
528296.95196600363,3675566.251970998,-22500.0,-3232.6252612522476,2584.7799727037291,-1214.4928403083827,-1529.3619286338528,980.67539757737859,-505.83887336376762,3098.8995464858508,-41.823871144710353,473.20568835033794,-473.20568835033794,41.823871144710353,5995.8723646878934,0.0
533296.95196600363,3675566.251970998,-22500.0,-3339.3623391772198,3002.1545413436211,-1507.248916027409,-1720.8833260037979,1191.3396265232886,-604.59261954932242,3524.7398923496489,232.95570659996497,339.08428382843738,-339.08428382843738,-232.95570659996497,6782.7856338515821,0.0
538296.95196600363,3675566.251970998,-22500.0,-3366.0247291691858,3482.7255592007696,-1886.9140108045615,-1920.2864804595142,1449.4902785850293,-719.91954615893496,4017.951550132449,619.13918185589864,121.01313112289569,-121.01313112289569,-619.13918185589864,7683.0630145144178,0.0
543296.95196600363,3675566.251970998,-22500.0,-3263.7933124178139,4026.2146751680389,-2381.264659071102,-2114.5667427150511,1763.0539182973851,-850.98002488350471,4588.4868514220934,1153.3430293357605,-217.86631466381317,217.86631466381317,-1153.3430293357605,8708.7092407159762,0.0
548296.95196600363,3675566.251970998,-22500.0,-2962.0307941958204,4622.5611372248195,-3025.9292410097228,-2280.2387625271799,2137.8116879474969,-993.20119599685631,5247.0620812942416,1881.1439101568189,-728.58027712943488,728.58027712943488,-1881.1439101568189,9870.1355327841593,0.0
553296.95196600363,3675566.251970998,-22500.0,-2360.4469309428978,5243.0050568558627,-3864.6147762991786,-2377.2433304552319,2573.0362689919202,-1135.0779506535148,6005.3230086568165,2856.1441795467917,-1480.0908552700384,1480.0908552700384,-2856.1441795467917,11175.415930674841,0.0
558296.95196600363,3675566.251970998,-22500.0,-1320.2402165442395,5824.7352158034464,-4946.1919707328689,-2339.9910051193415,3052.779450112906,-1253.0494752121901,6877.0930719628541,4134.7208320787586,-2561.796926979518,2561.796926979518,-4134.7208320787586,12631.838857969105,0.0
563296.95196600363,3675566.251970998,-22500.0,343.23332216067394,6245.1775303708446,-6313.6470710303092,-2064.6650701043686,3529.0842023017467,-1303.7557452541892,7882.9661841401348,5761.1465353120948,-4080.6660432634767,4080.6660432634767,-5761.1465353120948,14255.573610354715,0.0
568296.95196600363,3675566.251970998,-22500.0,2858.5260460635413,6280.8653925130557,-7973.6190725525939,-1392.1621145737083,3890.3437353917116,-1212.9186832367977,9064.0205175766605,7732.3589774251268,-6142.6494680153519,6142.6494680153519,-7732.3589774251268,16105.155365260316,0.0
573296.95196600363,3675566.251970998,-22500.0,6465.6259255586792,5548.2470368131235,-9822.292969829683,-87.987136102646545,3902.6761574806874,-859.39174386213483,10518.355880380632,9921.8621673552516,-8793.698658624864,8793.698658624864,-9921.8621673552516,18376.830423569889,0.0
578296.95196600363,3675566.251970998,-22500.0,11299.679802318446,3443.0345604171048,-11481.266023686565,2169.7091048375169,3104.7819132455561,-49.384908783598426,12487.578543669202,11929.943970028833,-11866.564534195533,11866.564534195533,-11929.943970028833,21629.510399514111,0.0
583296.95196600363,3675566.251970998,-22500.0,17082.564859840037,-827.88969053274423,-11982.177123186744,5742.4316329350395,640.06460148516805,1531.4866756545118,15520.888554542911,12840.69862270159,-14641.729897499235,14641.729897499235,-12840.69862270159,27144.410097245353,0.0
588296.95196600363,3675566.251970998,-22500.0,22518.018289633466,-7817.1555504068738,-9342.6903539830018,10755.767725368019,-4905.4603208701783,4387.1254313084692,20638.545432756633,11031.471735770003,-15285.606916940869,15285.606916940869,-11031.471735770003,36996.553082261984,0.0
593296.95196600363,3675566.251970998,-22500.0,24750.641678883825,-16458.931133403119,-643.09253965343896,16288.509744524559,-15222.531796741898,9150.6932045864796,28992.768552173769,4761.3972085056039,-10575.23429824199,10575.23429824199,-4761.3972085056039,52876.001160700995,0.0
598296.95196600363,3675566.251970998,-22500.0,20682.701679652637,-22039.029587187215,15625.171027244482,19243.904446752043,-30464.578256120436,15872.518802606914,40113.980314219771,-5135.3189110328112,2152.6302771428673,-2152.6302771428673,5135.3189110328112,73326.669525746795,0.0
603296.95196600363,3675566.251970998,-22500.0,11815.460363032515,-17547.322994543738,34321.956968304738,15377.370336554721,-45862.022901784134,22473.140556478706,50101.602137943017,-11932.8323355911,19375.196184588487,-19375.196184588487,11932.8323355911,91232.41263725044,0.0
608296.95196600363,3675566.251970998,-22500.0,6188.1031728112221,-2474.7928031749198,43332.223777704625,4780.2982998166881,-52288.146983659215,24913.838635873035,53330.205868102312,-7534.5981110518333,29534.912944669617,-29534.912944669617,7534.5981110518333,96560.169772033943,0.0
613296.95196600363,3675566.251970998,-22500.0,8681.7832029274086,12837.740724466814,35968.043346592036,-5756.0313597679096,-45330.803463358985,21412.241824385939,47560.998656215073,5794.3017546572883,24946.416640258158,-24946.416640258158,-5794.3017546572883,85543.565762235827,0.0
618296.95196600363,3675566.251970998,-22500.0,14589.747216346506,19056.272111397564,18715.109827610628,-10394.241301180453,-30290.882175466657,14587.658228291677,36220.528016030097,17485.461922890732,10945.774069925483,-10945.774069925483,-17485.461922890732,64677.547455109212,0.0
623296.95196600363,3675566.251970998,-22500.0,17839.276729771038,16293.774143580617,1701.5569094019233,-9337.5049047690336,-14990.295909982269,7847.3425587393249,24824.148475515998,21531.02621316049,-2963.8913523767224,2963.8913523767224,-21531.02621316049,43945.111796826524,0.0
628296.95196600363,3675566.251970998,-22500.0,16832.677546155126,9225.3589172987904,-9818.5230908707763,-5505.8565538387347,-3559.4126938163386,2732.1993980650877,17364.619033122945,18833.053959859153,-11871.431440134749,11871.431440134749,-18833.053959859153,30291.726164169489,0.0
633296.95196600363,3675566.251970998,-22500.0,12802.821388426506,1853.9033025900535,-15257.517560750686,-1264.9426596263359,3338.9392225420474,-608.10922820856194,14569.789107097506,12672.669240091944,-15322.669775330853,15322.669775330853,-12672.669240091944,25287.884070799821,0.0
638296.95196600363,3675566.251970998,-22500.0,7572.8166581741934,-3750.3931245274412,-16212.206969977597,2176.6032948273,6628.5391938763569,-2508.8564280931782,13934.88133671276,5916.9376625762761,-14879.197599915968,14879.197599915968,-5916.9376625762761,24815.245226490653,0.0
643296.95196600363,3675566.251970998,-22500.0,2564.6696183046088,-7097.3016230987741,-14686.018352805651,4458.9439247201572,7586.8203092579961,-3386.2269617426487,13491.887255507838,230.72910628083264,-12439.13356327817,12439.13356327817,-230.72910628083264,24774.65411476637,0.0
648296.95196600363,3675566.251970998,-22500.0,-1471.1203548218557,-8556.1489023113736,-12210.42657292996,5682.5146364922839,7277.702957179964,-3604.4045958760225,12727.144383397701,-3814.9718664184975,-9421.4670560188606,9421.4670560188606,3814.9718664184975,23924.13964766002,0.0
653296.95196600363,3675566.251970998,-22500.0,-4336.3420916853611,-8746.2683923155819,-9666.1085150778563,6115.0793719863359,6407.0172038607789,-3440.3965224480771,11686.472448139453,-6306.4359187083965,-6608.1396439665341,6608.1396439665341,6306.4359187083965,22334.013009378847,0.0
658296.95196600363,3675566.251970998,-22500.0,-6143.0926419347643,-8216.2714562082383,-7442.2229662602313,6030.5742263432703,5377.0022183527262,-3086.0406847922241,10515.357401078805,-7588.1849343053746,-4307.5664753835972,4307.5664753835972,7588.1849343053746,20331.40674331065,0.0
663296.95196600363,3675566.251970998,-22500.0,-7119.0194869901725,-7350.8514634782396,-5647.207789528492,5647.3983000991429,4387.8688658450001,-2663.214435209848,9331.9224355837814,-8032.1123407420337,-2564.9776115449085,2564.9776115449085,8032.1123407420337,18193.594374978275,0.0
668296.95196600363,3675566.251970998,-22500.0,-7498.9187161239324,-6384.7531495557887,-4259.6977823571278,5118.6378612232893,3522.5280159192653,-2242.1433390210086,8209.3440416442718,-7944.8666771974958,-1311.3747175103354,1311.3747175103354,7944.8666771974958,16100.297284571749,0.0
673296.95196600363,3675566.251970998,-22500.0,-7480.145144982097,-5445.7379819105317,-3212.4797019869252,4542.3054015403541,2802.4293367299097,-1858.2572310783223,7185.2084182601548,-7549.391575522317,-444.95061847942543,444.95061847942543,7549.391575522317,14151.073719786204,0.0
678296.95196600363,3675566.251970998,-22500.0,-7212.3400963127906,-4594.2973694357652,-2431.8683518409716,3976.0790910150768,2220.2182239151261,-1525.5393721930373,6273.7211061063181,-6995.8373707718038,132.16696320089659,-132.16696320089659,6995.8373707718038,12391.345732134816,0.0
683296.95196600363,3675566.251970998,-22500.0,-6801.8900795356185,-3852.1394738640938,-1853.0448220263406,3450.5301949335931,1757.3275132175897,-1245.9523366247677,5475.177080380231,-6379.6965369409536,501.02592585706407,-501.02592585706407,6379.6965369409536,10833.468920836864,0.0
688296.95196600363,3675566.251970998,-22500.0,-6320.9078815216562,-3220.3548970392671,-1424.0870425847277,2979.1781424625951,1392.7305397870903,-1015.4869344071728,4782.30116074749,-5758.50441995447,723.92210161257753,-723.92210161257753,5758.50441995447,9471.2358841477107,0.0
693296.95196600363,3675566.251970998,-22500.0,-5816.2627498706461,-2690.1837847667057,-1105.3571110300707,2565.4679713195269,1106.8517510285826,-827.72793486474939,4184.2985273751356,-5164.733625347204,846.70980863978184,-846.70980863978184,5164.733625347204,8289.0953226725178,0.0
698296.95196600363,3675566.251970998,-22500.0,-5317.0855698777559,-2249.0360924358906,-867.38379574013163,2207.3199683365528,882.9854829632884,-675.78347991186388,3669.4019392438677,-4614.9402648303058,902.22433230901083,-902.22433230901083,4614.9402648303058,7267.6946329298171,0.0
703296.95196600363,3675566.251970998,-22500.0,-4840.4615284350702,-1883.6517443987993,-688.5678325785999,1899.9461368206744,707.52159122763999,-553.22045637409599,3226.3051835402885,-4115.9283541855539,913.53759346136485,-913.53759346136485,4115.9283541855539,6387.0232619821854,0.0
708296.95196600363,3675566.251970998,-22500.0,-4395.5266845843034,-1581.6228092596425,-553.19319387132407,1637.5121479551892,569.66439630301534,-454.43969141740973,2844.7841549455698,-3668.765549433002,896.63111629871105,-896.63111629871105,3668.765549433002,5628.0729923806775,0.0
513296.95196600363,3680566.251970998,-22500.0,-2134.5295971346127,1670.8908953830605,-825.03386504288073,-868.97263305687386,573.36085052421799,-252.90873937661885,1957.0353934272184,-46.082233761658159,291.56595796867771,-291.56595796867771,46.082233761658159,3797.16988040257,0.0
518296.95196600363,3680566.251970998,-22500.0,-2211.9151952701013,1908.3322725811597,-991.36027686351747,-966.95187844036673,682.09287205009105,-297.5607802914663,2193.898165857639,99.765014550979402,221.02238213533604,-221.02238213533604,-99.765014550979402,4236.0203599494371,0.0
523296.95196600363,3680566.251970998,-22500.0,-2256.0442287506726,2178.9421152035056,-1199.3815669042199,-1070.265356771893,813.2335425404458,-349.71527447514001,2464.8355895875397,297.71259042655612,112.24624656181015,-112.24624656181015,-297.71259042655612,4732.8739520242207,0.0
528296.95196600363,3680566.251970998,-22500.0,-2247.9197695655439,2484.0371539882981,-1460.5283034852848,-1174.8998432446085,970.82960249826124,-409.79826526073947,2774.8454399716488,563.08999754778779,-49.407612153556045,49.407612153556045,-563.08999754778779,5294.466528626639,0.0
533296.95196600363,3680566.251970998,-22500.0,-2160.8310862473131,2822.1672205709092,-1789.1346624620414,-1273.7016454308355,1158.873779883053,-477.49975935827479,3129.4960416807558,914.87997660944393,-283.61190939164163,283.61190939164163,-914.87997660944393,5927.5518364419349,0.0
538296.95196600363,3680566.251970998,-22500.0,-1957.7505788843473,3186.7434681309055,-2202.718474870811,-1354.6582967999934,1380.4591286354505,-551.06800228246368,3534.9795339755424,1375.8441717012445,-616.40516989050957,616.40516989050957,-1375.8441717012445,6638.6488480926082,0.0
543296.95196600363,3680566.251970998,-22500.0,-1588.251009321516,3562.1577382218998,-2721.7146073917588,-1398.4053380659891,1636.0948895240174,-626.13022348250024,3998.3040013921636,1971.8295205463694,-1081.4530999520432,1081.4530999520432,-1971.8295205463694,7434.0352574820163,0.0
548296.95196600363,3680566.251970998,-22500.0,-985.30593853073344,3917.5904087795479,-3367.8812825286341,-1374.7345355806692,1920.5327602255404,-693.79378853516198,4527.8951740228158,2729.322511737445,-1720.6244270348309,1720.6244270348309,-2729.322511737445,8320.6827530326282,0.0
553296.95196600363,3680566.251970998,-22500.0,-62.994107282968415,4197.4398754126451,-4159.8075020049164,-1237.9625846881916,2217.0190381543534,-737.72057998401783,5135.2460812186919,3669.5541094945584,-2582.498139177801,2582.498139177801,-3669.5541094945584,9309.8649939724874,0.0
558296.95196600363,3680566.251970998,-22500.0,1282.507101932121,4307.216982052948,-5102.4698503560339,-921.33517597769583,2487.2364611620851,-729.87092600848894,5839.0105810222603,4796.2116845809342,-3715.8818888289238,3715.8818888289238,-4796.2116845809342,10427.395371473986,0.0
563296.95196600363,3680566.251970998,-22500.0,3163.5683510789045,4094.4279956391711,-6165.1690542289225,-331.47474992239256,2654.319730705387,-624.77695155093306,6674.3212547378434,6071.9931525579277,-5152.5193992336344,5152.5193992336344,-6071.9931525579277,11738.624759427625,0.0
568296.95196600363,3680566.251970998,-22500.0,5673.349205111007,3327.108588508464,-7238.087278163669,654.14012917815501,2575.4628375533125,-352.64382488284099,7712.0504082171901,7377.2764400326678,-6868.1437185848181,6868.1437185848181,-7377.2764400326678,13401.687837417627,0.0
573296.95196600363,3680566.251970998,-22500.0,8821.5770435749091,1682.4893593971719,-8053.244569869883,2179.1440130041387,2000.9202115988519,187.69823571847036,9093.2149894706017,8444.6420224759931,-8703.9914567494961,8703.9914567494961,-8444.6420224759931,15759.367542541204,0.0
578296.95196600363,3680566.251970998,-22500.0,12407.952463239864,-1216.3061634579221,-8058.5011421829504,4372.0356632113017,521.92979940917269,1133.9301380509758,11075.612560646452,8775.5005596114643,-10227.598513461307,10227.598513461307,-8775.5005596114643,19438.095828149122,0.0
583296.95196600363,3680566.251970998,-22500.0,15821.108005407812,-5626.3054627362362,-6271.7909710870626,7244.5783937762253,-2465.3961485782447,2658.165636662643,14062.212168459682,7596.3057916331882,-10539.111825171596,10539.111825171596,-7596.3057916331882,25322.004330254596,0.0
588296.95196600363,3680566.251970998,-22500.0,17856.862700913363,-11232.820627387971,-1283.8561171405663,10470.492175849202,-7680.956887837091,4937.2287268592872,18533.017228274533,4043.7847496447071,-8163.0851306767036,8163.0851306767036,-4043.7847496447071,34211.206802143111,0.0
593296.95196600363,3680566.251970998,-22500.0,16943.398485396305,-16414.790198079838,8138.1493898607241,13060.731471693416,-15539.704024346674,8032.715509954066,24694.396779333474,-2073.1201933829534,-1488.2101391379515,1488.2101391379515,2073.1201933829534,46076.059233337444,0.0
598296.95196600363,3680566.251970998,-22500.0,12391.378123412431,-17947.490897466938,21354.95755233461,13298.089746504485,-25197.37109455606,11601.584862198577,31691.794701171435,-8912.6593298256539,9597.6841027526516,-9597.6841027526516,8912.6593298256539,59073.058966807504,0.0
603296.95196600363,3680566.251970998,-22500.0,6232.3752070324426,-12795.417685156273,34011.239413693103,9718.9968229512797,-33682.425452086303,14605.388189131014,37293.077664062032,-12218.070658637171,21538.477654518716,-21538.477654518716,12218.070658637171,69189.898426957167,0.0
608296.95196600363,3680566.251970998,-22500.0,2719.2333341785343,-1853.4871937903554,39481.057913020195,2991.9944816572397,-36968.946829962537,15662.474343715952,38986.083601410894,-8425.7870528565909,27933.727405861828,-27933.727405861828,8425.7870528565909,71975.089476425404,0.0
613296.95196600363,3680566.251970998,-22500.0,4162.5706920196399,9323.1188196027979,34491.565917109096,-3825.7223455538924,-33248.500600975603,14180.033640400025,35832.380206931462,980.32006101369734,24994.821808382447,-24994.821808382447,-980.32006101369734,65859.216469413455,0.0
618296.95196600363,3680566.251970998,-22500.0,8541.5325291342451,15394.362118736437,22165.887562099742,-7856.9757947558201,-24547.565400895033,10891.648395527218,29234.108650870807,10506.740469075321,15116.788556333875,-15116.788556333875,-10506.740469075321,53507.303651908835,0.0
623296.95196600363,3680566.251970998,-22500.0,12301.477926272079,15269.517579550706,8440.6553642959898,-8460.2098926579092,-14573.134693337613,7071.388169055268,21814.932311109653,15871.270091582346,3742.3103474833315,-3742.3103474833315,-15871.270091582346,39666.056788876398,0.0
628296.95196600363,3680566.251970998,-22500.0,13500.54839486232,11083.23914228405,-2449.1963236405772,-6683.2868320961979,-6062.3526739260315,3650.7552706109377,15908.056308252173,16313.452683984553,-5128.3354360399899,5128.3354360399899,-16313.452683984553,28409.170938952877,0.0
633296.95196600363,3680566.251970998,-22500.0,12130.528611179538,5540.369177751727,-9100.80670478508,-3908.8265559097676,-84.324297271144175,1035.0700957367026,12546.672966215134,13297.379831494718,-10165.754982175504,10165.754982175504,-13297.379831494718,21823.211897251258,0.0
638296.95196600363,3680566.251970998,-22500.0,9131.152631728366,515.9597742779016,-11989.963212450464,-1149.5501017958072,3442.131141786213,-724.21835113840837,11126.098748488726,8755.9507324125625,-11831.404479852292,11831.404479852292,-8755.9507324125625,19374.758828539394,0.0
643296.95196600363,3680566.251970998,-22500.0,5558.653713283079,-3153.2873647695851,-12307.217008529966,1070.2721724819121,5097.2994429135933,-1751.5949682876164,10505.849834332346,4170.6581272853118,-11264.791479467021,11264.791479467021,-4170.6581272853118,18794.643134731014,0.0
648296.95196600363,3680566.251970998,-22500.0,2183.1576374902593,-5372.3730409132368,-11216.090263171112,2597.9062237755688,5534.1372126685255,-2232.4303051824331,9994.7024741624846,348.30943558429044,-9570.2209267837716,9570.2209267837716,-348.30943558429044,18400.713418031621,0.0
653296.95196600363,3680566.251970998,-22500.0,-592.17947294376791,-6410.7763928051008,-9554.6539176579245,3491.0534610130744,5283.1370219178052,-2347.9903815671041,9372.4995642771992,-2447.8265060576059,-7529.0109832937715,7529.0109832937715,2447.8265060576059,17642.662632844836,0.0
658296.95196600363,3680566.251970998,-22500.0,-2649.2907186712237,-6631.428773268879,-7816.4895364527702,3891.347579722797,4707.2323059777327,-2245.6146137231171,8634.64025746283,-4272.1803854192322,-5583.4716995452627,5583.4716995452627,4272.1803854192322,16515.997739864932,0.0
663296.95196600363,3680566.251970998,-22500.0,-4036.1911757579337,-6354.925617581358,-6241.4289322824725,3949.9920906184307,4025.9275918181311,-2031.296429013315,7836.2633727111252,-5312.3414338783905,-3928.84223237477,3928.84223237477,5312.3414338783905,15162.149464644252,0.0
668296.95196600363,3680566.251970998,-22500.0,-4872.3705553068548,-5817.2672822337972,-4915.7244323456025,3794.5122011537105,3357.5872684319334,-1774.0454287630375,7032.5802412407938,-5779.3944335871465,-2614.1565114436353,2614.1565114436353,5779.3944335871465,13721.252267317084,0.0
673296.95196600363,3680566.251970998,-22500.0,-5291.550083775317,-5173.4463825155053,-3845.8558635913823,3519.8303413690674,2757.2313488644568,-1514.6219776891467,6262.9717862506432,-5857.8383807288756,-1616.1577401514974,1616.1577401514974,5857.8383807288756,12294.843147093654,0.0
678296.95196600363,3680566.251970998,-22500.0,-5413.9237389727059,-4516.2989416909522,-3003.4995989938984,3190.7991795979542,2243.722300894653,-1274.4171765040646,5550.6698705366034,-5690.5270490769253,-883.75725561665922,883.75725561665922,5690.5270490769253,10945.548340117992,0.0
683296.95196600363,3680566.251970998,-22500.0,-5336.4169622413428,-3896.2142422130592,-2349.5872147390487,2848.6480973208427,1817.1419424689191,-1062.6526881703269,4906.6462604550243,-5380.1617744058321,-361.1523630025049,361.1523630025049,5380.1617744058321,9706.3415080710147,0.0
688296.95196600363,3680566.251970998,-22500.0,-5132.1561932843788,-3336.7863599543562,-1845.6727018650126,2517.6887891633323,1469.0157330330569,-881.51428985383677,4333.6670332908388,-4996.7285377706712,1.9280952324670579,-1.9280952324670579,4996.7285377706712,8590.2262899108919,0.0
693296.95196600363,3680566.251970998,-22500.0,-4853.7857829078594,-2845.7793757511645,-1458.4203295821085,2210.8818068905148,1187.9086517787182,-729.49814470406807,3829.3056182429523,-4585.7992743486566,246.84168438681536,-246.84168438681536,4585.7992743486566,7597.8647047263003,0.0
698296.95196600363,3680566.251970998,-22500.0,-4537.8112217047264,-2422.247103223548,-1160.7033342751799,1933.9710971838213,962.24605603406314,-603.43851064655701,3387.9836323683385,-4175.7008511730783,405.90717739995375,-405.90717739995375,4175.7008511730783,6722.9214867323171,0.0
703296.95196600363,3680566.251970998,-22500.0,-4208.6819345258027,-2060.9071463037467,-931.22028101789772,1688.347788945395,781.57183464748607,-499.65268392162636,3002.721357029453,-3783.0428798701969,503.58146033664798,-503.58146033664798,3783.0428798701969,5955.5507634448441,0.0
708296.95196600363,3680566.251970998,-22500.0,-3882.1740456451257,-1754.7017481442879,-753.58777448232411,1472.9432587990111,636.97891901431444,-414.53859404799545,2666.5661307483761,-3416.7287684542016,557.98407666499747,-557.98407666499747,3416.7287684542016,5284.5622003690651,0.0
518296.95196600363,3685566.251970998,-22500.0,-1559.7454403544887,1809.2819700115094,-1134.0311461888025,-749.96797463522091,664.7441976888847,-243.20995038992268,1976.9530893283475,474.48489308025188,-113.70365880752632,113.70365880752632,-474.48489308025188,3766.6357077348953,0.0
523296.95196600363,3685566.251970998,-22500.0,-1491.3592343833916,2026.833320071898,-1357.2835185505585,-803.00529422566069,780.62301484731961,-279.54675457602309,2205.685366899479,711.21965045973138,-277.24045360745134,277.24045360745134,-711.21965045973138,4172.6155420503246,0.0
528296.95196600363,3685566.251970998,-22500.0,-1353.0689321952566,2258.4830146800855,-1630.7780896879553,-845.14741814492322,915.36568747862407,-318.87622247946729,2464.9256171786669,1012.3163514061048,-499.67939695095544,499.67939695095544,-1012.3163514061048,4625.2160821426423,0.0
533296.95196600363,3685566.251970998,-22500.0,-1118.0164286125737,2495.6503782411214,-1964.8829936410702,-866.69545685769037,1069.5463759237653,-359.39215809897746,2758.9769080713663,1391.2484159977255,-798.60091713915676,798.60091713915676,-1391.2484159977255,5128.8625561332783,0.0
538296.95196600363,3685566.251970998,-22500.0,-751.41479605967459,2722.5778723101712,-2370.386679490613,-853.08998156295513,1241.4272614525703,-397.52217635840327,3093.0906968769677,1861.805803117232,-1195.3381866849179,1195.3381866849179,-1861.805803117232,5688.8711925486668,0.0
543296.95196600363,3685566.251970998,-22500.0,-209.49510032867596,2912.3771169294196,-2856.6179128848303,-782.99887893203061,1424.8355733015342,-426.82718679614965,3474.2034671564566,2435.7196472244655,-1714.3779722349741,1714.3779722349741,-2435.7196472244655,6313.0610702162803,0.0
548296.95196600363,3685566.251970998,-22500.0,560.41199082248977,3021.4308920182198,-3427.4885537817345,-626.00083318319116,1605.6042178941586,-436.3729094736255,3912.4785156808985,3118.0233707312136,-2381.031113727764,2381.031113727764,-3118.0233707312136,7015.5906090001936,0.0
553296.95196600363,3685566.251970998,-22500.0,1617.1175745502132,2981.968627524504,-4073.8034604406348,-340.16240283241029,1755.8005875435356,-408.4471208775949,4424.3806356643918,3898.6917760171732,-3215.6565247693629,3215.6565247693629,-3898.6917760171732,7825.2293899986016,0.0
558296.95196600363,3685566.251970998,-22500.0,3017.3660350115947,2693.3625742322929,-4759.1798243081748,129.64128472565108,1824.7538700343259,-315.61069978284416,5038.411485899087,4738.5856137372812,-4221.4927239702465,4221.4927239702465,-4738.5856137372812,8801.5089334821951,0.0
563296.95196600363,3685566.251970998,-22500.0,4797.6172121561322,2014.6491985624766,-5395.7551570429523,850.73915691822344,1725.9133471775567,-117.38252776008061,5804.7490532884804,5547.6413952783541,-5361.4821716499473,5361.4821716499473,-5547.6413952783541,10062.091051172683,0.0
568296.95196600363,3685566.251970998,-22500.0,6939.3057119161167,765.2990259033877,-5805.4474985757952,1895.1665973748486,1319.437566203607,242.5076301117758,6808.8001517869725,6154.9132260137039,-6518.0198592377646,6518.0198592377646,-6154.9132260137039,11818.69551420969,0.0
573296.95196600363,3685566.251970998,-22500.0,9311.0107975733008,-1249.7564327358302,-5665.9424385597185,3318.7776564767519,393.5518091357763,836.30174612422525,8184.2524058142635,6276.7410942881161,-7431.0712563968536,7431.0712563968536,-6276.7410942881161,14401.308221579939,0.0
578296.95196600363,3685566.251970998,-22500.0,11589.358531864369,-4160.6842630952342,-4455.7160887384898,5116.4193149765288,-1343.9099584259627,1746.2718428263331,10113.350765405827,5507.319347720435,-7622.5162761992633,7622.5162761992633,-5507.319347720435,18228.634537082664,0.0
583296.95196600363,3685566.251970998,-22500.0,13192.20289190933,-7858.214883542234,-1453.7953600583326,7142.3450146758705,-4234.2843835189697,3046.7328435666855,12796.506130553778,3392.0652609317581,-6354.5367135816814,6354.5367135816814,-3392.0652609317581,23683.890808318414,0.0
588296.95196600363,3685566.251970998,-22500.0,13329.746172291005,-11715.717383645049,4074.7120613747902,9002.8398851234324,-8540.4633235871315,4764.4743307226872,16370.974473690596,-315.09759228128542,-2753.0286554533714,2753.0286554533714,315.09759228128542,30878.692909960588,0.0
593296.95196600363,3685566.251970998,-22500.0,11355.952867423406,-14358.050013168127,12331.58344257701,9993.3060968860336,-14162.021256395792,6807.2929695862567,20713.265945387735,-5155.9791849706335,3697.0869969464497,-3697.0869969464497,5155.9791849706335,39317.016831616063,0.0
598296.95196600363,3685566.251970998,-22500.0,7476.893043687146,-13920.087248572037,22127.375777631267,9261.9960844007164,-20252.484010136937,8874.7929126507515,25124.966984810293,-9502.2108232709943,12254.529139751725,-12254.529139751725,9502.2108232709943,47594.751681836737,0.0
603296.95196600363,3685566.251970998,-22500.0,3280.6343354196415,-9228.1928888393413,30471.132365930607,6356.4487122175442,-25112.34262980667,10442.71008906572,28374.758095595498,-10911.213414300291,20313.240209613963,-20313.240209613963,10911.213414300291,53520.643823843755,0.0
608296.95196600363,3685566.251970998,-22500.0,1050.6444437075813,-1279.2349581777648,33787.740538121107,1852.407588076662,-26870.149466277024,10957.641341919594,29282.070678463046,-7806.5447061233117,24367.581688369952,-24367.581688369952,7806.5447061233117,55015.980438816041,0.0
613296.95196600363,3685566.251970998,-22500.0,1943.5394914890685,6830.1265004110955,30428.199128207369,-2726.270802847283,-24722.0550757579,10184.988485518588,27428.48162155434,-1137.1175368748409,22478.818676805004,-22478.818676805004,1137.1175368748409,51384.161077565754,0.0
618296.95196600363,3685566.251970998,-22500.0,5027.0213120815451,12021.121501797517,21922.279482260208,-5876.8961655096464,-19511.034897190402,8371.7836901991723,23440.397492883538,6136.5183569218907,15750.342589483011,-15750.342589483011,-6136.5183569218907,43809.859854700408,0.0
623296.95196600363,3685566.251970998,-22500.0,8296.9721837814104,13157.118549456321,11605.331209598478,-6988.4170147589339,-13031.510034185952,6053.2002731062657,18616.086144643723,11258.309744852633,7185.3218184966554,-7185.3218184966554,-11258.309744852633,34622.347391338466,0.0
628296.95196600363,3685566.251970998,-22500.0,10218.681993054159,11039.948294320651,2419.3179440376457,-6361.0237992958255,-6927.673101162226,3746.9816994666735,14286.828540689577,13134.189651603239,-449.08457380050368,449.08457380050368,-13134.189651603239,26138.956516900947,0.0
633296.95196600363,3685566.251970998,-22500.0,10317.608709689928,7263.1511291561701,-4148.3582538641776,-4710.358326161172,-2129.2764754895056,1789.0469684210461,11239.311227519041,12183.879243965423,-5725.6922370879565,5725.6922370879565,-12183.879243965423,19926.129773592791,0.0
638296.95196600363,3685566.251970998,-22500.0,8915.9447516976561,3245.7406730952639,-7921.3959092975583,-2728.9675152773398,1121.6163059138942,320.42939647796572,9485.0494193691302,9505.9049265602953,-8468.4804659185029,8468.4804659185029,-9505.9049265602953,16443.042985588738,0.0
643296.95196600363,3685566.251970998,-22500.0,6653.2121011202626,-149.71250095164362,-9447.6315932839589,-889.635839901287,3005.1375321978721,-659.28120736366202,8577.3606354182775,6193.2479480357651,-9201.343651894922,9201.343651894922,-6193.2479480357651,14983.543183305779,0.0
648296.95196600363,3685566.251970998,-22500.0,4137.9921102241506,-2591.9207043027791,-9480.9326042139273,572.81781713631881,3867.8440681335001,-1228.2425252635337,8034.9129770375384,3015.2745494552491,-8647.2157795591193,8647.2157795591193,-3015.2745494552491,14394.735558987421,0.0
653296.95196600363,3685566.251970998,-22500.0,1793.1799626298705,-4097.3715252564725,-8686.0876220902301,1599.6087070134886,4060.1905718794123,-1491.5639896720381,7568.4446474532842,375.53503833297509,-7439.0061863034507,7439.0061863034507,-375.53503833297509,13916.893613713857,0.0
658296.95196600363,3685566.251970998,-22500.0,-159.84187440940451,-4845.7326695138781,-7536.2296281415893,2232.1654282725035,3863.4896622784859,-1549.7199553841097,7069.9648428694063,-1599.4082242735763,-6018.7173462831688,6018.7173462831688,1599.4082242735763,13276.343534272033,0.0
663296.95196600363,3685566.251970998,-22500.0,-1652.4329060140587,-5055.1798907614393,-6319.8541003978216,2553.0149838912794,3474.4635935523697,-1483.9113574504827,6526.5477471895128,-2945.5906583926867,-4645.4110348270269,4645.4110348270269,2945.5906583926867,12451.251369326226,0.0
668296.95196600363,3685566.251970998,-22500.0,-2707.8732208543133,-4919.3994398399491,-5188.2286754246043,2649.9242766743882,3016.9960871611488,-1352.7774783166278,5959.0456436231971,-3771.3231108780537,-3443.6532940579764,3443.6532940579764,3771.3231108780537,11503.222657202772,0.0
673296.95196600363,3685566.251970998,-22500.0,-3392.7387067998084,-4586.3066922683065,-4205.1222511613978,2598.7694651113839,2561.7345864157501,-1195.0087679850951,5393.3362421183401,-4201.5140794688159,-2454.1123638289732,2454.1123638289732,4201.5140794688159,10503.631336023418,0.0
678296.95196600363,3685566.251970998,-22500.0,-3785.7827787568049,-4158.3897338204088,-3384.8569204180399,2458.1240428574638,2144.2967477112134,-1034.0348920260262,4850.0984929201913,-4349.8511042555383,-1672.041332349701,1672.041332349701,4349.8511042555383,9509.3308747029077,0.0
683296.95196600363,3685566.251970998,-22500.0,-3961.2995719472601,-3701.3826099149596,-2717.1696417981593,2269.8535911649219,1779.07941611566,-882.68963295106926,4342.797212070177,-4308.5135746459919,-1072.1004970953118,1072.1004970953118,4308.5135746459919,8558.5211356094824,0.0
688296.95196600363,3685566.251970998,-22500.0,-3982.0635862591071,-3254.3596708334167,-2181.7920431118523,2062.0922471919716,1468.6160248219685,-746.98998225593118,3878.6833234699893,-4147.132359748096,-622.55409394089452,622.55409394089452,4147.132359748096,7673.4875315876006,0.0
693296.95196600363,3685566.251970998,-22500.0,-3897.6991250335304,-2838.4112373100265,-1756.2167520541752,1852.6729667605764,1209.4389370163381,-628.86555208613504,3460.542503586707,-3915.7457245624601,-292.47641054354631,292.47641054354631,3915.7457245624601,6864.854277653154,0.0
698296.95196600363,3685566.251970998,-22500.0,-3745.6758923297884,-2463.1663199761615,-1419.3856449954776,1652.1562887413272,995.51729284728049,-527.97791429793665,3088.1850180680844,-3648.8962881591924,-54.841277010425756,54.841277010425756,3648.8962881591924,6135.4296814046656,0.0
703296.95196600363,3685566.251970998,-22500.0,-3553.3204748655016,-2131.3426683716739,-1153.1334387741156,1466.2112237468489,820.14989079777138,-442.86371104564046,2759.0935001184075,-3369.5673562099892,112.5958195721978,-112.5958195721978,3369.5673562099892,5483.182413989728,0.0
708296.95196600363,3685566.251970998,-22500.0,-3339.9826947671368,-1841.7458253862239,-942.48024418978639,1297.3515612985398,676.91991456824508,-371.61106429499455,2468.8440986534542,-3092.4518120478151,227.48335840334198,-227.48335840334198,3092.4518120478151,4903.3333425177461,0.0
518296.95196600363,3690566.251970998,-22500.0,-969.76375991127998,1642.1540993472179,-1228.8845799295418,-549.61388900325176,623.89632333203838,-192.23934039932053,1770.9671395668768,754.58206355061782,-399.77888292927548,399.77888292927548,-754.58206355061782,3322.2186853424719,0.0
523296.95196600363,3690566.251970998,-22500.0,-814.96117854092745,1797.2888998322055,-1451.1724475742992,-560.80350774511851,719.66029315302058,-214.79723581461798,1963.7100514610768,1003.9492684790469,-598.41617494501179,598.41617494501179,-1003.9492684790469,3651.6803398606744,0.0
528296.95196600363,3690566.251970998,-22500.0,-582.42812741955697,1946.9127809372858,-1715.586608553054,-552.77905089182434,826.15124213491299,-236.52456066316535,2181.2131592020528,1307.7987765868399,-854.74684864216647,854.74684864216647,-1307.7987765868399,4016.3840420050151,0.0
533296.95196600363,3690566.251970998,-22500.0,-248.51410424095869,2077.2204686575278,-2027.1666712246488,-515.03099676076954,940.92387914487256,-254.7050106451473,2427.6801352685875,1672.9470639681842,-1181.922633915003,1181.922633915003,-1672.9470639681842,4421.4195071186896,0.0
538296.95196600363,3690566.251970998,-22500.0,215.17638356654874,2166.6392119578777,-2388.6400770598261,-432.88718566841482,1058.3139016888538,-264.82152216321339,2708.9537897777691,2103.5295746230167,-1593.8328590177791,1593.8328590177791,-2103.5295746230167,4875.0043093909444,0.0
543296.95196600363,3690566.251970998,-22500.0,841.02416210450042,2182.6398367676447,-2797.4379548035581,-286.36731522816928,1167.2797147668909,-259.65145630056497,3033.7352648113342,2597.7474603373976,-2103.0009513839132,2103.0009513839132,-2597.7474603373976,5391.7085732541518,0.0
548296.95196600363,3690566.251970998,-22500.0,1662.8292561756509,2077.8846804516406,-3240.4988724655605,-49.148264945158466,1248.1138059316675,-228.0400874128527,3415.684020309342,3142.5477728359374,-2716.3190178684445,2716.3190178684445,-3142.5477728359374,5998.3235892142438,0.0
553296.95196600363,3690566.251970998,-22500.0,2710.0075661383607,1786.2946008269437,-3685.6420164360511,311.83614062289206,1267.6487294170383,-153.36233599271051,3876.7816018422081,3705.4517556488922,-3427.1802496880205,3427.1802496880205,-3705.4517556488922,6743.5288019254185,0.0
558296.95196600363,3690566.251970998,-22500.0,3996.4809606130411,1220.6709482374899,-4068.0196583915076,835.12047829255368,1172.7125549437501,-11.840370623873818,4452.1056014025717,4222.980708931861,-4202.0398579776947,4202.0398579776947,-4222.980708931861,7711.4107537088312,0.0
563296.95196600363,3690566.251970998,-22500.0,5501.7775119840899,275.54790004095662,-4270.4648735166065,1559.911827958086,882.14592315818379,228.79486357517308,5195.2598387605794,4586.2854129388897,-4959.2994648042741,4959.2994648042741,-4586.2854129388897,9035.181330471567,0.0
568296.95196600363,3690566.251970998,-22500.0,7142.6248315907278,-1157.6498688016597,-4098.6150549581344,2514.8892366907539,279.16266812587276,609.26926271150671,6181.8162988161021,4627.7741472634671,-5539.8160729332203,5539.8160729332203,-4627.7741472634671,10901.167397254063,0.0
573296.95196600363,3690566.251970998,-22500.0,8737.4462917122892,-3151.6585435238494,-3257.9410056274851,3696.901601701416,-791.00253238511732,1175.5770949911935,7505.8063781378632,4119.4365763265196,-5673.8401058013842,5673.8401058013842,-4119.4365763265196,13529.256688991223,0.0
578296.95196600363,3690566.251970998,-22500.0,9977.4696173329066,-5666.9648687528761,-1353.810737660488,5036.7798831737355,-2507.6120809375475,1970.086145154984,9263.5555952087325,2805.2281143620039,-4963.0432329698269,4963.0432329698269,-2805.2281143620039,17120.0899475394,0.0
583296.95196600363,3690566.251970998,-22500.0,10439.882176613817,-8434.5567879220816,2041.3679694955786,6355.6517733137753,-5027.3749958226081,3014.1200570287933,11521.859599804437,501.8407090123028,-2921.5714400619986,2921.5714400619986,-501.8407090123028,21765.644634299482,0.0
588296.95196600363,3690566.251970998,-22500.0,9702.6769403124745,-10836.79241276325,7192.2024371515645,7332.1361006125371,-8384.307368777685,4280.6441798988699,14267.749984598318,-2706.6309335089209,854.19570035617608,-854.19570035617608,2706.6309335089209,27323.391909384241,0.0
593296.95196600363,3690566.251970998,-22500.0,7605.9813054360829,-11910.224913312846,13852.812724972846,7529.2941480967747,-12340.020299050391,5661.5044189854352,17310.333470302194,-6228.7291592298543,6341.9164099373293,-6341.9164099373293,6228.7291592298543,33277.773347395225,0.0
598296.95196600363,3690566.251970998,-22500.0,4576.200363400184,-10656.428988519403,20915.592925896341,6544.190951575416,-16259.140736303621,6947.4281418253649,20161.353427183123,-8888.86476214498,12692.187260776163,-12692.187260776163,8888.86476214498,38679.33250981255,0.0
603296.95196600363,3690566.251970998,-22500.0,1704.2970952300072,-6693.7362164236165,26452.153932429977,4275.6725443032255,-19173.030421832296,7855.3425981669861,22130.739097789898,-9317.8230896588411,18161.431246969674,-18161.431246969674,9317.8230896588411,42310.097053788355,0.0
608296.95196600363,3690566.251970998,-22500.0,259.51684495879238,-828.52949086510182,28486.489057142746,1136.7099639839473,-20150.454619816624,8126.4561906741064,22628.089376585111,-6808.4179563543667,20781.836579690331,-20781.836579690331,6808.4179563543667,43135.240729180478,0.0
613296.95196600363,3690566.251970998,-22500.0,851.6896596660157,5127.1395177711474,26152.646798143705,-2042.3312267412546,-18806.163488151564,7654.0785430405131,21455.957351516474,-1980.1350964288486,19514.243512200439,-19514.243512200439,1980.1350964288486,40825.180488501443,0.0
618296.95196600363,3690566.251970998,-22500.0,3012.5270225147174,9344.0328426148899,20243.46342087091,-4426.4288933896651,-15530.52614652872,6542.9781888866146,18923.95265332692,3487.7653139349331,14900.075448013084,-14900.075448013084,-3487.7653139349331,35956.093639290339,0.0
623296.95196600363,3690566.251970998,-22500.0,5599.2829892507661,10924.868882535447,12650.96826780371,-5571.5990017716795,-11239.82080344825,5051.1285226570935,15714.048930693849,7861.4995206165004,8617.410527842716,-8617.410527842716,-7861.4995206165004,29733.470921870947,0.0
628296.95196600363,3690566.251970998,-22500.0,7544.9621643292876,10084.069645070736,5302.5665669684613,-5516.0149165206731,-6901.2695863544977,3470.6272892604593,12593.130197467844,10180.570893505004,2465.949312937877,-2465.949312937877,-10180.570893505004,23488.70965616481,0.0
633296.95196600363,3690566.251970998,-22500.0,8311.3024660140163,7689.8797101444788,-558.13982760121644,-4608.1863298763883,-3193.1079118798903,2032.4013680264845,10088.944014348885,10401.023008548724,-2364.0683523488833,2364.0683523488833,-10401.023008548724,18278.346825545959,0.0
638296.95196600363,3690566.251970998,-22500.0,7899.604032713275,4706.527398937752,-4498.2535125832719,-3277.3849475101579,-418.33992394213504,868.32912660983095,8358.7650094840683,9062.5769258231339,-5449.5981788171994,5449.5981788171994,-9062.5769258231339,14668.87642255613,0.0
643296.95196600363,3690566.251970998,-22500.0,6631.6822898326463,1858.7355286892048,-6663.6994128978631,-1879.6694263330303,1413.7387802994365,18.68866950603315,7292.3776146004438,6877.8558387547537,-6927.1592175412798,6927.1592175412798,-6877.8558387547537,12630.784680070086,0.0
648296.95196600363,3690566.251970998,-22500.0,4918.017428412847,-456.98072295170755,-7473.3575961545084,-640.93566542983206,2457.0923485591734,-539.23723832223607,6649.8205114031134,4459.8316986356303,-7199.6005562202345,7199.6005562202345,-4459.8316986356303,11647.991778420053,0.0
653296.95196600363,3690566.251970998,-22500.0,3110.313911550018,-2115.0708790456511,-7390.4689003808107,334.82582186263579,2919.9692116263141,-860.12953113077606,6203.5951651538771,2215.8403552601653,-6712.1748502850878,6712.1748502850878,-2215.8403552601653,11120.865820154404,0.0
658296.95196600363,3690566.251970998,-22500.0,1444.7626610298641,-3157.7038801312688,-6803.2449421166384,1029.8275840312485,2998.849007548155,-1006.8941045452131,5814.1969210225416,353.32556803422767,-5834.4059127336423,5834.4059127336423,-353.32556803422767,10672.074246719085,0.0
663296.95196600363,3690566.251970998,-22500.0,44.781238844229222,-3703.4150621391336,-5988.6073258949273,1474.6574362081578,2849.8619969808433,-1036.641681485017,5422.952846862453,-1066.3179621113786,-4824.3842156656838,4824.3842156656838,1066.3179621113786,10152.903114873756,0.0
668296.95196600363,3690566.251970998,-22500.0,-1050.4239810139341,-3887.0641561846223,-5121.0292644048777,1719.6092318807289,2583.8732786958954,-994.73199226032727,5017.591429555544,-2068.2487944573254,-3838.3255608616951,3838.3255608616951,2068.2487944573254,9540.8491985522178,0.0
673296.95196600363,3690566.251970998,-22500.0,-1853.6060424824193,-3828.9126948709782,-4297.7160626424093,1817.1281140889728,2272.8808799041567,-913.95564690537003,4605.2521913491373,-2717.9135692990294,-2956.560170601143,2956.560170601143,2717.9135692990294,8862.2101707420316,0.0
678296.95196600363,3690566.251970998,-22500.0,-2403.5974632837319,-3623.4328659826688,-3564.4607035763406,1813.1253789236146,1959.8139909470544,-816.26392717617421,4197.9886411943717,-3091.6407475269484,-2210.0272063233601,2210.0272063233601,3091.6407475269484,8153.6856162683598,0.0
683296.95196600363,3690566.251970998,-22500.0,-2748.0725699543646,-3338.8505507849954,-2936.0813736030218,1743.9855705700979,1667.7631846274082,-715.3148811047339,3806.5951451578517,-3260.9480023491265,-1601.0497892227845,1601.0497892227845,3260.9480023491265,7447.2918302905618,0.0
688296.95196600363,3690566.251970998,-22500.0,-2933.691813820516,-3021.2951289206103,-2410.5233560441652,1636.6535002009866,1407.2326705685475,-618.92511128247406,3438.7382187185358,-3285.9368916960439,-1117.4714917556269,1117.4714917556269,3285.9368916960439,6766.2637674818079,0.0
693296.95196600363,3690566.251970998,-22500.0,-3001.3798843312634,-2700.0889542242176,-1977.7025833071477,1510.0477058813067,1181.262991926304,-531.05256080213121,3098.9534597568772,-3213.8368566146473,-741.3243185125682,741.3243185125682,3213.8368566146473,6125.3517749903394,0.0
698296.95196600363,3690566.251970998,-22500.0,-2984.747259783604,-2392.6095881388464,-1624.641475723542,1376.8332741938234,988.8069843052499,-453.253247901142,2789.3499208109065,-3080.0695115740668,-453.66675817901205,453.66675817901205,3080.0695115740668,5532.5599231578017,0.0
703296.95196600363,3690566.251970998,-22500.0,-2910.1948914482318,-2108.1672853054679,-1338.2076300895608,1245.0744134570893,826.82508130441465,-385.6790872883455,2510.4906312618732,-2910.2562324505725,-236.98577932051853,236.98577932051853,2910.2562324505725,4991.0394958309425,0.0
518296.95196600363,3695566.251970998,-22500.0,-458.1161490282559,1428.2601128043336,-1272.6432801125452,-371.48456987635132,565.72272365730487,-146.07224465808605,1582.0236133002236,943.28669517052276,-627.0507180678735,627.0507180678735,-943.28669517052276,2917.0025502842586,0.0
523296.95196600363,3695566.251970998,-22500.0,-243.73638354775102,1519.0455225831192,-1479.4650820371028,-350.06362197628124,639.07051622156303,-157.21717310865756,1745.9750061067684,1183.952242214797,-841.31780463564212,841.31780463564212,-1183.952242214797,3186.971941012257,0.0
528296.95196600363,3695566.251970998,-22500.0,47.917432351265262,1587.8508322727409,-1716.7841502567985,-304.74600863088966,715.48325900359566,-164.82647952685915,1931.5813344323383,1465.3202172835952,-1106.3618285182149,1106.3618285182149,-1465.3202172835952,3487.4306010929236,0.0
533296.95196600363,3695566.251970998,-22500.0,435.30353955355883,1618.0415167097997,-1984.0591519874888,-225.52849364963149,790.24469042731744,-165.77917400574827,2143.7122074826061,1787.8330907302429,-1429.7929637664206,1429.7929637664206,-1787.8330907302429,3826.3041614623239,0.0
538296.95196600363,3695566.251970998,-22500.0,938.50483062157662,1585.877704075049,-2276.3114428919253,-99.291713306497854,855.061453428552,-155.31778727876571,2389.5464963420363,2147.258391284392,-1817.275625924053,1817.275625924053,-2147.258391284392,4216.9946545820449,0.0
543296.95196600363,3695566.251970998,-22500.0,1577.2691570961624,1458.5225002560401,-2580.7282756799341,90.629828184716743,896.17492986069317,-126.38247831036765,2679.9323028727176,2531.382134913455,-2269.5880997644099,2269.5880997644099,-2531.382134913455,4682.2522233101699,0.0
548296.95196600363,3695566.251970998,-22500.0,2367.1796072101492,1192.2822619691485,-2871.4219872248159,364.44765071531828,891.74704075507464,-68.796037518989777,3031.3126447820327,2915.2698299169256,-2777.6722832481787,2777.6722832481787,-2915.2698299169256,5259.7085196318794,0.0
553296.95196600363,3695566.251970998,-22500.0,3313.0031883097431,732.04968202765997,-3101.7698577480669,744.94998404248804,808.47875981208347,31.614509087688408,3468.0986424389353,3255.0110248760939,-3314.8250697984113,3314.8250697984113,-3255.0110248760939,6008.4038317751729,0.0
558296.95196600363,3695566.251970998,-22500.0,4398.2250225165371,13.844394045488496,-3194.0610116422631,1254.6816162595042,597.71452896376093,193.72803412078878,4024.8816131685435,3480.5154138319936,-3825.2903997474918,3825.2903997474918,-3480.5154138319936,7013.836270895782,0.0
563296.95196600363,3695566.251970998,-22500.0,5570.3344834123209,-1026.2807883233477,-3027.2840063948533,1910.0003405660134,191.95767574189125,441.19402430473139,4747.1310394781658,3489.4347080478192,-4209.3639768564271,4209.3639768564271,-3489.4347080478192,8387.0934546866411,0.0
568296.95196600363,3695566.251970998,-22500.0,6723.365458775048,-2432.1715340240139,-2426.5900324865802,2710.5227120394657,-496.00430427631125,801.03297531411044,5688.3255325821083,3147.1133804366586,-4307.5936917901527,4307.5936917901527,-3147.1133804366586,10253.383097708887,0.0
573296.95196600363,3695566.251970998,-22500.0,7683.6450996289013,-4191.0901598672317,-1163.2552802322869,3622.9930474285766,-1567.1480655801683,1299.604791168168,6901.4015945769297,2301.7491661562481,-3891.9952774736275,3891.9952774736275,-2301.7491661562481,12727.389896957628,0.0
578296.95196600363,3695566.251970998,-22500.0,8212.3840017871353,-6179.3407012673269,1018.0704009403794,4560.9389917867866,-3116.8669653970287,1954.6806459536358,8423.4460352531332,828.05307100338575,-2681.0507588793716,2681.0507588793716,-828.05307100338575,15874.53766638171,0.0
583296.95196600363,3695566.251970998,-22500.0,8047.365615586622,-8101.9517149847061,4321.2736283211079,5367.025631092004,-5194.93254344053,2763.0137638788092,10254.808326484866,-1289.2463144060698,-404.59472195640512,404.59472195640512,1289.2463144060698,19657.565577674945,0.0
588296.95196600363,3695566.251970998,-22500.0,7005.2537014947366,-9465.3917531950592,8753.6411247662727,5813.977616915271,-7743.0906668399793,3684.9167986610637,12332.944704455698,-3840.6687536959821,3058.0202152005891,-3058.0202152005891,3840.6687536959821,23873.437552040115,0.0
593296.95196600363,3695566.251970998,-22500.0,5135.7257211727701,-9651.9024131754413,13940.834780487325,5647.2343065076147,-10527.012196071881,4631.43125335882,14484.490658559367,-6302.9180304087458,7481.9457564125241,-7481.9457564125241,6302.9180304087458,28103.914497640992,0.0
598296.95196600363,3695566.251970998,-22500.0,2847.3041444202868,-8152.1404227685198,19014.617675677702,4683.3611349201519,-13109.345675629273,5464.6691581269133,16381.926106989133,-7888.432699115775,12146.655385468774,-12146.655385468774,7888.432699115775,31727.834668282747,0.0
603296.95196600363,3695566.251970998,-22500.0,860.36523953607332,-4902.4156072612777,22747.9513726404,2936.7945533933071,-14926.341000869203,6022.9426525130448,17625.479922530634,-7827.8690987611963,15914.40681774565,-15914.40681774565,7827.8690987611963,34045.33102514725,0.0
608296.95196600363,3695566.251970998,-22500.0,-93.903873674026087,-501.3898540110481,24010.768444286852,690.98017428795799,-15484.920218437335,6171.4403928464226,17901.606327960053,-5804.2350721163857,17643.066667470313,-17643.066667470313,5804.2350721163857,34507.977258970102,0.0
613296.95196600363,3695566.251970998,-22500.0,320.2698456401198,3942.016524960819,22329.700403609339,-1570.8610439991478,-14588.886099033083,5857.0851721928193,17112.808460893295,-2232.8021665305296,16750.886355205446,-16750.886355205446,2232.8021665305296,32950.527976709185,0.0
618296.95196600363,3695566.251970998,-22500.0,1848.5368293723802,7302.9932313758991,18143.395613576282,-3360.1742750386256,-12438.221693322133,5133.4098509398818,15427.964666553831,1885.8818587912037,13523.549961078752,-13523.549961078752,-1885.8818587912037,29678.069211450282,0.0
623296.95196600363,3695566.251970998,-22500.0,3821.5641910732475,8930.1536071138635,12556.683234840877,-4375.7316096895447,-9528.6821625105986,4138.5656658943799,13229.031599696256,5453.9966031094409,8927.7640947357049,-8927.7640947357049,-5453.9966031094409,25351.629375381701,0.0
628296.95196600363,3695566.251970998,-22500.0,5529.6033805708312,8808.4557602385212,6812.4854505550802,-4576.2316844067154,-6434.8877498407164,3042.7436989895814,10968.756710956593,7737.3790170602597,4114.6855021759393,-4114.6855021759393,-7737.3790170602597,20756.596883037459,0.0
633296.95196600363,3695566.251970998,-22500.0,6513.7356253695498,7387.1329499505173,1851.4755419683836,-4124.0339001192979,-3620.1348652267748,1996.5366325388475,8988.2121762959578,8533.4066149309601,-20.585006530691317,20.585006530691317,-8533.4066149309601,16587.033944894341,0.0
638296.95196600363,3695566.251970998,-22500.0,6646.5177777827485,5281.8794576134678,-1855.5469307699257,-3272.2067142611527,-1351.1137223538135,1101.1222167770629,7448.7763156254132,8062.6420622204141,-3021.8336533816264,3021.8336533816264,-8062.6420622204141,13310.991374472833,0.0
643296.95196600363,3695566.251970998,-22500.0,6052.8995179320364,3038.9227865435055,-4247.0665977392428,-2265.91003045141,291.71089801124378,402.92377935110426,6368.574804986386,6749.9576173038377,-4826.2865619832965,4826.2865619832965,-6749.9576173038377,11098.669056191284,0.0
648296.95196600363,3695566.251970998,-22500.0,4978.332033061979,1025.6577632918338,-5513.0390569819383,-1288.2835315780585,1355.7539037838094,-95.562406910201162,5659.9145801241084,5034.2522235966526,-5616.1201308310929,5616.1201308310929,-5034.2522235966526,9809.705069665175,0.0
653296.95196600363,3695566.251970998,-22500.0,3678.9356349344762,-576.02712754370725,-5942.5805132806263,-447.48864967638639,1952.0951607113202,-419.03576215245056,5187.736174147678,3260.9989156607926,-5670.2468258403778,5670.2468258403778,-3260.9989156607926,9108.5910638745499,0.0
658296.95196600363,3695566.251970998,-22500.0,2359.6700262099839,-1724.3136088613985,-5821.7046208907868,211.68320693536236,2207.0805176879167,-604.02622989243696,4832.928706558434,1650.5037269789909,-5263.3678539082402,5263.3678539082402,-1650.5037269789909,8668.2808009060718,0.0
663296.95196600363,3695566.251970998,-22500.0,1154.883182857161,-2460.7965461958538,-5383.5880097025693,687.443883904676,2234.4515817276279,-688.13060517316501,4521.10108015478,311.92536847310203,-4616.6816325366781,4616.6816325366781,-311.92536847310203,8286.1589785252199,0.0
668296.95196600363,3695566.251970998,-22500.0,134.57249986294977,-2864.0534338576317,-4795.7781692021899,1001.6881452271704,2123.9586959733342,-704.10708082890289,4217.8992892087763,-725.04233520637172,-3885.5193500683563,3885.5193500683563,725.04233520637172,7875.8429384205256,0.0
673296.95196600363,3695566.251970998,-22500.0,-678.8891712802415,-3019.5305774698695,-4166.9710990251197,1185.7569813215005,1940.1605000755285,-677.66101742778642,3913.4419629862696,-1478.3004729473566,-3166.669174018486,3166.669174018486,1478.3004729473566,7418.5189103704597,0.0
678296.95196600363,3695566.251970998,-22500.0,-1293.14016401855,-3003.7171326698322,-3560.8265399003767,1271.6827470973794,1726.0916468380865,-627.46182247393199,3609.363380419265,-1988.7650684086427,-2512.7318238023963,2512.7318238023963,1988.7650684086427,6924.719261207124,0.0
683296.95196600363,3695566.251970998,-22500.0,-1731.6555969983212,-2878.0769142999961,-3009.9685872911655,1287.7434113979468,1508.4082556898472,-566.21954062268162,3311.1492100262913,-2304.337891641585,-1946.5201836392973,1946.5201836392973,2304.337891641585,6413.4883803627945,0.0
688296.95196600363,3695566.251970998,-22500.0,-2024.0100150217188,-2688.5147703836556,-2527.3526442302941,1256.8319215885194,1302.2553267654782,-502.06815952087726,3024.4340023683558,-2470.9001529090356,-1472.6339375331531,1472.6339375331531,2470.9001529090356,5903.0958222195959,0.0
693296.95196600363,3695566.251970998,-22500.0,-2200.0033159801792,-2467.4102675010563,-2114.4452373034742,1196.4062648087051,1115.1834345219386,-439.86274018156888,2753.5806059325105,-2528.1361952218522,-1085.671607712469,1085.671607712469,2528.1361952218522,5407.7931912527092,0.0
698296.95196600363,3695566.251970998,-22500.0,-2286.5961025109305,-2236.4573793352652,-1766.6418799643307,1119.177907252682,950.01645471983932,-382.23521574135862,2501.3928276915017,-2508.2693977518579,-775.55492310166619,775.55492310166619,2508.2693977518579,4937.3331345966235,0.0
523296.95196600363,3700566.251970998,-22500.0,217.04800166887597,1218.5713312915425,-1447.3444018651862,-173.59681967673893,547.20579461592672,-107.71071232825365,1556.5228783901714,1266.5754654415841,-1005.1087583496169,1005.1087583496169,-1266.5754654415841,2789.0146538566187,0.0
528296.95196600363,3700566.251970998,-22500.0,537.07244020391181,1214.9201238119324,-1644.680004336165,-103.02836565514629,594.57245468805741,-104.63182576238839,1719.5359637418055,1508.8413615939737,-1258.1484342749498,1258.1484342749498,-1508.8413615939737,3048.3232618952743,0.0
533296.95196600363,3700566.251970998,-22500.0,940.48596404405259,1160.0310996109474,-1853.8314976857998,1.7743152813825236,632.37444868171508,-93.174088566235852,1908.9266783096687,1772.1076989285339,-1553.4584532484505,1553.4584532484505,-1772.1076989285339,3350.3741697911228,0.0
538296.95196600363,3700566.251970998,-22500.0,1439.013358074262,1031.0718900342497,-2063.6470812998778,151.49646272710081,651.01108392199581,-68.828452367586451,2133.0899607890337,2046.1209949982567,-1889.2561781031336,1889.2561781031336,-2046.1209949982567,3713.5410024241014,0.0
543296.95196600363,3700566.251970998,-22500.0,2041.0365787299352,798.8051037204682,-2254.0961013822025,358.73460274147652,635.94694860774882,-25.281210486521122,2404.139772202825,2312.3063807792792,-2256.8011967906764,2256.8011967906764,-2312.3063807792792,4166.0953869266341,0.0
548296.95196600363,3700566.251970998,-22500.0,2747.6002310971789,427.64060068123399,-2391.848742477041,637.34210253512379,565.90400555407427,46.053948585354519,2739.0957496152441,2540.3067269376979,-2635.7961584122486,2635.7961584122486,-2540.3067269376979,4749.2962791722157,0.0
553296.95196600363,3700566.251970998,-22500.0,3546.4812496033064,-122.50413379227088,-2424.6220675465279,1000.7961670711277,410.86400794915204,156.42312822164564,3160.7880103372681,2684.2263330360938,-2988.0331371999791,2988.0331371999791,-2684.2263330360938,5519.0950334322179,0.0
558296.95196600363,3700566.251970998,-22500.0,4404.2372871251637,-890.96450007160183,-2274.8521776824628,1459.0014557836093,130.35021782713881,319.82017283984891,3697.8141410605267,2679.6890256815559,-3249.4976427300962,3249.4976427300962,-2679.6890256815559,6544.5392830534965,0.0
563296.95196600363,3700566.251970998,-22500.0,5257.0564886313832,-1905.559093763844,-1834.4726311798788,2012.8774954224768,-327.00170310255805,552.40432714894121,4382.6673790624191,2444.0467022554367,-3322.2820663341299,3322.2820663341299,-2444.0467022554367,7901.2431662141425,0.0
568296.95196600363,3700566.251970998,-22500.0,6003.112990281812,-3164.0512882704875,-964.75633523668466,2646.3156127508832,-1020.7712171792469,870.712784156015,5247.1815546136913,1883.8000044307082,-3069.8844189573356,3069.8844189573356,-1883.8000044307082,9659.1605802752565,0.0
573296.95196600363,3700566.251970998,-22500.0,6502.1538947115951,-4607.0924440392109,491.73829883836856,3315.998775499213,-2010.2661009084632,1288.0533628891392,6314.7769108529092,914.89519303993779,-2322.9135373844429,2322.9135373844429,-914.89519303993779,11864.231295226949,0.0
578296.95196600363,3700566.251970998,-22500.0,6591.5000802467848,-6086.7103212155589,2677.3008636855589,3941.6183592293273,-3337.1392967650072,1808.6663064766474,7589.8452802311986,-498.82816006291,-905.94846008726472,905.94846008726472,498.82816006291,14513.37933545691,0.0
583296.95196600363,3700566.251970998,-22500.0,6128.4930722906047,-7343.9723821823436,5654.7793551155637,4402.2844129536361,-4997.577878635353,2419.9953498765562,9046.0998078457123,-2289.8435956476669,1303.3398104269593,-1303.3398104269593,2289.8435956476669,17523.985362046529,0.0
588296.95196600363,3700566.251970998,-22500.0,5061.6585676895038,-8021.7282512231795,9316.4599272739051,4548.202702153726,-6907.9656819393749,3084.9088060637009,10614.079338288844,-4230.2886526487173,4281.8648466453369,-4281.8648466453369,4230.2886526487173,20704.69360460425,0.0
593296.95196600363,3700566.251970998,-22500.0,3510.6006518968447,-7742.6369741044955,13297.742888242781,4236.2193497272683,-8877.9854035771459,3737.7102575480299,12156.316091722274,-5914.0334849135907,7762.2914247719837,-7762.2914247719837,5914.0334849135907,23743.521168255658,0.0
598296.95196600363,3700566.251970998,-22500.0,1803.5951875700262,-6259.5835903962825,16961.514818973923,3388.047225433389,-10615.258844854499,4289.0664211032908,13453.660443634002,-6828.9382317649906,11192.539438759635,-11192.539438759635,6828.9382317649906,26235.480457032223,0.0
603296.95196600363,3700566.251970998,-22500.0,412.00309184451692,-3626.0469944248857,19522.680524728868,2049.8279354930842,-11783.288428163978,4643.3473167210932,14266.202265532698,-6538.4270963998688,13830.883114487595,-13830.883114487595,6538.4270963998688,27764.11540029079,0.0
608296.95196600363,3700566.251970998,-22500.0,-229.3269416582784,-274.46865422679633,20312.777009392241,414.25807465136398,-12107.570570709757,4725.7465357529027,14418.673789640363,-4905.2328800434771,14992.412430296055,-14992.412430296055,4905.2328800434771,28022.558362899123,0.0
613296.95196600363,3700566.251970998,-22500.0,71.149813134978885,3090.685182979199,19063.858172659544,-1224.1405228429755,-11483.426109170739,4508.4133695248884,13861.465444459982,-2214.1687407658446,14338.977724374343,-14338.977724374343,2214.1687407658446,26923.900468397493,0.0
618296.95196600363,3700566.251970998,-22500.0,1166.0716680494288,5755.2437027068227,16033.753894824358,-2567.8843824502633,-10022.008990162663,4021.8592146408378,12694.865034026638,912.99440498446438,12032.007524373115,-12032.007524373115,-912.99440498446438,24641.776092480861,0.0
623296.95196600363,3700566.251970998,-22500.0,2651.5353093488561,7258.9245612236255,11889.678021301457,-3415.8996578921078,-8005.5689670529655,3345.0299421089885,11145.810849919393,3769.3029726754776,8647.9141590258278,-8647.9141590258278,-3769.3029726754776,21558.43420609094,0.0
628296.95196600363,3700566.251970998,-22500.0,4060.8121675246562,7511.5286723605859,7436.1265673765165,-3711.2894869040774,-5782.3954254123719,2579.8054280909255,9489.530752696046,5821.8558897282328,4925.500531268839,-4925.500531268839,-5821.8558897282328,18151.679816352342,0.0
633296.95196600363,3700566.251970998,-22500.0,5041.4223294194844,6734.202543446816,3353.5606644508471,-3525.3260238285343,-3661.6471350212155,1822.9907717553381,7945.1976139666458,6842.7176024933124,1507.8452706927606,-1507.8452706927606,-6842.7176024933124,14877.16750861887,0.0
638296.95196600363,3700566.251970998,-22500.0,5435.0216875613633,5305.9540771663897,59.369492458580595,-3003.0939414202221,-1851.2765373134489,1146.8255077010067,6643.9519303089355,6888.9197153851946,-1203.5271342869505,1203.5271342869505,-6888.9197153851946,12084.339117849458,0.0
643296.95196600363,3700566.251970998,-22500.0,5261.0183949092407,3613.5043790711984,-2299.6909654998426,-2305.324751246254,-446.50290871671126,591.90708229743882,5641.6458554984902,6194.7989811457974,-3065.0549056984019,3065.0549056984019,-6194.7989811457974,9968.8031246175451,0.0
648296.95196600363,3700566.251970998,-22500.0,4649.7945150186661,1958.4631817333943,-3776.2012781698272,-1568.1196774639575,547.84779405091513,170.2288041504022,4925.1092920347055,5052.8721790028621,-4126.366052882523,4126.366052882523,-5052.8721790028621,8550.0442055719031,0.0
653296.95196600363,3700566.251970998,-22500.0,3771.2412400626831,526.99103884558758,-4530.6442273935954,-885.4588257376962,1182.7725368957106,-126.54149388116709,4430.7815782181642,3728.4886391757905,-4542.3126977302236,4542.3126977302236,-3728.4886391757905,7690.0708712577634,0.0
658296.95196600363,3700566.251970998,-22500.0,2783.6184386757868,-598.44407410223369,-4756.2569193028003,-309.07144573336643,1533.5072944521219,-317.93703811668479,4078.5324123699838,2418.656640960844,-4499.2296484334238,4499.2296484334238,-2418.656640960844,7176.3458912042324,0.0
663296.95196600363,3700566.251970998,-22500.0,1807.9404447860231,-1409.2132227947734,-4632.2839808235422,142.58749436249826,1677.4980268253221,-427.31522658864844,3801.2685095805491,1245.1876497698488,-4168.689790788002,4168.689790788002,-1245.1876497698488,6821.8728065623109,0.0
668296.95196600363,3700566.251970998,-22500.0,922.2057324744444,-1939.425280125663,-4302.6958809261496,472.92881400730494,1682.3297374876629,-477.07433379639065,3556.3501377638022,266.81910070331082,-3686.5225732680656,3686.5225732680656,-266.81910070331082,6510.9351997661424,0.0
673296.95196600363,3700566.251970998,-22500.0,166.94197732183241,-2241.6453439021689,-3871.9426045396253,697.20021971299093,1601.1651953458563,-486.21716832743761,3322.5503891291664,-502.24541459411057,-3148.9080669080454,3148.9080669080454,502.24541459411057,6190.7630437013131,0.0
678296.95196600363,3700566.251970998,-22500.0,-444.94539682647104,-2371.2201596483883,-3409.5848302946019,835.24198806565573,1472.7222945032759,-469.57793489233762,3092.3473531345285,-1074.7840551801376,-2617.3846751104666,2617.3846751104666,1074.7840551801376,5846.7377811342531,0.0
683296.95196600363,3700566.251970998,-22500.0,-918.2980497397449,-2377.8832897110528,-2958.1267566364086,907.0125350724278,1323.4250278591076,-438.01997399452927,2865.276727604592,-1477.071670327158,-2127.0139477075722,2127.0139477075722,1477.071670327158,5482.3915071442825,0.0
688296.95196600363,3700566.251970998,-22500.0,-1267.7286884075963,-2302.3634729642558,-2540.8666266707805,930.25795961520532,1170.2016856194841,-399.07531426436753,2643.6966299144078,-1739.8814776378908,-1694.465451701175,1694.465451701175,1739.8814776378908,5107.6650941854023,0.0
693296.95196600363,3700566.251970998,-22500.0,-1511.997917199468,-2175.9439067798789,-2168.4127897327999,919.60957255490223,1023.1359116188585,-357.69946723194778,2430.5382349361244,-1893.2074334480569,-1324.6510573167695,1324.6510573167695,1893.2074334480569,4733.1433848421448,0.0
698296.95196600363,3700566.251970998,-22500.0,-1670.4695194934895,-2021.4798327402082,-1843.538598308982,886.50992452773721,887.64210315332173,-316.96873065221564,2228.3006909305909,-1963.6239549677173,-1015.597919316597,1015.597919316597,1963.6239549677173,4367.6920241006937,0.0
528296.95196600363,3705566.251970998,-22500.0,895.0567601003055,854.33627363625862,-1514.5499423683352,54.173729728850866,472.62553754317622,-55.810482222939143,1544.6017419373375,1465.3804377831243,-1321.8561704635099,1321.8561704635099,-1465.3804377831243,2699.5809625550123,0.0
533296.95196600363,3705566.251970998,-22500.0,1286.6656801862621,733.44215360401506,-1659.593791012881,171.58388736015266,478.77000962544406,-36.128430271511704,1719.9394194400081,1663.23372701842,-1573.2207606690715,1573.2207606690715,-1663.23372701842,2987.0942217336828,0.0
538296.95196600363,3705566.251970998,-22500.0,1750.5283290298585,535.29937429078348,-1784.3998581690971,328.93968202728189,459.93212221579432,-3.447343310027764,1931.357042256413,1850.7231924373712,-1842.3648800096751,1842.3648800096751,-1850.7231924373712,3345.2687154728028,0.0
543296.95196600363,3705566.251970998,-22500.0,2286.235123038678,236.43910585322288,-1865.0643245257033,534.87021622019483,402.2450062863939,47.525683782190917,2190.7940781954694,2006.7094850736903,-2114.1185621380919,2114.1185621380919,-2006.7094850736903,3803.015347128799,0.0
548296.95196600363,3705566.251970998,-22500.0,2884.9807752531128,-188.95655213121509,-1865.838963604838,797.67748281317245,286.70858274914519,123.6141276572824,2513.6164227955305,2100.5800411113091,-2362.0340293730428,2362.0340293730428,-2100.5800411113091,4397.6432378902891,0.0
553296.95196600363,3705566.251970998,-22500.0,3525.1079195923976,-765.92844740409828,-1735.7001920935202,1123.5770866457701,88.293038283890823,233.24391942516763,2918.4166169538598,2090.7515984341644,-2544.0247450361494,2544.0247450361494,-2090.7515984341644,5173.5102492692231,0.0
558296.95196600363,3705566.251970998,-22500.0,4167.0803575915024,-1512.7483711609057,-1405.5985198266678,1513.8298568511129,-224.30708958505065,386.2031337183754,3425.8600320679056,1924.8612607892537,-2598.0015657508757,2598.0015657508757,-1924.8612607892537,6178.2986517634372,0.0
563296.95196600363,3705566.251970998,-22500.0,4749.1600250638157,-2431.0282749812782,-788.26394052998955,1960.5638219635632,-687.4453714475826,592.8418131531788,4056.2028242423617,1543.5478624468842,-2439.201278584937,2439.201278584937,-1543.5478624468842,7456.6493491078991,0.0
568296.95196600363,3705566.251970998,-22500.0,5186.3595297626571,-3491.522884544418,216.25284479804583,2441.4571304982351,-1338.620164654063,862.41438079251657,4825.2289810414431,890.41863301727153,-1962.3662766254943,1962.3662766254943,-890.41863301727153,9040.9092560784611,0.0
573296.95196600363,3705566.251970998,-22500.0,5376.7258262473406,-4617.0905413862592,1704.9067256190579,2914.2479267863955,-2208.491016514015,1200.3132377790059,5738.6274545891574,-69.237605330350391,-1053.5314043882822,1053.5314043882822,69.237605330350391,10938.603290680863,0.0
578296.95196600363,3705566.251970998,-22500.0,5219.7394074278345,-5667.9748188683261,3741.5522284529889,3313.3357597622744,-3307.8515159263334,1604.197996752519,6785.5056716733334,-1320.4364632976544,383.25000594705205,-383.25000594705205,1320.4364632976544,13116.812579169677,0.0
583296.95196600363,3705566.251970998,-22500.0,4649.5686527435628,-6439.7014544620424,6311.7493381125041,3552.2098529104946,-4610.3437257490368,2059.5832158127223,7932.6926694487674,-2766.1175140544169,2381.7176728367936,-2381.7176728367936,2766.1175140544169,15485.656258511804,0.0
588296.95196600363,3705566.251970998,-22500.0,3678.7345840804705,-6687.6657587226391,9271.3448316339873,3536.0290742810444,-6035.2445003422999,2536.2956143262409,9118.9256676157274,-4204.4679403111395,4858.2350836185078,-4858.2350836185078,4204.4679403111395,17886.568294407349,0.0
593296.95196600363,3705566.251970998,-22500.0,2435.2830089447493,-6188.7334120177566,12312.2215045967,3186.5043547410087,-7439.2119884594404,2988.0130443388857,10239.959399838488,-5338.612843377824,7567.4020327207718,-7567.4020327207718,5338.612843377824,20094.488367355178,0.0
598296.95196600363,3705566.251970998,-22500.0,1165.5186087990235,-4832.5714615255256,14979.422188838953,2474.8660389795191,-8628.3089184122509,3357.1676932931723,11147.387552618042,-5839.0580156398128,10103.792806140929,-10103.792806140929,5839.0580156398128,21843.335358715511,0.0
603296.95196600363,3705566.251970998,-22500.0,178.80513136194548,-2706.8557498694113,16764.413236123561,1449.7948742636704,-9396.8965144353278,3586.0007206826022,11692.752539947274,-5455.4978424399451,11979.83305545562,-11979.83305545562,5455.4978424399451,22877.344234001957,0.0
608296.95196600363,3705566.251970998,-22500.0,-259.0342563969906,-121.876034171912,17259.674787331838,242.52023615663563,-9586.0490191358458,3631.457341851853,11774.028867547171,-4134.5972423148114,12772.653899303161,-12772.653899303161,4134.5972423148114,23017.009318715962,0.0
613296.95196600363,3705566.251970998,-22500.0,-35.479215399110338,2460.9593171477381,16309.05074659602,-961.319284970593,-9137.8970338118543,3478.439002614678,11365.639935823538,-2075.3556952060253,12279.350257472499,-12279.350257472499,2075.3556952060253,22214.922743725634,0.0
618296.95196600363,3705566.251970998,-22500.0,759.60803663204342,4575.263796145774,14072.022667546807,-1974.8445032459811,-8118.1220628402943,3145.3364504217466,10531.277080259717,322.1727112972776,10596.659746574816,-10596.659746574816,-322.1727112972776,20575.79023656507,0.0
623296.95196600363,3705566.251970998,-22500.0,1875.4681031098198,5897.4523994831143,10964.748952333313,-2663.6271629341049,-6694.266796554336,2679.030775430605,9412.8124427962794,2593.6799405552729,8079.7410936393071,-8079.7410936393071,-2593.6799405552729,18330.878859125944,0.0
628296.95196600363,3705566.251970998,-22500.0,3004.3330638713965,6323.9923370030347,7514.2638069019222,-2975.5579633997972,-5082.1230933622464,2141.7467893981216,8182.6237651740257,4359.4617794009037,5208.428402053888,-5208.428402053888,-4359.4617794009037,15779.67467883726,0.0
633296.95196600363,3705566.251970998,-22500.0,3887.5471448579251,5955.9568124806865,4203.8136281653206,-2938.3577422185076,-3486.9729731983598,1595.6232111968416,6982.5884604822741,5415.477143739492,2436.1236255472218,-2436.1236255472218,-5415.477143739492,13224.100853981663,0.0
638296.95196600363,3705566.251970998,-22500.0,4377.3913643034984,5021.2316026718272,1372.3291912916998,-2633.6424623690004,-2062.5244448369644,1090.6603210992403,5911.2925182067884,5743.3342575853758,86.605092945575052,-86.605092945575052,-5743.3342575853758,10916.258883961675,0.0
643296.95196600363,3705566.251970998,-22500.0,4444.3125941435901,3783.547933525203,-813.63671997506708,-2163.8629462143053,-895.81288765147065,658.86270776990148,5027.9382152156431,5461.0893923662161,-1678.9501784886952,1678.9501784886952,-5461.0893923662161,9026.1848991305287,0.0
648296.95196600363,3705566.251970998,-22500.0,4146.8921321060097,2474.1722229986181,-2333.5307302850683,-1625.2541990658708,-13.344851524479191,314.25871022917215,4349.6398335574813,4753.4191756732971,-2839.9116741926027,2839.9116741926027,-4753.4191756732971,7624.7850218020967,0.0
653296.95196600363,3705566.251970998,-22500.0,3589.3198477431788,1258.2349828835463,-3262.2881350625848,-1092.3794664456527,601.69042939115536,56.664519094596621,3855.3367950945585,3811.402476861967,-3468.4189599513579,3468.4189599513579,-3811.402476861967,6680.9621164815617,0.0
658296.95196600363,3705566.251970998,-22500.0,2884.4833843397505,230.19855448382967,-3720.162670419043,-613.5580543425383,990.31892988545303,-123.21219976750811,3500.2747237449139,2795.1270837159436,-3680.5688256954636,3680.5688256954636,-2795.1270837159436,6085.5030023888185,0.0
663296.95196600363,3705566.251970998,-22500.0,2130.3664302187458,-573.66779561627072,-3835.4166339471267,-213.49179294933197,1202.2054714712392,-239.06197740015631,3235.1105609895199,1818.7485727987726,-3599.6816244593556,3599.6816244593556,-1818.7485727987726,5703.4355545277658,0.0
668296.95196600363,3705566.251970998,-22500.0,1399.6248235560347,-1156.9059081122136,-3722.4423984739242,100.83872626190271,1285.4184439230585,-305.49178579671479,3019.9565147813073,951.17116466596053,-3334.7028890104184,3334.7028890104184,-951.17116466596053,5423.2807689377141,0.0
673296.95196600363,3705566.251970998,-22500.0,738.55835606685469,-1545.6025864194733,-3472.4644005341052,333.82717273603186,1281.0823289981265,-335.90406406535277,2829.0229612787721,224.7059583942962,-2971.1372981216582,2971.1372981216582,-224.7059583942962,5175.6251851174975,0.0
678296.95196600363,3705566.251970998,-22500.0,171.1757335165515,-1775.3146361147201,-3152.3839996266279,495.93670172102276,1221.5541370327321,-341.49390569244304,2648.6570207047257,-354.01557897011298,-2570.1401805198925,2570.1401805198925,354.01557897011298,4926.9321719010859,0.0
683296.95196600363,3705566.251970998,-22500.0,-294.94731154774126,-1882.6312465398059,-2807.8329734058239,599.91610564820076,1130.696820592035,-331.00216049439285,2473.2644139964868,-794.11874306813445,-2171.8124785355544,2171.8124785355544,794.11874306813445,4666.1887790604014,0.0
688296.95196600363,3705566.251970998,-22500.0,-662.9897088115531,-1900.5606162100621,-2467.7354401559628,658.44319324026071,1025.1517454178927,-310.89777842251533,2301.7008059409318,-1112.8595781213985,-1799.9615149268507,1799.9615149268507,1112.8595781213985,4393.8997346208325,0.0
693296.95196600363,3705566.251970998,-22500.0,-942.27881414754813,-1856.5805643257215,-2148.8520326308394,682.86908947353879,915.90780753662307,-285.75076114475479,2134.8436891784963,-1330.4320609035537,-1466.778763952628,1466.778763952628,1330.4320609035537,4115.2476563589526,0.0
528296.95196600363,3710566.251970998,-22500.0,1138.4738587182276,524.25272493384205,-1343.4473775390622,171.14950539687507,356.48337840881419,-17.546488204508798,1403.1769496184825,1361.1524234979338,-1313.6306630133172,1313.6306630133172,-1361.1524234979338,2433.2704396657114,0.0
533296.95196600363,3710566.251970998,-22500.0,1499.8201767018313,357.05097758201055,-1424.9203211569766,291.36419599887984,337.28235415498102,6.9595173503833347,1569.8197774409648,1495.1712878798023,-1513.1028979765986,1513.1028979765986,-1495.1712878798023,2719.3608707137892,0.0
538296.95196600363,3710566.251970998,-22500.0,1911.6199716193976,115.86550955631941,-1470.1276276338397,445.19680017395632,290.26314978458618,43.690316107288687,1772.7808699359907,1603.7311849553787,-1710.8869729071159,1710.8869729071159,-1603.7311849553787,3081.5814941086419,0.0
543296.95196600363,3710566.251970998,-22500.0,2367.5610496283407,-216.34368297545075,-1454.2239923604934,637.89107917858655,203.11794244594537,96.864736434930862,2022.588941992286,1666.0322932814929,-1888.438476246271,1888.438476246271,-1666.0322932814929,3545.2628956207755,0.0
548296.95196600363,3710566.251970998,-22500.0,2853.3435227217333,-655.97319385468325,-1342.8556059167363,873.44520168821089,59.951353218691686,171.64844450037464,2331.6568717872856,1654.5590037791951,-2017.4650538288536,2017.4650538288536,-1654.5590037791951,4139.6924544848534,0.0
553296.95196600363,3710566.251970998,-22500.0,3343.8107876422428,-1215.3301431012583,-1090.6393891870616,1153.0419005810293,-158.86933324105098,274.05366883755352,2713.5760764806882,1535.2172913266984,-2057.469032027981,2057.469032027981,-1535.2172913266984,4895.9564417730026,0.0
558296.95196600363,3710566.251970998,-22500.0,3800.4172540961381,-1897.1372413258912,-640.98641244572229,1472.8014357226148,-476.13492539247864,410.57245678705618,3181.7270816322543,1269.3383885702488,-1954.1690466344216,1954.1690466344216,-1269.3383885702488,5843.4903878804043,0.0
563296.95196600363,3710566.251970998,-22500.0,4170.2446451771839,-2686.7567354253138,71.208921332671608,1820.9113413639143,-915.92373267320477,587.39835085249319,3747.0752270396874,818.80319874166798,-1640.3017883205998,1640.3017883205998,-818.80319874166798,7005.1805785599772,0.0
568296.95196600363,3710566.251970998,-22500.0,4388.4624040629587,-3542.6835632350158,1111.9263657633796,2174.5160650739103,-1499.7687666412087,809.09738062178053,4415.114370571474,155.58056855384018,-1041.0361606921815,1041.0361606921815,-155.58056855384018,8390.7641956733351,0.0
573296.95196600363,3710566.251970998,-22500.0,4386.5731715969177,-4387.3829290801696,2533.2268066631159,2497.2911189445781,-2240.310385055503,1076.6716462089269,5182.172994409686,-723.73075926163233,-86.628370122462059,86.628370122462059,723.73075926163233,9988.4780851441865,0.0
578296.95196600363,3710566.251970998,-22500.0,4108.2864936970282,-5102.7735346739764,4350.2669231464151,2739.297177571862,-3132.4770948088694,1385.1666843410808,6031.8449807413581,-1779.8081076853612,1265.8284191719879,-1265.8284191719879,1779.8081076853612,11755.690379277044,0.0
583296.95196600363,3710566.251970998,-22500.0,3532.4569573852964,-5536.794281469156,6512.4670823982606,2841.1841431402313,-4143.5388624706329,1721.321119522891,6932.7461342732076,-2914.0902030251318,3002.7740545518263,-3002.7740545518263,2914.0902030251318,13610.652966298483,0.0
588296.95196600363,3710566.251970998,-22500.0,2697.7025231370435,-5527.560388887081,8877.0664795578959,2744.4615594450188,-5205.3052586419581,2062.1720379401772,7835.2591902721606,-3963.3613886707167,5023.828747321706,-5023.828747321706,3963.3613886707167,15429.167180897708,0.0
593296.95196600363,3710566.251970998,-22500.0,1717.374259930484,-4946.866246069565,11199.761295882319,2407.6484359626756,-6213.5096911296196,2375.7905106962121,8660.8533898190435,-4716.9949393718198,7125.1427676446965,-7125.1427676446965,4716.9949393718198,17050.914817883273,0.0
598296.95196600363,3710566.251970998,-22500.0,770.77186229594383,-3753.9960148488012,13158.885827146769,1824.5671760568157,-7039.3465678946095,2625.0888048678621,9307.5122724920111,-4963.4233520022481,9014.2791578883571,-9014.2791578883571,4963.4233520022481,18299.020848264787,0.0
603296.95196600363,3710566.251970998,-22500.0,62.631070685031936,-2037.9900600619678,14420.288052945369,1037.3480160107013,-7554.500162943561,2774.6675730983284,9681.1963479700935,-4558.0106081575477,10366.947474984281,-10366.947474984281,4558.0106081575477,19012.071625551293,0.0
608296.95196600363,3710566.251970998,-22500.0,-240.61199648640553,-21.918051721700827,14728.934186018894,135.92483667730247,-7664.0554816526137,2799.1495842141499,9720.6334143670301,-3486.397039248393,10915.337179216114,-10915.337179216114,3486.397039248393,19081.239980036924,0.0
613296.95196600363,3710566.251970998,-22500.0,-71.198895953668497,1984.2590148459574,13991.594199595003,-759.60701557571201,-7335.1257648642786,2690.1670892225084,9412.67963105526,-1889.7941063235703,10534.358418116894,-10534.358418116894,1889.7941063235703,18479.984934223736,0.0
618296.95196600363,3710566.251970998,-22500.0,513.79908992876233,3668.4287004402636,12311.09606553433,-1528.8237276638079,-6608.3290298992961,2459.1495695400054,8799.8527180775654,-33.126684609807853,9284.8510396637557,-9284.8510396637557,33.126684609807853,17274.396607500377,0.0
623296.95196600363,3710566.251970998,-22500.0,1354.6061095110997,4802.1419777803967,9954.6658822130739,-2081.1008712980897,-5586.5472799480231,2134.6467032077535,7974.7881503967656,1772.5956980210526,7392.2043062731136,-7392.2043062731136,-1772.5956980210526,15609.749275951084,0.0
628296.95196600363,3710566.251970998,-22500.0,2246.3969972529831,5290.9067640920866,7272.8584196621659,-2374.0903650733544,-4406.33050073919,1755.2756042193662,7048.7199605130527,3257.8247287337031,5172.8264595501059,-5172.8264595501059,-3257.8247287337031,13678.902045787469,0.0
633296.95196600363,3710566.251970998,-22500.0,3003.0883242874061,5174.2477524315063,4607.1155765167987,-2415.3111090505258,-3204.4723602602617,1361.0726583779701,6114.6110093809311,4255.2602045539561,2944.7182237187708,-2944.7182237187708,-4255.2602045539561,11684.544866782151,0.0
638296.95196600363,3710566.251970998,-22500.0,3501.1064848731867,4586.6930960541531,2220.9768655108473,-2249.8655172735116,-2091.7874945259991,986.16962205162122,5244.2202918031271,4716.9850565096276,957.91757369964489,-957.91757369964489,-4716.9850565096276,9806.6234797615871,0.0
643296.95196600363,3710566.251970998,-22500.0,3693.0129700463253,3703.995481817386,270.47836067964903,-1941.9539914262243,-1140.1168986556256,654.55327372169666,4488.9325923331553,4694.1614116714036,-637.70905246848179,637.70905246848179,-4694.1614116714036,8180.3820289082532,0.0
648296.95196600363,3710566.251970998,-22500.0,3596.3109047178236,2696.2913436673871,-1190.54356333895,-1557.6140793258805,-381.97268874430375,379.1351386237688,3875.0225017471503,4297.9114610954175,-1789.9056160402224,1789.9056160402224,-4297.9114610954175,6884.0539446488965,0.0
653296.95196600363,3710566.251970998,-22500.0,3269.8528727276985,1699.1225767494393,-2184.7658467438073,-1152.9555530209259,181.64326584430952,163.26335629310412,3402.8560543418798,3659.6383236772963,-2520.3610258271392,2520.3610258271392,-3659.6383236772963,5933.5029628910042,0.0
658296.95196600363,3710566.251970998,-22500.0,2789.3415332178156,802.88763032875192,-2780.1066600813592,-768.73764777920007,570.33239815162904,3.4379366466014583,3052.1367325587153,2901.6858613339114,-2894.6230012814453,2894.6230012814453,-2901.6858613339114,5286.4602298599475,0.0
663296.95196600363,3710566.251970998,-22500.0,2228.6682523861405,55.506662647615478,-3062.6684375887894,-429.95016657714825,814.04125176823561,-107.82878960226095,2791.8138322030454,2121.3238735514456,-2995.6348262793422,2995.6348262793422,-2121.3238735514456,4862.7228745178827,0.0
668296.95196600363,3710566.251970998,-22500.0,1649.0565211929088,-528.16055684216042,-3117.9527755880376,-148.33224793348532,945.31171405454597,-179.64273192032496,2590.5935222538092,1385.9383177917903,-2905.2435647159923,2905.2435647159923,-1385.9383177917903,4575.4565949481394,0.0
673296.95196600363,3710566.251970998,-22500.0,1094.9657242410972,-955.24037610506548,-3020.3778894388543,73.992959527524036,994.42320569016169,-221.08512436226758,2423.7438519374396,735.41584627265433,-2693.9064723038073,2693.9064723038073,-735.41584627265433,4355.7492327194777,0.0
678296.95196600363,3710566.251970998,-22500.0,594.51881771790397,-1245.0968569984173,-2829.1611105827328,240.97286504450628,986.97360350187409,-240.26316386988447,2275.0028038978139,187.91814007565836,-2416.7438233544085,2416.7438233544085,-187.91814007565836,4160.2610363265494,0.0
683296.95196600363,3710566.251970998,-22500.0,162.28069570519742,-1422.0840838629463,-2588.2274345516062,359.75659941828292,943.16017512856945,-243.89457168146535,2135.3115600611227,-253.61633032712268,-2113.6154470590836,2113.6154470590836,253.61633032712268,3966.9865329036329,0.0
688296.95196600363,3710566.251970998,-22500.0,-197.20772158791652,-1510.8563695581852,-2328.2006113560037,438.66235274364766,878.06716489803352,-237.24403928453984,2000.5423532972789,-595.71679321596378,-1811.2617230183728,1811.2617230183728,595.71679321596378,3767.725735811518,0.0
533296.95196600363,3715566.251970998,-22500.0,1607.4733745352823,39.913920869182419,-1170.9174808761929,369.70778416628139,212.51711703584559,38.114661449262279,1450.0746975879938,1295.8747267108213,-1396.8895141588735,1396.8895141588735,-1295.8747267108213,2524.3557779820107,0.0
538296.95196600363,3715566.251970998,-22500.0,1959.6824843999671,-222.11098885920592,-1146.9598549780978,512.92335127995693,146.0326854114893,75.799416699180583,1645.4538041122391,1337.8065318155054,-1526.0455806747445,1526.0455806747445,-1337.8065318155054,2889.4530173781582,0.0
543296.95196600363,3715566.251970998,-22500.0,2333.8347298242716,-561.66868584045267,-1052.2994553919061,685.79066703556225,40.888660286762523,127.66502391247836,1884.3306897334214,1326.337476200536,-1618.9898705345513,1618.9898705345513,-1326.337476200536,3350.3820878456409,0.0
548296.95196600363,3715566.251970998,-22500.0,2713.5201701962396,-987.21677366715653,-856.36677706897308,889.28401806706154,-115.538583138254,197.46295234839778,2175.8844019545918,1238.726340344193,-1648.6415986684387,1648.6415986684387,-1238.726340344193,3927.965565117644,0.0
553296.95196600363,3715566.251970998,-22500.0,3074.0259439444844,-1501.5109540455564,-521.50180996942731,1121.4812120214265,-337.87787536431392,289.29660333192544,2529.1973154581192,1049.2035319185261,-1579.2945563953199,1579.2945563953199,-1049.2035319185261,4642.1132942241375,0.0
558296.95196600363,3715566.251970998,-22500.0,3381.5725279412459,-2097.1880385518493,-4.3108948571879466,1375.9681402575679,-641.83213096142663,407.24551960346582,2952.0177041401016,731.71517863476879,-1366.8781314189757,1366.8781314189757,-731.71517863476879,5509.1203129852083,0.0
563296.95196600363,3715566.251970998,-22500.0,3594.2406463939005,-2751.3073283275112,740.43865034067528,1640.0541555729578,-1042.2654629553854,554.713318513952,3449.0519423162295,264.98462899221579,-961.53976356584019,961.53976356584019,-264.98462899221579,6538.0474061003497,0.0
568296.95196600363,3715566.251970998,-22500.0,3665.7656351817091,-3419.7247855461737,1752.2383445727348,1893.1899031648798,-1550.0016970549068,733.45075438476624,4019.8431826985152,-359.69095659336921,-313.88365016883807,313.88365016883807,359.69095659336921,7726.0963843701056,0.0
573296.95196600363,3715566.251970998,-22500.0,3553.291694789039,-4033.1793501048664,3052.8018363104238,2106.2901480280625,-2167.2378722203539,942.28274138323548,4656.5282708522491,-1128.2923893811155,613.99566365502073,-613.99566365502073,1128.2923893811155,9053.2213001430955,0.0
578296.95196600363,3715566.251970998,-22500.0,3229.357362287752,-4498.0729079329285,4630.0539871738238,2242.9440420857782,-2881.9705629128066,1175.7077496564168,5342.18428935465,-1993.4858732653602,1832.6239850970901,-1832.6239850970901,1993.4858732653602,10476.81270268072,0.0
583296.95196600363,3715566.251970998,-22500.0,2696.5098279661524,-4705.4773203391769,6421.0373127528801,2263.5260780675726,-3662.6427829719059,1422.732737702675,6050.3777954599464,-2867.5729637333579,3306.6832957318738,-3306.6832957318738,2867.5729637333579,11928.071456220974,0.0
588296.95196600363,3715566.251970998,-22500.0,2000.1787645190411,-4550.8089699581769,8299.8006597261337,2132.6954434305449,-4455.1513749886781,1666.4868742992121,6742.0335321062321,-3624.6947948099514,4939.6363345620593,-4939.6363345620593,3624.6947948099514,13312.347530270044,0.0
593296.95196600363,3715566.251970998,-22500.0,1232.9881270398084,-3962.9030527605373,10078.727324958591,1829.4833923721935,-5184.8841260996041,1885.2024291381765,7357.2367564801198,-4117.6276912141548,6570.0908096493513,-6570.0908096493513,4117.6276912141548,14515.752419520511,0.0
598296.95196600363,3715566.251970998,-22500.0,523.80560968827353,-2935.2323712217367,11530.707743864916,1357.3420028187604,-5765.8126815273972,2054.9130953000872,7825.1732526838377,-4210.2416239175336,7988.3911676322323,-7988.3911676322323,4210.2416239175336,15419.180304583093,0.0
603296.95196600363,3715566.251970998,-22500.0,9.5790369213313937,-1546.5799013504575,12432.94484121116,750.08124720045168,-6116.3700627013459,2153.651608736493,8085.3099451699272,-3818.6417275104964,8976.0543439191715,-8976.0543439191715,3818.6417275104964,15918.354477379889,0.0
608296.95196600363,3715566.251970998,-22500.0,-203.24815136478952,41.74002344315457,12622.159221654931,69.863234146565006,-6178.405116469311,2166.1837295303812,8099.926446469527,-2945.9175880883681,9359.6450350131781,-9359.6450350131781,2945.9175880883681,15945.35328112175,0.0
613296.95196600363,3715566.251970998,-22500.0,-72.991136061716858,1616.9709939142608,12041.56771228827,-603.92101877948835,-5932.8147127794737,2087.7948315462654,7862.3851603401527,-1693.6398620871787,9060.2263036316999,-9060.2263036316999,1693.6398620871787,15485.069646257321,0.0
618296.95196600363,3715566.251970998,-22500.0,362.89222074823516,2965.7191931122779,10759.736216233159,-1191.9649841567643,-5405.6060149081732,1925.7353748204773,7402.0686353823321,-241.57063982090312,8117.5912587147131,-8117.5912587147131,241.57063982090312,14580.766408565989,0.0
623296.95196600363,3715566.251970998,-22500.0,1000.1757385553682,3925.3440763414874,8952.7248615297249,-1632.4954116124056,-4661.7582108984871,1697.7326081469796,6781.8101118336199,1198.0282374385888,6678.5661706723786,-6678.5661706723786,-1198.0282374385888,13326.602675798202,0.0
628296.95196600363,3715566.251970998,-22500.0,1700.8818943199683,4416.6453425761774,6857.4689451142985,-1892.7513089750917,-3789.3905157484801,1428.0967197911732,6075.665359068701,2433.1382057352903,4955.1829318171449,-4955.1829318171449,-2433.1382057352903,11849.796390833058,0.0
633296.95196600363,3715566.251970998,-22500.0,2332.0463314321646,4448.6413266683949,4715.6851260543781,-1971.4001713358255,-2880.3612874086984,1142.7919790069559,5345.3344198475161,3332.0350700792505,3170.9122757800042,-3170.9122757800042,-3332.0350700792505,10288.378926427973,0.0
638296.95196600363,3715566.251970998,-22500.0,2795.5576080836845,4099.2510717926662,2727.8378258518669,-1892.8029670069025,-2013.7059018878711,864.99883506806464,4642.2749739646524,3839.5820240015692,1514.6721387670143,-1514.6721387670143,-3839.5820240015692,8770.7256123814113,0.0
643296.95196600363,3715566.251970998,-22500.0,3041.5293856177468,3483.869276962012,1028.160181557359,-1696.7448461633028,-1245.8166815310931,612.21307844417163,4007.7669695934292,3970.4818598732836,114.53813320046015,-114.53813320046015,-3970.4818598732836,7400.6192227503016,0.0
648296.95196600363,3715566.251970998,-22500.0,3065.9595966513634,2724.4457156940261,-318.76302107681244,-1427.7113773608587,-607.95989337839785,395.18395240312714,3468.2515273005097,3788.171355313897,-967.35087476596073,967.35087476596073,-3788.171355313897,6248.3032425774027,0.0
653296.95196600363,3715566.251970998,-22500.0,2898.5169285479969,1927.1325320220583,-1306.3078618851118,-1126.5639760053948,-109.32374312875827,218.37426438695158,3033.292238929459,3379.7901503856847,-1724.5262896604763,1724.5262896604763,-3379.7901503856847,5345.9329876835227,0.0
658296.95196600363,3715566.251970998,-22500.0,2587.2123952696188,1170.8947794058865,-1967.3987913842882,-825.72402077465529,257.07336276917039,81.330759142075223,2697.0157290990173,2834.9220222377717,-2188.7359332555316,2188.7359332555316,-2834.9220222377717,4686.9300905652599,0.0
663296.95196600363,3715566.251970998,-22500.0,2184.8812793918682,505.39976754234033,-2356.1117215497047,-547.58101239477389,507.96076070364484,-19.646164380639629,2442.606717452164,2231.5973981461266,-2412.0993462948009,2412.0993462948009,-2231.5973981461266,4231.9864208356339,0.0
668296.95196600363,3715566.251970998,-22500.0,1739.8150150958652,-45.185695706526545,-2533.077670821865,-305.15793987374758,664.34688501390622,-89.964210130333768,2248.5936947375003,1629.6487583613309,-2452.8095800957935,2452.8095800957935,-1629.6487583613309,3923.8773358888088,0.0
673296.95196600363,3715566.251970998,-22500.0,1290.7852694089413,-475.7935375200085,-2555.8598442337411,-103.95840246121401,747.60996322864332,-135.5541027936078,2094.6200186975061,1069.6542565493623,-2365.6854038699962,2365.6854038699962,-1069.6542565493623,3705.7824746263318,0.0
678296.95196600363,3715566.251970998,-22500.0,865.54854336837241,-793.80116347240414,-2473.8115037919383,55.847668144937145,777.13927899588373,-162.08597653833746,1964.8156387280405,575.23486955333965,-2197.161525240675,2197.161525240675,-575.23486955333965,3533.7332520426608,0.0
683296.95196600363,3715566.251970998,-22500.0,481.58346191690475,-1013.414565362642,-2326.2474417840644,177.41841939611777,769.2193900981066,-174.53732672199132,1848.574883012921,156.81118239227942,-1983.5792917213653,1983.5792917213653,-156.81118239227942,3379.7466157924619,0.0
538296.95196600363,3720566.251970998,-22500.0,1927.5758883050178,-481.80834566037328,-834.41244879960095,543.87637571794244,28.0185256449892,96.025659448938001,1539.1947618342647,1075.806110642151,-1313.5787256281237,1313.5787256281237,-1075.806110642151,2740.5497513413379,0.0
543296.95196600363,3720566.251970998,-22500.0,2225.0639311012314,-810.19111524266123,-679.96961136048049,694.19976572555436,-85.92521785595585,144.43842988109492,1764.7048344165382,1010.2792350987738,-1335.5803612618583,1335.5803612618583,-1010.2792350987738,3187.640787769998,0.0
548296.95196600363,3720566.251970998,-22500.0,2511.7579718961433,-1203.7960801065408,-425.72170187584942,865.19403379950757,-244.94708618330409,207.33072076718497,2035.236144045854,872.43838141805122,-1287.6259746494982,1287.6259746494982,-872.43838141805122,3734.0350775785823,0.0
553296.95196600363,3720566.251970998,-22500.0,2765.5916964276298,-1658.9512577434439,-42.138839185693833,1053.2895206658884,-459.45111693147931,287.38197945662932,2356.3333238359523,644.24593759983566,-1140.1800025742755,1140.1800025742755,-644.24593759983566,4391.4267980008481,0.0
558296.95196600363,3720566.251970998,-22500.0,2958.9770849633405,-2162.6771034952553,502.13411823506783,1251.2566624571493,-739.66324904223541,386.99928090829769,2731.8032409347575,309.94315686152788,-859.49668340304754,859.49668340304754,-309.94315686152788,5167.3932735151266,0.0
563296.95196600363,3720566.251970998,-22500.0,3060.5863264825912,-2689.2223902346932,1236.2464946029286,1447.2078153442135,-1093.9638815835915,507.81630896428584,3162.4768668322486,-139.63941596191555,-410.80711902609221,410.80711902609221,139.63941596191555,6062.7538344685854,0.0
568296.95196600363,3720566.251970998,-22500.0,3039.2296393633164,-3197.2096145971514,2180.6480807332564,1623.960897968198,-1526.44920762979,650.01698921541686,3644.8254825767299,-701.30756223985657,235.91168093050771,-235.91168093050771,701.30756223985657,7068.4158029371092,0.0
573296.95196600363,3720566.251970998,-22500.0,2870.1696617560378,-3628.8023921708573,3338.1221898509243,1759.2335971090238,-2033.8218592719961,811.53695812480328,4169.7441043452191,-1352.9820034174109,1097.3098296784237,-1097.3098296784237,1352.9820034174109,8162.0410175836269,0.0
578296.95196600363,3720566.251970998,-22500.0,2543.4788352647679,-3912.736985116082,4683.3411845107739,1827.2167930998914,-2602.0560643768499,987.28422804955255,4722.1269075693372,-2048.1168041626424,2165.8438599176443,-2165.8438599176443,2048.1168041626424,9305.2446413219859,0.0
583296.95196600363,3720566.251970998,-22500.0,2072.8082246834515,-3972.9225536652493,6153.4152390881945,1801.9525806174429,-3203.7280966930743,1168.6156781677482,5281.0546734834879,-2713.7605475572991,3398.9424066831916,-3398.9424066831916,2713.7605475572991,10442.395966833363,0.0
588296.95196600363,3720566.251970998,-22500.0,1501.5250040099331,-3743.1390692568289,7643.4441453371492,1662.5058802291142,-3797.309118618869,1343.3778291645378,5815.2956974487315,-3255.4169442772154,4712.0725768414923,-4712.0725768414923,3255.4169442772154,11502.313929625672,0.0
593296.95196600363,3720566.251970998,-22500.0,902.36255602533788,-3185.8963034367107,9011.6600246570852,1399.1362141476297,-4329.76276188678,1496.7911447586814,6278.42261640171,-3570.8730067652459,5980.5880967728981,-5980.5880967728981,3570.8730067652459,12403.900251961106,0.0
598296.95196600363,3720566.251970998,-22500.0,367.59685841014857,-2310.3851445651053,10097.211029449014,1018.7819676860357,-4743.1801879999311,1613.2832182198713,6621.3454940463998,-3572.2044563233239,7054.1578668885895,-7054.1578668885895,3572.2044563233239,13065.899980271359,0.0
603296.95196600363,3720566.251970998,-22500.0,-10.089087924074512,-1182.3032228272859,10749.418702728935,547.65353452974978,-4984.8290592316553,1679.0570727419395,6804.6476905742047,-3210.8290292791212,7783.6475452536069,-7783.6475452536069,3210.8290292791212,13419.564059127655,0.0
608296.95196600363,3720566.251970998,-22500.0,-161.30584509826292,80.776717479733549,10861.63629720994,29.138324359640343,-5018.2985618522862,1684.8195258901574,6804.5987625769667,-2496.9089068718849,8054.4929894378956,-8054.4929894378956,2496.9089068718849,13421.467219868129,0.0
613296.95196600363,3720566.251970998,-22500.0,-59.925668330169877,1330.047810474472,10398.705962427228,-483.27999589062216,-4832.2950193108863,1627.8790970046543,6617.939272044031,-1504.4065496557414,7815.853705741536,-7815.853705741536,1504.4065496557414,13062.944456254529,0.0
618296.95196600363,3720566.251970998,-22500.0,268.78450800623665,2416.8072404836817,9407.6282074559203,-936.35642465364833,-4443.9401516516227,1512.9138515847499,6265.4064950327584,-357.8902631398314,7094.605415735823,-7094.605415735823,357.8902631398314,12373.172283734641,0.0
623296.95196600363,3720566.251970998,-22500.0,755.36698608206484,3224.0803267297174,8007.0664790828432,-1287.4704986490433,-3895.2748430408656,1351.1209479037041,5791.0728896929941,795.21501646732941,5988.6420171415684,-5988.6420171415684,-795.21501646732941,11414.82197144097,0.0
628296.95196600363,3720566.251970998,-22500.0,1305.6280757807642,3688.0078861385123,6359.7184993986084,-1511.8324374810672,-3244.2096003778288,1158.0161043961546,5245.9964016508575,1817.1458011776281,4642.3438492752521,-4642.3438492752521,-1817.1458011776281,10273.629826427388,0.0
633296.95196600363,3720566.251970998,-22500.0,1824.5360102983011,3803.335352084694,4637.687830218073,-1604.6944050713723,-2553.0323579853607,950.57827135663115,4671.615795156803,2606.1807053009034,3213.673195181108,-3213.673195181108,-2606.1807053009034,9044.9618882682662,0.0
638296.95196600363,3720566.251970998,-22500.0,2236.2604943865376,3614.0576492020332,2991.8858307132023,-1578.7518222815888,-1877.9442836399739,744.55029215722459,4104.5185186525396,3109.8995010455174,1843.9146049443862,-1843.9146049443862,-3109.8995010455174,7820.8041288158392,0.0
643296.95196600363,3720566.251970998,-22500.0,2495.238869716417,3195.1513172617078,1532.735874627343,-1458.4505664019166,-1262.0448808807157,552.50735675832152,3576.6769811450058,3324.3969135942352,637.77353113879008,-637.77353113879008,-3324.3969135942352,6679.6118656478411,0.0
648296.95196600363,3720566.251970998,-22500.0,2587.5465165103283,2632.5805032276821,323.94766027827239,-1273.4133460492969,-732.52822195279759,382.94057779633761,3111.3924557139685,3283.3448409938892,-343.84109224188114,343.84109224188114,-3283.3448409938892,5679.7712454919847,0.0
653296.95196600363,3720566.251970998,-22500.0,2525.123762638309,2007.0286530183876,-613.2078288786837,-1052.7830528681486,-301.46426249507931,240.26816803926565,2721.13970029756,3042.6778541644394,-1080.5042358478572,1080.5042358478572,-3042.6778541644394,4856.0525520132387,0.0
658296.95196600363,3720566.251970998,-22500.0,2336.6287485974449,1383.8382946067591,-1289.6556277082277,-821.41886489880119,31.188347197794066,125.4796208860389,2407.5644524400054,2665.9206983488211,-1582.7626279808155,1582.7626279808155,-2665.9206983488211,4218.1741995813609,0.0
663296.95196600363,3720566.251970998,-22500.0,2058.1994248709907,809.07243055922106,-1736.6017970436462,-598.07195859221201,273.72165570840502,37.077162461936176,2163.3086198391748,2213.1229799150665,-1880.6952492589521,1880.6952492589521,-2213.1229799150665,3751.9767741110554,0.0
668296.95196600363,3720566.251970998,-22500.0,1726.1314335933948,310.13763443762292,-1994.9046362195652,-395.15025525431599,439.00411373330689,-27.961314327049202,1975.3061905740133,1734.2936612734657,-2013.5668168340494,2013.5668168340494,-1734.2936612734657,3425.0648872010474,0.0
673296.95196600363,3720566.251970998,-22500.0,1372.1742462002276,-100.98617116714547,-2107.1315450309721,-219.48826072588994,541.5544170873643,-73.367497470450658,1828.6518833862333,1266.7996868829937,-2022.0525762947395,2022.0525762947395,-1266.7996868829937,3196.9737927390847,0.0
678296.95196600363,3720566.251970998,-22500.0,1021.2674375506896,-423.56486629003092,-2112.5290428421067,-73.583674691452856,595.53304814975331,-102.98545349850704,1709.7965831236718,835.57569112576027,-1943.3222288198313,1943.3222288198313,-835.57569112576027,3029.8332106302696,0.0
543296.95196600363,3725566.251970998,-22500.0,2071.9769145589889,-976.58806184592845,-349.22997969465268,675.82733347949647,-180.99116156741437,151.02615376637362,1656.3283461437575,730.09426670827224,-1058.9508765002258,1058.9508765002258,-730.09426670827224,3038.2477364376959,0.0
548296.95196600363,3725566.251970998,-22500.0,2281.0366368422551,-1328.6782540204119,-59.364248811797005,816.45497720813671,-335.27599991613283,206.30134158803961,1903.5953233226689,563.0665921349464,-954.20441104495922,954.20441104495922,-563.0665921349464,3543.9348772708108,0.0
553296.95196600363,3725566.251970998,-22500.0,2450.9278398389952,-1720.0713653894447,346.02726863910368,965.85191102049794,-535.05985527757241,274.68978831048651,2191.2096997766544,319.54191247739504,-755.58653443080311,755.58653443080311,-319.54191247739504,4137.5436128434794,0.0
558296.95196600363,3725566.251970998,-22500.0,2560.2609373963687,-2135.4012918230947,888.27239085766519,1116.9846551911485,-786.5686618552769,357.49226862959677,2520.4067139634531,-8.5247144174297205,-438.55052888004616,438.55052888004616,8.5247144174297205,4821.159870155715,0.0
563296.95196600363,3725566.251970998,-22500.0,2586.7228973519659,-2549.4678769857678,1584.4078733145427,1259.5274438403687,-1093.8640796674165,455.28179173145043,2889.8113681853401,-422.29632893699397,19.673799897782004,-19.673799897782004,422.29632893699397,5591.0199908597724,0.0
568296.95196600363,3725566.251970998,-22500.0,2510.4532942913443,-2926.1577032327023,2442.0765504000115,1379.7535810283455,-1457.0959126599937,567.45533101766546,3294.6041938513717,-912.07919422055488,635.30960502890639,-635.30960502890639,912.07919422055488,6435.4333678464827,0.0
573296.95196600363,3725566.251970998,-22500.0,2318.7769630098437,-3219.1976045967062,3453.2449908404842,1461.0850444446994,-1870.4939175359675,691.75295581302566,3726.028722796792,-1453.4432411155658,1411.7396504715944,-1411.7396504715944,1453.4432411155658,7332.8222536130716,0.0
578296.95196600363,3725566.251970998,-22500.0,2011.7145711159901,-3375.7732483651275,4587.7522861384004,1485.5780127547764,-2320.4725056466946,823.84686846766135,4171.7528375651482,-2004.7091942179347,2332.5156125598032,-2332.5156125598032,2004.7091942179347,8250.4018755544821,0.0
583296.95196600363,3725566.251970998,-22500.0,1606.961504263234,-3343.7009017414312,5788.5230383813723,1436.4787928193443,-2784.4477800626551,957.14697824771304,4615.5985718574257,-2507.4891595657173,3355.3835227889449,-3355.3835227889449,2507.4891595657173,9144.1688881713617,0.0
588296.95196600363,3725566.251970998,-22500.0,1142.3760706761614,-3081.9021190557592,6970.9231261488885,1301.6764347450464,-3231.1116402267467,1082.9901400615486,5031.2728135731259,-2891.8997486650105,4409.83398070165,-4409.83398070165,2891.8997486650105,9960.8892720024887,0.0
593296.95196600363,3725566.251970998,-22500.0,673.89782348721758,-2572.4290413506933,8028.6288845681784,1077.4351643370039,-3622.8065880621039,1191.3383608371198,5382.9413033832343,-3087.1261005497418,5400.8102303646865,-5400.8102303646865,3087.1261005497418,10642.515376551439,0.0
598296.95196600363,3725566.251970998,-22500.0,267.68715662567359,-1830.7162779003354,8847.0715513715331,771.36833510031192,-3920.1976812385001,1271.9986022357957,5636.9399626130071,-3036.1380570016972,6220.1231245816216,-6220.1231245816216,3036.1380570016972,11132.903812766801,0.0
603296.95196600363,3725566.251970998,-22500.0,-12.769698018883272,-909.9851295154358,9322.9501509741986,403.46525549813504,-4088.6579611422094,1316.1993614327569,5767.3017103133607,-2711.0636645511477,6764.6580201618199,-6764.6580201618199,2711.0636645511477,11385.907265013091,0.0
608296.95196600363,3725566.251970998,-22500.0,-121.44274045790964,103.31656986164228,9385.3573212711181,4.3258299607003314,-4104.948792806963,1318.1857961670084,5758.7797314138916,-2124.1890021260397,6957.3779359006412,-6957.3779359006412,2124.1890021260397,11373.188204291868,0.0
613296.95196600363,3725566.251970998,-22500.0,-41.684139698168401,1103.3504032598025,9012.2326555628042,-389.39928042490408,-3962.2991876563465,1276.4051669269788,5609.8263207334849,-1329.9944868941657,6764.9397512145424,-6764.9397512145424,1329.9944868941657,11089.78738020952,0.0
618296.95196600363,3725566.251970998,-22500.0,209.06019938666665,1984.7029911780319,8236.5487618354564,-741.33086768576095,-3672.2457447734278,1193.9234498223414,5335.2033594531586,-416.41582848330609,6205.9848720408972,-6205.9848720408972,416.41582848330609,10555.878383611676,0.0
623296.95196600363,3725566.251970998,-22500.0,583.59010473722697,2662.3244398369229,7139.9222608002065,-1021.6952844736187,-3262.5715951592188,1077.9283043817316,4966.684123871185,512.47327263637499,5347.152102261196,-5347.152102261196,-512.47327263637499,9814.1446104272836,0.0
628296.95196600363,3725566.251970998,-22500.0,1016.7167495848694,3085.6704863512778,5835.7917526524179,-1211.9073600203067,-2771.9877389615481,938.45940480670129,4540.9607288546358,1356.9498052691283,4288.2899080109928,-4288.2899080109928,-1356.9498052691283,8923.4931268489709,0.0
633296.95196600363,3725566.251970998,-22500.0,1440.2311152091866,3243.566136766156,4447.6542160003037,-1306.3305861986848,-2243.1869188565533,786.72647691461134,4086.1820933715599,2039.1227289337694,3141.9473724927839,-3141.9473724927839,-2039.1227289337694,7950.7453912168739,0.0
638296.95196600363,3725566.251970998,-22500.0,1796.3123125397581,3159.8700746658646,3088.7075217660858,-1311.1726909884117,-1716.1968586917626,633.45688356496271,3628.1547834480939,2513.0485000411486,2013.4220464723119,-2013.4220464723119,-2513.0485000411486,6962.2726194394008,0.0
643296.95196600363,3725566.251970998,-22500.0,2046.0433936887327,2882.8752832424134,1847.547370883334,-1241.3301234163237,-1223.4941274974644,487.62360215100739,3191.167998447951,2766.2860347030391,986.22317073789327,-986.22317073789327,-2766.2860347030391,6017.0721741889856,0.0
648296.95196600363,3725566.251970998,-22500.0,2172.0166871632932,2472.5242715608424,781.7375826182797,-1116.3846600330521,-787.53695700754633,355.73624835147581,2794.5680941519481,2814.5365098607731,115.07435518548164,-115.07435518548164,-2814.5365098607731,5162.0083497290943,0.0
653296.95196600363,3725566.251970998,-22500.0,2176.0192680178802,1988.9522107455614,-81.582288431131644,-956.84513446342078,-420.56089091877419,241.68769710173828,2450.7980951389,2692.4954399812386,-574.1095173564745,574.1095173564745,-2692.4954399812386,4429.0538901185528,0.0
658296.95196600363,3725566.251970998,-22500.0,2073.8174748279662,1484.3910180501532,-740.38492760963311,-781.32305233269324,-125.98767167131527,147.02341620795494,2164.901929742663,2444.0480408881917,-1079.4441636203519,1079.4441636203519,-2444.0480408881917,3833.9467833305694,0.0
663296.95196600363,3725566.251970998,-22500.0,1889.1091447591352,998.93673181208044,-1210.3539960291491,-604.88018100732188,99.34054676450323,71.453203771235025,1935.1467088906111,2114.0231886042598,-1416.0605653785028,1416.0605653785028,-2114.0231886042598,3376.041588087729,0.0
668296.95196600363,3725566.251970998,-22500.0,1648.1417110648688,559.58968074172174,-1517.4936920988762,-438.43352347555532,262.78230140525562,13.436203887065293,1754.6018405921859,1742.5268277331115,-1608.9648685187062,1608.9648685187062,-1742.5268277331115,3040.0469212476455,0.0
548296.95196600363,3730566.251970998,-22500.0,2043.5082147198102,-1383.4951406293187,241.83583157710359,754.17085121300977,-393.89447215017242,198.24253894671773,1778.1111486632269,310.38319575405558,-658.80957009348458,658.80957009348458,-310.38319575405558,3352.6736463944967,0.0
553296.95196600363,3730566.251970998,-22500.0,2149.5487781485522,-1712.5658356177289,649.08670660224436,870.92123651454415,-575.39287476631489,255.83104558142119,2032.8511741846107,67.642080749118321,-430.60039765222496,430.60039765222496,-67.642080749118321,3881.1711057956891,0.0
558296.95196600363,3730566.251970998,-22500.0,2199.1403158733428,-2048.0588776971017,1169.8932028847657,984.41993615644469,-796.89456697172159,323.89566647077635,2318.8200606630453,-240.25492777276793,-100.58768593188654,100.58768593188654,240.25492777276793,4476.8078088543252,0.0
563296.95196600363,3730566.251970998,-22500.0,2177.0882084765826,-2367.1148186895052,1812.6798868564458,1086.1120584613504,-1059.7339590093457,402.4151103293982,2633.5341984055854,-609.62140112438726,345.01737669860279,-345.01737669860279,609.62140112438726,5133.5442417349204,0.0
568296.95196600363,3730566.251970998,-22500.0,2071.5926872157329,-2639.6087956909105,2577.0178234566647,1165.3601729383734,-1361.9431849357545,490.45870720293561,2971.9354291784939,-1027.8547199178934,913.14068138596929,-913.14068138596929,1027.8547199178934,5839.1821847084511,0.0
573296.95196600363,3730566.251970998,-22500.0,1877.6045847791443,-2829.5722222440904,3449.4310223050411,1210.0768974966443,-1697.0085897035158,585.90806098588268,3326.4484692499568,-1471.3298981893065,1599.4782597326819,-1599.4782597326819,1471.3298981893065,6574.2870823745961,0.0
578296.95196600363,3730566.251970998,-22500.0,1600.2986092496901,-2898.6040037606913,4399.6243937414274,1207.9611685671023,-2052.8560792250064,685.25535939703695,3687.7725872437927,-1904.6283168430407,2384.1834205556561,-2384.1834205556561,1904.6283168430407,7311.6970309390272,0.0
583296.95196600363,3730566.251970998,-22500.0,1257.7224070815464,-2811.4491328349477,5378.3943360000403,1148.3442265287467,-2411.4476877910797,783.5663692351294,4042.6861852571137,-2282.0922214251154,3228.8326753497199,-3228.8326753497199,2282.0922214251154,8017.0234182833519,0.0
588296.95196600363,3730566.251970998,-22500.0,881.42313573299782,-2543.2608490430148,6318.6819278187886,1024.4515447025735,-2749.3999679438475,874.69489503901832,4367.9703108145213,-2552.4643542579097,4076.1996446442217,-4076.1996446442217,2552.4643542579097,8650.493761604017,0.0
593296.95196600363,3730566.251970998,-22500.0,513.97552308690069,-2087.1910439816847,7140.9346574631236,835.64485125713293,-3039.9155171465568,951.80127302970925,4636.9953696364464,-2666.6539950429287,4854.2036222775487,-4854.2036222775487,2666.6539950429287,9170.2830257223668,0.0
598296.95196600363,3730566.251970998,-22500.0,203.01636576940933,-1460.1978615750097,7762.972345592907,589.01939228492586,-3256.0149662951026,1008.1554729349158,4826.8698632134747,-2587.5270423087477,5484.5392191437622,-5484.5392191437622,2587.5270423087477,9537.1186682074931,0.0
603296.95196600363,3730566.251970998,-22500.0,-7.441058748052825,-704.77560876534267,8113.0514640986667,299.71489696013299,-3374.6258656907971,1038.1116794801962,4920.226387753999,-2299.4269127465768,5895.016472108292,-5895.016472108292,2299.4269127465768,9719.520995588251,0.0
608296.95196600363,3730566.251970998,-22500.0,-86.368790289698367,114.92616689789037,8143.2649711415816,-10.455578131961095,-3380.6590365828761,1038.0541451849776,4907.0593574987297,-1814.490125595431,6032.9856913534231,-6032.9856913534231,1814.490125595431,9698.6663220746505,0.0
613296.95196600363,3730566.251970998,-22500.0,-23.004644076014042,922.47890681407125,7839.6261635192459,-315.97890515603143,-3270.01134363248,1007.0800684770487,4786.6600996590723,-1173.2845532763936,5876.2219780271425,-5876.2219780271425,1173.2845532763936,9471.7587862416476,0.0
618296.95196600363,3730566.251970998,-22500.0,170.3581768234757,1641.9829723313812,7225.7299749483291,-591.59489403135888,-3050.6135711420925,947.22947632994931,4569.5161440011643,-438.92491490390466,5437.9500556570838,-5437.9500556570838,438.92491490390466,9053.048748901183,0.0
623296.95196600363,3730566.251970998,-22500.0,461.06412780781687,2210.9174571887961,6358.7481072464916,-816.24578760967438,-2741.1810242799597,863.18933396320165,4278.9250920030627,313.99754604639656,4764.3923665715702,-4764.3923665715702,-313.99754604639656,8472.2035743469805,0.0
628296.95196600363,3730566.251970998,-22500.0,803.38189755002577,2589.6049545972046,5318.9275881991834,-976.0312552876444,-2368.0052294064053,761.54516430416368,3942.5728126826607,1012.5890401402385,3925.6264242290972,-3925.6264242290972,-1012.5890401402385,7770.4078189702859,0.0
633296.95196600363,3730566.251970998,-22500.0,1148.0334308323565,2765.1396325702281,4195.6816444653323,-1065.5321474045463,-1960.6805440550977,649.77620316708953,3579.8874723152485,1597.3433107133831,3002.5792476007409,-3002.5792476007409,-1597.3433107133831,6995.1272376278321,0.0
638296.95196600363,3730566.251970998,-22500.0,1451.1891826192041,2749.5519705089687,3073.9560481401395,-1087.4048999391064,-1547.8378667649938,535.23213083164057,3208.8324524635068,2029.6310960335097,2073.776255631677,-2073.776255631677,-2029.6310960335097,6194.6425986195454,0.0
643296.95196600363,3730566.251970998,-22500.0,1680.7906597558137,2573.6699087237025,2023.8518550387992,-1050.6349050044428,-1153.7851629444947,424.30041400937756,2847.6450872813639,2293.9424947994262,1204.9149444150412,-1204.9149444150412,-2293.9424947994262,5413.3172714773837,0.0
648296.95196600363,3730566.251970998,-22500.0,1819.2879575959721,2278.9861232877993,1094.9721449053816,-968.10310186624145,-796.53501317416112,321.88529075762517,2511.9017006630224,2395.5053799972097,442.90091556196501,-442.90091556196501,-2395.5053799972097,4688.1407714778998,0.0
653296.95196600363,3730566.251970998,-22500.0,1863.078611784113,1909.7425803929566,315.39395929229221,-854.11969460122168,-487.24297921401563,231.21722262589182,2212.7981458748372,2354.9409118853036,-185.58185224797148,185.58185224797148,-2354.9409118853036,4046.5814264122896,0.0
658296.95196600363,3730566.251970998,-22500.0,1819.6900426356985,1506.7449462736706,-305.86731736129275,-722.40193046349862,-230.76688007470278,153.9386219327921,1956.5285922569481,2201.8620531700426,-671.98520527783171,671.98520527783171,-2201.8620531700426,3505.4623660231691,0.0
663296.95196600363,3730566.251970998,-22500.0,1703.954595427839,1103.5248668970282,-774.44841811921174,-584.72171793719485,-26.904767281199469,90.369058937355689,1744.3885784873066,1968.9532372267865,-1021.7859995736906,1021.7859995736906,-1968.9532372267865,3070.5367580028055,0.0
553296.95196600363,3735566.251970998,-22500.0,1872.0000466470265,-1658.6489786003012,876.98780654773304,776.01888417618511,-589.64577762806005,233.99617291172078,1881.5407491862757,-121.76527197995495,-163.86118799729712,163.86118799729712,121.76527197995495,3625.7804404398266,0.0
558296.95196600363,3735566.251970998,-22500.0,1880.6047019288826,-1924.9446624420834,1364.5517131273991,859.94748287097991,-782.09097092279796,289.52492250986109,2128.3585307689896,-402.12331281517766,162.98802967461555,-162.98802967461555,402.12331281517766,4140.8366083213587,0.0
563296.95196600363,3735566.251970998,-22500.0,1829.065547616766,-2166.1067340623158,1947.0443556059713,930.96944455160258,-1004.7474714837228,352.25955222016978,2395.3633200972781,-724.91650624796364,582.61186799316658,-582.61186799316658,724.91650624796364,4698.2791182109831,0.0
568296.95196600363,3735566.251970998,-22500.0,1711.0717867430708,-2357.7644229813604,2619.3309511351113,981.01417181130466,-1254.6714239783601,421.1953961251304,2677.8724750146234,-1076.8461962211586,1096.0044508737838,-1096.0044508737838,1076.8461962211586,5286.5096850989303,0.0
573296.95196600363,3735566.251970998,-22500.0,1526.1418934801104,-2472.5211373513916,3365.8456076801904,1001.3946290443149,-1525.5221675203186,494.49204256784878,2969.9736754346873,-1436.6177756768377,1694.8573136614893,-1694.8573136614893,1436.6177756768377,5888.705360041241,0.0
578296.95196600363,3735566.251970998,-22500.0,1281.7218447268997,-2482.8530219899339,4158.5330136525126,983.77083887917433,-1807.0651528115995,569.38599410759502,3265.029301114319,-1775.0775396714853,2359.0249271913299,-2359.0249271913299,1775.0775396714853,6482.7668917707651,0.0
583296.95196600363,3735566.251970998,-22500.0,994.4627721977597,-2365.2760922915963,4956.2354304962564,921.44632309247731,-2085.1500508788126,642.22116196059631,3550.3223126295989,-2057.0261746957858,3055.1910254551112,-3055.1910254551112,2057.0261746957858,7041.9850248304956,0.0
588296.95196600363,3735566.251970998,-22500.0,689.9721868801164,-2105.2964177673311,5706.354450427777,810.8330849189781,-2342.3829612333784,708.64087545118548,3805.9612411437338,-2245.016924829215,3737.6358729122749,-3737.6358729122749,2245.016924829215,7536.5929943015881,0.0
593296.95196600363,3735566.251970998,-22500.0,400.51036037625164,-1702.1701761567824,6349.3164356715124,652.79235749843895,-2559.6105572761521,763.95998175498335,4013.1627451059289,-2304.94579642085,4351.7769933384607,-4351.7769933384607,2304.94579642085,7936.2258132947009,0.0
598296.95196600363,3735566.251970998,-22500.0,160.58077905126081,-1172.1541628689788,6825.713005333856,453.47892062863195,-2718.142351497338,803.69255082415486,4156.2715480211391,-2212.5657457264479,4840.549509889287,-4840.549509889287,2212.5657457264479,8213.0879952454961,0.0
603296.95196600363,3735566.251970998,-22500.0,1.0586691315785148,-548.95258964425477,7085.1012714347535,224.34156817336932,-2802.3916425687412,824.15917406896244,4223.4591564771554,-1959.4387398055071,5152.8037467406202,-5152.8037467406202,1959.4387398055071,8345.3883072749322,0.0
608296.95196600363,3735566.251970998,-22500.0,-56.827894836531982,119.38688375726238,7094.6392917702451,-18.902638029230552,-2802.4062215552281,823.05616384257371,4208.0242826158265,-1556.5988573306354,5252.0176489980749,-5252.0176489980749,1556.5988573306354,8320.4260954122201,0.0
613296.95196600363,3735566.251970998,-22500.0,-6.0327405492063981,776.9011643733495,6845.3912428872854,-258.23235547435166,-2715.6803120947961,799.85579612927802,4109.6574281645035,-1034.5672253967837,5123.1582471558304,-5123.1582471558304,1034.5672253967837,8136.6774339736676,0.0
618296.95196600363,3735566.251970998,-22500.0,144.62444793325028,1368.1546180324626,6354.5385080995111,-475.84306337348272,-2547.76488884029,755.93596166403665,3935.7491365140854,-439.33043843019595,4775.7930401498852,-4775.7930401498852,439.33043843019595,7804.4014032497598,0.0
623296.95196600363,3735566.251970998,-22500.0,372.17379562908769,1846.6880556811418,5662.7971386574691,-656.66020302624963,-2311.4874033976421,694.39952035199906,3703.3932934765912,174.89249858736412,4242.5336405041362,-4242.5336405041362,-174.89249858736412,7344.5932545258256,0.0
628296.95196600363,3735566.251970998,-22500.0,644.10721853146538,2181.4337065176842,4827.7220721825997,-790.27158627782296,-2024.9759441338606,619.62602036015903,3434.5665478471897,754.27969513579774,3573.2591670000329,-3573.2591670000329,-754.27969513579774,6786.5147010855371,0.0
633296.95196600363,3735566.251970998,-22500.0,924.54368832877344,2359.7571220251425,3914.6605903560962,-871.89700434908343,-1708.9791776951929,536.66067971361144,3143.1434538638405,1253.3108836138649,2826.7213009398229,-2826.7213009398229,-1253.3108836138649,6164.3224712081937,0.0
638296.95196600363,3735566.251970998,-22500.0,1180.3006315430218,2386.8425083846582,2987.5482555093349,-902.29855888660825,-1384.0995477209456,450.57414604785424,2841.3070071491056,1640.2348794703717,2061.6668799392282,-2061.6668799392282,-1640.2348794703717,5513.4485938138469,0.0
643296.95196600363,3735566.251970998,-22500.0,1385.5051739337698,2282.1492642016133,2101.453825827261,-886.81803059682795,-1068.4933378968756,365.91775722823297,2542.616639984788,1899.2958885525588,1329.4187263479846,-1329.4187263479846,-1899.2958885525588,4867.3505830978602,0.0
648296.95196600363,3735566.251970998,-22500.0,1524.0311005094006,2074.2451801626212,1297.9500363813729,-833.89586924689081,-776.36385873750305,286.34997175833706,2259.3995192104471,2029.8909162426435,669.0889355670555,-669.0889355670555,-2029.8909162426435,4254.9970206065454,0.0
653296.95196600363,3735566.251970998,-22500.0,1589.7575809269808,1795.400793286198,603.50522362706852,-753.46437655691329,-517.33509493455415,214.4611264451151,2001.2318915230076,2043.525801195025,105.72013300746119,-105.72013300746119,-2043.525801195025,3699.2119710747761,0.0
658296.95196600363,3735566.251970998,-22500.0,1585.1616254603382,1477.0044602831142,30.370045253874473,-655.52975423104397,-296.58138863818124,151.77462804514502,1774.3210664418539,1959.7081306722871,-349.08866847228876,349.08866847228876,-1959.7081306722871,3215.7460986334445,0.0
563296.95196600363,3740566.251970998,-22500.0,1536.6744213238555,-1962.0465731531804,2010.0274571965042,795.0657980704907,-938.30301888303097,306.36794537332753,2176.1239751096482,-787.30235546241488,749.34044540555601,-749.34044540555601,787.30235546241488,4290.2905761692236,0.0
568296.95196600363,3740566.251970998,-22500.0,1416.641287294151,-2092.0903562683347,2596.0034066979019,824.6188089814226,-1144.2505545785345,360.31451987089821,2412.2072689467418,-1080.3704089858043,1206.621729901733,-1206.621729901733,1080.3704089858043,4780.2673288406313,0.0
573296.95196600363,3740566.251970998,-22500.0,1246.5012367835907,-2152.9353163870769,3231.4350817706922,829.21319346090638,-1363.0179897716523,416.68773033583244,2654.4254538207906,-1370.251889311455,1724.6477805541338,-1724.6477805541338,1370.251889311455,5274.211490832211,0.0
578296.95196600363,3740566.251970998,-22500.0,1034.3242864954102,-2125.0824667097709,3891.5071476986718,803.24922230178186,-1586.1719286979244,473.34806835763004,2897.1537162405639,-1633.4309311549446,2284.5737356450795,-2284.5737356450795,1633.4309311549446,5754.3356200503886,0.0
583296.95196600363,3740566.251970998,-22500.0,794.68370273817879,-1993.1282877699045,4542.4180877804993,742.59867527560584,-1802.726526507814,527.60094128641481,3126.9435235378419,-1843.0010403975202,2858.3136925845183,-2858.3136925845183,1843.0010403975202,6199.9443345284863,0.0
588296.95196600363,3740566.251970998,-22500.0,548.05421204967786,-1749.103922646558,5143.1226346911799,645.54734358378391,-1999.7514651023027,576.35272091607578,3328.6339948293671,-1971.6387826489799,3409.6612428268727,-3409.6612428268727,1971.6387826489799,6588.6816975381862,0.0
593296.95196600363,3740566.251970998,-22500.0,318.86355506828841,-1395.4447041849271,5648.8807104844955,513.59342296184252,-2163.4788860279423,616.37285474972862,3489.2659946796816,-1995.5831505752185,3897.2315565212284,-3897.2315565212284,1995.5831505752185,6898.3273363720846,0.0
598296.95196600363,3740566.251970998,-22500.0,132.27670225598717,-946.77380218960172,6016.3931241970877,351.88153723517564,-2280.8291353226132,644.64108392320077,3597.9369770020953,-1898.9826254609993,4279.12556017731,-4279.12556017731,1898.9826254609993,7108.9858653861793,0.0
603296.95196600363,3740566.251970998,-22500.0,10.201609997289022,-429.76765476091231,6209.778077271535,169.08359317356766,-2341.1347134128978,658.72971155507571,3646.4403044821092,-1677.6524779808906,4518.6829509983882,-4518.6829509983882,1677.6524779808906,7205.3689183847682,0.0
608296.95196600363,3740566.251970998,-22500.0,-32.637112731397146,119.25377831889384,6206.2193200812681,-23.355403180301934,-2337.7361465635386,657.15105809102124,3630.2035764325838,-1341.2136062936047,4590.2185167735825,-4590.2185167735825,1341.2136062936047,7178.7867799088053,0.0
613296.95196600363,3740566.251970998,-22500.0,8.4250181741840784,658.78323139484326,5999.9833023583124,-212.53063819249448,-2269.0974699783742,639.59635939860959,3549.1084405380702,-912.85611567759543,4483.4288259740297,-4483.4288259740297,912.85611567759543,7028.467250809741,0.0
618296.95196600363,3740566.251970998,-22500.0,126.9575255498377,1147.7956597207008,5603.774227998666,-385.71623919507994,-2139.1664699954904,607.00956101481074,3408.3225622580439,-426.54948868332667,4205.3539017286776,-4205.3539017286776,426.54948868332667,6761.9190606745433,0.0
623296.95196600363,3740566.251970998,-22500.0,306.55390620001009,1551.4025231882861,5047.0324688859973,-531.99344093362947,-1956.8774390217277,561.47545886845376,3220.166359772104,77.773656427610604,3779.3651405555265,-3779.3651405555265,-77.773656427610604,6394.2458672012062,0.0
628296.95196600363,3740566.251970998,-22500.0,523.809847722114,1845.2586268970833,4371.5781775111273,-643.53314616863281,-1734.9089243343822,505.9462182121099,3002.7309370423236,559.97197112593244,3241.4398639638557,-3241.4398639638557,-559.97197112593244,5946.5490156176274,0.0
633296.95196600363,3740566.251970998,-22500.0,752.3756572232287,2017.8684304858541,3625.6278452414513,-716.29690766404951,-1487.9720490165828,443.86335662206994,2766.7370176157883,985.10196251004163,2634.6493964915071,-2634.6493964915071,-985.10196251004163,5443.7116806744934,0.0
638296.95196600363,3740566.251970998,-22500.0,967.08744227041109,2070.5452470625123,2857.5274440731828,-750.0811639707091,-1230.9984100157928,378.75354128903405,2520.0250511384861,1327.3883241360427,2003.156652339102,-2003.156652339102,-1327.3883241360427,4911.9771472093171,0.0
643296.95196600363,3740566.251970998,-22500.0,1147.3030169042272,2015.3770142289648,2110.4051343844653,-747.99028217981277,-977.56039032657975,313.86966800508566,2272.5388182076858,1572.173508898677,1386.9403013566753,-1386.9403013566753,-1572.173508898677,4376.6920298572068,0.0
648296.95196600363,3740566.251970998,-22500.0,1278.9164418452722,1871.9443292226663,1418.5271898844051,-715.53410320251305,-738.75114778442799,251.92787953218252,2033.9346154488533,1715.8330190047404,818.07991314894741,-818.07991314894741,-1715.8330190047404,3860.4829954585621,0.0
573296.95196600363,3745566.251970998,-22500.0,1023.812299142814,-1871.2308605395483,3067.0362196876836,687.74776220593264,-1213.0865911543121,351.08374630594818,2376.8888386793965,-1286.5071207160768,1709.1280233731891,-1709.1280233731891,1286.5071207160768,4726.5321064135651,0.0
578296.95196600363,3745566.251970998,-22500.0,841.37914995393874,-1819.5675139878549,3616.4912014844967,657.98068331697243,-1390.4425653014487,394.13812570060514,2577.0161769898336,-1490.4184786871383,2180.2719949582252,-2180.2719949582252,1490.4184786871383,5116.0238978732759,0.0
583296.95196600363,3745566.251970998,-22500.0,641.93515129936679,-1683.4410910953459,4148.7512296020204,601.28749700614514,-1559.8739389651155,434.79087648477139,2762.230253589632,-1645.3350332928628,2653.6714395265094,-2653.6714395265094,1645.3350332928628,5472.9577406735807,0.0
588296.95196600363,3745566.251970998,-22500.0,441.71339465912956,-1458.9374688295914,4631.8456739244784,517.03225028863596,-1711.752637273921,470.83724342950728,2922.0574964623202,-1731.3095688060698,3100.7794245874934,-3100.7794245874934,1731.3095688060698,5780.4651948180053,0.0
593296.95196600363,3745566.251970998,-22500.0,259.24201623053835,-1149.982120940241,5032.0354483926149,406.89773876535867,-1836.1174817121416,500.03311402694078,3047.3923539600896,-1731.7357658589835,3490.1238052099843,-3490.1238052099843,1731.7357658589835,6022.1547218260848,0.0
598296.95196600363,3745566.251970998,-22500.0,113.01258849795001,-769.2852250636098,5317.4995858749035,275.09734257240234,-1923.723350118353,520.32404970910568,3130.4825000392111,-1636.2618703985897,3790.6996178001455,-3790.6996178001455,1636.2618703985897,6183.6324137265865,0.0
603296.95196600363,3745566.251970998,-22500.0,18.742214165400842,-337.97473441162015,5462.4308834975336,128.22307548667624,-1967.1787284860877,530.08866483632028,3165.5368066025439,-1443.1846202275931,3975.9417064671707,-3975.9417064671707,1443.1846202275931,6254.0380016111467,0.0
608296.95196600363,3745566.251970998,-22500.0,-13.223738966962145,116.24553096214079,5450.7828821555877,-25.304165422788465,-1961.9677073279429,528.35371380216338,3149.3850179786709,-1160.7028782638426,4027.5541714147357,-4027.5541714147357,1160.7028782638426,6227.3512452566865,0.0
613296.95196600363,3745566.251970998,-22500.0,20.23154388694099,562.22227673113957,5278.8742953416659,-176.12448217776435,-1907.1493848721279,514.93925011273313,3082.0051097611677,-806.60252288386982,3938.3904032340897,-3938.3904032340897,806.60252288386982,6103.2422287070667,0.0
618296.95196600363,3745566.251970998,-22500.0,114.35087894490515,969.22223136902903,4956.2283163829998,-315.02216332358631,-1805.572275965583,490.50079843049303,2967.00986049024,-406.29502524358054,3713.708585686436,-3713.708585686436,406.29502524358054,5887.2879915587082,0.0
623296.95196600363,3745566.251970998,-22500.0,257.24757770916671,1310.7801328112546,4504.4335131220178,-433.99896649144102,-1663.5533099468591,456.45951118396954,2813.0175478825986,10.445323979037994,3370.5025394882887,-3370.5025394882887,-10.445323979037994,5590.5197849535734,0.0
628296.95196600363,3745566.251970998,-22500.0,431.86548946439626,1567.7651182935333,3954.249782656334,-527.13723763978987,-1490.0787243931698,414.83154108242371,2634.9235938922416,413.3842975894629,2935.0481335125505,-2935.0481335125505,-413.3842975894629,5228.3619415219646,0.0
633296.95196600363,3745566.251970998,-22500.0,618.68269205505783,1730.1129167167974,3341.5953474038106,-591.10464608372945,-1295.6954197223813,367.99128325684592,2442.2447689585324,775.56733851757679,2439.2314762327405,-2439.2314762327405,-775.56733851757679,4819.1572296836712,0.0
638296.95196600363,3745566.251970998,-22500.0,798.54901278652937,1797.0323685052579,2703.2329644244742,-625.2459943739434,-1091.3086353850858,318.41272587671494,2239.5299214426868,1076.2035455270227,1916.4447703603339,-1916.4447703603339,-1076.2035455270227,4382.5217584990778,0.0
593296.95196600363,3750566.251970998,-22500.0,215.0321352738971,-952.58992132383764,4490.200470664553,324.54705390172978,-1564.8401836987478,407.94150722809474,2673.0674512149035,-1506.8966903479218,3127.797608334748,-3127.797608334748,1506.8966903479218,5279.5840489477132,0.0
598296.95196600363,3750566.251970998,-22500.0,99.566268372944521,-628.62234628585657,4713.3672815782429,216.5996605520053,-1630.7642685635783,422.63191115071504,2737.0017359078192,-1415.581235454355,3366.0325538967272,-3366.0325538967272,1415.581235454355,5404.2012647099291,0.0
603296.95196600363,3750566.251970998,-22500.0,26.138408276706471,-266.81532252224122,4822.4450360115161,97.763594120311865,-1662.2533623346969,429.44026802297196,2762.3074510457009,-1247.2639872028826,3510.3303959966638,-3510.3303959966638,1247.2639872028826,5455.6716732435225,0.0
608296.95196600363,3750566.251970998,-22500.0,2.1043431467147644,111.51374097169379,4806.021454697895,-25.702860153128189,-1656.2075896948963,427.72214301384537,2746.7573582499481,-1008.842885485634,3547.5039189137724,-3547.5039189137724,1008.842885485634,5429.7786409098744,0.0
613296.95196600363,3750566.251970998,-22500.0,29.563025831304763,482.72288585101188,4661.7397262725981,-146.92897920045925,-1612.0531871908383,417.37349932178188,2690.3808332011477,-714.080609761083,3472.5405014944427,-3472.5405014944427,714.080609761083,5326.4459324512509,0.0
618296.95196600363,3750566.251970998,-22500.0,104.94801053673163,823.52575725964857,4396.8304302938523,-259.1585215025658,-1531.8742319520641,398.85589058693813,2595.7330114849146,-382.21080568666162,3289.422443540454,-3289.422443540454,382.21080568666162,5149.8745526011489,0.0
598296.95196600363,3550566.251970998,-27500.0,282.71216877503946,1262.2305195515401,3424.6891084454342,487.35585344141361,1525.1964678295885,502.54001943733266,2351.3905942534516,237.80988056489628,2562.2361965101582,-2562.2361965101582,-237.80988056489628,4658.384587968404,0.0
603296.95196600363,3550566.251970998,-27500.0,144.37669937278616,1025.3231137372236,3836.6445718226596,389.53174032476448,1677.8849594800233,546.23753766260234,2489.3518681213664,-98.009307552858218,2885.9916655197285,-2885.9916655197285,98.009307552858218,4936.1439927805777,0.0
608296.95196600363,3550566.251970998,-27500.0,36.842692247252309,727.37077819491128,4164.4515679752803,270.03993005548375,1799.2882840918087,581.03155047151802,2604.0551450977455,-435.88463758155945,3130.8465544704377,-3130.8465544704377,435.88463758155945,5158.0405397131481,0.0
613296.95196600363,3550566.251970998,-27500.0,-28.174225979526742,384.66628934353588,4387.724751346198,134.65947927157143,1882.3955769949998,605.03336505460038,2686.4192580264621,-753.13543467941508,3279.6423076238311,-3279.6423076238311,753.13543467941508,5313.5184380053852,0.0
618296.95196600363,3550566.251970998,-27500.0,-43.220312025363874,18.05709061055779,4493.2303042980793,-9.3167934841834477,1922.6183505142465,616.99470543306165,2730.8903592755892,-1028.3528129764095,3322.4089825918168,-3322.4089825918168,1028.3528129764095,5395.4478766319771,0.0
623296.95196600363,3550566.251970998,-27500.0,-6.2119040342567295,-349.32805649156268,4476.4779925067633,-153.823011325648,1918.3127203216093,616.44355683933804,2735.2114999567875,-1243.9526042695616,3257.6612116530805,-3257.6612116530805,1243.9526042695616,5400.7298670144519,0.0
628296.95196600363,3550566.251970998,-27500.0,79.300980930366649,-694.72496128968953,4342.1429947987581,-290.88113632345886,1870.929633051524,603.72630727837929,2699.7913951917526,-1388.1820256946053,3092.509020773557,-3092.509020773557,1388.1820256946053,5330.497025722656,0.0
633296.95196600363,3550566.251970998,-27500.0,204.76713037376524,-998.2686231605046,4103.2327269974994,-413.43208818864247,1784.7621986505276,579.94764566092636,2627.3140891524258,-1456.2093838137771,2841.5565145200153,-2841.5565145200153,1456.2093838137771,5189.8644895148645,0.0
638296.95196600363,3550566.251970998,-27500.0,358.00826563293788,-1244.9762015382205,3779.2050204952461,-516.0000890484838,1666.3536204853995,546.82354714649125,2522.3432250705018,-1450.1492368896593,2524.8400543221223,-2524.8400543221223,1450.1492368896593,4987.2971523691031,0.0
643296.95196600363,3550566.251970998,-27500.0,525.02328704029537,-1425.8728224725471,3393.4261353733064,-595.090957772465,1523.6808542884858,506.47455123463379,2390.8836936211815,-1378.1037990488153,2165.2296166093784,-2165.2296166093784,1378.1037990488153,4733.6913610187821,0.0
648296.95196600363,3550566.251970998,-27500.0,691.84991329974389,-1538.1738441214545,2970.459646753121,-649.29224679767685,1365.2678714085241,461.19756460362777,2240.027054881964,-1252.507434396076,1785.7891647258807,-1785.7891647258807,1252.507434396076,4441.3259485996159,0.0
583296.95196600363,3555566.251970998,-27500.0,883.52674112278248,1739.4414176089042,1993.4678258115232,735.75121394197538,1069.795325681941,399.22055094837486,2078.1686724313618,1251.3936295750718,1359.4274131380239,-1359.4274131380239,-1251.3936295750718,4017.2649942776725,0.0
588296.95196600363,3555566.251970998,-27500.0,715.48633044500389,1739.6687226289835,2593.1813787737378,720.67566414972987,1307.2879468724755,471.17679119156566,2278.7476013177334,1011.1964075454716,1857.1173607509736,-1857.1173607509736,-1011.1964075454716,4450.68893744462,0.0
593296.95196600363,3555566.251970998,-27500.0,528.73163627188114,1651.5651125789466,3192.9100875447693,671.97668372139276,1542.073100083715,541.77249131709607,2475.1193900736766,700.97897035251162,2351.4855855236997,-2351.4855855236997,-700.97897035251162,4871.8479051376589,0.0
598296.95196600363,3555566.251970998,-27500.0,340.57139348166936,1470.0358988762828,3759.5335942003362,588.31607446971361,1762.0580165622036,607.57965689734078,2660.2292484331188,335.67352457928041,2811.7973117464826,-2811.7973117464826,-335.67352457928041,5261.5220408513242,0.0
603296.95196600363,3555566.251970998,-27500.0,170.43446094475672,1198.270314403072,4258.0087714808496,471.26801168185591,1954.6147414690679,665.04954964070123,2827.2132873240007,-62.559422730149436,3206.0930692575621,-3206.0930692575621,62.559422730149436,5600.5824802702837,0.0
608296.95196600363,3555566.251970998,-27500.0,37.334325820455959,848.51665378025359,4655.1907283289929,325.54235603887804,2107.888214676238,710.86505004080698,2966.0397104355848,-466.26697216903744,3504.9357312766015,-3504.9357312766015,466.26697216903744,5871.5778468991593,0.0
613296.95196600363,3555566.251970998,-27500.0,-42.941514511541619,441.47803136832545,4923.9143886919746,158.7532058812549,2212.1769942096907,742.30955202329778,3065.3067301489268,-845.78117840592995,3685.2914761534244,-3685.2914761534244,845.78117840592995,6060.3255163541726,0.0
618296.95196600363,3555566.251970998,-27500.0,-60.343383549260523,4.2578061509053793,5046.5722893782386,-19.285496683320595,2261.1389514900247,757.58847785270359,3117.5480413600271,-1172.953325913466,3733.7818740007751,-3733.7818740007751,1172.953325913466,6157.2647685178717,0.0
623296.95196600363,3555566.251970998,-27500.0,-12.198832808398294,-432.86232798113264,5017.4553865419357,-197.64491825112239,2252.5877224784922,756.04418134399862,3119.7214074250946,-1424.8341614708932,3648.6058384401522,-3648.6058384401522,1424.8341614708932,6158.3582589740872,0.0
628296.95196600363,3555566.251970998,-27500.0,96.413590995237428,-840.21278307367766,4843.3366115005656,-365.55543668193002,2188.7084251587085,738.21885734434863,3072.4783573252816,-1586.5415099355105,3439.6818229442279,-3439.6818229442279,1586.5415099355105,6065.3681318176614,0.0
633296.95196600363,3555566.251970998,-27500.0,253.6371247007288,-1192.3483285917082,4542.2027465765968,-513.63222077784235,2075.6620652868405,705.75783118196409,2979.6086091987809,-1652.7504306081619,3126.9949132306747,-3126.9949132306747,1652.7504306081619,5885.4834737830442,0.0
638296.95196600363,3555566.251970998,-27500.0,442.9001524584254,-1470.7820459410909,4140.4242555078717,-634.82549707273154,1922.6598631587731,661.17073995791941,2847.4490324042904,-1627.5691617360712,2737.5240765866797,-2737.5240765866797,1627.5691617360712,5630.3408730845831,0.0
643296.95196600363,3555566.251970998,-27500.0,645.56369308779733,-1665.4081626468746,3669.0624117532975,-724.95138365415153,1740.7363340520797,607.51018999928613,2684.2882965667814,-1522.9896258420499,2301.4812847457342,-2301.4812847457342,1522.9896258420499,5314.6921654395019,0.0
648296.95196600363,3555566.251970998,-27500.0,843.56491733655287,-1774.5080829083754,3160.008227951223,-782.75764032524694,1541.4335834082651,548.01918176959839,2499.8846715549048,-1356.3671973299572,1848.5824596739747,-1848.5824596739747,1356.3671973299572,4954.8652545552313,0.0
653296.95196600363,3555566.251970998,-27500.0,1021.5580174706847,-1803.5762395437614,2642.6785151781537,-809.58994414855215,1335.6441862775669,485.81397959747636,2304.8562470684346,-1147.5614270471549,1405.025583263902,-1405.025583263902,1147.5614270471549,4567.3148073102884,0.0
658296.95196600363,3555566.251970998,-27500.0,1168.2585329999013,-1763.3943890055853,2141.6766241232845,-808.78762657384948,1132.7524060863846,423.63997069678999,2108.2198482993836,-916.29641243365552,991.52784599269887,-991.52784599269887,916.29641243365552,4167.4093141536132,0.0
573296.95196600363,3560566.251970998,-27500.0,1308.4894592525454,1657.5110333742937,759.29870804810423,779.73102491293616,639.86932349452616,292.2882596308358,1862.8146329910037,1741.4328578760374,299.77290802604716,-299.77290802604716,-1741.4328578760374,3474.2560647542823,0.0
578296.95196600363,3560566.251970998,-27500.0,1212.267484952471,1846.1535798694269,1351.4894798306702,838.7555441002911,895.54617106198589,375.52871014187883,2081.3911622616788,1672.235543656762,788.32653219072131,-788.32653219072131,-1672.235543656762,3946.8211925209939,0.0
583296.95196600363,3560566.251970998,-27500.0,1062.468453446091,1965.7055464805419,2013.5169692808397,868.26240454319679,1175.2167420255794,465.25546185894552,2314.9152284541055,1508.1675876283894,1338.7303385859286,-1338.7303385859286,-1508.1675876283894,4452.6589847092819,0.0
588296.95196600363,3560566.251970998,-27500.0,868.16481224014535,1994.3312540437682,2720.3226469845908,860.60164470313634,1468.6861528179797,558.318774874258,2555.3632856060681,1246.1399696817175,1927.1239640779804,-1927.1239640779804,-1246.1399696817175,4972.4713220842978,0.0
593296.95196600363,3560566.251970998,-27500.0,645.3590296233009,1914.8865311106438,3437.2050967862729,810.02987492425996,1762.3875115007449,650.6363560376501,2793.3305997275247,892.66998607704659,2520.7361511470253,-2520.7361511470253,-892.66998607704659,5483.2968666569632,0.0
598296.95196600363,3560566.251970998,-27500.0,415.99749768734017,1718.3897919550961,4121.918886367057,713.89142575514779,2040.2048003932127,737.43963562952626,3019.1759168200947,465.08254454752318,3080.1379866090465,-3080.1379866090465,-465.08254454752318,5959.9294719086147,0.0
603296.95196600363,3560566.251970998,-27500.0,205.60010032116529,1406.891048376722,4728.5839994046974,573.56596594585073,2284.9074731339751,813.68446995991144,3223.2533860680405,-8.9601837905797765,3563.2275327498537,-3563.2275327498537,8.9601837905797765,6376.8457437074458,0.0
608296.95196600363,3560566.251970998,-27500.0,39.722503092070951,994.92497363354141,5213.0166033541891,394.91629702694678,2480.0499715531182,874.58316382920282,3392.8418862632261,-493.91449161841251,3930.4979908499736,-3930.4979908499736,493.91449161841251,6710.4717999984423,0.0
613296.95196600363,3560566.251970998,-27500.0,-60.130290471735584,508.93528537300205,5538.6324258568238,188.04257175069415,2612.0453056170741,916.17902749186283,3513.4865848340805,-950.62244009659685,4150.6905510732677,-4150.6905510732677,950.62244009659685,6941.5176341581191,0.0
618296.95196600363,3560566.251970998,-27500.0,-80.244082615759012,-15.521118578328112,5681.7401699201764,-33.712486575127812,2672.0167870579794,935.85869461994355,3575.2281726937422,-1341.6906818860143,4205.6404728450771,-4205.6404728450771,1341.6906818860143,7057.0045076197821,0.0
623296.95196600363,3560566.251970998,-27500.0,-17.159979214712418,-538.39305488811988,5635.0152425609349,-255.3723982045255,2657.0219110164981,932.69340340152041,3573.986065452289,-1636.8644769430082,4093.157538560793,-4093.157538560793,1636.8644769430082,7051.6034466916481,0.0
628296.95196600363,3560566.251970998,-27500.0,121.78612918991384,-1020.647852530518,5408.3425238735608,-462.24357207185727,2570.3800984359609,907.53946424125957,3510.82045091082,-1817.1944165628083,3827.2270996479765,-3827.2270996479765,1817.1944165628083,6928.0511348685186,0.0
633296.95196600363,3560566.251970998,-27500.0,319.98142727049202,-1429.479543479031,5026.8262333084831,-641.74493343223162,2421.0259896652155,862.87357475853105,3391.1473778949567,-1877.0763606225883,3435.4691832660537,-3435.4691832660537,1877.0763606225883,6696.5406240554021,0.0
638296.95196600363,3560566.251970998,-27500.0,554.67795789896775,-1742.1187357724282,4526.5348098154118,-784.78568889906637,2222.0709601603203,802.41001326218247,3223.8928227781289,-1823.8417551740395,2954.5381020185141,-2954.5381020185141,1823.8417551740395,6373.2612231800222,0.0
643296.95196600363,3560566.251970998,-27500.0,800.92120946001535,-1947.5820188904077,3949.0040560321013,-886.45943518017077,1988.8998908429126,730.58198056966751,3020.6127614637426,-1675.2155842889965,2424.5685876085731,-2424.5685876085731,1675.2155842889965,5978.3470470418097,0.0
648296.95196600363,3560566.251970998,-27500.0,1035.3247219339612,-2046.2949574744446,3335.7495064165842,-946.01453623361772,1737.2247430855446,651.99952555022196,2794.6713666452038,-1455.4689839995847,1883.9119083105368,-1883.9119083105368,1455.4689839995847,5533.656320078092,0.0
653296.95196600363,3560566.251970998,-27500.0,1238.942911565375,-2048.0345806378359,2723.7806848356699,-966.22949656698881,1481.4359478821748,570.97662573018681,2559.4029124282324,-1191.2524814135302,1365.0948675711136,-1365.0948675711136,1191.2524814135302,5060.7150085761641,0.0
658296.95196600363,3560566.251970998,-27500.0,1398.8606794740247,-1968.9277914909837,2142.6948640508131,-952.42521110369137,1233.4667330236364,491.1894731918353,2324.5753004202766,-907.96484606867079,892.47456417684907,-892.47456417684907,907.96484606867079,4579.0834259085041,0.0
663296.95196600363,3560566.251970998,-27500.0,1508.5057113807063,-1828.2704164881163,1613.4547196754011,-911.36812603278793,1002.2319320355721,415.48911639823694,2096.2082390101396,-627.18222300469711,481.58048533414581,-481.58048533414581,627.18222300469711,4105.2784127973428,0.0
668296.95196600363,3560566.251970998,-27500.0,1566.9657634338785,-1645.7543777213154,1148.5814847736226,-850.26998746659569,793.57314952899833,345.85607183344138,1878.8701233815409,-365.29826967598774,139.78771906381755,-139.78771906381755,365.29826967598774,3652.2507837156204,0.0
568296.95196600363,3565566.251970998,-27500.0,1556.1709227908182,1483.9873448437993,-2.7636184403037696,778.51491229070473,371.10595274177894,228.71639385351247,1826.6148875184886,1953.6557969239348,-362.97295963397494,362.97295963397494,-1953.6557969239348,3310.7504168380638,0.0
573296.95196600363,3565566.251970998,-27500.0,1535.9335171644002,1784.063919337241,553.39663082412176,887.69791874640453,634.03927118039132,320.80718775077321,2051.0582150681471,2013.6743774121255,85.689981057470618,-85.689981057470618,-2013.6743774121255,3790.3425532689234,0.0
578296.95196600363,3565566.251970998,-27500.0,1445.1139977833902,2038.0699939775795,1221.202470060311,973.63426473310653,939.49873423267923,425.53503196981558,2304.608723740419,1973.9540763713412,635.18005327223807,-635.18005327223807,-1973.9540763713412,4337.5609178689328,0.0
583296.95196600363,3565566.251970998,-27500.0,1283.8286778561646,2215.4321836563236,1985.8042952290489,1024.7124816903438,1280.2668642666331,540.37988673320035,2580.7033814753095,1817.7335073235961,1271.2040415970057,-1271.2040415970057,-1817.7335073235961,4935.4984367635952,0.0
588296.95196600363,3565566.251970998,-27500.0,1061.0859851756468,2285.9388010047887,2818.7167042575934,1029.8298159202666,1643.9787235900785,661.29958789764748,2869.6502598937777,1537.127021874202,1966.4898543953414,-1966.4898543953414,-1537.127021874202,5560.3926881992147,0.0
593296.95196600363,3565566.251970998,-27500.0,795.6931734140461,2224.3778619900304,3677.6060480301326,980.09397540749251,2013.1913610740003,782.78402498206947,3159.4227253636623,1136.8015111061611,2680.8307040725167,-2680.8307040725167,-1136.8015111061611,6182.793308334898,0.0
598296.95196600363,3565566.251970998,-27500.0,515.38628034586645,2015.6845954228459,4508.570936412114,870.65244208160846,2366.3591827797923,898.16881707131131,3437.0054273834676,636.31601709902179,3363.6155276973382,-3363.6155276973382,-636.31601709902179,6769.4573158240992,0.0
603296.95196600363,3565566.251970998,-27500.0,253.82370859008904,1659.4864158340774,5251.2184506316553,702.25857821459545,2679.7931175503086,1000.2232086644393,3688.8649397385548,70.096832137541014,3959.0680817962084,-3959.0680817962084,-70.096832137541014,7286.0190617382686,0.0
608296.95196600363,3565566.251970998,-27500.0,45.647084766492519,1172.7447710620661,5846.1301603664979,482.13373785557906,2930.4371787586597,1081.9597084117615,3898.1646385325348,-515.59156798854929,4413.6860950367254,-4413.6860950367254,515.59156798854929,7700.2707629935112,0.0
613296.95196600363,3565566.251970998,-27500.0,-79.519087489045035,589.38959521787774,6243.4932176998464,223.76114674483281,3099.0233965300476,1137.5418170179405,4046.1967910663602,-1068.5874150811742,4684.5665376997586,-4684.5665376997586,1068.5874150811742,7985.638124498274,0.0
618296.95196600363,3565566.251970998,-27500.0,-102.71716386983186,-43.487759128679009,6411.0289448862914,-54.523030638922194,3172.9514312682968,1163.1087890854358,4119.6736935920781,-1538.6667065014974,4746.7216267863187,-4746.7216267863187,1538.6667065014974,8124.2469823880056,0.0
623296.95196600363,3565566.251970998,-27500.0,-19.426344156645023,-672.34130298182492,6339.2601634538605,-331.94867440957984,3148.2167892020675,1157.3328791448787,4113.1571232526467,-1885.5165725999982,4597.4899615667164,-4597.4899615667164,1885.5165725999982,8108.9776471287396,0.0
628296.95196600363,3565566.251970998,-27500.0,159.6440448552174,-1245.3090396730495,6042.7240437774535,-588.24081878229606,3029.9045106260437,1121.5768745790081,4028.3927923284905,-2084.8776304811659,4256.8092083645934,-4256.8092083645934,2084.8776304811659,7944.0699189911447,0.0
633296.95196600363,3565566.251970998,-27500.0,410.95940721943418,-1719.8334674128939,5556.8445474225528,-806.3955242493563,2831.1370909002976,1059.6179953883277,3873.2443765205057,-2131.3650765326006,3763.2778992493763,-3763.2778992493763,2131.3650765326006,7644.1666402654864,0.0
638296.95196600363,3565566.251970998,-27500.0,703.01480146698862,-2067.9994148273804,4931.3705329516542,-974.69182446184516,2570.7673837622406,977.01136038964216,3660.4226190901309,-2037.4759156116704,3167.1162669340174,-3167.1162669340174,2037.4759156116704,7232.0110209676632,0.0
643296.95196600363,3565566.251970998,-27500.0,1002.2317920449092,-2278.6122136391236,4222.1862015514416,-1087.5842936897295,2270.4306003554007,880.25747226951648,3406.1437776715934,-1829.4255775335623,2521.9345499923529,-2521.9345499923529,1829.4255775335623,6735.3575156750976,0.0
648296.95196600363,3565566.251970998,-27500.0,1278.3703617767289,-2356.0290158977591,3483.4089779203664,-1145.4441021677244,1951.6106278646541,775.95000569125216,3128.3960140043168,-1541.2092963876842,1877.2290797163839,-1877.2290797163839,1541.2092963876842,6183.6538286688237,0.0
653296.95196600363,3565566.251970998,-27500.0,1508.3375078084021,-2316.6248347642613,2761.3552779099277,-1153.4212609738761,1633.3028012628783,670.07201956747997,2843.3129201068132,-1208.5261661138909,1273.0485083635597,-1273.0485083635597,1208.5261661138909,5605.1344253794241,0.0
658296.95196600363,3565566.251970998,-27500.0,1677.933102880464,-2184.1409069518904,2091.0705347727944,-1119.8374942780865,1330.5503469072733,567.52583803667073,2561.8730789434185,-863.83386610228058,737.36097098204618,-737.36097098204618,863.83386610228058,5024.6445505329793,0.0
663296.95196600363,3565566.251970998,-27500.0,1781.707301075294,-1985.1055423800733,1495.3775525572801,-1054.5244923871319,1053.8846497370989,471.91685881666814,2291.4626509621512,-533.20036523236149,285.90030054822853,-285.90030054822853,533.20036523236149,4462.3446844374275,0.0
668296.95196600363,3565566.251970998,-27500.0,1821.4961220747014,-1745.1441518653646,985.86458466713361,-967.41260536732625,809.50374672940859,385.55617271472573,2037.6928540504416,-235.00682809056082,-76.213577839183372,76.213577839183372,235.00682809056082,3933.2456857303905,0.0
673296.95196600363,3565566.251970998,-27500.0,1804.3124355224752,-1486.5319555962799,565.01785392821137,-867.52391117182492,599.9261775723694,309.61373453526596,1804.5074274360591,19.867858156359688,-351.93107795806384,351.93107795806384,-19.867858156359688,3447.3848777665344,0.0
678296.95196600363,3565566.251970998,-27500.0,1740.1692193364768,-1226.9668763068853,228.77008128104094,-762.39233002186484,424.86324041746303,244.3511005968854,1594.140591451963,226.92088745558092,-549.53340031076766,549.53340031076766,-226.92088745558092,3010.4180181461593,0.0
558296.95196600363,3570566.251970998,-27500.0,1552.0696647526795,753.03060476327187,-1117.0890437480682,541.28876165439624,-138.51158788617164,62.7225749758855,1625.9167454305166,1719.839323135996,-1261.0474332184103,1261.0474332184103,-1719.839323135996,2829.304055042639,0.0
563296.95196600363,3570566.251970998,-27500.0,1699.3492578233934,1124.1893550309414,-791.83485866418334,697.7172300975094,49.64858280321765,137.9551953261105,1796.7265898373462,1983.6347812896631,-1030.7822499364727,1030.7822499364727,-1983.6347812896631,3164.4047932135809,0.0
568296.95196600363,3570566.251970998,-27500.0,1787.745487465017,1512.7753297038591,-335.14456818411668,855.2081443527635,294.48991220370783,231.87380711054936,2007.2320954299557,2192.4636545489234,-682.14402428446499,682.14402428446499,-2192.4636545489234,3597.810137592784,0.0
573296.95196600363,3570566.251970998,-27500.0,1800.3975119659101,1892.8411250904378,265.15352956364922,1002.4320890728413,599.28373124838174,345.09249817113465,2259.7126232859682,2315.9056977588839,-203.34098184739923,203.34098184739923,-2315.9056977588839,4132.9425751414665,0.0
578296.95196600363,3570566.251970998,-27500.0,1725.0110638300853,2230.3863138740794,1010.9769604938297,1125.2488997695095,962.81531729845881,476.73464985562498,2552.2311524615125,2323.3932852643843,407.46408012024813,-407.46408012024813,-2323.3932852643843,4762.3724517057235,0.0
583296.95196600363,3570566.251970998,-27500.0,1557.5519503214389,2485.4864025141455,1889.4955377248086,1207.6852311523176,1377.7611650627537,623.96976213938956,2878.061470493546,2188.9404299731432,1137.8392859401704,-1137.8392859401704,-2188.9404299731432,5467.611468981102,0.0
588296.95196600363,3570566.251970998,-27500.0,1305.6697512881151,2616.5848466206785,2869.5075506730509,1233.6882906975222,1829.4806192501624,781.69535108687535,3225.7899865165182,1896.934839262434,1957.7351576849671,-1957.7351576849671,-1896.934839262434,6219.8115719802472,0.0
593296.95196600363,3570566.251970998,-27500.0,990.78677816810898,2586.8502214981054,3900.0259516641045,1189.5811416607046,2295.705467536211,942.50166312884573,3580.1955225650008,1447.9600210789145,2818.435092987183,-2818.435092987183,-1447.9600210789145,6981.257754395886,0.0
598296.95196600363,3570566.251970998,-27500.0,647.70369934527002,2371.7639310837476,4912.4006934718464,1066.884685522999,2747.5818876019312,1097.0422484339754,3923.838291107867,863.07897259879019,3655.0753606638705,-3655.0753606638705,-863.07897259879019,7707.8786148965874,0.0
603296.95196600363,3570566.251970998,-27500.0,320.93527796764522,1966.3283398342835,5826.7738732786438,864.91333071600241,3152.3108017906916,1234.8688656764909,4237.7521366795218,184.84490594515592,4393.4095631165792,-4393.4095631165792,-184.84490594515592,8352.982654232921,0.0
608296.95196600363,3570566.251970998,-27500.0,57.827990522033197,1389.7693238849772,6562.5418575126996,592.39162501020712,3477.2218378983621,1345.6706685234653,4498.9326080986084,-526.25859742532475,4960.3290026891773,-4960.3290026891773,526.25859742532475,8872.044188993752,0.0
613296.95196600363,3570566.251970998,-27500.0,-100.32876771722404,685.77464151449271,7051.0853022309993,267.41895529541472,3694.6221996368863,1420.7218035350763,4682.5280820047392,-1200.0908619495581,5296.239337539233,-5296.239337539233,1200.0908619495581,9227.9333790258752,0.0
618296.95196600363,3570566.251970998,-27500.0,-126.96617804049156,-82.669058677744118,7247.8387891150333,-84.522702390160347,3786.3573794186727,1454.2340222591067,4770.6731631971807,-1768.4032151539591,5366.287676271937,-5366.287676271937,1768.4032151539591,9395.655415204048,0.0
623296.95196600363,3570566.251970998,-27500.0,-16.111506300101169,-843.14636670630557,7140.415579721177,-434.25948979065777,3746.9048191797147,1444.2818505515186,4756.1404452474462,-2176.8619842590997,5167.2386496495037,-5167.2386496495037,2176.8619842590997,9365.5540438142125,0.0
628296.95196600363,3570566.251970998,-27500.0,216.41943513038891,-1526.0260147548222,6750.4042899244296,-753.48041886424835,3584.1413924042999,1393.0576069912092,4641.8396019317815,-2394.2617923122539,4727.867121672296,-4727.867121672296,2394.2617923122539,9144.2316492882583,0.0
633296.95196600363,3570566.251970998,-27500.0,536.89672794732473,-2075.7813385578456,6128.3509210746079,-1019.0181512933801,3317.5904491083234,1306.3963461076032,4439.3528826451138,-2416.4436260000439,4102.7328732756132,-4102.7328732756132,2416.4436260000439,8752.9929411700577,0.0
638296.95196600363,3570566.251970998,-27500.0,901.29798535792736,-2458.5155843827852,5343.5039243365936,-1215.81449794373,2974.6697340719106,1192.7043461727264,4166.9806099585048,-2264.1827245311038,3361.2571599070948,-3361.2571599070948,2264.1827245311038,8224.1787189574679,0.0
643296.95196600363,3570566.251970998,-27500.0,1264.2601418383083,-2664.2378566159095,4471.4339315545794,-1338.0150848605447,2586.0419753731121,1061.5968319480689,3847.4859647126095,-1976.299861087246,2575.3604113146389,-2575.3604113146389,1976.299861087246,7596.3935559731181,0.0
648296.95196600363,3570566.251970998,-27500.0,1586.8545286831122,-2704.1609221967833,3582.6518289994679,-1388.222646383605,2181.1828190531883,922.55470203177288,3504.6328742352921,-1600.4475111302868,1808.7715191168681,-1808.7715191168681,1600.4475111302868,6909.5535037999525,0.0
653296.95196600363,3570566.251970998,-27500.0,1841.522764844696,-2604.7005552927958,2734.5819922692094,-1375.4531831344698,1785.0781794248383,783.87558311745329,3157.8007086780117,-1184.2510885667525,1110.1180864726293,-1110.1180864726293,1184.2510885667525,6200.7447588892737,0.0
658296.95196600363,3570566.251970998,-27500.0,2013.709804641908,-2400.3118084785938,1967.6983287740588,-1312.5311904909358,1416.4163782432647,652.04279840134416,2819.9620201096918,-768.68705490813181,510.31507581721036,-510.31507581721036,768.68705490813181,5501.364609318789,0.0
663296.95196600363,3570566.251970998,-27500.0,2100.7523819271773,-2126.9916686441647,1305.3918947082898,-1213.5967086587598,1087.1997139398018,531.51457418500524,2500.2027940184003,-384.45917843227619,23.547969521077079,-23.547969521077079,384.45917843227619,4835.6733861756993,0.0
668296.95196600363,3570566.251970998,-27500.0,2109.1004111247371,-1817.5181699109382,756.39271147894863,-1092.1564252989099,803.40078751035674,424.84255627592285,2205.0060642111303,-51.139823315340692,-349.49411577848718,349.49411577848718,51.139823315340692,4220.559964721403,0.0
673296.95196600363,3570566.251970998,-27500.0,2050.971929635828,-1498.7146777884648,318.4240828725525,-959.84123624340043,566.1979487136897,332.99227307514462,1938.3348747594341,221.71960570783162,-617.50877394665633,617.50877394665633,-221.71960570783162,3666.16382489127,0.0
678296.95196600363,3570566.251970998,-27500.0,1941.2578950280019,-1190.4805304942849,-17.978873248008249,-825.8262423117078,373.38478301883464,255.74626695849719,1701.8397578154588,432.43142615259501,-794.62602131100073,794.62602131100073,-432.43142615259501,3176.9779703283357,0.0
683296.95196600363,3570566.251970998,-27500.0,1795.1192115611509,-906.07301310361561,-266.15477233473865,-696.75753368394589,220.67560257099072,192.10115654876878,1495.2973563058565,584.7350465178597,-897.19354001740521,897.19354001740521,-584.7350465178597,2753.1198976868973,0.0
553296.95196600363,3575566.251970998,-27500.0,1420.1888913034229,217.24576621542315,-1689.5053751654291,350.24105126716506,-433.19974888462673,-40.162202818301516,1663.8749642234097,1412.7351764727289,-1696.2569050869026,1696.2569050869026,-1412.7351764727289,2886.894168944335,0.0
558296.95196600363,3575566.251970998,-27500.0,1673.2877062971766,593.1029217652524,-1516.9129420242054,526.35435071168524,-296.17797856855003,23.965877454984447,1805.1577503712579,1780.2482706627941,-1613.3320570915614,1613.3320570915614,-1780.2482706627941,3128.1942433148561,0.0
563296.95196600363,3575566.251970998,-27500.0,1887.7703560868765,1023.6169389004303,-1215.8454693415611,719.88539011093405,-97.451057715566932,110.27630668393948,1984.6283302415748,2130.7165596561117,-1416.964585052239,1416.964585052239,-2130.7165596561117,3464.3653949356562,0.0
568296.95196600363,3575566.251970998,-27500.0,2039.1905734784104,1491.2981461647594,-759.27178114883907,921.71687366607807,173.04547496592724,221.69492696984733,2211.4638127972903,2431.2075320200543,-1080.9620924957603,1080.9620924957603,-2431.2075320200543,3919.045739204194,0.0
573296.95196600363,3575566.251970998,-27500.0,2102.9680897357212,1967.1290555871801,-125.49222234938775,1118.1612504278178,522.3937068179273,359.98321203918437,2491.7395697589632,2642.2971376212445,-584.26490417058926,584.26490417058926,-2642.2971376212445,4505.3510947045825,0.0
578296.95196600363,3575566.251970998,-27500.0,2058.6086944349354,2409.9886310663333,695.89266629060501,1290.9943610952591,952.26823213867726,524.96986246124652,2826.2620811530674,2721.6753410403553,83.182833111719674,-83.182833111719674,-2721.6753410403553,5221.4660879059402,0.0
583296.95196600363,3575566.251970998,-27500.0,1895.0673589668856,2768.4524916434034,1697.1739250554465,1418.4499302088973,1456.3102208301359,713.75664187403174,3209.1742180102797,2630.2244405797519,913.8192136798682,-913.8192136798682,-2630.2244405797519,6049.1643864300249,0.0
588296.95196600363,3575566.251970998,-27500.0,1616.3033612162769,2985.8258918602319,2846.2608987886374,1477.4451560267623,2017.8613327981207,920.07669751215622,3627.6338845379873,2340.2309444329635,1876.5317054073441,-1876.5317054073441,-2340.2309444329635,6954.3619949122904,0.0
593296.95196600363,3575566.251970998,-27500.0,1245.4390693909838,3008.6580167577658,4082.9997825506262,1447.0628384579143,2608.8479997865925,1134.0440194961559,4062.6858292566926,1844.4377284190409,2913.4790712854015,-2913.4790712854015,-1844.4377284190409,7889.0148493929028,0.0
598296.95196600363,3575566.251970998,-27500.0,825.56872243190946,2797.8459318586047,5320.4076136683316,1312.8879120678071,3190.6596382666876,1342.5330178955635,4491.123674427422,1163.6018456149413,3941.9365918927015,-3941.9365918927015,-1163.6018456149413,8794.4831506082155,0.0
603296.95196600363,3575566.251970998,-27500.0,415.60012513193107,2340.0335735633803,6452.548440094427,1071.3041154909536,3717.601096484143,1530.3384687620862,4886.3418508717195,349.64234275733907,4862.7281848101675,-4862.7281848101675,-349.64234275733907,9606.7575906046914,0.0
608296.95196600363,3575566.251970998,-27500.0,80.744502253135082,1655.8876456116002,7369.1347746282399,732.48493046607177,4142.8683614316869,1682.0746697040929,5216.1270693238166,-518.13777822961583,5575.0636313212126,-5575.0636313212126,518.13777822961583,10263.495546719563,0.0
613296.95196600363,3575566.251970998,-27500.0,-120.75155015420646,801.76761867459072,7974.4903317088456,320.83170969661796,4426.096384690476,1784.5152576378089,5446.5630378491569,-1344.524493739847,5995.1272338684448,-5995.1272338684448,1344.524493739847,10712.033775002697,0.0
618296.95196600363,3575566.251970998,-27500.0,-151.10048061100045,-137.21537618424549,8206.1961444648023,-127.83047552640157,4540.7007058261552,1828.845133354416,5553.2810145697749,-2035.6204397231177,6073.5720544945671,-6073.5720544945671,2035.6204397231177,10916.821583492689,0.0
623296.95196600363,3575566.251970998,-27500.0,-2.3158771585744731,-1061.9142396908019,8047.8860800126322,-571.96365784855323,4478.953610277732,1812.2293064965652,5526.6598477884272,-2517.2883025011633,5806.4689497607869,-5806.4689497607869,2517.2883025011633,10864.545998340904,0.0
628296.95196600363,3575566.251970998,-27500.0,301.94978089378316,-1877.8042489880224,7531.9716630149069,-971.53564769531977,4253.2097568580548,1738.2364038726148,5371.5805533137591,-2749.2319531822855,5235.8971387625843,-5235.8971387625843,2749.2319531822855,10565.567784574656,0.0
633296.95196600363,3575566.251970998,-27500.0,712.75834999221092,-2512.0709477032701,6731.42976069617,-1294.7370548796684,3892.9180169771062,1616.0019049220271,5105.3393680370309,-2730.4510124534254,4439.9084623945864,-4439.9084623945864,2730.4510124534254,10051.31304019647,0.0
638296.95196600363,3575566.251970998,-27500.0,1168.0595156733943,-2924.2798460709428,5743.5512026562592,-1522.3942157688323,3438.4292083462656,1458.4019497454037,4754.5453150371486,-2495.005065824851,3515.3213618358277,-3515.3213618358277,2495.005065824851,9368.3851369727945,0.0
643296.95196600363,3575566.251970998,-27500.0,1606.4276862276033,-3108.4152158524212,4670.9520437836482,-1649.1807961294351,2933.5281264509072,1279.7800954890554,4351.1012766337772,-2100.4850601485377,2558.9155227978245,-2558.9155227978245,2100.4850601485377,8570.9927574450448,0.0
648296.95196600363,3575566.251970998,-27500.0,1978.2144156517206,-3087.2707436475575,3605.1892050441511,-1681.8714020253492,2418.7147875561413,1093.8205812378042,3926.076427975428,-1613.6397315390905,1652.2431027015273,-1652.2431027015273,1613.6397315390905,7713.5222651769336,0.0
653296.95196600363,3575566.251970998,-27500.0,2251.6796621146427,-2902.3465260433136,2616.3374069324441,-1635.702805824382,1926.5965702852984,911.99289653064409,3503.0376165361636,-1097.5206276221847,853.00113880485617,-853.00113880485617,1097.5206276221847,6844.6331653342959,0.0
658296.95196600363,3575566.251970998,-27500.0,2413.8795408546939,-2602.9264098330182,1749.3019291547987,-1530.1810184215851,1479.8444733105323,742.74997195790877,3097.714876907964,-602.88482311037649,193.20968076953636,-193.20968076953636,602.88482311037649,6003.6322895619096,0.0
663296.95196600363,3575566.251970998,-27500.0,2467.6729047188592,-2237.051895133483,1025.5137683793196,-1385.3932726696326,1091.3310985798478,591.40715482689745,2720.9256296620297,-164.49107162381787,-317.55327043452724,317.55327043452724,164.49107162381787,5219.0497362983469,0.0
668296.95196600363,3575566.251970998,-27500.0,2426.8205438202608,-1845.6782843089782,447.80143380559463,-1219.4081522520146,765.69605484788929,460.50784163555767,2379.6028793509345,198.59389253121878,-686.28560950427629,686.28560950427629,-198.59389253121878,4508.9751523779905,0.0
673296.95196600363,3575566.251970998,-27500.0,2310.8927001179331,-1460.0022709975037,6.3060006250172922,-1046.8641750551822,501.52932974867747,350.43940700459211,2077.1210738032969,480.24029382276706,-930.2082944395712,930.2082944395712,-480.24029382276706,3882.4800177801931,0.0
678296.95196600363,3575566.251970998,-27500.0,2141.0582932193615,-1101.2209499289909,-316.04047713573556,-878.54498753995324,293.56043516767221,260.10475492234821,1813.8828013166262,683.54514916677635,-1071.2945202953129,1071.2945202953129,-683.54514916677635,3341.5193802876083,0.0
683296.95196600363,3575566.251970998,-27500.0,1937.1789504145304,-781.77302816212887,-539.21644080514875,-721.61996333088962,134.50070233716283,187.52487792209436,1588.0894921979611,817.22586610443398,-1132.2664668099264,1132.2664668099264,-817.22586610443398,2882.8757967696702,0.0
688296.95196600363,3575566.251970998,-27500.0,1716.1704684945005,-507.23292407095528,-683.16998616179171,-580.23804130327778,16.404759287690933,130.31238944646444,1396.5063412930726,892.6817877239439,-1134.0876029039025,1134.0876029039025,-892.6817877239439,2499.8917255996703,0.0
548296.95196600363,3580566.251970998,-27500.0,1091.810276675383,-382.49992438878337,-2094.1666755091801,93.487034402823809,-699.08539663874365,-149.96738707894764,1757.74754721521,902.66839364867815,-1949.026679111206,1949.026679111206,-902.66839364867815,3109.2579690737684,0.0
553296.95196600363,3580566.251970998,-27500.0,1429.5919118644279,-56.536089776132314,-2086.8217846928801,267.3055672048248,-629.13472063224162,-104.82939892479853,1876.1635027562297,1327.4780782553773,-2021.5487987297872,2021.5487987297872,-1327.4780782553773,3276.4815287170368,0.0
558296.95196600363,3580566.251970998,-27500.0,1761.9146576751407,352.84672291962153,-1974.7780888767359,474.18425646721784,-501.17096312628894,-36.553215552060507,2021.5279079673633,1780.3316489293527,-2006.1234332500364,2006.1234332500364,-1780.3316489293527,3504.0846274143196,0.0
563296.95196600363,3580566.251970998,-27500.0,2062.8096308902473,841.97019398188991,-1721.4081377805169,709.99444885646938,-299.33725319167598,60.154588661136195,2206.8773862791154,2234.2976543442278,-1867.482811659936,1867.482811659936,-2234.2976543442278,3828.8738150917752,0.0
568296.95196600363,3580566.251970998,-27500.0,2300.5582843332836,1395.5221531229727,-1288.2381602638363,965.35374271556861,-7.9641212829408357,190.24379740211677,2446.2947972650991,2650.7518635815227,-1568.3367656710284,1568.3367656710284,-2650.7518635815227,4289.2607864063621,0.0
573296.95196600363,3580566.251970998,-27500.0,2440.5852120359541,1982.935105577579,-640.24784001747548,1224.3828507279541,385.93945232060975,357.43089682349694,2751.7106713626636,2979.9911556945804,-1074.6376273413239,1074.6376273413239,-2979.9911556945804,4914.6206675202784,0.0
578296.95196600363,3580566.251970998,-27500.0,2450.7072604984919,2556.113669622448,246.24264010927087,1464.149393493976,889.2311686903638,563.03136914519598,3129.151328948125,3164.7951976373615,-363.39302811881907,363.39302811881907,-3164.7951976373615,5715.4367852075875,0.0
583296.95196600363,3580566.251970998,-27500.0,2308.6310232113938,3050.1183851740097,1373.6174137510409,1655.4087987798987,1498.5168189859542,804.63665810536304,3575.7103061773746,3147.8124908933823,567.5665897017841,-567.5665897017841,-3147.8124908933823,6678.1324960302736,0.0
588296.95196600363,3580566.251970998,-27500.0,2010.6563260942455,3388.5030924080447,2712.6219487062049,1765.2390988959435,2196.1266680395383,1074.8993343163447,4078.1805930190394,2882.8602364263652,1689.6368361706109,-1689.6368361706109,-2882.8602364263652,7764.550856240814,0.0
593296.95196600363,3580566.251970998,-27500.0,1579.3205229012281,3494.3134811386185,4194.656276325657,1761.8463506586156,2947.4260127903158,1360.8217460738297,4613.627873524707,2348.7043748269471,2936.3997999383846,-2936.3997999383846,-2348.7043748269471,8914.264893289801,0.0
598296.95196600363,3580566.251970998,-27500.0,1066.7806953771315,3306.103305514624,5710.6085000956136,1621.1608864324799,3700.9665282717269,1643.9976902041183,5151.4420824328236,1562.0111882347355,4203.3738330641982,-4203.3738330641982,-1562.0111882347355,10049.115612755326,0.0
603296.95196600363,3580566.251970998,-27500.0,550.78226488773043,2795.8982796338346,7119.7834979526397,1333.9432953675494,4392.7763857970012,1902.1690454426239,5654.2006230564757,584.67092337004078,5357.892171423824,-5357.892171423824,-584.67092337004078,11080.594336300179,0.0
608296.95196600363,3580566.251970998,-27500.0,121.75027744645668,1983.6533799880999,8270.0570886992209,911.27577933690623,4955.0710098553227,2112.1260908696745,6075.8814681260965,-479.27761281047924,6259.8396665653909,-6259.8396665653909,479.27761281047924,11920.251924496315,0.0
613296.95196600363,3580566.251970998,-27500.0,-137.13013253948097,942.00985697536817,9026.320551097655,386.1227556856374,5328.1178121444018,2253.5264786655125,6368.9544420704851,-1499.3808221560903,6789.7871103836333,-6789.7871103836333,1499.3808221560903,12492.131196294029,0.0
618296.95196600363,3580566.251970998,-27500.0,-171.26034149434898,-212.80843674658391,9299.7849285499669,-190.54015671815114,5472.2931071260537,2312.7190858658723,6499.5275696745111,-2344.7406212001438,6876.7283269920154,-6876.7283269920154,2344.7406212001438,12744.713617555564,0.0
623296.95196600363,3580566.251970998,-27500.0,30.188002712326465,-1343.2487295130729,9068.5559088639202,-758.70280683923806,5376.6006604864569,2285.4587904616028,6454.6923231283117,-2912.8422312920843,6515.8936867047232,-6515.8936867047232,2912.8422312920843,12659.29377602537,0.0
628296.95196600363,3580566.251970998,-27500.0,431.35415381103752,-2319.4856122684414,8381.8907049868285,-1260.9962222727527,5060.6936466039824,2177.6315166123509,6242.6650398151096,-3151.5211285460705,5769.6988822992462,-5769.6988822992462,3151.5211285460705,12252.30221495636,0.0
633296.95196600363,3580566.251970998,-27500.0,960.31603894644923,-3045.6855731874539,7346.5151297417233,-1653.4430233123464,4569.6824606821028,2003.7546592998044,5889.6648638803963,-3066.5681141438122,4751.2498905605253,-4751.2498905605253,3066.5681141438122,11570.864829981481,0.0
638296.95196600363,3580566.251970998,-27500.0,1528.8858230781391,-3475.138452757184,6100.3426343012779,-1912.0579200568677,3963.6698762882029,1783.7897256774781,5434.7312063221407,-2713.409585924348,3596.7126897726966,-3596.7126897726966,2713.409585924348,10683.05228507886,0.0
643296.95196600363,3580566.251970998,-27500.0,2053.9185573155764,-3610.9913945337503,4783.0778594178764,-2033.8826985900475,3305.6122710595309,1539.3074713681292,4922.59933131446,-2177.6344201771744,2436.4501187819342,-2436.4501187819342,2177.6344201771744,9665.744731111532,0.0
648296.95196600363,3580566.251970998,-27500.0,2473.1691638466973,-3495.1597195686136,3512.6668624477907,-2033.2129469061479,2651.0771811594309,1290.0890357412454,4393.860138235581,-1552.4444227807774,1373.5780644204121,-1373.5780644204121,1552.4444227807774,8593.3091905865422,0.0
653296.95196600363,3580566.251970998,-27500.0,2752.3122211409955,-3191.4787191340356,2372.4189434083864,-1935.1778485192208,2042.0144895069079,1051.8675830420916,3877.5822327641445,-920.2371483197403,473.9675058280734,-473.9675058280734,920.2371483197403,7529.3201598058449,0.0
658296.95196600363,3580566.251970998,-27500.0,2883.7295594804273,-2769.2683436833117,1408.8279297604106,-1769.0426703184933,1504.8526235146162,835.40080322247604,3392.739224930504,-342.0233158731503,-233.1621501988534,233.1621501988534,342.0233158731503,6522.1717036548134,0.0
663296.95196600363,3580566.251970998,-27500.0,2880.0879719682262,-2291.228756333061,636.91282934491733,-1562.8858632137778,1051.8921150728106,646.64119647721407,2951.4816704724017,145.34234620993914,-747.83952373981447,747.83952373981447,-145.34234620993914,5604.1558063084558,0.0
668296.95196600363,3580566.251970998,-27500.0,2766.1663931679782,-1806.8672483522673,49.0648816964666,-1340.3264668884208,684.50598209088628,487.59031212235556,2560.3347588496936,526.39310238530425,-1089.3722832720782,1089.3722832720782,-526.39310238530425,4792.9954369398074,0.0
673296.95196600363,3580566.251970998,-27500.0,2571.4487269321644,-1350.6500276091751,-375.86722487645318,-1119.164667387771,396.79676118628197,357.41267472834335,2221.0561213138003,801.58833371135734,-1286.9743921015711,1286.9743921015711,-801.58833371135734,4094.6136990194109,0.0
678296.95196600363,3580566.251970998,-27500.0,2324.7310460783174,-943.27437678363481,-665.10326674489761,-911.41777629130092,178.85880008882719,253.51495836133876,1931.7898140016719,981.41508617125021,-1372.5948058946462,1372.5948058946462,-981.41508617125021,3506.2473559978148,0.0
683296.95196600363,3580566.251970998,-27500.0,2050.9363754104534,-594.45758645023523,-846.70756429428332,-724.14915997268895,19.254708257229645,172.42611458893774,1688.2891596402551,1081.3766029880319,-1376.308090168948,1376.308090168948,-1081.3766029880319,3019.3236069820441,0.0
688296.95196600363,3580566.251970998,-27500.0,1769.7519902166785,-306.07871334438005,-946.47024510646975,-560.60652255847947,-93.340757507151352,110.42926899689225,1485.0000317377117,1118.362657856806,-1323.9042801790724,1323.9042801790724,-1118.362657856806,2621.8609613392996,0.0
693296.95196600363,3580566.251970998,-27500.0,1495.5111036049068,-75.001359725544319,-986.4112863928159,-421.35551429093226,-169.19952259153308,63.962930786983108,1315.9151521426547,1108.3747711798633,-1236.0558016617797,1236.0558016617797,-1108.3747711798633,2300.3608225843582,0.0
543296.95196600363,3585566.251970998,-27500.0,575.08053975101632,-968.6945888775706,-2290.7058240938532,-206.93280187291737,-906.97925012046676,-256.58103417458261,1894.3837436582455,236.80070173859326,-1983.9531284229495,1983.9531284229495,-236.80070173859326,3454.3354371479463,0.0
548296.95196600363,3585566.251970998,-27500.0,954.25344064131173,-740.70027881414774,-2432.7810855270905,-60.232160865281827,-910.25389577662884,-236.53793941134796,2009.2259719389738,656.52171048200853,-2190.9755097337897,2190.9755097337897,-656.52171048200853,3605.4426063391466,0.0
553296.95196600363,3585566.251970998,-27500.0,1366.370846886382,-417.20583560396921,-2509.5472726761964,130.35480804359517,-867.93489701514875,-195.60981475894459,2136.707299519991,1145.1658539460382,-2350.610744268155,2350.610744268155,-1145.1658539460382,3773.7922465507263,0.0
558296.95196600363,3585566.251970998,-27500.0,1791.5996521178108,13.089003687199822,-2483.399178588294,367.33306358886199,-761.25607750969402,-126.75505138571815,2287.1800141972471,1689.3071345316503,-2427.301128340473,2427.301128340473,-1689.3071345316503,3987.302698333945,0.0
563296.95196600363,3585566.251970998,-27500.0,2200.2725182004779,553.64726800291601,-2308.1237780637239,648.89598980238145,-568.38399799086903,-22.122421380792794,2476.0200224451255,2262.2534297908223,-2376.7069779333988,2376.7069779333988,-2262.2534297908223,4289.1950682573397,0.0
568296.95196600363,3585566.251970998,-27500.0,2552.9079103614536,1194.6640126715938,-1931.3527028693923,966.65586159321094,-265.99754665761691,126.25575422280453,2722.6879191618527,2821.027006406599,-2148.1090147821324,2148.1090147821324,-2821.027006406599,4734.2047174515528,0.0
573296.95196600363,3585566.251970998,-27500.0,2802.6889078504496,1907.0554615010144,-1300.2779652469133,1303.3348542996443,167.69009105389674,325.27999576488605,3047.2449547439201,3305.235919618668,-1690.1004248026447,1690.1004248026447,-3305.235919618668,5375.7001505798708,0.0
578296.95196600363,3585566.251970998,-27500.0,2901.4508749930806,2637.3490541179472,-371.49251232747059,1631.0860016279828,748.22102542753669,579.06969998161514,3464.6509509706775,3639.665105392723,-960.39384510018635,960.39384510018635,-3639.665105392723,6247.5794890203442,0.0
583296.95196600363,3585566.251970998,-27500.0,2809.6567715195497,3305.8787823025677,875.05488148031122,1911.4357620821688,1478.6609320077303,886.82885227267559,3978.8311958776858,3742.4715117289311,60.365445533562706,-60.365445533562706,-3742.4715117289311,7350.2804841894385,0.0
588296.95196600363,3585566.251970998,-27500.0,2509.502343288812,3811.3038597070504,2419.7408181014948,2098.0006340226346,2342.7565507084678,1240.6468325048302,4578.8816583513735,3540.044347224562,1352.6845950834791,-1352.6845950834791,-3540.044347224562,8645.9593518911806,0.0
593296.95196600363,3585566.251970998,-27500.0,2018.2043811426599,4043.9855631652631,4188.7302409158237,2142.8259910681527,3299.3205263276059,1623.8612883360829,5238.5204101811487,2987.4256975462886,2844.5220914038764,-2844.5220914038764,-2987.4256975462886,10060.603165762313,0.0
598296.95196600363,3585566.251970998,-27500.0,1396.4320310179464,3908.5747732317086,6047.5796972258195,2006.2553563341075,4280.4772514522292,2010.8180826405462,5917.9836694979531,2089.9378092490438,4406.2094719143897,-4406.2094719143897,-2089.9378092490438,11490.280806926865,0.0
603296.95196600363,3585566.251970998,-27500.0,745.99359756201341,3352.0779085880986,7809.7746113592029,1668.6169168293222,5196.4093312359983,2368.7988466987408,6564.440527192377,918.33849674361045,5860.5648313716329,-5860.5648313716329,-918.33849674361045,12811.615594996392,0.0
608296.95196600363,3585566.251970998,-27500.0,192.91253697296966,2388.98386194452,9263.9832426034354,1140.2682175213404,5947.8943378858012,2662.4158711112918,7110.9521041591161,-391.32339429761441,7011.3630265814227,-7011.3630265814227,391.32339429761441,13897.353660954041,0.0
613296.95196600363,3585566.251970998,-27500.0,-142.53089700212053,1112.425788583645,10216.91065565313,465.6730982793934,6445.1086355390971,2859.9003507578627,7489.2016329224243,-1658.7423877829196,7686.1397622807117,-7686.1397622807117,1658.7423877829196,14635.928919401531,0.0
618296.95196600363,3585566.251970998,-27500.0,-180.09915263265512,-317.19225064020367,10540.09675966438,-281.73727864722298,6627.8068944881807,2939.7128228768361,7650.9086618119663,-2698.8719768630272,7780.9017930868849,-7780.9017930868849,2698.8719768630272,14951.062327459626,0.0
623296.95196600363,3585566.251970998,-27500.0,95.13564605928444,-1706.2870300034185,10203.829280430877,-1013.8817145961289,6480.0313773589824,2895.3735678039352,7578.4992369770607,-3367.8820821244171,7289.8507950024741,-7289.8507950024741,3367.8820821244171,14815.897097112173,0.0
628296.95196600363,3585566.251970998,-27500.0,627.98423811091629,-2874.3259698515812,9284.0059128505673,-1647.3555234868622,6033.559852378713,2736.7402568221623,7285.8636916657715,-3598.2318147829301,6307.013480528185,-6307.013480528185,3598.2318147829301,14256.866726500513,0.0
633296.95196600363,3585566.251970998,-27500.0,1311.3090931541624,-3694.9894598595988,7938.8466915607532,-2121.0130059328699,5358.6679747365888,2487.2603405300229,6813.387002062178,-3409.2263294370737,4998.5259512769589,-4998.5259512769589,3409.2263294370737,13345.948901387786,0.0
638296.95196600363,3585566.251970998,-27500.0,2018.847770224661,-4117.5324284626968,6365.5417743410571,-2405.8664078173711,4546.0220376098641,2178.2776946449267,6218.9671754925475,-2890.811300957957,3557.3906513082707,-3557.3906513082707,2890.811300957957,12184.084786478192,0.0
643296.95196600363,3585566.251970998,-27500.0,2638.572806201279,-4163.6892790910852,4754.2632685896097,-2505.1035737049933,3686.6459936113656,1842.4608711475337,5565.596236578951,-2170.2925315077532,2158.7762771126522,-2158.7762771126522,2170.2925315077532,10881.355605062156,0.0
648296.95196600363,3585566.251970998,-27500.0,3094.8069358116277,-3906.3794338843195,3254.7108159684353,-2446.2701921032799,2856.3477701124875,1508.3634107495045,4906.5445000360241,-1376.9013564265015,930.29631454767389,-930.29631454767389,1376.9013564265015,9539.6191191593007,0.0
653296.95196600363,3585566.251970998,-27500.0,3354.8180097573345,-3441.8467605577462,1961.6340200391808,-2269.997920690108,2107.7469961127758,1197.2448055015366,4277.7385202590494,-616.01282379674626,-57.824148092482517,57.824148092482517,616.01282379674626,8241.090860091319,0.0
658296.95196600363,3585566.251970998,-27500.0,3422.8376183696205,-2865.5164557235657,917.06627499674323,-2019.4828911178815,1469.5542415555485,922.24652650403345,3701.2760975996275,42.547084688610937,-786.46816866418408,786.46816866418408,-42.547084688610937,7043.6632839552185,0.0
663296.95196600363,3585566.251970998,-27500.0,3327.7136114040541,-2256.686092321705,122.36381888351218,-1733.1065431344396,950.60045911074303,689.27699051323475,3189.488940372566,564.16929909987539,-1272.956703740881,1272.956703740881,-564.16929909987539,5981.4962798202714,0.0
668296.95196600363,3585566.251970998,-27500.0,3109.9784953676422,-1672.3416638497331,-446.8626005640769,-1440.7268163385347,545.82459003635051,498.77479159951434,2746.8871641630258,942.08804820282717,-1555.0473873633425,1555.0473873633425,-942.08804820282717,5068.8165650404617,0.0
673296.95196600363,3585566.251970998,-27500.0,2811.704492062473,-1147.5771607219831,-827.54631540966795,-1162.9012009480807,242.10889438705897,347.63242295550464,2371.9543008341466,1187.78122168139,-1677.8609130994178,1677.8609130994178,-1187.78122168139,4304.8913010003243,0.0
678296.95196600363,3585566.251970998,-27500.0,2470.1969288436562,-699.55131037419426,-1059.6339986140406,-911.91508145435569,22.892201982528103,230.85623654071102,2059.1189471373082,1322.2643401802593,-1685.1819766235462,1685.1819766235462,-1322.2643401802593,3678.9012888987004,0.0
683296.95196600363,3585566.251970998,-27500.0,2115.0895774468881,-332.54549441781586,-1180.3240574884553,-693.60194499641113,-128.71612574745191,142.79111070641014,1800.5727302624487,1369.6354744819544,-1614.7955035138941,1614.7955035138941,-1369.6354744819544,3174.0962529087633,0.0
688296.95196600363,3585566.251970998,-27500.0,1767.8209590146987,-42.664364701287269,-1221.2842916410741,-509.26806950259044,-228.14374445590681,77.908568155928066,1587.7215025230525,1353.0171707551565,-1496.7754264805997,1496.7754264805997,-1353.0171707551565,2771.082719065887,0.0
693296.95196600363,3585566.251970998,-27500.0,1442.4692468398782,178.45282135315693,-1207.8527005100955,-357.35906626670584,-288.53590438442939,31.240825181774103,1412.212106033794,1292.4484559812233,-1353.581041542697,1353.581041542697,-1292.4484559812233,2450.3008108166241,0.0
698296.95196600363,3585566.251970998,-27500.0,1147.1698274439195,341.02007673951096,-1159.3678485296286,-234.73776872435059,-320.56152191824987,-1.4352756518414531,1266.5600317238896,1204.1216527985582,-1201.060409819381,1201.060409819381,-1204.1216527985582,2193.7587367019623,0.0
538296.95196600363,3590566.251970998,-27500.0,-85.826755962655156,-1463.2677803776703,-2275.476230895863,-520.2875243533307,-1036.5269450907181,-349.95189037169399,2044.9460878471855,-506.52192087326205,-1804.6855649870017,1804.6855649870017,506.52192087326205,3839.883447032094,0.0
543296.95196600363,3590566.251970998,-27500.0,278.0930975503436,-1362.2457518098015,-2526.7983539090792,-422.90136737140455,-1107.6753575713603,-357.95140974055164,2177.4672946572882,-155.52594877172226,-2100.7890283209285,2100.7890283209285,155.52594877172226,4033.9117648177421,0.0
548296.95196600363,3590566.251970998,-27500.0,708.11484311148865,-1173.4550058784296,-2757.6543775751643,-278.752136286687,-1151.8320525064003,-350.41273480285236,2313.5940171054522,290.14162512515668,-2394.473503701834,2394.473503701834,-290.14162512515668,4219.9139884529177,0.0
553296.95196600363,3590566.251970998,-27500.0,1196.57589425017,-874.50002493779436,-2938.1440437973611,-79.049982019502778,-1151.2137669175218,-319.74956826325575,2457.2528892134578,833.72944051222146,-2658.7287102938353,2658.7287102938353,-833.72944051222146,4406.1828994235684,0.0
558296.95196600363,3590566.251970998,-27500.0,1725.4442880319846,-444.58526100904982,-3026.1348936226063,183.07785607865017,-1082.4557002943516,-256.44059534374946,2617.2423725357439,1468.1854472614204,-2854.2370037216015,2854.2370037216015,-1468.1854472614204,4614.8609030587495,0.0
563296.95196600363,3590566.251970998,-27500.0,2263.3415290611406,130.54125654595364,-2966.0104528387751,510.12058153985561,-916.59883788207458,-149.21921231402686,2809.3797952005452,2170.7489126910541,-2927.9909356471835,2927.9909356471835,-2170.7489126910541,4889.0382037773934,0.0
568296.95196600363,3590566.251970998,-27500.0,2763.7558598719197,851.36757570722148,-2689.7359138533229,896.86142096250148,-620.35320359024365,14.217596110215657,3057.5330934111253,2897.3066775790012,-2814.26348841033,2814.26348841033,-2897.3066775790012,5296.0385809352665,0.0
573296.95196600363,3590566.251970998,-27500.0,3166.0827347833638,1695.4946587807806,-2122.0598634906405,1326.5022668753682,-159.39327960813168,245.74556333440603,3391.4298111078469,3578.1943998642873,-2439.7778516126,2439.7778516126,-3578.1943998642873,5918.5143233463623,0.0
578296.95196600363,3590566.251970998,-27500.0,3401.4796987466666,2608.1845986965086,-1191.7888013347897,1767.0536529573676,495.60726925646401,554.41378484886832,3839.7188460849984,4118.1617233751676,-1734.9975574478253,1734.9975574478253,-4118.1617233751676,6829.2574916969807,0.0
583296.95196600363,3590566.251970998,-27500.0,3405.1949918890432,3495.8629474599793,149.70693631193203,2169.477954974614,1359.957608630046,943.12904891900621,4419.785930976509,4403.9676238328766,-652.58918385106881,652.58918385106881,-4403.9676238328766,8060.7863167064279,0.0
588296.95196600363,3590566.251970998,-27500.0,3135.3616570327749,4227.4990009349376,1903.9062267909421,2469.6221963138651,2423.7836311149867,1404.8278692809288,5128.8517224808311,4322.5918107416364,808.32758272153342,-808.32758272153342,-4322.5918107416364,9587.3187333455116,0.0
593296.95196600363,3590566.251970998,-27500.0,2594.998034192834,4649.1931896790829,3999.5807010669801,2595.9501894369896,3641.237533595654,1919.0810176876148,5940.1505558593162,3790.3889288820146,2577.5778103559824,-2577.5778103559824,-3790.3889288820146,11323.285478963227,0.0
598296.95196600363,3590566.251970998,-27500.0,1849.726892003278,4614.8307792383721,6276.0491190723214,2483.8693375200428,4924.4358829797548,2450.5928346551532,6803.4665100999819,2788.1839258266036,4498.9984295241866,-4498.9984295241866,-2788.1839258266036,13131.746204477377,0.0
603296.95196600363,3590566.251970998,-27500.0,1030.7376105368985,4029.3243281490418,8487.7223193877871,2094.76680330201,6147.3415144299115,2951.2083156850185,7644.0143970124263,1390.646169984881,6337.4953307208252,-6337.4953307208252,-1390.646169984881,14839.603720627869,0.0
608296.95196600363,3590566.251970998,-27500.0,314.06622271072098,2891.9943790764178,10339.415872402195,1434.3080954507532,7163.2413766818709,3366.4135861842033,8362.7828207310249,-225.99665830332469,7816.7045809612764,-7816.7045809612764,225.99665830332469,16261.067158105401,0.0
613296.95196600363,3590566.251970998,-27500.0,-124.2615448943065,1320.7054968078319,11550.90881810127,561.9905907208348,7834.6937155346031,3645.7520534395262,8859.079049424663,-1810.6417463640651,8684.1807752317145,-8684.1807752317145,1810.6417463640651,17228.889130005406,0.0
618296.95196600363,3590566.251970998,-27500.0,-164.15533451745165,-460.8232741739248,11932.916500191997,-415.07116588695408,8068.0288950344093,3754.5040829778509,9062.1882000999522,-3097.8014956121674,8784.6905096927858,-8784.6905096927858,3097.8014956121674,17627.36314304802,0.0
623296.95196600363,3590566.251970998,-27500.0,215.39918413538314,-2175.8979417833189,11444.399615483742,-1365.315765510614,7839.5047426109195,3682.5343134721124,8947.6224921299709,-3882.4195352519787,8111.1059734796636,-8111.1059734796636,3882.4195352519787,17416.899139500139,0.0
628296.95196600363,3590566.251970998,-27500.0,928.06634911064543,-3570.134472861494,10204.124897321304,-2165.5609583216155,7201.4898627819821,3446.6584312841774,8539.0442622506089,-4077.3518196801151,6807.4928040173008,-6807.4928040173008,4077.3518196801151,16640.819470198425,0.0
633296.95196600363,3590566.251970998,-27500.0,1811.9758905290466,-4477.3870471058817,8450.062969331655,-2730.4861787646055,6265.5533235732219,3085.4618377444126,7899.8245235404038,-3727.8320887318932,5121.3770076912042,-5121.3770076912042,3727.8320887318932,15411.410704083537,0.0
638296.95196600363,3590566.251970998,-27500.0,2685.3124181191429,-4849.4564117236814,6466.3377134667371,-3027.432101092641,5170.2947209763151,2648.8498232396441,7117.0144592947463,-2979.839025003499,3328.0984477425909,-3328.0984477425909,2979.839025003499,13880.882830408389,0.0
643296.95196600363,3590566.251970998,-27500.0,3398.8913054850182,-4743.4650801407442,4510.6500703426764,-3073.2343753090504,4047.7591686898754,2186.5851689432438,6279.9853567029295,-2022.5095205991568,1661.1339393826941,-1661.1339393826941,2022.5095205991568,12208.285712267394,0.0
648296.95196600363,3590566.251970998,-27500.0,3865.7424136276868,-4281.640557969441,2767.9768662916599,-2918.3521242587271,3000.0275342763262,1739.6149678084787,5458.8041511701513,-1032.6441043019247,272.47608783818401,-272.47608783818401,1032.6441043019247,10532.791094444479,0.0
653296.95196600363,3590566.251970998,-27500.0,4063.6860658863916,-3605.9010552669833,1337.7910978344653,-2627.2541639464857,2090.2195351349255,1335.9039220823397,4697.0798520830494,-140.23391125209082,-772.69026676841509,772.69026676841509,140.23391125209082,8958.6642354425712,0.0
658296.95196600363,3590566.251970998,-27500.0,4019.553434344677,-2843.7352110739694,246.41216813926025,-2262.3205805895705,1345.3560404598061,990.3593839435905,4018.6430018043316,581.40832348965318,-1477.8885406296019,1477.8885406296019,-581.40832348965318,7551.672413565324,0.0
663296.95196600363,3590566.251970998,-27500.0,3787.2066643739299,-2090.8625167850346,-529.43508189012584,-1874.3357658644507,765.52962937503457,707.28671339993457,3433.4816661659556,1108.0337209458819,-1888.749013819069,1888.749013819069,-1108.0337209458819,6343.2657643134125,0.0
668296.95196600363,3590566.251970998,-27500.0,3428.2976499330239,-1407.9977187122652,-1039.0546152487439,-1499.1855573028308,334.38035711815417,483.75937846339747,2941.2837131052356,1449.2436029836995,-2068.8574754344036,2068.8574754344036,-1449.2436029836995,5338.4199515832606,0.0
673296.95196600363,3590566.251970998,-27500.0,2999.5378556976912,-825.93703987886852,-1339.9075490271071,-1158.716762392379,27.89548458054043,312.78130591130827,2534.7357955196326,1633.1389768883396,-2082.8854688021161,2082.8854688021161,-1633.1389768883396,4524.062099140684,0.0
678296.95196600363,3590566.251970998,-27500.0,2546.433192947371,-353.74968370142614,-1486.6077954531968,-863.60201580676005,-179.50858385710245,185.70920347719391,2202.6294769395531,1694.5126030657709,-1987.2819623597991,1987.2819623597991,-1694.5126030657709,3876.4742476964161,0.0
683296.95196600363,3590566.251970998,-27500.0,2101.7246026298571,13.20081181708297,-1525.5700711081604,-616.66696274555261,-311.45892358992018,93.84046864062762,1932.3865255000933,1667.3714494153367,-1826.6852540579027,1826.6852540579027,-1667.3714494153367,3367.2028625145845,0.0
688296.95196600363,3590566.251970998,-27500.0,1686.5384293613783,286.8814663947573,-1493.4253700555364,-415.83890133041547,-388.00758614865549,29.297455956998654,1711.8334393555542,1581.0904614310552,-1633.8374310788181,1633.8374310788181,-1581.0904614310552,2967.4854120592022,0.0
693296.95196600363,3590566.251970998,-27500.0,1312.6953618992175,482.17015457356769,-1417.5349423128971,-256.4005617858457,-425.22920592898129,-14.590426739614379,1530.2451646881532,1459.0550844839606,-1431.2189409662312,1431.2189409662312,-1459.0550844839606,2651.2632361066553,0.0
698296.95196600363,3590566.251970998,-27500.0,985.21381235437161,614.1285816192227,-1317.4319520093886,-132.53780099313383,-435.48183652754619,-43.217432481822406,1378.7861480699087,1318.7520115190191,-1233.2467178168063,1233.2467178168063,-1318.7520115190191,2396.8373603216564,0.0
533296.95196600363,3595566.251970998,-27500.0,-818.80222168926491,-1806.0648360487853,-2080.7460817032256,-813.45330859383023,-1080.3772796819419,-422.05241633432439,2178.3703042254078,-1235.2076016557296,-1452.6280250266184,1452.6280250266184,1235.2076016557296,4186.043875294059,0.0
538296.95196600363,3595566.251970998,-27500.0,-526.29762410130638,-1835.1612157256411,-2388.0965928298115,-779.90720046562069,-1204.0244330562161,-457.26446588549658,2342.5305706379495,-1002.1441532787414,-1780.1422174538859,1780.1422174538859,1002.1441532787414,4458.3435413817397,0.0
543296.95196600363,3595566.251970998,-27500.0,-148.94214898716763,-1800.6145585168626,-2714.1160438314541,-705.54564535440988,-1321.172511791357,-484.44413747139288,2509.6698753049491,-669.78284166912636,-2142.9529786935054,2142.9529786935054,669.78284166912636,4721.0772614248726,0.0
548296.95196600363,3595566.251970998,-27500.0,319.47335292913397,-1676.2167487133338,-3041.9324697527459,-577.63902899908021,-1418.5034511597162,-496.88661775478954,2678.5618398362544,-220.74342924189659,-2527.8781863070185,2527.8781863070185,220.74342924189659,4968.696003979283,0.0
553296.95196600363,3595566.251970998,-27500.0,878.03472397496432,-1431.4271040573697,-3343.0937237264779,-382.44107984586668,-1476.2700585337905,-485.25482854849702,2850.0037985340418,358.14740820706402,-2910.3521181896103,2910.3521181896103,-358.14740820706402,5200.5497326652285,0.0
558296.95196600363,3595566.251970998,-27500.0,1514.2390238460921,-1033.859288295841,-3573.6316299295418,-106.87347847984294,-1466.7364910204694,-437.14470898807491,3029.2371803388605,1070.5336490715345,-3250.3010432662295,3250.3010432662295,-1070.5336490715345,5427.7755057892728,0.0
563296.95196600363,3595566.251970998,-27500.0,2198.8622491319393,-454.43805548005793,-3670.4822423169062,258.5233362828809,-1353.1295357741733,-336.96358339841186,3229.4760592580351,1903.1082397517739,-3488.3475921543004,3488.3475921543004,-1903.1082397517739,5684.0923143067212,0.0
568296.95196600363,3595566.251970998,-27500.0,2881.2953366842676,323.84955702208333,-3549.8823247554765,715.09510757777298,-1089.9513231826506,-166.45394045548463,3475.7631439057504,2816.5571195109878,-3544.0176973653643,3544.0176973653643,-2816.5571195109878,6038.286595269823,0.0
573296.95196600363,3595566.251970998,-27500.0,3487.5242845578805,1293.2595422441123,-3110.384075545152,1250.1047258219435,-625.89619590764983,93.704323600429561,3806.5046333021992,3736.5953138370087,-3318.6625472597816,3318.6625472597816,-3736.5953138370087,6598.4376873744413,0.0
578296.95196600363,3595566.251970998,-27500.0,3924.0198954915563,2405.8097761646354,-2244.0153355765656,1830.0932610416639,89.138561333270729,460.76241446357545,4268.329225731758,4548.6968905764861,-2706.6612068487561,2706.6612068487561,-4548.6968905764861,7490.8370662630969,0.0
583296.95196600363,3595566.251970998,-27500.0,4091.2066653368565,3558.8884012070857,-858.94148821716874,2395.5511850096309,1091.7706528963099,944.99544656662874,4901.9978371100806,5102.1296190862868,-1618.1833672579828,1618.1833672579828,-5102.1296190862868,8810.0707143746858,0.0
588296.95196600363,3595566.251970998,-27500.0,3908.6845474411948,4589.3022588978292,1085.5006145454308,2860.2217172981814,2387.7542698247325,1543.320925409384,5724.4371298845263,5229.702657900476,-14.082196755838595,14.082196755838595,-5229.702657900476,10569.733102415645,0.0
593296.95196600363,3595566.251970998,-27500.0,3349.7909350868586,5285.6571943951858,3536.4616082615762,3119.1292084549918,3932.4536547370249,2232.7048846370021,6716.4188156541077,4787.1059992345627,2052.6962214761134,-2052.6962214761134,-4787.1059992345627,12684.054817621392,0.0
598296.95196600363,3595566.251970998,-27500.0,2475.4635124550168,5427.372167767774,6311.8402590637816,3068.3430204862275,5615.9113455920879,2965.7838560625341,7818.1154350991756,3707.9059970716435,4403.6949880586026,-4403.6949880586026,-3707.9059970716435,14976.842803401554,0.0
603296.95196600363,3595566.251970998,-27500.0,1449.7302336558503,4849.6951665857659,9092.8842273579048,2635.3989460469793,7262.3066776181822,3671.9082414143272,8923.7204891478468,2057.8226909186883,6731.3795567501529,-6731.3795567501529,-2057.8226909186883,17204.340633547068,0.0
608296.95196600363,3595566.251970998,-27500.0,517.90428839761614,3517.8588548194293,11466.26850866088,1812.437189894672,8652.7882289246591,4266.2756229383722,9884.4325519715276,60.555113612278546,8645.491645973314,-8645.491645973314,-60.555113612278546,19091.135194924551,0.0
613296.95196600363,3595566.251970998,-27500.0,-59.538769692981205,1577.0685531339882,13020.570078490255,677.50257715571217,9573.1014856613565,4667.2006233491766,10548.000165606985,-1932.3349794028136,9771.6746232036603,-9771.6746232036603,1932.3349794028136,20380.783303553297,0.0
618296.95196600363,3595566.251970998,-27500.0,-99.294273700033656,-657.57037528244541,13471.322251368272,-611.1957273427156,9873.779045883668,4817.2145239843003,10807.422185512405,-3534.0274063825441,9873.3883684460961,-9873.3883684460961,3534.0274063825441,20892.727229353579,0.0
623296.95196600363,3595566.251970998,-27500.0,429.04801697885176,-2783.8308850934368,12760.629192098797,-1853.2305860283157,9518.3614177937488,4699.9368292247673,10627.457757674038,-4446.9177728853592,8941.6144295291815,-8941.6144295291815,4446.9177728853592,20566.76249903288,0.0
628296.95196600363,3595566.251970998,-27500.0,1387.9828842293,-4438.178204372216,11077.540853056227,-2863.408696964123,8595.0920670681044,4344.7179561557186,10048.929333589656,-4559.6628759762289,7201.193459826557,-7201.193459826557,4559.6628759762289,19475.543339837703,0.0
633296.95196600363,3595566.251970998,-27500.0,2529.3142627878519,-5403.9553037715395,8785.410485459819,-3522.6877940571649,7284.9608918259173,3816.5275454049543,9173.5348473551094,-3966.4231656352904,5026.3864010933057,-5026.3864010933057,3966.4231656352904,17798.620173263447,0.0
638296.95196600363,3595566.251970998,-27500.0,3590.489996003435,-5651.2043928706389,6295.9654400363233,-3799.9602169572604,5802.7713628864003,3196.0993759254716,8134.4038712772563,-2904.4954136393226,2811.540572075708,-2811.540572075708,2904.4954136393226,15769.782755910965,0.0
643296.95196600363,3595566.251970998,-27500.0,4377.598509271028,-5301.8484935505612,3954.2246303610623,-3740.3177694326519,4339.9727308146985,2559.5258831826945,7059.4119002948,-1653.4614064580076,862.34050009420002,-862.34050009420002,1653.4614064580076,13620.562483339932,0.0
648296.95196600363,3595566.251970998,-27500.0,4801.4999645160224,-4554.6734961469865,1977.9448862922141,-3433.1591392925015,3030.5378003451688,1964.6602531924889,6040.09134652797,-449.41023628539716,-652.7092611786677,652.7092611786677,449.41023628539716,11539.390136791815,0.0
653296.95196600363,3595566.251970998,-27500.0,4867.784386685169,-3613.0038471501312,455.3283575661049,-2978.5420530047882,1944.024497001046,1446.5133892049257,5126.7307811176288,557.04178004498146,-1692.725531789094,1692.725531789094,-557.04178004498146,9653.645841078187,0.0
658296.95196600363,3595566.251970998,-27500.0,4642.3760743655794,-2639.7774107408168,-621.98531499677506,-2463.740710935931,1097.2057747948659,1019.5627581199793,4340.9218906224105,1301.4536700319254,-2303.7327562546793,2303.7327562546793,-1301.4536700319254,8030.7776312718179,0.0
663296.95196600363,3595566.251970998,-27500.0,4215.1090093414759,-1742.3229722473973,-1317.0455964415771,-1952.6766154784366,472.59125532329563,683.39109768618823,3685.3817714580759,1783.3825172328025,-2573.9672072162448,2573.9672072162448,-1783.3825172328025,6689.9693478445215,0.0
668296.95196600363,3595566.251970998,-27500.0,3673.4705857467006,-977.01765990266495,-1713.1584176942363,-1485.0994315462578,35.596400120143706,428.73758612694434,3150.4090480708956,2039.1208387244951,-2600.2341637895261,2600.2341637895261,-2039.1208387244951,5616.9336986015342,0.0
673296.95196600363,3595566.251970998,-27500.0,3088.834498570458,-362.49805880851216,-1892.0607031890447,-1080.9126676840315,-253.15744337950471,242.3876489513903,2719.4109005761575,2119.4422810079445,-2468.6654750888924,2468.6654750888924,-2119.4422810079445,4777.5852069953389,0.0
678296.95196600363,3595566.251970998,-27500.0,2512.3276424996893,106.28225385270751,-1923.2271770421125,-746.03411777647148,-430.64493661293699,110.45285685821965,2373.4229853043262,2075.3250300704917,-2246.9946370341117,2246.9946370341117,-2075.3250300704917,4129.098619926086,0.0
683296.95196600363,3595566.251970998,-27500.0,1976.3053571566554,446.74917506560757,-1860.6398702182073,-477.76141333993553,-528.13578964182307,20.216625309005114,2094.2548784851097,1950.6841574559949,-1983.9058416898242,1983.9058416898242,-1950.6841574559949,3628.1305238577602,0.0
688296.95196600363,3595566.251970998,-27500.0,1498.2065907694418,681.00090971350778,-1743.6070255603879,-268.86171896930119,-570.34780582956637,-39.055482296139921,1866.2474873763595,1779.8798795901469,-1711.7699552838023,1711.7699552838023,-1779.8798795901469,3236.2091297833354,0.0
693296.95196600363,3595566.251970998,-27500.0,1084.8160658017698,831.21693566398835,-1599.2757792319239,-110.32479011923219,-575.89843442358426,-75.94568011925729,1676.9045669589398,1587.9194397969459,-1450.4241157278107,1450.4241157278107,-1587.9194397969459,2922.3932329136278,0.0
698296.95196600363,3595566.251970998,-27500.0,735.97796867951945,917.31166053696643,-1445.4932824795824,6.9765453642879507,-558.29501134678765,-97.052769125138482,1516.7796143412165,1391.8763065880844,-1210.7791690828149,1210.7791690828149,-1391.8763065880844,2663.6689822910362,0.0
703296.95196600363,3595566.251970998,-27500.0,447.44885448753962,956.01548839046097,-1293.3810637212789,91.404097492925402,-527.03350554857707,-107.3024302624645,1378.9881804890217,1202.6485760210473,-997.77170617660772,997.77170617660772,-1202.6485760210473,2443.9239095275502,0.0
528296.95196600363,3600566.251970998,-27500.0,-1540.3140757445176,-1967.6083680892825,-1763.6874312896525,-1057.8264626586406,-1044.6993006921286,-468.28699994144074,2271.1617577247225,-1864.6551749382402,-994.68268978994729,994.68268978994729,1864.6551749382402,4436.6911572485196,0.0
533296.95196600363,3600566.251970998,-27500.0,-1361.2599875133003,-2105.6177625935793,-2074.7980128524932,-1092.153433922254,-1199.5667287543283,-526.44692461720263,2470.6198179834037,-1773.6055538420298,-1298.7285013108819,1298.7285013108819,1773.6055538420298,4795.6101899914174,0.0
538296.95196600363,3600566.251970998,-27500.0,-1097.1425710560827,-2212.2067654225598,-2430.1485807989511,-1098.7274080494187,-1365.8639478808684,-584.78596202347126,2679.0189910552872,-1598.6303461031096,-1660.4643170414308,1660.4643170414308,1598.6303461031096,5159.6825288679438,0.0
543296.95196600363,3600566.251970998,-27500.0,-731.0386987126094,-2264.7741576078388,-2826.266740142622,-1064.2934496217943,-1536.595536817975,-638.65934579245868,2893.3283923380859,-1315.0071003538969,-2080.5568401850646,2080.5568401850646,1315.0071003538969,5519.168001434934,0.0
548296.95196600363,3600566.251970998,-27500.0,-247.86253032171552,-2233.1160326146205,-3251.9874161492644,-972.27154733588441,-1699.288146583167,-680.75381156025799,3110.0334117780526,-895.87846638605674,-2552.5682520222963,2552.5682520222963,895.87846638605674,5862.6615002221088,0.0
553296.95196600363,3600566.251970998,-27500.0,361.83331100786825,-2078.9880689172564,-3683.9657611243606,-803.1027272680119,-1833.6212853134907,-700.1710385603825,3326.1731776720503,-315.35273583002595,-3058.3308651506704,3058.3308651506704,315.35273583002595,6179.6184636339194,0.0
558296.95196600363,3600566.251970998,-27500.0,1096.1671045853539,-1757.3421357697134,-4080.8612612970151,-535.63453135220232,-1908.6619467077169,-681.48133387674284,3541.6216908265146,445.80880788092804,-3561.8919798892412,3561.8919798892412,-445.80880788092804,6466.3095163971675,0.0
563296.95196600363,3600566.251970998,-27500.0,1934.335801534397,-1220.6831109415732,-4376.7217049791834,-150.20369738292234,-1880.1702985118823,-604.00312109698154,3763.323960392866,1391.0748675867349,-4002.5712443079778,4002.5712443079778,-1391.0748675867349,6737.6564696690884,0.0
568296.95196600363,3600566.251970998,-27500.0,2827.9755158530024,-428.37373878139357,-4475.1589389832043,365.86711246821761,-1688.9876168215631,-441.76512489533218,4011.8317665439668,2495.2841758595468,-4288.7876265435971,4288.7876265435971,-2495.2841758595468,7046.8253215806053,0.0
573296.95196600363,3600566.251970998,-27500.0,3693.8913315625327,637.41217069391394,-4247.6439282390265,1009.8724187511584,-1262.3098416150863,-164.85929426967343,4328.6206689626542,3689.1821177131069,-4296.1007450689904,4296.1007450689904,-3689.1821177131069,7508.1437561109606,0.0
578296.95196600363,3600566.251970998,-27500.0,4412.7873385914563,1948.8453658562787,-3541.3918376972788,1752.80501161347,-520.47877669083027,256.91585593794542,4778.3410963285933,4845.3239435504047,-3875.07298832783,3875.07298832783,-4845.3239435504047,8301.0453088397499,0.0
583296.95196600363,3600566.251970998,-27500.0,4840.6445790530879,3406.1550061936059,-2203.7533052022168,2528.0769914584766,607.76569569711125,847.28967450755329,5436.5233240621419,5773.3394366471748,-2875.8975392564403,2875.8975392564403,-5773.3394366471748,9619.0944028101985,0.0
588296.95196600363,3600566.251970998,-27500.0,4839.256994809879,4817.5597290293817,-128.51162486150005,3224.7223023388051,2159.8365094074184,1613.4315822374779,6360.3886153858175,6236.2250762140129,-1194.8994625606556,1194.8994625606556,-6236.2250762140129,11570.537958361423,0.0
593296.95196600363,3600566.251970998,-27500.0,4327.1294842506677,5901.9419941219858,2678.1481067387836,3692.5410603510877,4105.8992714509604,2533.8492421016731,7557.5375293167253,5998.8226563037924,1160.1286498958843,-1160.1286498958843,-5998.8226563037924,14105.193040908081,0.0
598296.95196600363,3600566.251970998,-27500.0,3339.606017484256,6332.9577499466859,6029.3465434594918,3766.9169041894684,6316.8720979135087,3547.9348030831802,8965.9692696948241,4909.9484471588221,4004.2935293997107,-4004.2935293997107,-4909.9484471588221,17009.245262029093,0.0
603296.95196600363,3600566.251970998,-27500.0,2070.5858658195039,5832.8833146516499,9522.3598279505786,3315.7893349714805,8551.1474375867729,4553.1677197923391,10437.273938726292,2998.3656112145954,6945.9494205224337,-6945.9494205224337,-2998.3656112145954,19940.156382357516,0.0
608296.95196600363,3600566.251970998,-27500.0,858.46547849972467,4297.2448352268711,12579.991759176324,2298.9697350562974,10480.270628845512,5416.4828424953203,11744.56174825181,536.93438073896141,9435.4262049273966,-9435.4262049273966,-536.93438073896141,22483.454421652285,0.0
613296.95196600363,3600566.251970998,-27500.0,92.108931534405485,1895.4038087859021,14591.525665708385,814.37144877670221,11763.578824996141,6002.5530618729799,12651.349267035384,-1981.5881367086295,10911.257595181496,-10911.257595181496,1981.5881367086295,24235.945877967857,0.0
618296.95196600363,3600566.251970998,-27500.0,57.219072138478815,-925.20405185069205,15120.715843094869,-901.56499916236316,12155.315452680305,6212.9051949574814,12989.559560948634,-3984.7478443296495,11005.256205367888,-11005.256205367888,3984.7478443296495,24906.561300097357,0.0
623296.95196600363,3600566.251970998,-27500.0,799.48788628032321,-3569.0801426694229,14083.737547033768,-2536.4085101126416,11597.063027887916,6019.7302523181479,12706.181080968274,-5031.9478278957777,9705.2361567168173,-9705.2361567168173,5031.9478278957777,24400.121572087228,0.0
628296.95196600363,3600566.251970998,-27500.0,2095.5491387695852,-5508.9015386180772,11787.182466897519,-3805.8787635590861,10241.514938844053,5475.847307998516,11873.025969530743,-4983.9338546168265,7369.1801419134981,-7369.1801419134981,4983.9338546168265,22842.01336543819,0.0
633296.95196600363,3600566.251970998,-27500.0,3559.0440301725184,-6467.9463141465258,8794.2460981159475,-4545.0221392034746,8389.6841847763699,4694.008420208831,10657.789330929396,-4026.7013693801628,4571.3130882261876,-4571.3130882261876,4026.7013693801628,20527.756487340339,0.0
638296.95196600363,3600566.251970998,-27500.0,4811.7646601737933,-6468.8634305908527,5702.5219813902486,-4738.8944302549999,6379.0402664549802,3807.3775177664093,9268.1365692880845,-2546.53158376182,1875.8401317988155,-1875.8401317988155,2546.53158376182,17823.672882291783,0.0
643296.95196600363,3600566.251970998,-27500.0,5613.5918829570073,-5748.7104578443013,2962.2294420239791,-4488.9394315529562,4485.0247001822836,2932.3600760619092,7888.1066278811131,-951.63747887484953,-331.17193547788077,331.17193547788077,951.63747887484953,15068.208142172487,0.0
648296.95196600363,3600566.251970998,-27500.0,5897.0115896016578,-4620.8641243024076,806.74260202881476,-3949.2570987907216,2874.838402697429,2148.2158103215111,6634.2000950036763,456.25083864466524,-1889.464223507186,1889.464223507186,-456.25083864466524,12510.917930043906,0.0
653296.95196600363,3600566.251970998,-27500.0,5725.7078273722836,-3364.6831744873789,-718.81135791884446,-3270.4904379309987,1611.8060533758328,1494.6360222043686,5557.7370480629015,1522.3751739027955,-2817.6295209019299,2817.6295209019299,-1522.3751739027955,10296.209530514128,0.0
658296.95196600363,3600566.251970998,-27500.0,5227.5288898627932,-2174.2558996301377,-1686.2999640389398,-2568.865221498017,686.13827346800019,980.22437540647297,4669.095964737915,2214.7855967205655,-3232.6009587212025,3232.6009587212025,-2214.7855967205655,8477.453478318741,0.0
663296.95196600363,3600566.251970998,-27500.0,4539.2351307547669,-1155.3160198126197,-2216.688719968427,-1918.5119196009746,49.152120222151559,594.15331900782644,3954.9596486456448,2576.505026628487,-3280.8092860795059,3280.8092860795059,-2576.505026628487,7043.2295390494446,0.0
668296.95196600363,3600566.251970998,-27500.0,3775.3842789226305,-345.87210462660886,-2434.8759995969353,-1357.3103130929496,-360.8199049026062,316.28121710269693,3389.5347522090151,2682.2636604993113,-3096.7511223085157,3096.7511223085157,-2682.2636604993113,5943.6626572180185,0.0
673296.95196600363,3600566.251970998,-27500.0,3017.7635459295361,258.43104675727938,-2447.3400054334634,-897.43492053934926,-603.10070493135993,124.10283300689298,2943.0205868305466,2610.1059207021299,-2785.7552883379922,2785.7552883379922,-2610.1059207021299,5112.1613059898664,0.0
678296.95196600363,3600566.251970998,-27500.0,2316.9725091619025,683.50674829497746,-2335.3194172383437,-535.45499121274293,-727.68783758207417,-3.3140086208242221,2587.3425768923371,2427.1080781578221,-2421.7619345800322,2421.7619345800322,-2427.1080781578221,4481.4248620355256,0.0
683296.95196600363,3600566.251970998,-27500.0,1699.0830464610478,962.91776349419479,-2156.1790833912969,-259.99998968768938,-773.45303234687549,-83.588202002075747,2299.1293200452756,2184.6703384904736,-2052.0776871356798,2052.0776871356798,-2184.6703384904736,3993.4219082391915,0.0
688296.95196600363,3600566.251970998,-27500.0,1173.1369460294438,1129.9417954765677,-1947.9648994427425,-56.789238417378897,-768.97454034787245,-130.62817575642779,2060.512164937184,1918.9958593052754,-1704.1081313340762,1704.1081313340762,-1918.9958593052754,3603.5874434140242,0.0
693296.95196600363,3600566.251970998,-27500.0,737.54236433179574,1213.7944414713418,-1734.4425471681373,88.45700144898872,-734.38314141717353,-154.92831480746298,1858.6048590310736,1653.7346223730692,-1391.623966694347,1391.623966694347,-1653.7346223730692,3280.6035755585826,0.0
698296.95196600363,3600566.251970998,-27500.0,384.82185320334258,1238.3619239146205,-1529.4595249728436,188.56424718130037,-683.35521009100148,-164.14228954384959,1684.4451600247271,1403.100415735769,-1119.7025608575607,1119.7025608575607,-1403.100415735769,3003.8602178417241,0.0
703296.95196600363,3600566.251970998,-27500.0,104.81680983063146,1222.2657577752861,-1340.3046570432759,254.34970377869936,-624.86793806686819,-163.70208323341998,1531.8992399069625,1174.6754982682116,-888.26861697354354,888.26861697354354,-1174.6754982682116,2760.3800312136004,0.0
708296.95196600363,3600566.251970998,-27500.0,-113.31944242607536,1179.5242518818925,-1170.1191351134523,294.56885435913728,-564.5972368084058,-157.37383239401461,1396.7570604840134,971.63766135435412,-694.46529532689647,694.46529532689647,-971.63766135435412,2542.1771467785197,0.0
523296.95196600363,3605566.251970998,-27500.0,-2174.2315511491106,-1952.0068637730751,-1389.967200542759,-1234.5422470381097,-946.161787899773,-487.94501948020127,2311.5403234689306,-2335.1486616382876,-505.17336097639145,505.17336097639145,2335.1486616382876,4563.4505455068547,0.0
528296.95196600363,3605566.251970998,-27500.0,-2128.1143638029157,-2161.8450938426972,-1664.8747046614424,-1330.5006195461906,-1110.1988011443013,-562.48770170764487,2541.0519607710962,-2382.8326707859296,-745.76759970821968,745.76759970821968,2382.8326707859296,4996.9550653286469,0.0
533296.95196600363,3605566.251970998,-27500.0,-2013.1921075750959,-2371.1786307786183,-1993.7901676352149,-1415.3908375172816,-1297.9393193795236,-644.64595099145595,2788.5584030586911,-2374.9667307586278,-1049.1455731523636,1049.1455731523636,2374.9667307586278,5456.9350338793238,0.0
538296.95196600363,3605566.251970998,-27500.0,-1807.9761612287141,-2565.6651339956875,-2382.9858615079816,-1478.5824568188668,-1508.5533979725899,-732.41901363480349,3051.9945913343627,-2287.2272359946728,-1425.5757287732545,1425.5757287732545,2287.2272359946728,5936.2990300414986,0.0
543296.95196600363,3605566.251970998,-27500.0,-1488.0016986480857,-2723.4070331195067,-2835.8492446587466,-1505.1986699982483,-1737.8226136606995,-821.71610436805508,3327.7832820562867,-2089.0919651916606,-1883.380756291238,1883.380756291238,2089.0919651916606,6423.8983433662806,0.0
548296.95196600363,3605566.251970998,-27500.0,-1027.5542782780933,-2812.6361453553586,-3349.663965036274,-1475.2605637807371,-1975.9091357049883,-905.2816341767998,3610.6639220548359,-1744.117482071639,-2425.7373977574989,2425.7373977574989,1744.117482071639,6904.0330733152232,0.0
553296.95196600363,3605566.251970998,-27500.0,-403.24920226849719,-2789.5885179945803,-3910.536224911245,-1363.2238584443121,-2204.1857280329546,-971.29132522413204,3894.0207684546363,-1211.9192527029231,-3045.5103183960041,3045.5103183960041,1211.9192527029231,7357.1259117513364,0.0
558296.95196600363,3605566.251970998,-27500.0,399.67238368993759,-2597.5554147545126,-4485.9529747491688,-1138.5117418152263,-2391.0456078479865,-1001.6793025680331,4171.3655843002516,-453.16154581147521,-3717.5594513618121,3717.5594513618121,453.16154581147521,7763.2756624037411,0.0
563296.95196600363,3605566.251970998,-27500.0,1377.58436276937,-2168.9169958990624,-5014.8454533875329,-768.00209394327931,-2486.9345458678954,-970.43038941520047,4440.1160014739271,560.75497697785227,-4388.3738577955028,4388.3738577955028,-560.75497697785227,8111.9311807253398,0.0
568296.95196600363,3605566.251970998,-27500.0,2495.2277427190415,-1433.0095327766162,-5396.1431517727888,-221.80079653323043,-2419.5503550230442,-842.37924405662636,4709.3021902768396,1831.6320534380789,-4964.0585989292485,4964.0585989292485,-1831.6320534380789,8422.9370094108617,0.0
573296.95196600363,3605566.251970998,-27500.0,3670.8420637628346,-333.51669177291745,-5479.1660870417472,516.22833344084279,-2091.4166548489279,-573.5199925306689,5012.398860809084,3311.526173967738,-5300.1668608418904,5300.1668608418904,-3311.526173967738,8783.8805271358469,0.0
578296.95196600363,3605566.251970998,-27500.0,4765.0745836376609,1141.4647327691896,-5063.0410116149123,1432.3483225567516,-1383.8227787054964,-114.36107973519555,5422.2805023478131,4875.8319384709312,-5200.8197678971128,5200.8197678971128,-4875.8319384709312,9394.3428517309767,0.0
583296.95196600363,3605566.251970998,-27500.0,5583.8691623706545,2917.4345184162594,-3916.8749367319515,2462.629683909327,-172.90789973933244,581.77391674546107,6054.3638838068428,6301.918699073517,-4439.0905591568107,4439.0905591568107,-6301.918699073517,10563.09931829893,0.0
588296.95196600363,3605566.251970998,-27500.0,5909.0459601303082,4789.7315072645679,-1834.3292694346803,3474.299426071389,1636.222295135148,1543.9638335848122,7036.0522145925752,7271.6787466338064,-2812.1891142961226,2812.1891142961226,-7271.6787466338064,12581.011745561598,0.0
593296.95196600363,3605566.251970998,-27500.0,5566.778844826933,6402.5301528777882,1270.938228232779,4260.8525234259432,4055.9179630596441,2762.8134281640487,8443.5250137686544,7422.0173822905235,-236.9626180531136,236.9626180531136,-7422.0173822905235,15526.244280587915,0.0
598296.95196600363,3605566.251970998,-27500.0,4526.8665894172436,7286.860222018322,5245.3753258391753,4567.4797610390369,6953.2808774834375,4168.0061129620981,10238.221850046504,6459.0832192776061,3132.6963781867153,-3132.6963781867153,-6459.0832192776061,19178.838200086528,0.0
603296.95196600363,3605566.251970998,-27500.0,2994.3353570651498,6987.1370702859576,9604.0609509696387,4159.225723390372,10006.446684854,5614.570525087247,12217.565321351611,4319.7215804002899,6821.5656409147923,-6821.5656409147923,-4319.7215804002899,23064.685652573673,0.0
608296.95196600363,3605566.251970998,-27500.0,1425.1261535344636,5264.6447827758975,13550.01289247302,2924.7323130597115,12722.051944494129,6892.4728758653218,14031.486893998697,1311.2608745974258,10064.184529849386,-10064.184529849386,-1311.2608745974258,26551.4076322578,0.0
613296.95196600363,3605566.251970998,-27500.0,402.24433481169063,2294.5860350042658,16170.688165762611,974.65323976881609,14547.706667913362,7771.0815420147228,15302.283421067694,-1880.1869041497175,12012.466900331952,-12012.466900331952,1880.1869041497175,28987.946062999185,0.0
618296.95196600363,3605566.251970998,-27500.0,380.59419021426339,-1284.9261286738983,16784.466515689368,-1334.3142289051377,15065.355521614883,8073.5268566822824,15754.566858387654,-4395.124674369159,12081.636738228401,-12081.636738228401,4395.124674369159,29887.513359977944,0.0
623296.95196600363,3605566.251970998,-27500.0,1432.392577480251,-4575.1802299991114,15266.578041808458,-3501.685882213555,14176.178999699479,7748.9841662326135,15303.986915126703,-5566.9672903991996,10253.486452932479,-10253.486452932479,5566.9672903991996,29092.499115371265,0.0
628296.95196600363,3605566.251970998,-27500.0,3186.8910741426093,-6799.6638143092378,12123.880680090004,-5079.9214782911158,12152.774801390628,6896.5738214368121,14080.16797075481,-5229.3088071641105,7109.9596864734176,-7109.9596864734176,5229.3088071641105,26826.685033900252,0.0
633296.95196600363,3605566.251970998,-27500.0,5033.6768446088472,-7620.8882973157915,8240.8649135873129,-5845.1725259358245,9510.1769785093511,5720.2831424604237,12368.50716748414,-3740.6297047047669,3543.5203361722265,-3543.5203361722265,3740.6297047047669,23592.747770735808,0.0
638296.95196600363,3605566.251970998,-27500.0,6434.7458209234601,-7185.8245485970019,4478.9896323516068,-5835.4264984361598,6784.8358687514492,4445.2208219156846,10499.75320692941,-1728.7368817588517,352.63296345295612,-352.63296345295612,1728.7368817588517,19976.460898892619,0.0
643296.95196600363,3605566.251970998,-27500.0,7121.9771692859304,-5929.4541255228496,1395.8073809291616,-5261.7393757364807,4364.3453850387104,3248.2061937813342,8738.0518335989018,225.77958307924018,-2009.8099857127818,2009.8099857127818,-225.77958307924018,16470.845942546395,0.0
648296.95196600363,3605566.251970998,-27500.0,7101.4662458695339,-4326.1905886106406,-807.38615640300441,-4381.8974974822613,2436.4273918097747,2230.9203768854732,7222.1382630977068,1768.1591662495171,-3449.3982376748313,3449.3982376748313,-1768.1591662495171,13390.710300632798,0.0
653296.95196600363,3605566.251970998,-27500.0,6543.2124141572158,-2735.0854883991428,-2183.7903319727407,-3412.1607239398609,1028.4346908492441,1428.346356924545,5988.1310149476412,2779.7086563066296,-4101.4413399850828,4101.4413399850828,-2779.7086563066296,10873.298286693371,0.0
658296.95196600363,3605566.251970998,-27500.0,5663.2002346837962,-1360.5361145665881,-2906.5202759167473,-2494.9703959604426,76.078978744316387,831.60950907121787,5017.296535316571,3299.6339290334263,-4188.0809884785349,4188.0809884785349,-3299.6339290334263,8923.2375206435554,0.0
663296.95196600363,3605566.251970998,-27500.0,4650.2665509716899,-280.78866571756879,-3170.6551485593895,-1704.1396487779787,-519.10281600107987,409.95890872234116,4266.4149004712708,3438.3904724014428,-3924.7702935670659,3924.7702935670659,-3438.3904724014428,7465.9973835983456,0.0
668296.95196600363,3605566.251970998,-27500.0,3638.8825956045762,504.87885240535974,-3143.8172263320103,-1064.4344795618524,-855.22383151995143,126.07824301293586,3685.7705949430856,3318.3665045959256,-3479.9099730492439,3479.9099730492439,-3318.3665045959256,6393.4738205393332,0.0
673296.95196600363,3605566.251970998,-27500.0,2709.9099836472556,1036.0623733591617,-2951.1083214047758,-571.50288614766737,-1014.6125636423338,-55.339906748569796,3230.0940497354613,3044.4910601068045,-2968.3839826537837,2968.3839826537837,-3044.4910601068045,5597.1459953171006,0.0
678296.95196600363,3605566.251970998,-27500.0,1902.6779023354704,1365.0874711460153,-2677.5418092573368,-206.81748524238844,-1059.9580870442946,-163.86769815772914,2863.5382909998602,2695.0777924634594,-2460.2501772835567,2460.2501772835567,-2695.0777924634594,4987.2874088239587,0.0
683296.95196600363,3605566.251970998,-27500.0,1228.7268261353629,1542.9048436059938,-2376.6951352638953,52.877941714023059,-1036.0054617459548,-222.48700316355391,2560.2830123913282,2323.0618995825766,-1993.256552342918,1993.256552342918,-2323.0618995825766,4499.2029446312436,0.0
688296.95196600363,3605566.251970998,-27500.0,683.16534967400025,1612.9773652135534,-2079.8949836743245,230.38915283737489,-973.1729006586969,-248.15776278937918,2302.8486421577727,1961.1397343359474,-1584.0779595586166,1584.0779595586166,-1961.1397343359474,4090.7316102369632,0.0
693296.95196600363,3605566.251970998,-27500.0,252.71981001457297,1609.6708834838828,-1803.7793601836745,345.68933611854521,-891.2949624890623,-252.91956821139607,2079.7925238798898,1627.4468426869832,-1236.7578894717383,1236.7578894717383,-1627.4468426869832,3736.2892818006335,0.0
698296.95196600363,3605566.251970998,-27500.0,-79.125515616370336,1558.8208492340825,-1555.8204458998657,415.16315012052132,-802.78148109498557,-245.05460014594638,1883.6726793003579,1330.3926533991191,-948.43613381928185,948.43613381928185,-1330.3926533991191,3421.016910678482,0.0
703296.95196600363,3605566.251970998,-27500.0,-329.13805150859747,1479.1337358514922,-1338.0775979763619,451.69049714133536,-715.03029164173438,-230.10396924318403,1709.5548123955084,1072.3024073454089,-712.96155589107047,712.96155589107047,-1072.3024073454089,3136.410983121245,0.0
708296.95196600363,3605566.251970998,-27500.0,-512.78067170970439,1383.7364036515851,-1149.6195381323537,465.09625580173918,-632.16200232032622,-211.67455067700919,1554.0268762097937,851.95961046810498,-523.02808520924896,523.02808520924896,-851.95961046810498,2877.4978707356872,0.0
523296.95196600363,3610566.251970998,-27500.0,-2749.1990849148824,-2030.4106327288266,-1234.7108916786995,-1480.4101351805264,-961.56720538362333,-567.2294983830086,2548.5579686699621,-2781.5612410084959,-206.42771584355228,206.42771584355228,2781.5612410084959,5046.4321630372897,0.0
528296.95196600363,3610566.251970998,-27500.0,-2789.4305646885878,-2292.6566682797779,-1501.9089520251625,-1629.6437613578782,-1145.6196486775309,-663.97710129663244,2824.0582157852541,-2919.5917339442422,-418.06288131648103,418.06288131648103,2919.5917339442422,5577.8194985336368,0.0
533296.95196600363,3610566.251970998,-27500.0,-2767.2448631324237,-2571.8733619061009,-1830.6938069842615,-1778.1281296817915,-1362.6643000150636,-774.48851611402529,3126.912513816359,-3015.8950837791226,-697.81568126939169,697.81568126939169,3015.8950837791226,6154.7758990282091,0.0
538296.95196600363,3610566.251970998,-27500.0,-2657.2366994461458,-2857.5910189581582,-2232.6646231252448,-1915.9735746359588,-1615.2317717999113,-898.15369560340412,3456.0650262159647,-3045.053064831005,-1061.6105257546869,1061.6105257546869,3045.053064831005,6772.3734008052206,0.0
543296.95196600363,3610566.251970998,-27500.0,-2428.0341222129305,-3131.488450741967,-2718.8897630539377,-2028.103699058566,-1903.2594084024799,-1032.2914456817662,3808.4640847847518,-2972.8518756350886,-1526.1298695551968,1526.1298695551968,2972.8518756350886,7420.5199935277315,0.0
548296.95196600363,3610566.251970998,-27500.0,-2042.8547198594804,-3363.9728736639818,-3297.2249468993791,-2092.5901661525704,-2221.686534064544,-1170.7891358487409,4178.3249699686085,-2754.9770617700187,-2106.2819376752559,2106.2819376752559,2754.9770617700187,8082.1563097676608,0.0
553296.95196600363,3610566.251970998,-27500.0,-1461.924142739859,-3510.1322725974219,-3967.438104909329,-2079.0117749296314,-2556.6865677992168,-1302.1649501714505,4556.5225174261695,-2336.9536567093278,-2810.3611008081912,2810.3611008081912,2336.9536567093278,8731.7407379041106,0.0
558296.95196600363,3610566.251970998,-27500.0,-648.11737375107009,-3505.7855205244473,-4713.0390777967777,-1947.4350984746084,-2880.1020454502227,-1406.9887631617526,4930.6796249224353,-1656.9097637480918,-3631.7123929578265,3631.7123929578265,1656.9097637480918,9335.3517114772785,0.0
563296.95196600363,3610566.251970998,-27500.0,422.44466943547275,-3265.4077234080273,-5488.6613828019099,-1649.1646713166479,-3141.8226062655008,-1454.7622094447161,5287.1607378565241,-653.68065378720485,-4535.6637813430189,4535.6637813430189,653.68065378720485,9855.4428866094277,0.0
568296.95196600363,3610566.251970998,-27500.0,1743.207954879608,-2685.5064537540543,-6202.5548176689717,-1131.2346934780714,-3260.526993777949,-1400.7439737150512,5617.4023991453523,716.26382524124347,-5441.2417771378905,5441.2417771378905,-716.26382524124347,10266.76691759079,0.0
573296.95196600363,3610566.251970998,-27500.0,3253.3209416409145,-1659.3755037952817,-6696.152781531714,-347.47573603358848,-3114.7888576569176,-1183.8757240878595,5932.6075504149749,2449.544778107655,-6199.7314543757693,6199.7314543757693,-2449.544778107655,10595.352670901246,0.0
578296.95196600363,3610566.251970998,-27500.0,4811.3782344100628,-110.99231315250563,-6728.1382683149059,720.67865485936716,-2539.5593883055535,-728.01500067299651,6290.8377911813104,4453.4805404501058,-6577.8274078407921,6577.8274078407921,-4453.4805404501058,10993.933581292058,0.0
583296.95196600363,3610566.251970998,-27500.0,6179.4884675386402,1946.1163326465921,-5979.5293564319327,2032.1978651595741,-1337.4406864321354,50.052653232378155,6830.7314854271099,6498.4081595704829,-6262.4346549296806,6262.4346549296806,-6498.4081595704829,11832.227690825252,0.0
588296.95196600363,3610566.251970998,-27500.0,7041.1671287383515,4330.5218964919623,-4105.9502473210114,3447.8751838789558,681.88726810578714,1221.5331072447029,7775.0377271319849,8188.9389953115015,-4913.6651681361209,4913.6651681361209,-8188.9389953115015,13659.169912351972,0.0
593296.95196600363,3610566.251970998,-27500.0,7080.8906996741171,6625.6344120400736,-862.49009043101739,4701.7092912998123,3622.6910349002451,2812.4782116266142,9346.1509430020742,8997.4752498711568,-2290.7371397988036,2290.7371397988036,-8997.4752498711568,16875.959043908693,0.0
598296.95196600363,3610566.251970998,-27500.0,6134.5460239935655,8185.8575148364125,3702.3898594918251,5413.1331048999509,7389.5667169782437,4759.4679973657794,11601.546981719526,8406.106469064136,1555.5116686199881,-1555.5116686199881,-8406.106469064136,21382.463077868866,0.0
603296.95196600363,3610566.251970998,-27500.0,4367.1682752879315,8288.2139127145911,9052.9812323980077,5174.978062371817,11578.93231907189,6868.9369258117613,14284.647276344378,6161.5990573671797,6096.8088326760162,-6096.8088326760162,-6161.5990573671797,26554.332111111849,0.0
608296.95196600363,3610566.251970998,-27500.0,2364.7715538153211,6449.3486206879143,14116.291358271061,3727.1416291349992,15456.398939935241,8809.8310137131502,16851.797497347696,2553.3873406979492,10294.310396685038,-10294.310396685038,-2553.3873406979492,31417.441285183369,0.0
613296.95196600363,3610566.251970998,-27500.0,997.24686127939788,2798.2270356899353,17532.262986619346,1161.111909549873,18111.468009539072,10175.744066002102,18683.129025919297,-1482.575939817807,12869.309901007544,-12869.309901007544,1482.575939817807,34892.628971271872,0.0
618296.95196600363,3610566.251970998,-27500.0,1003.0186278373673,-1757.8612417295124,18223.051462575881,-1983.2069537312998,18807.32977370271,10628.689410006262,19306.95470301876,-4642.406197747835,12879.616218213472,-12879.616218213472,4642.406197747835,36133.713059423644,0.0
623296.95196600363,3610566.251970998,-27500.0,2503.630807267486,-5837.6022939947406,15999.327638388033,-4877.8829701475979,17365.968189209179,10065.70875796678,18579.916992318645,-5895.5195380209552,10295.499406987257,-10295.499406987257,5895.5195380209552,34865.569353444283,0.0
628296.95196600363,3610566.251970998,-27500.0,4869.4749973319749,-8282.5893077522851,11713.791265983104,-6796.3269316860933,14291.754173891839,8683.8493213246657,16743.325820627491,-5063.3117855738228,6081.8493105819025,-6081.8493105819025,5063.3117855738228,31502.763065151215,0.0
633296.95196600363,3610566.251970998,-27500.0,7123.9676266052911,-8723.9358053612432,6765.0524252615396,-7450.9068322419207,10492.924372677888,6873.6258362700428,14299.70043703631,-2828.5130881823584,1635.7606720898571,-1635.7606720898571,2828.5130881823584,26930.934462218604,0.0
638296.95196600363,3610566.251970998,-27500.0,8526.8917179228083,-7576.3974552466116,2364.8369492681582,-7021.0411966198408,6826.4070638125395,5026.9403883960622,11785.237432213708,-201.17758239324542,-1947.8484774094609,1947.8484774094609,201.17758239324542,22103.023330687054,0.0
643296.95196600363,3610566.251970998,-27500.0,8850.9796009449165,-5598.4538903741313,-869.38125080166833,-5925.3893255387384,3809.1844630654405,3405.3611233475585,9570.5125616916539,2036.5912966938442,-4220.9332067763471,4220.9332067763471,-2036.5912966938442,17722.732061255971,0.0
648296.95196600363,3610566.251970998,-27500.0,8275.8605916551769,-3464.5410371549328,-2870.5769552113161,-4576.8124722393004,1600.9976328057191,2119.7515949800709,7794.0910419588963,3536.8143750247523,-5267.9152237449925,5267.9152237449925,-3536.8143750247523,14144.342147136898,0.0
653296.95196600363,3610566.251970998,-27500.0,7142.9117362376455,-1585.1103764923339,-3871.4718053565566,-3261.1024824362958,133.87951845408833,1174.8427204534914,6438.8702435817813,4294.5473882013421,-5419.3263489977662,5419.3263489977662,-4294.5473882013421,11432.22443499886,0.0
658296.95196600363,3610566.251970998,-27500.0,5773.9832555852099,-125.72228266383506,-4182.9190409763123,-2127.1632051050069,-752.60585048844075,522.17579319162473,5425.829918032392,4471.9138292127391,-5029.9674435506713,5029.9674435506713,-4471.9138292127391,9473.6891473712785,0.0
663296.95196600363,3610566.251970998,-27500.0,4397.9327918858908,903.14122437961214,-4076.8718026869788,-1225.1241797942366,-1227.1700770762741,96.894003673943672,4664.8533702912182,4266.4716556244202,-4377.9122997352024,4377.9122997352024,-4266.4716556244202,8083.2173956666402,0.0
668296.95196600363,3610566.251970998,-27500.0,3147.0858194137604,1564.2022548787329,-3750.8068698878278,-548.68390112155407,-1430.3618781693706,-162.8615943892278,4078.3846446700545,3846.9280804706495,-3646.0570914434438,3646.0570914434438,-3846.9280804706495,7077.1581039094208,0.0
673296.95196600363,3610566.251970998,-27500.0,2080.8173130576415,1941.6205984011247,-3332.3986432683309,-65.932435703963279,-1466.2223690614956,-308.17305968083031,3609.4548863279806,3334.7707742116245,-2939.1127119328494,2939.1127119328494,-3334.7707742116245,6312.7013389587255,0.0
678296.95196600363,3610566.251970998,-27500.0,1212.2016872298009,2115.119018372262,-2896.8843338744286,262.34417210934731,-1406.2529730626102,-377.83943329832709,3220.394271913251,2807.7724195834066,-2308.1462047444234,2308.1462047444234,-2807.7724195834066,5695.5688043217569,0.0
683296.95196600363,3610566.251970998,-27500.0,528.90553525860378,2150.1669898996033,-2484.4408326361058,473.41541685051584,-1296.964886047472,-399.69955943069095,2887.8498554791558,2310.4976061145812,-1771.4495212592906,1771.4495212592906,-2310.4976061145812,5170.3703384297369,0.0
688296.95196600363,3610566.251970998,-27500.0,7.0653007197954008,2096.3933613191311,-2113.5861018045175,598.84094218652888,-1167.1979292455874,-392.88486302644174,2597.7352046637834,1864.9575505935163,-1329.2320588235953,1329.2320588235953,-1864.9575505935163,4707.06356927454,0.0
693296.95196600363,3610566.251970998,-27500.0,-380.49131560794478,1989.4661105822961,-1790.3166701950352,663.62963949283335,-1033.9497444280594,-370.07634633952682,2341.4532325718296,1479.0540571190761,-972.89941062500372,972.89941062500372,-1479.0540571190761,4290.0693027593843,0.0
698296.95196600363,3610566.251970998,-27500.0,-659.87615284241497,1853.996054948323,-1513.9043294384473,686.7583216642339,-906.60103368317823,-339.40109754317064,2113.488355777034,1152.5365036708336,-690.46921030517035,690.46921030517035,-1152.5365036708336,3911.311098577306,0.0
703296.95196600363,3610566.251970998,-27500.0,-854.1513171466986,1706.3617265773014,-1280.3762782484514,682.18685754637352,-789.80540590539783,-305.88474759913572,1910.0078553693975,880.89574239933359,-469.49205532275954,469.49205532275954,-880.89574239933359,3566.2970060317753,0.0
708296.95196600363,3610566.251970998,-27500.0,-982.69418211686786,1557.0581515838055,-1084.5013510978524,659.93934138780332,-685.38807010678681,-272.50092744851491,1728.0986020881505,657.75972308377072,-298.47039234128374,298.47039234128374,-657.75972308377072,3252.1012297326288,0.0
518296.95196600363,3615566.251970998,-27500.0,-3180.589410401667,-1762.6263753387166,-843.13929423268632,-1542.0640783068984,-781.94112939957358,-546.08777224108235,2498.7211515698018,-2962.9224194089311,255.67019021420083,-255.67019021420083,2962.9224194089311,4953.2808963712141,0.0
523296.95196600363,3615566.251970998,-27500.0,-3356.0914223863542,-2030.5017066262951,-1035.6047562127014,-1735.1947541578356,-944.03788258712996,-648.26519758577194,2788.0297847895326,-3206.133675052708,143.82551586836848,-143.82551586836848,3206.133675052708,5523.4629717532007,0.0
528296.95196600363,3615566.251970998,-27500.0,-3503.3629818175418,-2334.1925862810767,-1278.9271689832999,-1945.6615671110169,-1141.225821409294,-769.47725099004901,3113.5664433359971,-3443.8616221130346,-18.815335261760083,18.815335261760083,3443.8616221130346,6160.3769011233207,0.0
533296.95196600363,3615566.251970998,-27500.0,-3602.6083501767439,-2673.168923915101,-1586.5307434125975,-2169.7410414530073,-1379.972410460131,-912.02783709203413,3477.9333132845099,-3660.346819471506,-248.71821236989581,248.71821236989581,3660.346819471506,6866.8165623822615,0.0
538296.95196600363,3615566.251970998,-27500.0,-3626.7295108418743,-3042.7419218980199,-1974.4971210668436,-2399.9772037877588,-1666.717464783412,-1077.4510845670613,3882.3897340594681,-3831.9176293428873,-566.30324469253787,566.30324469253787,3831.9176293428873,7642.3190358828733,0.0
543296.95196600363,3615566.251970998,-27500.0,-3539.7221909621003,-3431.2399595297043,-2461.1489846115396,-2623.306396131924,-2006.6976114827946,-1265.5646031232957,4326.0167696023036,-3924.2165032350299,-995.86957446810038,995.86957446810038,3924.2165032350299,8481.049798809865,0.0
548296.95196600363,3615566.251970998,-27500.0,-3295.5033361143528,-3815.8710137342537,-3065.5334290362202,-2818.5723325973399,-2401.7350940943093,-1472.9219657093181,4804.5324331907623,-3889.0771782776178,-1564.4227226560647,1564.4227226560647,3889.0771782776178,9368.8958415999368,0.0
553296.95196600363,3615566.251970998,-27500.0,-2838.0859274354243,-4157.0143359041012,-3803.8137429850613,-2953.4934073979698,-2846.360850971158,-1690.4153568377158,5308.7580558763384,-3661.6793873628549,-2298.3396658690181,2298.3396658690181,3661.6793873628549,10279.839498583939,0.0
558296.95196600363,3615566.251970998,-27500.0,-2104.7294230578946,-4391.0343060914302,-4681.969155278236,-2981.4482443693669,-3321.3946870582959,-1899.7561832067672,5822.9925883583355,-3159.421825800966,-3216.1574907692066,3216.1574907692066,3159.421825800966,11172.201196684957,0.0
563296.95196600363,3615566.251970998,-27500.0,-1034.7321511561083,-4422.7164310386115,-5682.5032974331143,-2839.1189679233667,-3783.9574077234029,-2068.656083441218,6324.1688108943454,-2285.4257937982334,-4315.018443041944,4315.018443041944,2285.4257937982334,11986.800487477674,0.0
568296.95196600363,3615566.251970998,-27500.0,412.4276739099879,-4120.6290675002811,-6742.5079973308912,-2447.2290022181915,-4153.1329401851608,-2144.8392089715048,6784.0571244115472,-941.76723051483987,-5547.9342272445811,5547.9342272445811,941.76723051483987,12652.538049296569,0.0
573296.95196600363,3615566.251970998,-27500.0,2225.7972372130898,-3322.7792556471431,-7721.6967039221436,-1718.531520772957,-4291.8660214641404,-2049.7626959311106,7179.7974194109693,940.00611237112389,-6790.3746078404156,6790.3746078404156,-940.00611237112389,13112.777031142583,0.0
578296.95196600363,3615566.251970998,-27500.0,4298.0511080032884,-1865.7151847539867,-8364.6236212921922,-579.54896523166929,-3989.4973991002657,-1674.4182842355747,7523.3808492708149,3343.059336763421,-7800.5632481680514,7800.5632481680514,-3343.059336763421,13400.927716021228,0.0
583296.95196600363,3615566.251970998,-27500.0,6377.5990290267291,345.58699237608863,-8275.0933506103793,986.38605707948693,-2957.2678204505792,-882.22542763794627,7924.5524531803267,6083.4077226524623,-8192.1775738265915,8192.1775738265915,-6083.4077226524623,13803.765173839594,0.0
588296.95196600363,3615566.251970998,-27500.0,8050.1653317783312,3217.3939000890214,-6943.5964872167415,2872.2443969225196,-861.00838619752687,472.25480953942383,8677.2471668690414,8725.1470079187493,-7461.449801188216,7461.449801188216,-8725.1470079187493,15054.716084568416,0.0
593296.95196600363,3615566.251970998,-27500.0,8806.3613980227783,6322.8056391082027,-3886.9102685305215,4772.5176897634092,2576.4500787253751,2497.381181685324,10250.813447479362,10558.86995913335,-5128.288745480636,5128.288745480636,-10558.86995913335,18138.893321198018,0.0
598296.95196600363,3615566.251970998,-27500.0,8245.1842389036556,8827.5712270357235,1065.5498160661514,6150.2810269551137,7385.8592149585384,5184.5110221864652,12980.736084326452,10744.556328935179,-1023.3680151913577,1023.3680151913577,-10744.556328935179,23448.859602710472,0.0
603296.95196600363,3615566.251970998,-27500.0,6384.8117290574419,9634.5421454336119,7411.0047399268196,6324.9020765051882,13118.439349097396,8307.7542851610669,16612.347040213735,8682.68095281567,4357.8415438545908,-4357.8415438545908,-8682.68095281567,30290.991874064552,0.0
608296.95196600363,3615566.251970998,-27500.0,3913.0791901707462,7844.8866595966856,13769.697282461524,4741.1498368652174,18708.959776219152,11355.207096207738,20304.318444248776,4521.2704498463372,9671.3722423876115,-9671.3722423876115,-4521.2704498463372,37166.137122122855,0.0
613296.95196600363,3615566.251970998,-27500.0,2099.8833320957301,3426.0585736993821,18154.46137245166,1376.6118725312972,22646.875184837492,13586.651445678106,23016.190881798109,-518.7229523496344,13025.228510039742,-13025.228510039742,518.7229523496344,42247.151174309714,0.0
618296.95196600363,3615566.251970998,-27500.0,2157.3115260414215,-2352.8693747448983,18870.213223461826,-2960.4278638711476,23594.990706542725,14308.236161213123,23906.543452382131,-4459.1191338073868,12903.430481980318,-12903.430481980318,4459.1191338073868,44010.907571848336,0.0
623296.95196600363,3615566.251970998,-27500.0,4303.4220759808495,-7341.7434627125876,15634.890261187213,-6850.9300154443135,21214.030572124466,13285.31120622605,22714.971438437176,-5680.5089735320198,9259.3148619481744,-9259.3148619481744,5680.5089735320198,41951.318327907502,0.0
628296.95196600363,3615566.251970998,-27500.0,7445.1399741721434,-9804.3454326734809,9897.571743553437,-9073.2940053187831,16472.647232343319,10939.714197722369,19905.393628863279,-4047.2361935616318,3715.0802294039386,-3715.0802294039386,4047.2361935616318,36865.297322484446,0.0
633296.95196600363,3615566.251970998,-27500.0,10012.110730066057,-9453.5662409632369,3849.2235732962181,-9311.7931770075265,11014.68369955468,8072.6132226019799,16390.875234035146,-846.10029193046307,-1558.7356487237064,1558.7356487237064,846.10029193046307,30364.418583991341,0.0
638296.95196600363,3615566.251970998,-27500.0,11065.28559904563,-7240.6833611368738,-909.89944057082005,-8093.5354537026687,6189.7728030669441,5384.6325319697189,13045.891493542958,2346.6794609621929,-5173.00158745096,5173.00158745096,-2346.6794609621929,24008.046598337711,0.0
643296.95196600363,3615566.251970998,-27500.0,10599.296616086887,-4404.3686943101129,-3866.8641324428831,-6211.8132863370793,2602.6075281707649,3232.2615892005642,10354.664838149463,4594.3778354483129,-6883.3712975141952,6883.3712975141952,-4594.3778354483129,18741.565049028279,0.0
648296.95196600363,3615566.251970998,-27500.0,9131.3736242319756,-1802.9007131934482,-5265.2722698936986,-4278.6661354626967,260.60704829418046,1678.9762831014184,8381.8273651959935,5708.8711692406132,-7136.1795079996527,7136.1795079996527,-5708.8711692406132,14845.476290452363,0.0
653296.95196600363,3615566.251970998,-27500.0,7233.7276088551407,195.6266895845385,-5603.7967862605274,-2614.5364077650293,-1098.919917211296,641.13875183054404,6981.6075471351587,5917.5375452716244,-6530.52697331545,6530.52697331545,-5917.5375452716244,12160.461602870386,0.0
658296.95196600363,3615566.251970998,-27500.0,5315.4771908617831,1548.6332455114193,-5337.7206922683063,-1322.5437624571307,-1780.7484296210739,-5.8366767262757593,5974.1972455316682,5550.8408736803012,-5543.3925364699662,5543.3925364699662,-5550.8408736803012,10347.625451851203,0.0
663296.95196600363,3615566.251970998,-27500.0,3600.045271009702,2359.9897494889024,-4786.6344697165723,-389.4384381978453,-2035.9337826375247,-378.12539161188414,5215.7602914516119,4889.1711440267545,-4473.6255154439996,4473.6255154439996,-4889.1711440267545,9077.2967583670852,0.0
668296.95196600363,3615566.251970998,-27500.0,2175.9595556501686,2770.1178450639704,-4143.6476685768612,244.60369969458137,-2042.8921545183134,-567.91542293984435,4611.5348616633355,4124.1478206023276,-3477.7444536520138,3477.7444536520138,-4124.1478206023276,8114.5825419966859,0.0
673296.95196600363,3615566.251970998,-27500.0,1052.7709111621161,2906.576103863325,-3512.3280933537676,648.88103632368689,-1918.1147585630879,-642.44408590541116,4106.1464559464548,3369.306667174928,-2621.2700475318456,2621.2700475318456,-3369.306667174928,7322.58458014404,0.0
678296.95196600363,3615566.251970998,-27500.0,201.33034832383149,2868.840288707439,-2940.8803091508967,885.92456102541894,-1733.1930439967703,-648.06889921375466,3669.3599787171561,2682.9533171853541,-1919.0525312954312,1919.0525312954312,-2682.9533171853541,6631.9809033723159,0.0
683296.95196600363,3615566.251970998,-27500.0,-421.97882895836779,2728.2946083412171,-2446.2749340187943,1006.2341788422601,-1529.7805846074091,-615.36091831616011,3284.9364689216491,2088.7560283888465,-1361.1621021087476,1361.1621021087476,-2088.7560283888465,6011.0473905983681,0.0
688296.95196600363,3615566.251970998,-27500.0,-862.36732724304716,2533.3771480043602,-2029.2845791429193,1048.0709512310746,-1330.6040177360821,-563.68274118649708,2943.7328155327987,1590.5855937190443,-927.71401958815136,927.71401958815136,-1590.5855937190443,5446.1295601240381,0.0
693296.95196600363,3615566.251970998,-27500.0,-1160.6781594618944,2315.5106089773481,-1683.1992107929373,1039.2202983533148,-1146.9261132403897,-504.80128141577831,2639.9960854700789,1182.1248813466991,-596.63703386868326,596.63703386868326,-1182.1248813466991,4931.2204734920069,0.0
698296.95196600363,3615566.251970998,-27500.0,-1351.2548326250062,2094.1850964901651,-1398.5598592986687,999.22999516780317,-983.33705366388972,-445.52152860822247,2369.5275882818328,852.62511977705822,-347.31867556548804,347.31867556548804,-852.62511977705822,4463.015461523557,0.0
703296.95196600363,3615566.251970998,-27500.0,-1461.7495615367104,1880.8458832454257,-1165.570341170994,941.493781733383,-840.72511775574628,-389.51211390519586,2128.8532296637159,590.1361884210404,-162.02084382261964,162.02084382261964,-590.1361884210404,4038.8454200379201,0.0
708296.95196600363,3615566.251970998,-27500.0,-1513.7976399640154,1681.6815903337533,-975.20876260770387,874.9624238828859,-718.06029149146138,-338.52193849332963,1914.88050649863,383.17603936722588,-26.167636743158596,26.167636743158596,-383.17603936722588,3655.9580034122273,0.0
713296.95196600363,3615566.251970998,-27500.0,-1523.9879146913422,1499.5466632066386,-819.64566643776197,805.45834521077506,-613.43290537815369,-293.16675530385248,1724.7756580100875,221.48706333085931,71.882133067154655,-71.882133067154655,-221.48706333085931,3311.375725840152,0.0
518296.95196600363,3620566.251970998,-27500.0,-3688.4390021806394,-1656.065611619342,-646.84016015648149,-1742.294103508686,-726.46494291880776,-606.25351411232862,2687.0059016906393,-3254.5049322475415,582.21462149304966,-582.21462149304966,3254.5049322475415,5319.2197911392304,0.0
523296.95196600363,3620566.251970998,-27500.0,-3966.8038889174363,-1935.7575606515352,-804.36317170661869,-1987.5705642124142,-887.95086830193725,-727.56272443875025,3019.2069573392237,-3577.7375500377193,529.32976813423716,-529.32976813423716,3577.7375500377193,5975.6136871201388,0.0
528296.95196600363,3620566.251970998,-27500.0,-4237.1899540219974,-2262.4963109443675,-1008.3289094237742,-2264.5201208834415,-1088.386957616513,-874.41222189793859,3397.9955704390391,-3916.5639674617159,434.47347760676826,-434.47347760676826,3916.5639674617159,6720.8970393388136,0.0
533296.95196600363,3620566.251970998,-27500.0,-4482.3188244736348,-2640.8958498154184,-1273.2427933704876,-2573.1775901423325,-1336.8263338586262,-1051.3374985558839,3828.7935258583439,-4259.9513696168551,280.66959649876094,-280.66959649876094,4259.9513696168551,7563.5677584506802,0.0
538296.95196600363,3620566.251970998,-27500.0,-4676.6621317840554,-3073.2271621837117,-1617.8063976698434,-2910.5089760050064,-1643.617506355464,-1262.7880283481434,4316.3865109103426,-4589.2135802970952,45.339687926753413,-45.339687926753413,4589.2135802970952,8510.016745597959,0.0
543296.95196600363,3620566.251970998,-27500.0,-4783.6376776508905,-3556.908679491271,-2065.5801539012364,-3268.3305430548508,-2019.7754798319299,-1512.2874406263759,4863.9331062098827,-4874.4511521339045,-300.85276060141769,300.85276060141769,4874.4511521339045,9562.2738716601998,0.0
548296.95196600363,3620566.251970998,-27500.0,-4752.4631136453618,-4080.3933088016656,-2645.1005615701083,-3630.2599121697472,-2475.4296281244337,-1800.9066666540709,5471.4656934671793,-5069.8417562821942,-794.69721085453284,794.69721085453284,5069.8417562821942,10714.527901106439,0.0
553296.95196600363,3620566.251970998,-27500.0,-4515.2462495223699,-4616.7193749399512,-3388.5757768605995,-3967.4443564980652,-3016.5885390337644,-2124.6627522799972,6133.6553197352432,-5107.8570154094878,-1479.7512039799337,1479.7512039799337,5107.8570154094878,11947.988648326227,0.0
558296.95196600363,3620566.251970998,-27500.0,-3985.7301440417914,-5113.9493880013415,-4327.4517598675993,-4232.9720019540564,-3638.9820793442059,-2470.3337842292267,6836.6475218045907,-4893.1656310722628,-2402.4585568585098,2402.4585568585098,4893.1656310722628,13223.812088093615,0.0
563296.95196600363,3620566.251970998,-27500.0,-3062.6075743725769,-5482.1660355241174,-5481.7830443765561,-4355.3548438343205,-4317.0912920994906,-2809.0840130132806,7554.0585549337075,-4298.5190306484201,-3601.8002453536228,3601.8002453536228,4298.5190306484201,14474.516039398397,0.0
568296.95196600363,3620566.251970998,-27500.0,-1642.7788613363407,-5578.4745720319288,-6838.4710773821616,-4232.6941995949001,-4985.8109342595735,-3087.3145100399797,8243.2026117858204,-3168.0509566440987,-5087.1989067593922,5087.1989067593922,3168.0509566440987,15596.688957894401,0.0
573296.95196600363,3620566.251970998,-27500.0,346.94386676675248,-5196.2526592656504,-8311.9590183281762,-3731.8188970008773,-5512.2153047411066,-3214.4909784171173,8845.5173642770897,-1338.8754139361372,-6797.7843999136821,6797.7843999136821,1338.8754139361372,16454.73772225605,0.0
578296.95196600363,3620566.251970998,-27500.0,2889.786229497382,-4075.0197263991422,-9683.3282014091164,-2701.8221349952796,-5657.7146107172821,-3048.9042139337143,9302.9837588945593,1301.1024413746441,-8538.4955351316021,8538.4955351316021,-1301.1024413746441,16924.228368484863,0.0
583296.95196600363,3620566.251970998,-27500.0,5788.8566286024097,-1962.8141762919013,-10528.351773841934,-1018.909279277208,-5041.203397837412,-2385.8717553269671,9620.717960902708,4699.3921031566388,-9903.6654997295955,9903.6654997295955,-4699.3921031566388,17047.063367369745,0.0
588296.95196600363,3620566.251970998,-27500.0,8577.3694885364439,1228.0980414778699,-10183.880489977866,1316.6212531035992,-3137.9527550157468,-961.5661637688753,10032.340636753594,8472.3921579553771,-10239.09820798804,10239.09820798804,-8472.3921579553771,17414.902505676353,0.0
593296.95196600363,3620566.251970998,-27500.0,10521.986663539839,5166.8162289415259,-7860.6385342597769,4029.3648704147718,616.15570331278116,1499.6396853056945,11251.599026844295,11764.971297745786,-8753.8773023651229,8753.8773023651229,-11764.971297745786,19580.691724578664,0.0
598296.95196600363,3620566.251970998,-27500.0,10853.938595677035,8870.1001217079229,-3022.5523759185721,6428.3415861919248,6538.2985897173876,5157.3843756405713,14252.230410663902,13326.296948414114,-4902.5041833738096,4902.5041833738096,-13326.296948414114,25183.612706710956,0.0
603296.95196600363,3620566.251970998,-27500.0,9262.9163130216784,10768.628632718621,4006.9899960088542,7434.182407994711,14247.609601374936,9836.5606948812492,19051.441733562031,11999.220069001887,1010.4267795878213,-1010.4267795878213,-11999.220069001887,33965.324849083088,0.0
608296.95196600363,3620566.251970998,-27500.0,6424.4481584394935,9328.7402142449791,11572.862614435464,5948.5240025754802,22272.903267987283,14788.864410246564,24381.10928817734,7567.0879598365127,7373.3629996842656,-7373.3629996842656,-7567.0879598365127,43690.774820722152,0.0
613296.95196600363,3620566.251970998,-27500.0,4098.1788200689653,4158.4183800588917,16910.424062381746,1606.205445430104,28142.680414405313,18640.761460099086,28471.097189338256,1495.2137298573243,11518.703426940141,-11518.703426940141,-1495.2137298573243,51234.418153642451,0.0
618296.95196600363,3620566.251970998,-27500.0,4253.7243344445315,-3030.1990819194648,17469.30451796245,-4430.8018430964494,29412.591516531891,19877.048385160098,29779.077030255688,-3279.0300099988049,11095.073135097222,-11095.073135097222,3279.0300099988049,53796.026579636869,0.0
623296.95196600363,3620566.251970998,-27500.0,7296.7726103578607,-8901.1656404721653,12885.107978797743,-9652.797369645974,25425.234503210551,17909.986550051475,27807.985282009264,-4217.513044747222,6061.3272106490658,-6061.3272106490658,4217.513044747222,50409.413729712171,0.0
628296.95196600363,3620566.251970998,-27500.0,11300.270887208966,-10902.040306725665,5596.9867668366787,-11943.442891853989,18098.276744914696,13719.299372958261,23474.744970133903,-1390.6768820183629,-863.00632167319691,863.00632167319691,1390.6768820183629,42653.479947244217,0.0
633296.95196600363,3620566.251970998,-27500.0,13777.590489582428,-9144.4914258640983,-1122.1744466170635,-11141.1676775176,10427.457060494095,9059.6947818197041,18470.491485767558,2834.320331033854,-6447.1261067868691,6447.1261067868691,-2834.320331033854,33517.213521387705,0.0
638296.95196600363,3620566.251970998,-27500.0,13771.625992303016,-5551.9524875776397,-5462.799147183624,-8573.2173395769751,4412.0218422382713,5181.6975571562589,14187.922888546209,6181.0010079044378,-9247.6641154821773,9247.6641154821773,-6181.0010079044378,25493.100079532742,0.0
643296.95196600363,3620566.251970998,-27500.0,11883.261847256601,-1936.4609400868237,-7385.7827225936335,-5638.0123802206408,524.63203358603414,2453.9491587449843,11136.850901124226,7820.2000931016901,-9634.8724228867777,9634.8724228867777,-7820.2000931016901,19645.637683277677,0.0
648296.95196600363,3620566.251970998,-27500.0,9165.4314310550908,828.64669900982699,-7657.6219151809119,-3110.0955369154335,-1624.8381344546767,728.58857946549085,9123.6785660882724,8006.8524276928138,-8621.3163328139344,8621.3163328139344,-8006.8524276928138,15851.193315259188,0.0
653296.95196600363,3620566.251970998,-27500.0,6404.6428773135131,2602.5358502697381,-7058.8790246928011,-1221.3003370820859,-2615.4412241324535,-275.22380928248617,7767.335437777987,7315.9701137816637,-7060.7099834182109,7060.7099834182109,-7315.9701137816637,13463.595730918023,0.0
658296.95196600363,3620566.251970998,-27500.0,3998.7811910938367,3564.3148308621053,-6117.0921506978193,67.088736100384352,-2920.5052057637281,-804.28689718573105,6777.2642536368076,6233.6301172981075,-5455.2880776860402,5455.2880776860402,-6233.6301172981075,11854.438130991592,0.0
663296.95196600363,3620566.251970998,-27500.0,2076.0991854606204,3957.7802074247797,-5121.7909286626154,880.71477141493278,-2856.9925694472449,-1037.7177269303752,5987.8389148489296,5066.2852778113502,-4034.5949230272254,4034.5949230272254,-5066.2852778113502,10625.386277695598,0.0
668296.95196600363,3620566.251970998,-27500.0,625.46212170557817,3991.1928119527238,-4207.1652649859998,1350.0278496517246,-2617.2744514568562,-1096.2223415384551,5317.8329370146303,3974.7127849614299,-2870.9504790925757,2870.9504790925757,-3974.7127849614299,9581.5023767185994,0.0
673296.95196600363,3620566.251970998,-27500.0,-420.6724766531878,3815.6578511436019,-3421.5385805901587,1583.1702378746979,-2310.7790231418458,-1057.8094096983641,4730.3883402777146,3027.3125847543038,-1960.7807371831236,1960.7807371831236,-3027.3125847543038,8643.8010052234422,0.0
678296.95196600363,3620566.251970998,-27500.0,-1143.4892377535091,3531.8591000081146,-2770.9419549043832,1661.5677139558102,-1996.0136091855627,-971.07127589733204,4208.8209332121751,2241.1290389678525,-1270.303526868878,1270.303526868878,-2241.1290389678525,7785.6053891726533,0.0
683296.95196600363,3620566.251970998,-27500.0,-1618.8598438084898,3203.0816291289707,-2243.109120910487,1643.2582612251199,-1701.6969725385011,-865.05148369042502,3744.6104204507083,1607.7152047689174,-758.1296154646202,758.1296154646202,-1607.7152047689174,6999.7060791513104,0.0
688296.95196600363,3620566.251970998,-27500.0,-1910.59235814867,2867.069535791969,-1819.6684820336106,1568.0602249857798,-1439.8297112119412,-756.23344334877186,3332.1643099547346,1107.9325311728662,-385.20876104979925,385.20876104979925,-1107.9325311728662,6284.256792738237,0.0
693296.95196600363,3620566.251970998,-27500.0,-2069.3614424188331,2544.9467279937421,-1481.8364931790932,1462.4340282847622,-1213.45261323563,-653.29744740246156,2966.7655249613154,719.79287295015638,-118.40667153619023,118.40667153619023,-719.79287295015638,5637.5751007953395,0.0
698296.95196600363,3620566.251970998,-27500.0,-2134.008722666088,2247.4246202660474,-1212.778771102448,1343.4338248566335,-1021.125743655195,-560.25389467994671,2643.928832086086,422.27550655769306,68.87021269064121,-68.87021269064121,-422.27550655769306,5056.764553349879,0.0
703296.95196600363,3620566.251970998,-27500.0,-2133.5906022121585,1978.9102920812018,-998.33303981796371,1221.6766800412665,-859.42716875773658,-478.43376745131081,2359.2848214434434,196.9212109495765,197.27762008682566,-197.27762008682566,-196.9212109495765,4537.7207170780748,0.0
708296.95196600363,3620566.251970998,-27500.0,-2089.4545815056681,1740.1461336863315,-826.99138538963246,1103.4789953597656,-724.29569409027704,-407.71556230614271,2108.6367918326164,28.272062064173099,282.53101697345204,-282.53101697345204,-28.272062064173099,4075.5443771131031,0.0
713296.95196600363,3620566.251970998,-27500.0,-2017.0565973202986,1529.8629638212515,-689.58789269346573,992.3462977263556,-611.712144824044,-347.25774821175969,1888.0442380937429,-96.24446545298305,336.4255886415707,-336.4255886415707,96.24446545298305,3664.9783731230245,0.0
518296.95196600363,3625566.251970998,-27500.0,-4161.1566613443347,-1464.3065339488596,-444.10715782047782,-1926.5705554777651,-638.63501371899667,-661.12339839043,2854.5267728507174,-3469.3201733386513,910.97229855180649,-910.97229855180649,3469.3201733386513,5643.4085608869573,0.0
523296.95196600363,3625566.251970998,-27500.0,-4545.5254339206367,-1735.2433696279668,-558.8242265449552,-2223.5747925300666,-789.93068794322176,-800.92531960845804,3228.5138901824216,-3862.7318459920225,926.12710601572257,-926.12710601572257,3862.7318459920225,6381.6337595346395,0.0
528296.95196600363,3625566.251970998,-27500.0,-4946.7108093618708,-2059.7762542718392,-711.35344893591491,-2568.0420072535685,-981.15418734442346,-973.03955149003264,3660.4738781237293,-4293.516596975991,913.27276281615627,-913.27276281615627,4293.516596975991,7231.8007404991613,0.0
533296.95196600363,3625566.251970998,-27500.0,-5352.5618475174397,-2447.0841815056037,-915.36413582226999,-2964.9543242295658,-1223.1999041261188,-1184.5886671763028,4159.1788810508478,-4757.0509359679963,857.27288809333299,-857.27288809333299,4757.0509359679963,8209.3107098762794,0.0
538296.95196600363,3625566.251970998,-27500.0,-5742.9154568830618,-2906.2264494714154,-1189.534306467033,-3417.6286075939274,-1529.5447175498475,-1443.5718140283298,4733.8535881827484,-5242.4912482333311,736.62878654458518,-736.62878654458518,5242.4912482333311,9329.449014378748,0.0
543296.95196600363,3625566.251970998,-27500.0,-6085.9797631649935,-3444.4726994534112,-1559.1651448657828,-3925.8375907010864,-1916.3529378629833,-1758.3236018106234,5393.4435992568951,-5729.0451024032463,521.25908890375786,-521.25908890375786,5729.0451024032463,10605.525253850332,0.0
548296.95196600363,3625566.251970998,-27500.0,-6333.5165684453104,-4064.1247772095644,-2057.97838794573,-4482.7596521350979,-2401.9977241832876,-2136.3087646599652,6145.2728871859854,-6180.4545223812811,169.90577465553815,-169.90577465553815,6180.4545223812811,12045.620364931534,0.0
553296.95196600363,3625566.251970998,-27500.0,-6414.8032714879128,-4756.7981214869515,-2729.6339918704671,-5070.2013992887842,-3005.3031949109081,-2581.7918465608241,6992.7244356482033,-6537.1018134103688,-372.38722914168511,372.38722914168511,6537.1018134103688,13647.157466861512,0.0
558296.95196600363,3625566.251970998,-27500.0,-6229.897627059243,-5493.60468890424,-3627.7484964806272,-5651.3855345661623,-3741.1958282476426,-3091.6935507678299,7931.3738571376789,-6705.3118411030773,-1175.4802140518364,1175.4802140518364,6705.3118411030773,15388.197470924886,0.0
563296.95196600363,3625566.251970998,-27500.0,-5644.1091269550952,-6209.1516162974731,-4811.5840275813143,-6160.5403893065813,-4611.3525663348801,-3648.6264294184566,8942.7572808590066,-6544.3028505575394,-2321.0800948561746,2321.0800948561746,6544.3028505575394,17214.091388355682,0.0
568296.95196600363,3625566.251970998,-27500.0,-4488.7439596189688,-6777.4439833327797,-6331.4877203030028,-6488.935549954248,-5585.6023925218287,-4209.6195163633383,9984.9052248191365,-5854.0283010074081,-3889.1538160550108,3889.1538160550108,5854.0283010074081,19018.541654571833,0.0
573296.95196600363,3625566.251970998,-27500.0,-2579.6102016121695,-6980.8068331210625,-8193.0983895078916,-6468.9860395212118,-6567.2331454091727,-4688.2013687402541,10979.848610534282,-4374.3075617353315,-5921.9964634603093,5921.9964634603093,4374.3075617353315,20621.465553084567,0.0
578296.95196600363,3625566.251970998,-27500.0,224.94794676885914,-6484.2781473335281,-10284.154918616454,-5864.6338657225406,-7333.5905210652618,-4926.3878425319626,11804.010706097422,-1820.7272043985472,-8348.1066817432275,8348.1066817432275,1820.7272043985472,21760.184189256153,0.0
583296.95196600363,3625566.251970998,-27500.0,3897.5196176195741,-4856.4302145080146,-12252.954865471556,-4392.9832028773608,-7449.7980517436326,-4653.9843435661687,12308.514605862727,1995.0606592817812,-10852.544666469465,10852.544666469465,-1995.0606592817812,22158.594722876864,0.0
588296.95196600363,3625566.251970998,-27500.0,8043.7302777835339,-1723.0175195209251,-13372.629983713297,-1830.6196378381878,-6187.9642239045525,-3444.9858242734003,12462.405763074501,6909.5173786841087,-12727.353420894171,12727.353420894171,-6909.5173786841087,21873.206855470118,0.0
593296.95196600363,3625566.251970998,-27500.0,11744.839566131704,2853.7669319005745,-12546.318610181634,1732.9712760773405,-2570.8360136735464,-722.4632957986247,12855.684685494058,12059.565529269839,-12863.803918053211,12863.803918053211,-12059.565529269839,22269.214157894603,0.0
598296.95196600363,3625566.251970998,-27500.0,13732.126558679285,7863.0074603016055,-8737.2704813731052,5537.1780579160641,4247.6707024292209,4072.9967010655801,15362.702482836408,15750.477270505813,-10183.17060518009,10183.17060518009,-15750.477270505813,26696.958062744081,0.0
603296.95196600363,3625566.251970998,-27500.0,13119.442538116013,11205.244249352481,-1917.9201540984998,7985.6097926956782,14169.914013017873,11047.195585289528,21209.502915471661,16035.805812983122,-4596.2027433248295,4596.2027433248295,-16035.805812983122,37008.068470385078,0.0
608296.95196600363,3625566.251970998,-27500.0,10352.344728775446,10516.25706261658,6065.7741761298294,7091.4010383445102,25285.624835197224,19226.265209086265,28716.010600387439,12049.797355452989,2131.9346965947489,-2131.9346965947489,-12049.797355452989,50357.593288511453,0.0
613296.95196600363,3625566.251970998,-27500.0,7638.2653793199506,4849.1931597731491,11697.872679828833,1718.8173065961873,33727.590712231293,26102.307888474468,34852.258523540258,5341.0072336420462,6570.1146713613516,-6570.1146713613516,-5341.0072336420462,61436.981232033577,0.0
618296.95196600363,3625566.251970998,-27500.0,8000.8649217725297,-3599.8865999429972,11599.586844955218,-6606.4921338278418,35213.227806565163,28303.804442031829,36782.970291856007,12.385559898335941,5456.225546285983,-5456.225546285983,-12.385559898335941,65129.29081679447,0.0
623296.95196600363,3625566.251970998,-27500.0,12162.940052200032,-9857.035378460665,5558.4596647054941,-13402.183007466452,28576.458215538187,24326.277808637598,33554.228883048563,-152.53473553526243,-1067.234417782701,1067.234417782701,152.53473553526243,59599.323252127455,0.0
628296.95196600363,3625566.251970998,-27500.0,16746.730578703642,-10463.663566738078,-2544.2912918856273,-15006.752792389507,17631.936881449299,16598.061773831701,27005.572810786533,4141.3786532825579,-8633.9886310346938,8633.9886310346938,-4141.3786532825579,48021.098513699049,0.0
633296.95196600363,3625566.251970998,-27500.0,18070.356343860629,-6643.4974318216055,-8448.2988306172319,-12040.88627252769,7606.5227917499051,9063.5658899424816,20238.068338095811,8822.5369189423945,-13006.438397111098,13006.438397111098,-8822.5369189423945,35867.087200877504,0.0
638296.95196600363,3625566.251970998,-27500.0,15814.604107611867,-1756.7900172023021,-10859.587074661496,-7478.9718732530482,978.53614263063832,3763.3807459605455,15259.717550816313,11181.230892605154,-13491.173450915254,13491.173450915254,-11181.230892605154,26743.679946775723,0.0
643296.95196600363,3625566.251970998,-27500.0,11797.239163593053,2059.6833172628362,-10744.455060968548,-3450.682026519075,-2490.4973763943926,669.66007163601478,12211.851176592165,11161.807366848665,-11642.111179557865,11642.111179557865,-11161.807366848665,21170.090850136035,0.0
648296.95196600363,3625566.251970998,-27500.0,7662.9433847489581,4337.712583950608,-9431.4038210464169,-608.16190079464366,-3908.787342341459,-930.80924579863358,10334.509870319467,9783.5167820073584,-9039.8956578624857,9039.8956578624857,-9783.5167820073584,17959.882765168648,0.0
653296.95196600363,3625566.251970998,-27500.0,4193.9887725686258,5384.8725574149166,-7792.0417468774867,1157.6579912966574,-4214.5527492306501,-1656.0387127951492,9009.8937639366795,7935.2665895777573,-6554.9895013881669,6554.9895013881669,-7935.2665895777573,15876.636271415273,0.0
658296.95196600363,3625566.251970998,-27500.0,1571.8404835618051,5638.592841244872,-6240.5624190883736,2142.5003858306391,-3988.1410636972951,-1896.6030254749012,7942.5266072005252,6112.7315771411249,-4505.4457289925831,4505.4457289925831,-6112.7315771411249,14242.007589548333,0.0
663296.95196600363,3625566.251970998,-27500.0,-284.83422984673405,5442.6844108992373,-4922.9909101700359,2611.738553876422,-3545.6292333821866,-1879.841812724115,7018.7271749064785,4524.9310601062753,-2933.9655755822346,2933.9655755822346,-4524.9310601062753,12794.728879431879,0.0
668296.95196600363,3625566.251970998,-27500.0,-1531.8668458094621,5022.2668112619967,-3860.4817750464686,2758.6440131786117,-3047.4811560756566,-1736.4943048393136,6198.7879767006598,3227.7732205425532,-1779.283803650515,1779.283803650515,-3227.7732205425532,11460.762961704786,0.0
673296.95196600363,3625566.251970998,-27500.0,-2322.8927316474919,4512.2507523696431,-3025.905527130958,2713.9402441309767,-2569.5351932131762,-1541.0739435529763,5468.3989945780986,2208.1010571153174,-955.1679472702848,955.1679472702848,-2208.1010571153174,10229.382437381866,0.0
678296.95196600363,3625566.251970998,-27500.0,-2785.599195606274,3988.5318085020331,-2378.8913336523151,2562.8915402585767,-2143.2748612513265,-1334.7138999605481,4820.3943863226959,1427.0438270187371,-380.78020642290403,380.78020642290403,-1427.0438270187371,9104.4863372879936,0.0
683296.95196600363,3625566.251970998,-27500.0,-3018.5780068679596,3490.850357512903,-1880.0610717818274,2359.5613071627045,-1777.7423429041621,-1138.6517519166521,4248.7382860006483,840.28643990991225,10.281635589972552,-10.281635589972552,-840.28643990991225,8088.9935414267202,0.0
688296.95196600363,3625566.251970998,-27500.0,-3094.9781308942352,3037.6637470605283,-1495.838416980105,2137.1708433859899,-1471.272549755186,-962.50168108190564,3746.9992464765664,406.68686734728118,269.29141458488203,-269.29141458488203,-406.68686734728118,7181.4486952706438,0.0
693296.95196600363,3625566.251970998,-27500.0,-3067.700029158133,2635.35509824871,-1199.2990443717692,1915.309231060887,-1217.6660509483518,-809.35725747239985,3308.3137448845464,91.297932417223848,434.51560990557073,-434.51560990557073,-91.297932417223848,6376.5346485396794,0.0
698296.95196600363,3625566.251970998,-27500.0,-2974.2780861842111,2283.7722465175239,-969.5286355485631,1704.834397333924,-1009.3305600600023,-678.87647218285929,2925.7184981558939,-134.1749487934689,533.92802141931406,-533.92802141931406,134.1749487934689,5666.4500643727133,0.0
703296.95196600363,3625566.251970998,-27500.0,-2840.9162967481761,1979.4873599782418,-790.55730015899155,1511.1449320066067,-838.79065867944973,-569.08807600261468,2592.482964277774,-291.98658362017653,587.70365916840342,-587.70365916840342,291.98658362017653,5042.1829595078816,0.0
708296.95196600363,3625566.251970998,-27500.0,-2685.6241280924814,1717.6656280741813,-650.29847425623961,1336.323034247451,-699.3344715709203,-477.4053701051883,2302.3385654519402,-399.31917729733516,610.25578869585161,-610.25578869585161,399.31917729733516,4494.4349820018997,0.0
713296.95196600363,3625566.251970998,-27500.0,-2520.5690900807153,1493.100386760831,-539.63952639156821,1180.5129976856313,-585.2201696838564,-401.16416229568046,2049.6034248013193,-469.27561528891329,611.80761148509828,-611.80761148509828,469.27561528891329,4014.2115482749427,0.0
513296.95196600363,3630566.251970998,-27500.0,-4127.1951820943932,-992.34283490388827,-202.26247807629252,-1792.6318469601501,-416.95261405044238,-581.92484522548182,2639.0835212030315,-3191.0508689788348,1128.8901086830774,-1128.8901086830774,3191.0508689788348,5213.0086487597919,0.0
518296.95196600363,3630566.251970998,-27500.0,-4566.914489035009,-1187.815491783454,-252.74112315082226,-2083.3061628929836,-519.1512002337779,-707.42449081372047,2991.7209236902027,-3583.753392737447,1218.1088562316252,-1218.1088562316252,3583.753392737447,5909.2309533280613,0.0
523296.95196600363,3630566.251970998,-27500.0,-5051.1449846182977,-1426.7155133602544,-321.76362328048975,-2427.5562328195683,-649.89715866582856,-863.7369332939918,3402.8322215139683,-4028.7843422346041,1303.9009891154703,-1303.9009891154703,4028.7843422346041,6719.3989960586232,0.0
528296.95196600363,3630566.251970998,-27500.0,-5578.8951190452917,-1719.0832891998982,-416.98601299717285,-2835.0470443515946,-817.91641823979216,-1058.8242852193266,3883.1431027989884,-4530.4251212748241,1379.2075248129308,-1379.2075248129308,4530.4251212748241,7663.5063948009902,0.0
533296.95196600363,3630566.251970998,-27500.0,-6145.2101908399281,-2076.9249927363949,-549.41398445575976,-3316.4098298894319,-1034.6719116972238,-1302.5083899691031,4445.1765202071128,-5091.0205063623471,1432.9602715678964,-1432.9602715678964,5091.0205063623471,8764.3674158415324,0.0
538296.95196600363,3630566.251970998,-27500.0,-6738.6876168345061,-2514.1689297918674,-734.90123484131925,-3882.6699072761799,-1315.1264022770747,-1606.6452484992949,5103.3046320895555,-5709.0577411096474,1448.1498902666603,-1448.1498902666603,5709.0577411096474,10047.328456822086,0.0
543296.95196600363,3630566.251970998,-27500.0,-7337.7406629035349,-3046.1332053389679,-996.28245890852497,-4544.0523815861825,-1678.5816240089546,-1985.0661474424244,5873.5721239403792,-6375.9970746281306,1399.0599976380422,-1399.0599976380422,6375.9970746281306,11539.340638064261,0.0
548296.95196600363,3630566.251970998,-27500.0,-7905.058729114221,-3687.9867211377141,-1366.3331103127919,-5307.7372117086679,-2149.433510582985,-2453.0337161227658,6773.0789051373058,-7071.1232548578737,1247.3970389517017,-1247.3970389517017,7071.1232548578737,13266.889920936537,0.0
553296.95196600363,3630566.251970998,-27500.0,-8379.5414872831589,-4451.2223477845555,-1891.6690265944499,-6173.8693458458556,-2757.4378820373436,-3025.8016460391082,7818.5360148437048,-7753.2927183924894,937.09688239435445,-937.09688239435445,7753.2927183924894,15251.92310376127,0.0
558296.95196600363,3630566.251970998,-27500.0,-8664.892891596317,-5336.3366143095991,-2637.3413277394866,-7128.6805323979197,-3536.5592382968512,-3715.6397133899,9023.2675938755037,-8347.9304958643988,387.9113709997132,-387.9113709997132,8347.9304958643988,17504.287579427411,0.0
563296.95196600363,3630566.251970998,-27500.0,-8614.3992214291102,-6318.4741689823832,-3690.7600392573308,-8132.7711957063875,-4520.3203320462571,-4526.3026187574469,10391.222601736785,-8727.1473412282103,-511.02656531283083,511.02656531283083,8727.1473412282103,20008.037913946857,0.0
568296.95196600363,3630566.251970998,-27500.0,-8013.4079104523116,-7320.6870832861923,-5160.5867984656024,-9101.2640627476176,-5729.0298077921625,-5443.0532482270964,11905.224867457307,-8681.3772212026997,-1903.3599000844511,1903.3599000844511,8681.3772212026997,22697.010765526084,0.0
573296.95196600363,3630566.251970998,-27500.0,-6568.0055015974112,-8167.8068868852906,-7159.1593698577071,-9871.0900642260658,-7138.8358764185887,-6413.8689957566321,13504.657786086491,-7885.8076603329955,-3951.3558440475895,3951.3558440475895,7885.8076603329955,25412.747540435761,0.0
578296.95196600363,3630566.251970998,-27500.0,-3927.3933216699193,-8518.8818874909575,-9743.1903316960816,-10152.950268828516,-8612.6326134945211,-7310.9428673663824,15047.116226731539,-5883.1474823426315,-6777.4062234628027,6777.4062234628027,5883.1474823426315,27840.392058786489,0.0
583296.95196600363,3630566.251970998,-27500.0,195.42522333528356,-7807.1593048549857,-12770.88039704175,-9486.1341849331639,-9762.7583398891074,-7849.9359980189311,16260.151372479169,-2151.7182333458341,-10311.841669579491,10311.841669579491,2151.7182333458341,29449.687468082418,0.0
588296.95196600363,3630566.251970998,-27500.0,5713.5354714382629,-5308.6699253563738,-15651.847479702586,-7283.6632346165516,-9738.127737115552,-7444.1305726520577,16752.419172237416,3598.9040274254439,-14012.284740299016,14012.284740299016,-3598.9040274254439,29608.778521744152,0.0
593296.95196600363,3630566.251970998,-27500.0,11703.426201221526,-593.07545443137087,-17131.042347866849,-3168.890821710685,-7078.419077892172,-5050.1341281912364,16402.994613624982,10792.126469789695,-16598.396169068303,16598.396169068303,-10792.126469789695,28469.654447261019,0.0
598296.95196600363,3630566.251970998,-27500.0,16299.738684728211,5530.4871190021795,-15625.568076969084,2265.100482805577,-108.07057235604333,701.81049503342149,17046.359145884428,17370.066971026357,-16367.325241797316,16367.325241797316,-17370.066971026357,29525.207450485625,0.0
603296.95196600363,3630566.251970998,-27500.0,17747.203121362618,10397.355353523155,-10631.679606580923,6809.7437230703226,11639.762167289027,10662.170490673372,22516.35383974318,20362.146446966221,-12649.185567201084,12649.185567201084,-20362.146446966221,39043.288486133912,0.0
608296.95196600363,3630566.251970998,-27500.0,16069.961225444427,10717.561771765579,-4190.3835126235817,7223.5391338203035,25696.983786365225,23730.848322091289,32179.16107033685,18071.873673456139,-7311.940444903661,7311.940444903661,-18071.873673456139,55736.207662424429,0.0
613296.95196600363,3630566.251970998,-27500.0,13661.003623987592,5164.889912646945,-238.95134108571327,1157.7315209620149,36412.744403775177,35581.44821707112,40926.651227507922,12008.44916498123,-4200.3183154271446,4200.3183154271446,-12008.44916498123,70993.809498750707,0.0
618296.95196600363,3630566.251970998,-27500.0,14504.209533126992,-3465.0699759079084,-1993.0118163198833,-9614.789798585216,37243.539701263362,39169.207395317848,43636.228838359857,7234.4245929485705,-6713.5169279303618,6713.5169279303618,-7234.4245929485705,75907.975786317838,0.0
623296.95196600363,3630566.251970998,-27500.0,19620.024789806346,-8562.0804371837075,-8593.6859186606653,-17423.726181530208,26792.599718574409,31039.271735469389,38628.184203807679,8558.1077561819675,-13842.593224156704,13842.593224156704,-8558.1077561819675,67326.135846379009,0.0
628296.95196600363,3630566.251970998,-27500.0,23426.425055619562,-6474.662812473417,-14820.952803431481,-16491.997345654207,12220.027865286858,17273.536342996849,29554.615000797316,13721.285803694151,-19475.135627417414,19475.135627417414,-13721.285803694151,51527.63376213405,0.0
633296.95196600363,3630566.251970998,-27500.0,21460.202591592915,-624.42283862598219,-16926.659892204912,-9883.7607218537942,1319.3084040417677,6154.5185755882285,21669.81434742119,16828.240388825263,-19727.351623800099,19727.351623800099,-16828.240388825263,37679.378984593845,0.0
638296.95196600363,3630566.251970998,-27500.0,15518.244108808713,4425.0803736796743,-15512.094873833972,-3202.5918692599089,-4158.9986085014862,48.43953545046309,16966.330127484325,16125.925426882282,-16141.785756071282,16141.785756071282,-16125.925426882282,29386.546450192855,0.0
643296.95196600363,3630566.251970998,-27500.0,9077.7479654153631,7174.0310461952322,-12674.711808682736,1235.0927957160823,-6009.1667307767393,-2569.4542601944527,14304.71150007534,13272.231767250949,-11592.436502273242,11592.436502273242,-13272.231767250949,24955.526630525641,0.0
648296.95196600363,3630566.251970998,-27500.0,3908.4005410486111,8078.9263851876149,-9792.476058174012,3593.5041519472893,-6101.1020852224246,-3429.2209490315695,12430.988753420779,9986.1930527509594,-7637.6426361659524,7637.6426361659524,-9986.1930527509594,22073.517458628256,0.0
653296.95196600363,3630566.251970998,-27500.0,298.32758892203549,7927.0640805925041,-7382.0308932929811,4611.5590672943472,-5501.6369093310723,-3504.1857489289364,10868.992560677971,7084.2660157223008,-4668.558369438756,4668.558369438756,-7084.2660157223008,19681.484712414433,0.0
658296.95196600363,3630566.251970998,-27500.0,-2027.9114908575038,7279.7777266965668,-5519.6421755330621,4872.2956817370869,-4704.200469011008,-3246.0548518902465,9495.6879764360237,4781.9197409170629,-2587.704585838223,2587.704585838223,-4781.9197409170629,17493.267873938097,0.0
663296.95196600363,3630566.251970998,-27500.0,-3427.8376229383944,6454.0279489828972,-4129.0891164283094,4731.9653208136378,-3915.3831110504543,-2862.0742406975887,8280.9149411197068,3047.5746695723751,-1184.4539267922733,1184.4539267922733,-3047.5746695723751,15470.526063724139,0.0
668296.95196600363,3630566.251970998,-27500.0,-4195.5209080689428,5610.4478496283255,-3105.0522771198903,4394.1103289721068,-3212.7394671901393,-2451.7458821746768,7212.3735530804479,1779.5797343762415,-265.09256051152431,265.09256051152431,-1779.5797343762415,13625.32266893909,0.0
673296.95196600363,3630566.251970998,-27500.0,-4544.5693119630068,4823.4140357344586,-2353.7146061498897,3973.600328159911,-2617.3411365836569,-2063.0845820624754,6279.1335813997939,872.26549426469319,319.22402268820957,-319.22402268820957,-872.26549426469319,11968.163174388299,0.0
678296.95196600363,3630566.251970998,-27500.0,-4623.4448188152855,4122.2687770010607,-1801.5316549005015,3534.5697229091338,-2126.2276940029205,-1717.0694628220342,5469.044445712605,235.55402089545112,675.6485233117902,-675.6485233117902,-235.55402089545112,10499.050164005883,0.0
683296.95196600363,3630566.251970998,-27500.0,-4533.3925754681295,3513.6564780993126,-1393.7808687268553,3111.5982755654113,-1727.2095289020469,-1420.0554768747861,4769.0825502781463,-201.83773701079576,879.16077505402859,-879.16077505402859,201.83773701079576,9209.1582270461367,0.0
688296.95196600363,3630566.251970998,-27500.0,-4342.5880523663218,2993.3407463915323,-1090.6771887174984,2721.8369221586413,-1405.6570332232302,-1170.7988147953608,4166.1079527455322,-494.32205241700586,981.46224262504711,-981.46224262504711,494.32205241700586,8084.1737737061394,0.0
693296.95196600363,3630566.251970998,-27500.0,-4096.363318646564,2552.4387798102089,-863.58961536107802,2372.2477076414002,-1147.51203698821,-964.54153934589795,3647.5367984734166,-682.57458574308725,1017.8719945586386,-1017.8719945586386,682.57458574308725,7107.2162441297223,0.0
698296.95196600363,3630566.251970998,-27500.0,-3824.3852459143359,2180.6373451023446,-691.97909114974436,2064.0031412795197,-940.45446644248057,-795.30186065105329,3201.7681597955684,-796.59189096069167,1012.3399381363488,-1012.3399381363488,796.59189096069167,6260.8484599570265,0.0
703296.95196600363,3630566.251970998,-27500.0,-3545.6600918311133,1867.7925748437738,-561.10120954936224,1795.1687952066422,-774.19401200621519,-657.07616626203583,2818.4062231073958,-858.28375315592336,980.99156656490197,-980.99156656490197,858.28375315592336,5528.3206697010564,0.0
708296.95196600363,3630566.251970998,-27500.0,-3271.9982752222954,1604.6554582738631,-460.33822013000929,1562.3123388814938,-640.36818589437644,-544.40108004927265,2488.3236983427596,-883.53762853937917,934.5975093888311,-934.5975093888311,883.53762853937917,4894.2388414290635,0.0
713296.95196600363,3630566.251970998,-27500.0,-3010.4027488592915,1383.1343308638916,-382.00768398901999,1361.4441946145462,-532.28982896899572,-452.5607068566926,2203.6248923124535,-883.80795151383393,880.28056674121183,-880.28056674121183,883.80795151383393,4344.8552486609387,0.0
513296.95196600363,3635566.251970998,-27500.0,-4369.913093780001,-687.67279315675898,-74.038768649395664,-1882.0997639434074,-294.45735059712035,-607.15948880065457,2715.4232556872298,-3170.6611206953417,1337.8949393636235,-1337.8949393636235,3170.6611206953417,5362.2970707796076,0.0
518296.95196600363,3635566.251970998,-27500.0,-4873.9243971053438,-835.36343266870472,-91.694690088388754,-2201.1006897189163,-371.63300685354449,-741.97579364652597,3090.1566242804424,-3579.4372221670874,1478.0517518206673,-1478.0517518206673,3579.4372221670874,6101.2420933024105,0.0
523296.95196600363,3635566.251970998,-27500.0,-5441.3293990232805,-1019.0670598892373,-118.38526945187039,-2583.683817780357,-471.85107268183634,-911.39787194348617,3530.4790853548038,-4049.6026372697388,1628.9255636831367,-1628.9255636831367,4049.6026372697388,6967.8641598374579,0.0
528296.95196600363,3635566.251970998,-27500.0,-6077.1528829866211,-1248.3628653132319,-158.81697253358172,-3043.4131862991358,-602.76944827241948,-1125.0662196426099,4049.6812145852045,-4589.5626873906403,1787.6978056142411,-1787.6978056142411,4589.5626873906403,7987.1186269075042,0.0
533296.95196600363,3635566.251970998,-27500.0,-6784.4331843037526,-1535.3937606330649,-220.16424930000977,-3596.4650060195545,-774.77983952607519,-1395.2724668148464,4663.8946252188762,-5207.6160452565146,1948.7879964380331,-1948.7879964380331,5207.6160452565146,9188.7765575606718,0.0
538296.95196600363,3635566.251970998,-27500.0,-7562.32902061596,-1895.4098152277713,-313.39879496892263,-4261.7946175993084,-1002.0013962507951,-1737.5248488784973,5392.6341660811249,-5910.8295434116935,2102.1809183502482,-2102.1809183502482,5910.8295434116935,10608.023832055287,0.0
543296.95196600363,3635566.251970998,-27500.0,-8403.0403666483453,-2347.248870074327,-455.35200331661872,-5061.0227546513697,-1303.6049950230322,-2171.0823141509027,6259.3696251014171,-6702.9643542369922,2230.8229846719455,-2230.8229846719455,6702.9643542369922,12285.850995627459,0.0
548296.95196600363,3635566.251970998,-27500.0,-9286.8333193773069,-2913.5007472727261,-671.90546498488061,-6017.7671590606851,-1705.5327962274916,-2719.3253850708966,7292.0566109413003,-7580.752959779893,2306.5864842178248,-2306.5864842178248,7580.752959779893,14268.955332415595,0.0
553296.95196600363,3635566.251970998,-27500.0,-10173.980302566006,-3619.7720100332276,-1002.8826634039484,-7155.9137815909962,-2242.6267687589802,-3409.7690386266777,8523.4472310495057,-8527.2692656885556,2284.0443755601382,-2284.0443755601382,8527.2692656885556,16608.612910509881,0.0
558296.95196600363,3635566.251970998,-27500.0,-10991.605835357697,-4491.722227824308,-1509.3722215462053,-8495.8122099923839,-2960.9894670551244,-4273.4924259895961,9990.7056304678881,-9500.0926822214751,2090.9881585581297,-2090.9881585581297,9500.0926822214751,19357.392340047103,0.0
563296.95196600363,3635566.251970998,-27500.0,-11612.115960473113,-5546.8871746255727,-2284.105190055172,-10046.108452092511,-3919.786452224896,-5343.7605627644243,11733.013533094145,-10410.07769469163,1614.4403858692185,-1614.4403858692185,10410.07769469163,22561.110616129037,0.0
568296.95196600363,3635566.251970998,-27500.0,-11818.538227533152,-6774.7221337464061,-3464.2149139919961,-11785.727547501905,-5189.7281646169604,-6653.2344451782701,13783.592532675342,-11083.622259602991,681.80172787007814,-681.80172787007814,11083.622259602991,26239.721798998715,0.0
573296.95196600363,3635566.251970998,-27500.0,-11253.975739742315,-8091.5157814650811,-5240.5317384878426,-13623.325759308009,-6839.4272222181507,-8226.2199981226477,16147.192252637808,-11199.191912087794,-958.05050390277302,958.05050390277302,11199.191912087794,30342.342779146995,0.0
578296.95196600363,3635566.251970998,-27500.0,-9370.071142302535,-9248.4574996871597,-7841.7753384210464,-15310.034178897078,-8884.0598893303613,-10049.421292543067,18744.003874868158,-10197.959868439088,-3630.4269109053103,3630.4269109053103,10197.959868439088,34646.909690100045,0.0
583296.95196600363,3635566.251970998,-27500.0,-5454.5684749949251,-9680.7088469253413,-11435.065435138347,-16282.740631877643,-11134.044009407649,-11966.181742983506,21292.356470193441,-7223.8479611419452,-7635.9406336020083,7635.9406336020083,7223.8479611419452,38570.155232892008,0.0
588296.95196600363,3635566.251970998,-27500.0,1041.9676548956468,-8388.3380230230159,-15837.647883226302,-15508.132861066801,-12844.3330328226,-13376.21121093974,23136.577939116367,-1314.2971610234645,-12915.746395254955,12915.746395254955,1314.2971610234645,40950.724762279919,0.0
593296.95196600363,3635566.251970998,-27500.0,9620.4957222528155,-4261.5890435680485,-20027.283508282719,-11729.24640895308,-12203.317565085425,-12683.007298202117,23253.940569075225,7720.6185600658755,-18429.349712788076,18429.349712788076,-7720.6185600658755,40362.850406599682,0.0
598296.95196600363,3635566.251970998,-27500.0,17832.00553376535,2484.7274688555108,-22067.077876107975,-4842.974973829595,-6441.0789465153284,-7065.3142082108843,21767.409103226229,17770.453299591114,-21952.77470425058,21952.77470425058,-17770.453299591114,37838.875191731546,0.0
603296.95196600363,3635566.251970998,-27500.0,22575.464899887153,8604.755201859045,-20854.081595495594,2194.0290145827339,5805.0176742549365,5858.7572025594636,24125.323241521408,24504.055950488681,-21986.687510080981,21986.687510080981,-24504.055950488681,42157.279414582474,0.0
608296.95196600363,3635566.251970998,-27500.0,23520.921567191184,9707.968841588121,-18690.773582746235,4405.5136338900229,20894.568869765018,24608.28846489028,32877.532236331812,25335.886722844392,-20592.356669114044,20592.356669114044,-25335.886722844392,58988.285508109409,0.0
613296.95196600363,3635566.251970998,-27500.0,23080.302270171047,5099.9473055758554,-19385.050122408582,-1376.631840826853,30908.059917681996,41989.722912106146,43808.084606744975,22174.890858418232,-21456.897781321128,21456.897781321128,-22174.890858418232,76899.322433935944,0.0
618296.95196600363,3635566.251970998,-27500.0,24882.903872099116,-1175.9665132207549,-23504.972483480971,-12834.500343582082,28555.087148190993,45740.922149106635,47169.247914478867,20088.486137303,-25776.64535064865,25776.64535064865,-20088.486137303,82037.915679936588,0.0
623296.95196600363,3635566.251970998,-27500.0,29449.43294744119,-2428.9410246721868,-27478.575831145259,-18574.758383636785,14533.520460394375,30345.681923513086,40697.217719399494,23013.78532441545,-30369.915177528008,30369.915177528008,-23013.78532441545,70562.433183338522,0.0
628296.95196600363,3635566.251970998,-27500.0,29069.613840817448,2737.4333019033252,-27054.870277057125,-11998.570049384783,-92.356668026161287,9618.9930543053215,31043.10723648547,26091.201014773273,-29368.193526162184,29368.193526162184,-26091.201014773273,53768.313822011587,0.0
633296.95196600363,3635566.251970998,-27500.0,20981.039175164704,8578.3262923767888,-22450.520072280739,-1332.1382567478493,-7667.881436113571,-2801.7451917580229,24635.389986342285,23849.292708919409,-22628.815943657904,22628.815943657904,-23849.292708919409,42678.727754026288,0.0
638296.95196600363,3635566.251970998,-27500.0,10789.220305275943,11443.586178897227,-16717.66956743499,5812.4110225116174,-9440.8854562786601,-6995.0983116112247,21014.316576143407,18072.976932423247,-14676.902347437737,14676.902347437737,-18072.976932423247,36678.740431775965,0.0
643296.95196600363,3635566.251970998,-27500.0,2800.3441127609631,11710.611597023511,-11827.156438708313,8799.9869180276091,-8708.5059659002673,-7400.8782927394013,18140.908634206229,12149.355374984147,-8367.2646436667073,8367.2646436667073,-12149.355374984147,32249.947817994311,0.0
648296.95196600363,3635566.251970998,-27500.0,-2253.7871595645183,10704.400852476032,-8227.9130935665253,9373.4443406966329,-7317.9686858675132,-6645.7316611437518,15550.045287466455,7512.095661318077,-4131.6682589131451,4131.6682589131451,-7512.095661318077,28226.517566830295,0.0
653296.95196600363,3635566.251970998,-27500.0,-5083.2391091303516,9295.5773555000615,-5727.2388823216043,8882.1336609145601,-5939.8275773858586,-5666.716304204404,13270.455626447991,4248.3298243165327,-1495.1392159699201,1495.1392159699201,-4248.3298243165327,24538.220133870407,0.0
658296.95196600363,3635566.251970998,-27500.0,-6491.6883062251327,7882.4602077052996,-4021.3477349702052,8004.6097317222675,-4754.9786430652066,-4726.6717171779273,11318.239218169154,2049.7978527863024,79.040641886919275,-79.040641886919275,-2049.7978527863024,21244.011093634792,0.0
663296.95196600363,3635566.251970998,-27500.0,-7046.4265918036135,6611.6778930337623,-2859.0641360221616,7036.4769000689039,-3785.7023618500784,-3892.0797965794982,9665.9567467407287,601.81148332189014,982.11179517581013,-982.11179517581013,-601.81148332189014,18356.171087529339,0.0
668296.95196600363,3635566.251970998,-27500.0,-7101.6040844444269,5520.9550671412626,-2062.3112544596579,6101.0901943187791,-3009.7841200056982,-3177.1713538155905,8272.3658931324153,-332.40467494535199,1468.1115845531126,-1468.1115845531126,332.40467494535199,15852.710157802152,0.0
673296.95196600363,3635566.251970998,-27500.0,-6872.4090490055469,4605.5341150605236,-1511.030688580279,5248.0079922846126,-2395.4063245391194,-2579.1352267268321,7097.5294387848908,-917.66588495325925,1697.1072791556544,-1697.1072791556544,917.66588495325925,13697.81822648004,0.0
678296.95196600363,3635566.251970998,-27500.0,-6489.9416330488193,3845.9276843504999,-1125.4575018254332,4493.8503752948318,-1911.6410283759665,-2087.4802520322464,6106.7071376619706,-1266.8274147276136,1769.6830239308877,-1769.6830239308877,1266.8274147276136,11851.712496478603,0.0
683296.95196600363,3635566.251970998,-27500.0,-6034.4344253256177,3219.1437860315646,-852.64085059395006,3839.6396492671661,-1531.5602288900445,-1688.2408699823493,5270.4162477315858,-1457.1935918741824,1749.2335254217719,-1749.2335254217719,1457.1935918741824,10274.896276375906,0.0
688296.95196600363,3635566.251970998,-27500.0,-5554.7175938617547,2703.1143909230459,-657.25714333349788,3278.922397935451,-1232.8851916882934,-1366.6630035576406,4563.7227519968292,-1541.8414742330074,1675.741057862846,-1675.741057862846,1541.8414742330074,8930.2063015999229,0.0
693296.95196600363,3635566.251970998,-27500.0,-5079.8982757960503,2278.3088220884729,-515.57245791766377,2801.9890702079733,-997.72503772920311,-1108.8474865233925,3965.5800219333159,-1557.2227747599145,1574.3147628389265,-1574.3147628389265,1557.2227747599145,7783.894408906066,0.0
698296.95196600363,3635566.251970998,-27500.0,-4626.5877978266526,1928.1270502025611,-411.50592040239536,2398.1670795516461,-811.97662893487507,-902.56435011647,3458.2756988310202,-1528.3126029006371,1460.5564675169717,-1460.5564675169717,1528.3126029006371,6806.0824307565554,0.0
703296.95196600363,3635566.251970998,-27500.0,-4203.4991612427038,1638.7808696366042,-334.06533285084305,2057.0530783279869,-664.65150617166103,-737.50975669912168,3026.9654783548285,-1472.1419222485188,1343.9781506123309,-1343.9781506123309,1472.1419222485188,5970.818976080951,0.0
708296.95196600363,3635566.251970998,-27500.0,-3814.4117895663903,1398.9738436034745,-275.66826660325131,1769.1227421226652,-547.24628948502493,-605.24411874286477,2659.2601145865688,-1400.2418910060094,1230.1978071522842,-1230.1978071522842,1400.2418910060094,5255.8773131567004,0.0
713296.95196600363,3635566.251970998,-27500.0,-3460.0910940923732,1199.5258666545933,-231.03578146212499,1525.9759650786914,-453.20253360597235,-498.97954957324379,2344.8545548880702,-1320.341868847981,1122.3570410120919,-1122.3570410120919,1320.341868847981,4642.408780870589,0.0
718296.95196600363,3635566.251970998,-27500.0,-3139.5289931387292,1033.0105132094138,-196.45838328395385,1320.3779629100516,-377.46595861628947,-413.31915482493446,2075.1994102438512,-1237.5502964234165,1022.0381764874119,-1022.0381764874119,1237.5502964234165,4114.5381698840729,0.0
513296.95196600363,3640566.251970998,-27500.0,-4507.947714910707,-338.84679538282359,14.567644681778772,-1932.8763440528346,-156.36158806669388,-621.39530888362924,2754.7139489143206,-3046.7085839918759,1487.4098698898656,-1487.4098698898656,3046.7085839918759,5441.2565649411581,0.0
518296.95196600363,3640566.251970998,-27500.0,-5054.271379494171,-424.40936771722852,21.52336755242105,-2270.0549486477921,-202.69761278948423,-762.04205755336716,3143.1037495830374,-3446.4878705647475,1666.6453480191544,-1666.6453480191544,3446.4878705647475,6206.7324037208809,0.0
523296.95196600363,3640566.251970998,-27500.0,-5677.8996732673359,-533.32541548632048,27.304483327734587,-2677.8687659913853,-264.14106971560642,-939.8638108545365,3602.0010957458394,-3909.7731966509918,1868.4298412212365,-1868.4298412212365,3909.7731966509918,7109.3205934016387,0.0
528296.95196600363,3640566.251970998,-27500.0,-6388.8721466709721,-672.59510275335913,30.003686052905572,-3172.8977172517361,-346.16051765421179,-1165.7256906520945,4146.6498774297288,-4447.035333563912,2093.9688067345305,-2093.9688067345305,4447.035333563912,8177.7118377176485,0.0
533296.95196600363,3640566.251970998,-27500.0,-7197.206521083438,-851.46217337380278,26.313998414364157,-3775.7584505325271,-456.39413941723427,-1453.7724393244648,4796.0173772204307,-5069.8968491746336,2343.1863001369711,-2343.1863001369711,5069.8968491746336,9447.0829235798101,0.0
538296.95196600363,3640566.251970998,-27500.0,-8111.8187357854058,-1082.1397291416974,10.606296091808533,-4512.0169744083387,-605.57742966352077,-1822.3414957699863,5573.8040520195536,-5790.7276889300465,2613.6046394743826,-2613.6046394743826,5790.7276889300465,10960.549610378837,0.0
543296.95196600363,3640566.251970998,-27500.0,-9138.5856546586219,-1380.7378912253314,-26.601794368996568,-5413.259844862343,-808.89569803488439,-2295.0592566695505,6509.777102398768,-6621.7005119582609,2898.466429773709,-2898.466429773709,6621.7005119582609,12770.919932091854,0.0
548296.95196600363,3640566.251970998,-27500.0,-10276.921412997059,-1768.3898115963163,-101.19581394844685,-6518.342626508942,-1087.9739016860908,-2902.1520571740834,7641.5693635607977,-7572.8174967052819,3183.5863334834071,-3183.5863334834071,7572.8174967052819,14942.825241459706,0.0
553296.95196600363,3640566.251970998,-27500.0,-11513.658606860861,-2272.458238551711,-239.72787617826668,-7874.816341635923,-1473.8403809865761,-3682.1146307519384,9017.1431657442899,-8647.9180966021377,3442.028437622831,-3442.028437622831,8647.9180966021377,17555.321810102592,0.0
558296.95196600363,3640566.251970998,-27500.0,-12811.764645663945,-2927.3358333991996,-486.54660083062242,-9540.3438793808928,-2011.3898148033127,-4684.2532454538896,10698.092694976296,-9836.5415790670195,3624.9846389320328,-3624.9846389320328,9836.5415790670195,20704.915538588564,0.0
563296.95196600363,3640566.251970998,-27500.0,-14088.720670757046,-3773.2608331491301,-915.62677851726619,-11582.97468470411,-2766.0714823695416,-5973.5744307358082,12763.482204298085,-11096.953505915521,3645.940347407728,-3645.940347407728,11096.953505915521,24508.085844120804,0.0
568296.95196600363,3640566.251970998,-27500.0,-15174.040818978587,-4848.4512119513047,-1649.6346023750777,-14075.421418942244,-3833.238049141381,-7641.1277856801744,15311.708092011198,-12320.082044468116,3353.2401556028462,-3353.2401556028462,12320.082044468116,29098.663372617182,0.0
573296.95196600363,3640566.251970998,-27500.0,-15727.605363388975,-6161.6442719639754,-2888.1445046338877,-17066.563722870793,-5347.4153990779678,-9823.1245325276341,18450.609289252548,-13253.944309034028,2484.8962802047226,-2484.8962802047226,13253.944309034028,34603.31234405742,0.0
578296.95196600363,3640566.251970998,-27500.0,-15100.710226188723,-7613.7553284107735,-4939.4143754968873,-20482.796954289945,-7473.7898782479297,-12718.72768265639,22246.996214695875,-13357.850547868589,607.08470761985336,-607.08470761985336,13357.850547868589,41046.766914268504,0.0
583296.95196600363,3640566.251970998,-27500.0,-12180.467879393866,-8812.1507587699816,-8218.4379410260353,-23861.157568280938,-10312.756924320818,-16528.208429064682,26570.645021020289,-11582.909409368844,-2916.4459230388338,2916.4459230388338,11582.909409368844,48082.343931666561,0.0
588296.95196600363,3640566.251970998,-27500.0,-5508.5143769612359,-8758.9816233084894,-13086.283240835481,-25842.529329308905,-13527.743260745792,-21036.865895198731,30743.405121502168,-6276.7652295913322,-8732.3791105108921,8732.3791105108921,6276.7652295913322,54438.495387115137,0.0
593296.95196600363,3640566.251970998,-27500.0,5555.1800609000966,-5780.3827535626106,-19308.421070216151,-23884.615070463962,-15452.048201516924,-24370.021007177278,33064.91930495522,4013.0244096312572,-16700.824145195176,16700.824145195176,-4013.0244096312572,57424.980830982764,0.0
598296.95196600363,3640566.251970998,-27500.0,18392.940953482488,968.62507439782689,-25347.642639597514,-16109.560585694197,-12371.019682733666,-21486.823329055034,31226.99579614522,17860.255812069881,-24719.870262516182,24719.870262516182,-17860.255812069881,54770.110492765874,0.0
603296.95196600363,3640566.251970998,-27500.0,27607.626929120088,8076.053595926719,-29469.401093282035,-6160.2278165994057,-1536.3905728395985,-6922.2481090700476,30211.664760013802,29245.455777798055,-30072.629095370376,30072.629095370376,-29245.455777798055,52875.621851144846,0.0
608296.95196600363,3640566.251970998,-27500.0,32314.667784865378,9636.4690506356492,-33277.471624007514,-2106.9750106385341,11509.307667946923,16026.096693880716,35472.365282345912,34078.554324079203,-34284.998541375695,34284.998541375695,-34078.554324079203,64718.924604880485,0.0
613296.95196600363,3640566.251970998,-27500.0,35576.247473769225,6630.448456036348,-39105.758707309484,-6094.7737724080598,15823.685015445115,34333.562232841126,42374.455682981323,35448.58130134485,-39995.569176960445,39995.569176960445,-35448.58130134485,80502.387862681426,0.0
618296.95196600363,3640566.251970998,-27500.0,38117.040423523911,5199.7237665960993,-42912.682941600513,-13126.719116609474,7888.3114769429039,32699.167190923723,46538.77541971812,36951.848634400725,-43805.396888978372,43805.396888978372,-36951.848634400725,83311.94794053142,0.0
623296.95196600363,3640566.251970998,-27500.0,38308.203474771908,8634.2678437667382,-39412.943712051754,-10695.224398406266,-5189.3428844109239,9167.9650752011239,41837.615105207951,38549.505667900608,-40920.709602920426,40920.709602920426,-38549.505667900608,72612.123735737216,0.0
628296.95196600363,3640566.251970998,-27500.0,29273.853061261943,13805.906382861609,-30124.178228412886,3197.8017583531969,-12845.999956602891,-12269.223702274121,35958.034133330882,34217.856979391741,-30490.042373576372,30490.042373576372,-34217.856979391741,62321.123872004195,0.0
633296.95196600363,3640566.251970998,-27500.0,14058.774419838835,16018.305558429434,-20376.525274660489,14822.439459307012,-13473.096301271446,-18612.995991779189,32091.219999139204,23963.142946019321,-17968.678416047729,17968.678416047729,-23963.142946019321,55692.168987206962,0.0
638296.95196600363,3640566.251970998,-27500.0,1316.6107673026463,15125.111093246858,-13034.035986970339,18765.536538945267,-11183.099305962394,-16600.534761247945,27740.515819918233,13747.485213837097,-8385.3330793488112,8385.3330793488112,-13747.485213837097,48864.820798052177,0.0
643296.95196600363,3640566.251970998,-27500.0,-6193.4095435598701,12934.09973090628,-8214.8894089360656,18019.217403132247,-8651.1439722095893,-13014.199930004672,23174.325484614259,6516.8296251700831,-2556.58363792722,2556.58363792722,-6516.8296251700831,41680.903817031205,0.0
648296.95196600363,3640566.251970998,-27500.0,-9725.1852795748964,10624.818591041703,-5200.1578987207386,15705.075163532953,-6611.3597406268627,-10021.223403664055,19122.175750576702,2103.4062912635763,595.94798061081883,-595.94798061081883,-2103.4062912635763,35094.754491232932,0.0
653296.95196600363,3640566.251970998,-27500.0,-10976.243198133492,8617.5999399672455,-3331.9425939571047,13237.69442424925,-5076.3595029112948,-7793.4736159194408,15795.705218032679,-425.47292458787797,2172.0355165625178,-2172.0355165625178,425.47292458787797,29496.47997802397,0.0
658296.95196600363,3640566.251970998,-27500.0,-11059.678958072313,6980.6876889200666,-2168.1938011370803,11045.579622781237,-3926.3673668178058,-6122.2318554877756,13128.143747034921,-1820.6861399111269,2878.081368738488,-2878.081368738488,1820.6861399111269,24859.389093438971,0.0
663296.95196600363,3640566.251970998,-27500.0,-10578.382574359781,5672.0667981635288,-1436.0189612133217,9196.7446213243766,-3057.0396846890776,-4835.061986275723,10987.400324771659,-2548.617182280153,3112.7197808514788,-3112.7197808514788,2548.617182280153,21032.233683770133,0.0
668296.95196600363,3640566.251970998,-27500.0,-9842.6208305881883,4630.0504327561439,-970.19046951171219,7660.7243995090512,-2394.3170345795165,-3827.5327620451908,9254.9975939769392,-2881.3204280392952,3094.9773107752512,-3094.9773107752512,2881.3204280392952,17863.463078925084,0.0
673296.95196600363,3640566.251970998,-27500.0,-9012.8258060467433,3798.9993189341012,-670.42492213769481,6390.227587389667,-1886.0629416746333,-3034.580229366898,7840.4570977236945,-2978.4907541111484,2946.4474137094862,-2946.4474137094862,2978.4907541111484,15229.447300916323,0.0
678296.95196600363,3640566.251970998,-27500.0,-8173.3051053793461,3133.9022761146211,-475.29647290110614,5341.069760681632,-1494.4806122219247,-2410.4644004224133,6676.7822321487311,-2936.4283599412256,2735.7313999084472,-2735.7313999084472,2936.4283599412256,13032.758660279744,0.0
683296.95196600363,3640566.251970998,-27500.0,-7368.1717591364668,2599.417663466917,-346.77649672461371,4475.3322517285605,-1191.499648127746,-1919.8909178664589,5713.7068192726201,-2814.6321811399271,2501.7729138153531,-2501.7729138153531,2814.6321811399271,11195.755863771286,0.0
688296.95196600363,3640566.251970998,-27500.0,-6619.2989687275831,2167.9828321557266,-261.07137140756379,3761.0152208398194,-956.01350911925977,-1534.5910772767527,4912.6307438979502,-2650.3447842729647,2266.4217484646197,-2266.4217484646197,2650.3447842729647,9655.5488257042434,0.0
693296.95196600363,3640566.251970998,-27500.0,-5935.8586730296765,1818.1036097913056,-203.14338597691506,3171.2747642398249,-772.07750766165418,-1231.8473602879199,4243.309905216629,-2466.8835093682392,2041.481566587215,-2041.481566587215,2466.8835093682392,8360.6670524557885,0.0
698296.95196600363,3640566.251970998,-27500.0,-5319.7293121696994,1532.9916976797383,-163.39787253881633,2683.7388484385674,-627.63042709533408,-993.56990655861307,3681.7158402076807,-2278.6696187281104,1832.8147296758541,-1832.8147296758541,2278.6696187281104,7268.8108020806039,0.0
703296.95196600363,3640566.251970998,-27500.0,-4768.681543220926,1299.5033680929939,-135.65789127945459,2279.8872723236659,-513.54083826618898,-805.50747852284417,3208.574687241623,-2094.3782987694481,1642.7865297052974,-1642.7865297052974,2094.3782987694481,6345.1662831090771,0.0
708296.95196600363,3640566.251970998,-27500.0,-4278.3456968126038,1107.3291076951268,-115.91337608834232,1944.5026736131063,-422.88942805726708,-656.53782348673019,2808.3502382586048,-1918.9863330995727,1471.7578842197545,-1471.7578842197545,1918.9863330995727,5561.1254751992465,0.0
713296.95196600363,3640566.251970998,-27500.0,-3843.3726844246694,948.35796324191938,-101.54021115122424,1665.1421435431691,-350.42104671622042,-538.03127149576937,2468.4561796515122,-1755.0939769374736,1318.9804895264501,-1318.9804895264501,1755.0939769374736,4893.177552858916,0.0
718296.95196600363,3640566.251970998,-27500.0,-3458.1426540354701,816.19037259337654,-90.808524555632218,1431.6726654587951,-292.13295817908562,-443.31597794444815,2178.6583540455567,-1603.8007057931982,1183.1434980117256,-1183.1434980117256,1603.8007057931982,4322.0105619183341,0.0
513296.95196600363,3645566.251970998,-27500.0,-4526.867547920484,34.386746882143129,54.053576034125392,-1940.0682764730127,-9.6560809856793348,-623.33852426227645,2753.9469630778731,-2821.0600644647661,1563.4474001360327,-1563.4474001360327,2821.0600644647661,5443.8993779187413,0.0
518296.95196600363,3645566.251970998,-27500.0,-5087.8750433079285,19.9277750449879,73.65555291687879,-2283.1049698783086,-21.57116126419352,-765.68738013800873,3146.2982892934533,-3185.937434302994,1764.6585418201605,-1764.6585418201605,3185.937434302994,6217.2254768059356,0.0
523296.95196600363,3645566.251970998,-27500.0,-5732.6440301320699,-1.570314545018082,96.623933402454085,-2699.7993532908613,-39.015880951574395,-946.20508945172901,3611.2662228063687,-3608.6138527735757,1995.7038306305178,-1995.7038306305178,3608.6138527735757,7131.6373509791529,0.0
528296.95196600363,3645566.251970998,-27500.0,-6474.0154800709697,-32.869887097415294,122.87628243978058,-3208.271382734622,-64.434840261353358,-1176.3175067224481,4165.0970965349379,-4098.9263550288306,2260.5333460548554,-2260.5333460548554,4098.9263550288306,8217.7221450122106,0.0
533296.95196600363,3645566.251970998,-27500.0,-7326.1073036265434,-77.820369340751498,151.74204719317427,-3831.5176708619015,-101.40873384569531,-1471.0583021442137,4828.2753908278974,-4668.0956982234329,2562.9748523843668,-2562.9748523843668,4668.0956982234329,9513.5302363789433,0.0
538296.95196600363,3645566.251970998,-27500.0,-8303.8942352929134,-141.80306626605696,181.43335559596341,-4598.8345992321847,-155.22544187045941,-1850.1897127764232,5626.8467436351475,-5328.6378837852844,2906.1549512894126,-2906.1549512894126,5328.6378837852844,11066.604605559944,0.0
543296.95196600363,3645566.251970998,-27500.0,-9422.2929298299659,-232.36287141565461,208.1116226401744,-5547.7546561677718,-233.76842982949501,-2339.6565501161385,6594.2909704785661,-6093.9984171266779,3291.4363704870002,-3291.4363704870002,6093.9984171266779,12936.709087719441,0.0
548296.95196600363,3645566.251970998,-27500.0,-10694.328843729318,-360.10186122691283,224.24612048558515,-6726.8060120881892,-348.92898271710726,-2973.5448209695614,7774.2802976592066,-6977.625437015804,3716.4975000218219,-3716.4975000218219,6977.625437015804,15199.666370331375,0.0
553296.95196600363,3645566.251970998,-27500.0,-12127.4570418524,-539.91319663022171,215.72916956329678,-8199.6596491743967,-518.9096375589304,-3797.0011938196117,9224.8990437994889,-7990.8323838682627,4171.8402187793872,-4171.8402187793872,7990.8323838682627,17953.048438354366,0.0
558296.95196600363,3645566.251970998,-27500.0,-13715.833814594152,-792.56318077555272,156.78849647899821,-10051.573895658548,-772.10158232462572,-4871.3958126021616,11025.237607360998,-9137.8609725187089,4634.2795162690054,-4634.2795162690054,9137.8609725187089,21324.94995276492,0.0
563296.95196600363,3645566.251970998,-27500.0,-15423.08564257103,-1146.2215211170478,0.9780748571288127,-12399.049833492425,-1153.7901237893871,-6285.1311837271969,13285.447091590944,-10404.081715960907,5054.362869837265,-5054.362869837265,10404.081715960907,25487.33093179798,0.0
568296.95196600363,3645566.251970998,-27500.0,-17142.297091537472,-1635.9786556433887,-334.83146084378495,-15401.134112221715,-1737.8003330654292,-8178.0980397594358,16160.098942645798,-11727.037369514832,5331.2092086999746,-5331.2092086999746,11727.037369514832,30673.379702981529,0.0
573296.95196600363,3645566.251970998,-27500.0,-18603.56207168748,-2294.0961654441599,-998.70680217804636,-19258.320364371972,-2645.3742820100174,-10794.613201138314,19857.902570944465,-12925.808449415181,5261.7417857679975,-5261.7417857679975,12925.808449415181,37186.913740524862,0.0
578296.95196600363,3645566.251970998,-27500.0,-19176.02027759259,-3108.2346659055534,-2251.4448815580536,-24141.778556274938,-4067.2986627396081,-14576.67654829923,24617.922264703324,-13538.833368944512,4443.6038484214641,-4443.6038484214641,13538.833368944512,45352.417955264238,0.0
583296.95196600363,3645566.251970998,-27500.0,-17525.34857087542,-3889.3175333033219,-4535.5419783023453,-29886.028104986446,-6249.0155608200675,-20234.863341432912,30565.103573680957,-12506.886667083854,2123.7992496285142,-2123.7992496285142,12506.886667083854,55256.923594898071,0.0
588296.95196600363,3645566.251970998,-27500.0,-11345.256230850784,-3957.353016848188,-8521.163577907344,-35140.743337350032,-9267.6300450865638,-28400.339833202124,37264.288817131339,-7787.3599925506833,-2891.0792562984489,2891.0792562984489,7787.3599925506833,66002.127752478686,0.0
593296.95196600363,3645566.251970998,-27500.0,1678.2086052903287,-1769.1013821843292,-14926.968795504921,-36112.979361005593,-12181.720243701675,-37704.981476681889,42815.522452073674,3247.9488333265626,-11738.711302003594,11738.711302003594,-3247.9488333265626,74429.944498153898,0.0
598296.95196600363,3645566.251970998,-27500.0,19757.223344948747,4201.7544873600809,-23771.051039965416,-27885.180378305835,-11630.647182448964,-40763.873400118646,43200.714706660881,20492.41695276797,-23665.966897119419,23665.966897119419,-20492.41695276797,75595.40234111379,0.0
603296.95196600363,3645566.251970998,-27500.0,34370.818565340756,11380.195828534359,-33712.912928309292,-13549.693290732484,-4045.6698386982648,-26513.839956416381,37632.890344383777,36613.984407246789,-35105.912967862074,35105.912967862074,-36613.984407246789,72010.366364641639,0.0
608296.95196600363,3645566.251970998,-27500.0,42190.909542048503,13290.615310470554,-43322.517264067639,-6385.8258820609426,4365.9218527574913,-1033.2056430892469,45437.610487726182,44933.62415055254,-44593.937649309999,44593.937649309999,-44933.62415055254,78702.411595665399,1.0
613296.95196600363,3645566.251970998,-27500.0,47498.721618125761,11944.65682513633,-49971.123063489256,-6899.06798839564,1978.7936079959838,11759.290812563222,50810.872145068191,48864.437813962249,-51414.37763437564,51414.37763437564,-48864.437813962249,88750.907244386603,0.0
618296.95196600363,3645566.251970998,-27500.0,47707.590494634729,13726.319318994327,-47750.981693553185,-5310.4173180854241,-7345.8867915558367,-3.7726409968026253,50484.207627373762,49670.586928561075,-49657.054789281647,49657.054789281647,-49670.586928561075,87441.282327449822,0.0
623296.95196600363,3645566.251970998,-27500.0,40047.869088785817,16762.782112674329,-36337.392173476372,6888.2371328884619,-12537.574834600706,-25735.905778450007,46033.56706575815,44310.099070928263,-38357.024590073488,38357.024590073488,-44310.099070928263,81204.622509453853,0.0
628296.95196600363,3645566.251970998,-27500.0,22504.599688175025,16975.30456249087,-23173.939877530043,23856.917871359663,-11713.547431076453,-38226.932812296276,44529.32696911048,30508.616879809008,-22758.469658692593,22758.469658692593,-30508.616879809008,77358.143544771039,0.0
633296.95196600363,3645566.251970998,-27500.0,3454.2768995127531,14647.176054342568,-13479.941944919825,31811.773124274259,-8939.7967560480411,-33830.375708245228,40502.064500459848,14869.650888479182,-9483.1827929207047,9483.1827929207047,-14869.650888479182,70461.851709303432,0.0
638296.95196600363,3645566.251970998,-27500.0,-8961.2203464732029,11718.492579405576,-7578.2012372906684,30551.248156819034,-6545.6212965902696,-24794.43508619913,33949.258178473268,3839.5059111395954,-1291.1594119493443,1291.1594119493443,-3839.5059111395954,60126.051264738475,0.0
643296.95196600363,3645566.251970998,-27500.0,-14582.771073215439,9170.5708077931231,-4206.32481810631,25745.727677365121,-4865.746238545189,-17504.817958623356,27427.213712159668,-2119.152831295497,2799.823716118306,-2799.823716118306,2119.152831295497,49582.068376119161,0.0
648296.95196600363,3645566.251970998,-27500.0,-16149.508978865624,7189.2935610406284,-2304.3593231158106,20769.733829133715,-3704.8515615167053,-12636.769284332135,22012.689714374421,-4835.9767155078262,4509.5595883833212,-4509.5595883833212,4835.9767155078262,40568.143085152617,0.0
653296.95196600363,3645566.251970998,-27500.0,-15807.919734029514,5691.195639307296,-1232.6879867752775,16629.87368253338,-2872.2660242785182,-9415.5021336684131,17793.433437093303,-5852.9344040253773,5020.2653491225328,-5020.2653491225328,5852.9344040253773,33342.261038529155,0.0
658296.95196600363,3645566.251970998,-27500.0,-14697.511739938149,4554.9076615821532,-631.57617771197476,13377.254168088779,-2252.1336994153153,-7177.4435992162789,14542.461261520115,-6044.0346539144657,4966.0050119320449,-4966.0050119320449,6044.0346539144657,27621.293080530231,0.0
663296.95196600363,3645566.251970998,-27500.0,-13340.048845763318,3682.1541557115088,-298.88899786859992,10837.825605045215,-1778.8089227988823,-5544.3475539744923,12013.094753380117,-5846.1003869081842,4659.9885751000629,-4659.9885751000629,5846.1003869081842,23059.108285086837,0.0
668296.95196600363,3645566.251970998,-27500.0,-11960.93172222127,3002.7749734501076,-119.59722069852512,8839.0409023617576,-1412.7950316868528,-4315.1283136122865,10015.139098562568,-5472.3756256733004,4254.8917518429307,-4254.8917518429307,5472.3756256733004,19379.444550732438,0.0
673296.95196600363,3645566.251970998,-27500.0,-10654.79470132357,2467.7520192998782,-27.57893644860712,7250.5711033609477,-1127.8579788060986,-3375.4247679664477,8414.5612288131488,-5029.3240836493187,3825.8020827731057,-3825.8020827731057,5029.3240836493187,16381.863189141979,0.0
678296.95196600363,3645566.251970998,-27500.0,-9458.8704929379819,2042.3527031419621,15.360681946578376,5978.3571989838583,-905.12682211119409,-2652.0228528565121,7117.6408635538437,-4571.7764517597507,3409.5416776420006,-3409.5416776420006,4571.7764517597507,13921.143085839747,0.0
683296.95196600363,3645566.251970998,-27500.0,-8384.2370170173162,1701.3807327763761,31.291337297053953,4953.4516726601587,-730.41355389568298,-2093.1959053753717,6057.2986295262081,-4128.2719304388247,3023.3249548055041,-3023.3249548055041,4128.2719304388247,11889.093001164083,0.0
688296.95196600363,3645566.251970998,-27500.0,-7429.5187087590812,1426.1480439615714,32.915403997433529,4123.8969641361473,-592.85422217464725,-1660.3609905902258,5184.0422945319124,-3713.1513043205368,2674.0014150534707,-2674.0014150534707,3713.1513043205368,10202.688171995404,0.0
693296.95196600363,3645566.251970998,-27500.0,-6587.3694372454402,1202.5503296165562,27.478939687294975,3449.6583970171523,-484.08790662204649,-1324.1269293158598,4460.3815086354407,-3332.7644001428944,2362.9003828575851,-2362.9003828575851,3332.7644001428944,8796.8303350828373,0.0
698296.95196600363,3645566.251970998,-27500.0,-5847.782347884372,1019.8019028259954,19.049698358435556,2899.4448681656127,-397.67826042491942,-1061.9954081667902,3857.3404848659084,-2988.8892741290015,2088.4806485234508,-2088.4806485234508,2988.8892741290015,7619.7664069726943,0.0
703296.95196600363,3645566.251970998,-27500.0,-5199.9041471135952,869.57571124557489,9.8489020549920596,2448.6104497233773,-328.67497482240964,-856.76601186539494,3352.2100677957656,-2680.7350848511751,1847.8258671516296,-1847.8258671516296,2680.7350848511751,6630.0335915869127,0.0
708296.95196600363,3645566.251970998,-27500.0,-4633.0153701088075,745.39255105148584,1.0314997642066617,2077.6545385810355,-273.27091863092016,-695.31534406616606,2927.0024866100175,-2406.134410553123,1637.4812790036433,-1637.4812790036433,2406.134410553123,5794.2378016914972,0.0
713296.95196600363,3645566.251970998,-27500.0,-4137.0626929873215,642.17968851192688,-6.8561805315549895,1771.1089231438914,-228.53578439293898,-567.64473799216523,2567.3604184040487,-2162.2707867675936,1453.9211073695126,-1453.9211073695126,2162.2707867675936,5085.3974882748516,0.0
718296.95196600363,3645566.251970998,-27500.0,-3702.9085797527978,555.94311486549577,-13.608576564278039,1516.6785562499315,-192.20958352658653,-466.13637764911323,2261.7519975789864,-1946.1116219271114,1293.7937756307572,-1293.7937756307572,1946.1116219271114,4481.6513081852827,0.0
513296.95196600363,3650566.251970998,-27500.0,-4420.5747834448612,408.76924446646512,39.881631896485956,-1901.6163721238363,137.52102035941962,-612.44884642503439,2712.4987673090427,-2504.2321365749872,1558.0896145269007,-1558.0896145269007,2504.2321365749872,5368.2364215941952,0.0
518296.95196600363,3650566.251970998,-27500.0,-4965.788543671214,467.3641394700258,58.113443424121968,-2237.1197364302648,160.77549973971867,-752.06261485615221,3098.7440871272238,-2810.6955665613705,1760.9429465673832,-1760.9429465673832,2810.6955665613705,6129.6557373293372,0.0
523296.95196600363,3650566.251970998,-27500.0,-5592.3367509560176,536.4236032817829,79.908649461547085,-2644.6731890085648,188.58693295499995,-929.07571163918647,3556.6448719937148,-3161.9294235883035,1994.866042582591,-1994.866042582591,3161.9294235883035,7030.0814499162761,0.0
528296.95196600363,3650566.251970998,-27500.0,-6312.8530450119497,618.10693022248211,105.46457948431237,-3142.0900115889012,221.85986691011144,-1154.6863924426082,4102.3062727173801,-3564.4551494751768,2264.481015601541,-2264.481015601541,3564.4551494751768,8099.7997051968323,0.0
533296.95196600363,3650566.251970998,-27500.0,-7141.392843824824,715.05802300565813,134.59115551760172,-3752.0631533326841,261.61365439823788,-1443.6399921053949,4756.0870799140266,-4025.2762410938367,2574.6550723001283,-2574.6550723001283,4025.2762410938367,9376.6067901844472,0.0
538296.95196600363,3650566.251970998,-27500.0,-8093.1776090050844,830.51937635211982,166.31757529549083,-4503.665494937226,308.92799564189573,-1815.345476639561,5543.9797521237324,-4551.5543478315085,2930.1376709186952,-2930.1376709186952,4551.5543478315085,10907.947479262635,0.0
543296.95196600363,3650566.251970998,-27500.0,-9183.9836594817189,968.48177059289526,198.1902768160551,-5434.4622257377823,364.81026108494041,-2295.3467928187165,6499.6104814048131,-5149.9698420894592,3334.8550786980695,-3334.8550786980695,5149.9698420894592,12753.877286271496,0.0
548296.95196600363,3650566.251970998,-27500.0,-10428.861842390957,1133.8886183057334,225.03489716743181,-6593.6582989954595,429.91247933283177,-2917.3622681992379,7667.2720610541328,-5825.5068888308197,3790.5918383072622,-3790.5918383072622,5825.5068888308197,14991.396681935366,0.0
553296.95196600363,3650566.251970998,-27500.0,-11839.444538180709,1332.9512642532479,236.78297339436466,-8047.0868731868204,503.9712929585898,-3726.4645724772067,9106.7327066900834,-6579.0707391437281,4294.5218753465542,-4294.5218753465542,6579.0707391437281,17721.190220111948,0.0
558296.95196600363,3650566.251970998,-27500.0,-13417.929000881013,1573.7012140015652,214.66618475728785,-9885.4871066515443,584.74182379792273,-4785.0166110921018,10901.107348570418,-7402.5015287178821,4834.4483565225955,-4834.4483565225955,7402.5015287178821,21078.656728640315,0.0
563296.95196600363,3650566.251970998,-27500.0,-15142.578708932597,1867.1136179486678,124.52892147450929,-12238.130215946851,666.03258712439936,-6185.7132946066322,13169.670668831504,-8267.2556264660197,5379.1376250894327,-5379.1376250894327,8267.2556264660197,25252.113113419538,0.0
568296.95196600363,3650566.251970998,-27500.0,-16931.153669796422,2229.6996443703501,-95.059415647772582,-15292.515381099152,734.24016881037119,-8082.408343080755,16087.077924427884,-9097.1391155766196,5857.5763716630427,-5857.5763716630427,9097.1391155766196,30510.508692454972,0.0
573296.95196600363,3650566.251970998,-27500.0,-18549.054222795537,2690.0472893932438,-554.44914381861179,-19309.654600449139,762.82561991395869,-10760.760138661832,19904.951431728397,-9701.6526090200095,6112.9169431956007,-6112.9169431956007,9701.6526090200095,37233.84367492867,0.0
578296.95196600363,3650566.251970998,-27500.0,-19393.615509975909,3306.1028127721697,-1453.7358781207422,-24578.554357663059,706.18294559409514,-14777.609979210572,24949.784079737918,-9620.452204390218,5801.8960407129052,-5801.8960407129052,9620.452204390218,45901.407800689463,0.0
583296.95196600363,3650566.251970998,-27500.0,-18067.088342348234,4209.7789748705582,-3161.6615537281896,-31116.769623061173,505.68128816872905,-21133.874346636541,31509.122167493566,-7809.0073545330424,4198.2637885657286,-4198.2637885657286,7809.0073545330424,56885.697600378291,0.0
588296.95196600363,3650566.251970998,-27500.0,-11865.017047193445,5703.8037247052343,-6358.9494027079409,-37671.750280530934,164.82317915755362,-31057.18733601382,39394.006140899102,-2222.3230721691389,-73.913903833649101,73.913903833649101,2222.3230721691389,69710.067476531403,0.0
593296.95196600363,3650566.251970998,-27500.0,2566.8830201232927,8350.5176918798097,-12209.117949734464,-39792.602394952351,48.029126028599599,-43802.329706154625,46887.975769542165,9871.3190581139625,-8935.7139259433407,8935.7139259433407,-9871.3190581139625,81503.598294476353,0.0
598296.95196600363,3650566.251970998,-27500.0,24243.894184087971,12467.02874875777,-22118.26873633411,-30271.69439611469,1357.12743000656,-50641.264586651982,49614.529993851371,28382.391686748339,-23056.537347909387,23056.537347909387,-28382.391686748339,86639.087428331914,0.0
603296.95196600363,3650566.251970998,-27500.0,42079.095934455356,16083.108467390341,-35818.457326984528,-11294.582555593564,4678.9232803077084,-35848.432367635083,45697.788724323909,45014.935618942305,-38731.209521133809,38731.209521133809,-45014.935618942305,85409.271003641028,0.0
608296.95196600363,3650566.251970998,-27500.0,49520.525380717721,15864.599553375007,-48101.852747416684,-945.28323882593043,4937.8873216354423,-8535.7907830731947,51620.718140987345,52295.275092801865,-50291.130212156102,50291.130212156102,-52295.275092801865,89799.523052238845,0.0
613296.95196600363,3650566.251970998,-27500.0,51813.39886597389,14831.654449155982,-51053.693889936731,1016.219876354454,-1794.8312504895325,-1971.7647168433716,53570.364826493547,53713.23486354229,-53345.277204762264,53345.277204762264,-53713.23486354229,92814.090901005155,1.0
618296.95196600363,3650566.251970998,-27500.0,46697.415716447016,15978.627335128338,-43125.125257406209,6946.878049136013,-5949.8504730182567,-19150.083916968546,48798.783233260532,49482.416142069218,-45669.165104426029,45669.165104426029,-49482.416142069218,86639.029550839332,0.0
623296.95196600363,3650566.251970998,-27500.0,33961.3695164776,14553.385225195534,-30389.597569857302,20542.667952176133,-2258.414550657194,-40704.027548606122,44964.927097802392,37703.209512221023,-32177.823487778303,32177.823487778303,-37703.209512221023,82631.023036003884,0.0
628296.95196600363,3650566.251970998,-27500.0,14745.619306872424,9666.0402343697988,-18814.610801153289,34423.221707255827,2000.7968847832544,-46325.518471608979,46982.994480481735,19847.152401388848,-17741.654851176958,17741.654851176958,-19847.152401388848,81569.556954403204,0.0
633296.95196600363,3650566.251970998,-27500.0,-3310.8180672354965,5327.5325520672332,-10632.668143369028,38751.178512520819,2934.3648611306426,-38023.686770932094,43011.343630030533,3843.7028658869094,-6131.4451270648788,6131.4451270648788,-3843.7028658869094,74969.134521074622,0.0
638296.95196600363,3650566.251970998,-27500.0,-14205.119301928096,3000.1275840329317,-5618.8740837619425,35084.516337841698,2143.9094208559504,-27249.057439935554,36005.048013115535,-5637.7646853900296,961.96948601373288,-961.96948601373288,5637.7646853900296,63948.632353748944,0.0
643296.95196600363,3650566.251970998,-27500.0,-18567.083976932608,1988.5131629691264,-2777.3965101022809,28820.02520386675,1194.2781193912124,-19088.179651067356,29017.591551438163,-9674.7603088302385,4407.0444233749249,-4407.0444233749249,9674.7603088302385,52590.272119171525,0.0
648296.95196600363,3650566.251970998,-27500.0,-19191.993094051282,1547.1502779603525,-1232.1652750267133,22921.512644578168,533.48664626223649,-13705.107087125785,23218.96096262948,-10705.460125966638,5705.7295987721018,-5705.7295987721018,10705.460125966638,42875.865904896593,0.0
653296.95196600363,3650566.251970998,-27500.0,-18152.047528676754,1313.4767715807448,-418.39364965943997,18169.392188968959,146.95846608991545,-10151.601938545906,18705.429193551048,-10392.736616438013,5929.8590579982229,-5929.8590579982229,10392.736616438013,35103.181738676489,0.0
658296.95196600363,3650566.251970998,-27500.0,-16519.722688669593,1152.4440184338114,-8.9187958527191498,14496.856616635545,-59.732810385522271,-7691.2120778339477,15235.469190936728,-9570.35436845408,5665.5357389236742,-5665.5357389236742,9570.35436845408,28969.89952337055,0.0
663296.95196600363,3650566.251970998,-27500.0,-14768.575765936986,1020.1321706338208,180.01824443541287,11663.0108378146,-161.01473432994482,-5906.6914339762598,12544.498273904192,-8604.9566079449069,5202.1811541643674,-5202.1811541643674,8604.9566079449069,24099.750980752346,0.0
668296.95196600363,3650566.251970998,-27500.0,-13089.890197585453,903.53712000107737,250.97824312403074,9454.3958466982804,-203.24593493966321,-4573.1669172849097,10427.049977667521,-7647.9041295697962,4678.0645277574176,-4678.0645277574176,7647.9041295697962,20189.668856798518,0.0
673296.95196600363,3650566.251970998,-27500.0,-11553.932076463158,799.07329095412899,261.01856337356651,7714.3869430894511,-213.38788787292489,-3560.9492960349262,8737.5016671240264,-6758.3822289026211,4158.3683625292106,-4158.3683625292106,6758.3822289026211,17018.566055996751,0.0
678296.95196600363,3650566.251970998,-27500.0,-10180.333781741305,705.65274353865902,241.63295513555954,6331.4739733102897,-206.79475948634837,-2786.6988860823271,7373.7225379344054,-5956.4911672665703,3672.737740528436,-3672.737740528436,5956.4911672665703,14426.081530092109,0.0
683296.95196600363,3650566.251970998,-27500.0,-8967.3281547310216,622.64058549749257,209.92776000928154,5224.8623434755218,-192.13025422767114,-2191.9084092404955,6262.6210377640809,-5245.4022377959773,3233.0963376455165,-3233.0963376455165,5245.4022377959773,12293.084374670494,0.0
688296.95196600363,3650566.251970998,-27500.0,-7904.0837467447964,549.34516636709702,174.93046960540212,4334.4188279561004,-174.22515307749495,-1733.4154802265562,5350.419277001015,-4620.832650147343,2842.3741587947002,-2842.3741587947002,4620.832650147343,10528.659182895528,0.0
693296.95196600363,3650566.251970998,-27500.0,-6976.2272604679829,484.9556373355968,141.16564313896447,3614.385858070536,-155.71016862989427,-1378.7116961260976,4596.5515187972951,-4075.3474370801664,2498.9859569729547,-2498.9859569729547,4075.3474370801664,9061.9745616142463,0.0
698296.95196600363,3650566.251970998,-27500.0,-6168.5035230047433,428.59189641000631,110.68216402876293,3029.4282130910947,-137.95411271280165,-1103.1655534777358,3969.826680529794,-3600.4474588839093,2199.2213496434542,-2199.2213496434542,3600.4474588839093,7837.0974797435138,0.0
703296.95196600363,3650566.251970998,-27500.0,-5466.0959816753557,379.3637574861155,84.199354988876877,2552.0057114784063,-121.60637217603167,-888.10366768078882,3445.9155466952921,-3187.6147707914679,1938.537891476396,-1938.537891476396,3187.6147707914679,6809.4711192969917,0.0
708296.95196600363,3650566.251970998,-27500.0,-4855.2944893208114,336.41633621226163,61.750976080983804,2160.5381579040154,-106.91272933583978,-719.38210159506025,3005.6505796067654,-2828.8455875611944,1712.2640567823846,-1712.2640567823846,2828.8455875611944,5943.4192499416613,0.0
713296.95196600363,3650566.251970998,-27500.0,-4323.7574386472425,298.95702358403594,43.042093398071657,1838.0421469284606,-93.899043541905954,-586.28699379485158,2633.8008153973583,-2516.8769180840854,1515.9527589452111,-1515.9527589452111,2516.8769180840854,5210.241173711901,0.0
718296.95196600363,3650566.251970998,-27500.0,-3860.5921778970201,266.26961187317647,27.644305646786727,1571.1125056828403,-82.477983735269831,-480.69628579123463,2318.190985203712,-2245.2715647917357,1345.5535280865545,-1345.5535280865545,2245.2715647917357,4586.7782335461243,0.0
513296.95196600363,3655566.251970998,-27500.0,-4192.500826305979,760.10090923938037,-26.611399348717999,-1818.6774923323385,276.72433930981714,-589.03545904823488,2632.7564566242404,-2114.6479032839525,1470.8376228108282,-1470.8376228108282,2114.6479032839525,5216.6763189527373,0.0
518296.95196600363,3655566.251970998,-27500.0,-4692.064802654425,886.08742289585246,-23.601036023836738,-2133.5180320896879,332.85666417110639,-721.56524653263762,3003.5805970717192,-2344.6367111096088,1654.5010980888912,-1654.5010980888912,2344.6367111096088,5947.0007879414443,0.0
523296.95196600363,3655566.251970998,-27500.0,-5261.6901810733043,1038.3913097293876,-21.231460040744558,-2514.2066565202722,402.86367190481803,-888.98277137568823,3442.1846825270013,-2600.9314585409761,1864.0819092992338,-1864.0819092992338,2600.9314585409761,6808.3299937544216,0.0
528296.95196600363,3655566.251970998,-27500.0,-5910.7130853269473,1223.5424451004592,-20.660726059755948,-2976.3785482465505,490.706814673118,-1101.4697895692354,3963.3957576311391,-2884.8001320790054,2102.5735793609765,-2102.5735793609765,2884.8001320790054,7828.4659236919269,0.0
533296.95196600363,3655566.251970998,-27500.0,-6648.7776316677064,1449.9243873943481,-23.931285435366572,-3539.6699041820521,601.59170529571975,-1372.2956814008728,4585.8048359550239,-3196.2802400422211,2372.6241455159529,-2372.6241455159529,3196.2802400422211,9041.8105339768445,0.0
538296.95196600363,3655566.251970998,-27500.0,-7485.1500968128321,1728.3702338763489,-34.567009456980877,-4228.812245039273,742.3775915888416,-1718.7052939229411,5332.931228786656,-3533.2218420671766,2675.9314899369188,-2675.9314899369188,3533.2218420671766,10491.111540570795,0.0
543296.95196600363,3655566.251970998,-27500.0,-8427.484580051947,2072.9891276991516,-58.57136758136749,-5075.1188791742406,922.12679392108851,-2163.034591599062,6234.8869527776451,-3889.7447620093576,3012.1844621779805,-3012.1844621779805,3889.7447620093576,12229.828449107459,0.0
548296.95196600363,3655566.251970998,-27500.0,-9479.6269246307747,2502.3391859603398,-106.10380150767351,-6118.6388267626007,1152.8549236165763,-2734.1827198559868,7330.8781041213906,-4253.7126062244342,3377.2198148752195,-3377.2198148752195,4253.7126062244342,14325.534089061368,0.0
553296.95196600363,3655566.251970998,-27500.0,-10637.56532860126,3041.148161972636,-194.31164417329094,-7411.5156567519625,1450.6069197125028,-3469.8513558393456,8673.1578160994522,-4602.4253681933578,3759.7663035862793,-3759.7663035862793,4602.4253681933578,16865.16043458449,0.0
558296.95196600363,3655566.251970998,-27500.0,-11881.401580078604,3722.9021157222155,-352.15214651131186,-9023.4748167662765,1837.1437388420998,-4420.81584544208,10333.479353254213,-4894.8011355650087,4135.4829375554691,-4135.4829375554691,4894.8011355650087,19963.555878095151,0.0
563296.95196600363,3655566.251970998,-27500.0,-13157.997373448781,4593.7393095475572,-628.69170452166736,-11050.476297753659,2342.9249736248225,-5660.7531851428448,12413.527247930922,-5056.0792744001801,4455.4500286497523,-4455.4500286497523,5056.0792744001801,23777.535635650336,0.0
568296.95196600363,3655566.251970998,-27500.0,-14340.951717197246,5717.868735584464,-1107.6130857629885,-13625.292111990646,3012.9684058771436,-7310.2078205728276,15060.181869582626,-4945.9377363280382,4622.6473610802113,-4622.6473610802113,4945.9377363280382,28526.727049330391,0.0
573296.95196600363,3655566.251970998,-27500.0,-15137.039948474758,7182.836009283048,-1933.1069234332056,-16916.238146859683,3918.6813926053514,-9591.3223739977075,18481.055240267557,-4290.6554892159038,4442.0637137597823,-4442.0637137597823,4290.6554892159038,34513.743312183367,0.0
578296.95196600363,3655566.251970998,-27500.0,-14880.297065844581,9095.0324013498721,-3357.0005431919749,-21054.418889091419,5179.2294755878593,-12928.885590507263,22935.554798093384,-2546.6479136578901,3516.3942801513613,-3516.3942801513613,2546.6479136578901,42102.321049156373,0.0
583296.95196600363,3655566.251970998,-27500.0,-12157.517147307812,11530.994728709107,-5823.6806894515648,-25804.568869669467,6984.5678897763582,-18034.529330381716,28623.771043623161,1320.7859481658311,1052.5145295185248,-1052.5145295185248,-1320.7859481658311,51524.287460119915,0.0
588296.95196600363,3655566.251970998,-27500.0,-4467.8915576888958,14355.755102409335,-10102.983993512295,-29602.644146388699,9546.7977256272188,-25519.513684598664,35304.781718304403,8960.4131254865351,-4370.3501405111438,4370.3501405111438,-8960.4131254865351,62265.030312540948,0.0
593296.95196600363,3655566.251970998,-27500.0,10741.829466822557,16801.671205952051,-17366.33285456571,-27992.471806281312,12699.222894752746,-33562.956078361014,41510.331740260022,21726.706713734304,-14554.929518063293,14554.929518063293,-21726.706713734304,72035.348221403445,0.0
598296.95196600363,3655566.251970998,-27500.0,30840.211770548663,17176.147178924119,-28567.828356819729,-15233.596905402919,14707.75502712351,-32732.940769214845,44531.346429828838,37071.495104634902,-29503.953883615384,29503.953883615384,-37071.495104634902,77616.404529533538,0.0
603296.95196600363,3655566.251970998,-27500.0,43897.461946522133,14475.339875311291,-41735.957968452305,2776.5128544461513,11702.231384948676,-10805.238991331511,47077.800142463893,46425.390447774531,-43870.624824258317,43870.624824258317,-46425.390447774531,81875.813638136009,0.0
608296.95196600363,3655566.251970998,-27500.0,46218.297666779821,11295.420285439919,-49453.706246526919,7382.8813175747036,2956.2904947223069,14224.781457395826,50027.882505575282,47518.260739224133,-50674.451556939312,50674.451556939312,-47518.260739224133,87683.139386276423,0.0
613296.95196600363,3655566.251970998,-27500.0,45485.555627599941,10634.647027619667,-46327.441676859642,5084.5826104434673,-4092.5912502389697,10743.719374151087,47596.436101085288,45918.740699584043,-48200.18877196149,48200.18877196149,-45918.740699584043,83150.246810206969,0.0
618296.95196600363,3655566.251970998,-27500.0,39051.974605058196,10912.026129261772,-37358.636490467077,9488.0578947040212,-2055.3997102573762,-10507.924153676429,40725.670264307315,40055.127793986627,-39410.989873132756,39410.989873132756,-40055.127793986627,71748.335015273857,0.0
623296.95196600363,3655566.251970998,-27500.0,27307.837241465295,7487.4290657402644,-28605.927069933023,19609.132827644098,6422.4653585171,-29265.202455173534,36064.413558705404,28474.644213056388,-29400.745994309786,29400.745994309786,-28474.644213056388,67890.569953822982,0.0
628296.95196600363,3655566.251970998,-27500.0,11876.924278911305,1103.3373163476281,-20653.93221163594,29633.319028007067,12040.574660169676,-35314.756526698591,39986.781472312599,12814.947040980554,-19063.961200353548,19063.961200353548,-12814.947040980554,69448.576151144895,0.0
633296.95196600363,3655566.251970998,-27500.0,-2803.1759336490504,-3557.0929318387116,-13571.471795163801,33411.322534604347,12051.697378038123,-31018.593922486994,38170.424657999582,-1041.1698580796856,-9431.3848200302546,9431.3848200302546,1041.1698580796856,66564.798649680932,0.0
638296.95196600363,3655566.251970998,-27500.0,-12485.947365280021,-5144.8806637267198,-8164.5580103934781,31253.936761434965,9438.2398055461199,-23772.413537495548,33126.351288950398,-9365.2188251607004,-2374.9901607854194,2374.9901607854194,9365.2188251607004,58922.899891810077,0.0
643296.95196600363,3655566.251970998,-27500.0,-16982.364028956159,-4892.2912197344976,-4590.0792168282887,26582.533055095886,6686.8368077073119,-17564.088218881534,27464.105240223071,-12817.054760712821,1792.1703857325438,-1792.1703857325438,12817.054760712821,49869.370441507461,0.0
648296.95196600363,3655566.251970998,-27500.0,-18108.507098929298,-4016.3201055474033,-2429.3780497780617,21744.200939627695,4585.067241296596,-13072.978714396115,22432.393403730424,-13430.441109972215,3855.4007786661259,-3855.4007786661259,13430.441109972215,41498.563401407562,0.0
653296.95196600363,3655566.251970998,-27500.0,-17518.429198557318,-3100.6577157564993,-1188.9466279285662,17590.037082938568,3131.8566036301381,-9898.4451124724819,18330.185281363054,-12736.59963240415,4669.6206653630561,-4669.6206653630561,12736.59963240415,34449.699375754673,0.0
658296.95196600363,3655566.251970998,-27500.0,-16197.654456953667,-2331.1202221861149,-502.02020453534567,14232.876965335598,2152.4880614579852,-7596.9559322152945,15073.240700151871,-11557.350753230767,4815.3488753462652,-4815.3488753462652,11557.350753230767,28692.470623940186,0.0
663296.95196600363,3655566.251970998,-27500.0,-14640.401088644912,-1732.3953645098436,-135.87731886847777,11560.656314149575,1491.674873155448,-5879.644187215863,12490.82177194738,-10270.606524454859,4627.0623482643387,-4627.0623482643387,10270.606524454859,24014.300961638044,0.0
668296.95196600363,3655566.251970998,-27500.0,-13075.286061895145,-1280.5297995875642,48.202563393761181,9433.1648796895206,1041.7194925662163,-4574.4839574190892,10427.906674363638,-9034.836971976325,4286.1936566025088,-4286.1936566025088,9034.836971976325,20200.445973847309,0.0
673296.95196600363,3655566.251970998,-27500.0,-11602.388476106737,-943.54818818313845,130.84012848804744,7732.4310093259528,732.22227429995132,-3573.6046457036305,8764.9144884593461,-7909.7138819184647,3889.1436007197599,-3889.1436007197599,7909.7138819184647,17075.63272775567,0.0
678296.95196600363,3655566.251970998,-27500.0,-10261.240322031972,-693.2850386851178,158.3484565601232,6367.0027764609858,517.37060733337125,-2803.0192086903212,7413.0714506272898,-6911.8151790254205,3486.3269110452065,-3486.3269110452065,6911.8151790254205,14503.18647768833,0.0
683296.95196600363,3655566.251970998,-27500.0,-9062.5365562639799,-507.57135909608064,157.10879514052556,5266.5651545472729,367.01350622069589,-2208.4321022301406,6306.2156533934995,-6039.1449716902935,3103.1582093700126,-3103.1582093700126,6039.1449716902935,12376.401107795875,0.0
688296.95196600363,3655566.251970998,-27500.0,-8003.0602414001814,-369.66615236852914,141.98728194863378,4376.5321322121417,261.03667418766702,-1748.6588541641295,5394.2286710382587,-5281.9919831152429,2751.3178142250617,-2751.3178142250617,5281.9919831152429,10611.004640580673,0.0
693296.95196600363,3655566.251970998,-27500.0,-7073.046724654916,-267.1349225534625,121.21760402227642,3654.1134810174931,185.859831276309,-1392.1404107050453,4638.5121457188579,-4627.8965807901577,2434.93887622067,-2434.93887622067,4627.8965807901577,9139.7781678439205,0.0
698296.95196600363,3655566.251970998,-27500.0,-6260.0183239818498,-190.80234929238947,99.227273059483423,3065.5669118349115,132.22251390920502,-1114.6982669134504,4008.9499510649111,-4063.9953366532818,2154.0883809322158,-2154.0883809322158,4063.9953366532818,7908.7758595581745,0.0
703296.95196600363,3655566.251970998,-27500.0,-5550.81018345747,-133.91154671807479,78.274746293493266,2584.1938967949741,93.755724113916727,-897.862879451053,3481.7991428099431,-3578.1023742205607,1906.7434012341573,-1906.7434012341573,3578.1023742205607,6874.5197516222925,0.0
708296.95196600363,3655566.251970998,-27500.0,-4932.6872292471562,-91.484700787230764,59.397825001238743,2188.8476200740683,66.045464199199913,-727.57035859491589,3038.2159013790965,-3159.199825208605,1689.9335223519502,-1689.9335223519502,3159.199825208605,6001.9143676424974,0.0
713296.95196600363,3655566.251970998,-27500.0,-4393.8698491194464,-59.848448425684786,42.961621957975922,1862.7532708857855,46.010491250472668,-593.12558273419324,2663.1472065539206,-2797.5768951807959,1500.3721854472099,-1500.3721854472099,2797.5768951807959,5262.5577771106282,0.0
513296.95196600363,3660566.251970998,-27500.0,-3855.4928079470883,1066.0919248847106,-138.24614870961284,-1695.588431011819,400.12870381657183,-554.24742719754056,2520.832792933259,-1676.6767053274189,1308.8606040861082,-1308.8606040861082,1676.6767053274189,4995.9609410531157,0.0
518296.95196600363,3660566.251970998,-27500.0,-4283.6719453491442,1246.868404088535,-161.88540387031358,-1978.2403970480871,484.05288253854155,-675.83090867810074,2868.7133285270488,-1819.8353170705332,1454.9131841777116,-1454.9131841777116,1819.8353170705332,5678.2180168448349,0.0
523296.95196600363,3660566.251970998,-27500.0,-4763.3596412967108,1465.5946360370831,-193.80473043981988,-2316.6359528889261,589.23338443323439,-828.28390672359649,3278.0626329122497,-1968.2932950813849,1616.2995478585242,-1616.2995478585242,1968.2932950813849,6478.4261779259932,0.0
528296.95196600363,3660566.251970998,-27500.0,-5298.1999454275301,1731.5063025046129,-237.70508283563439,-2722.7054190867575,721.83405576686812,-1020.1116231139098,3761.5497363310046,-2117.3985652414676,1792.5256710551078,-1792.5256710551078,2117.3985652414676,7420.1249185886354,0.0
533296.95196600363,3660566.251970998,-27500.0,-5890.129822264762,2056.2982264350821,-299.12840989042746,-3210.8165229470656,889.96040985216234,-1262.1276220694799,4334.7598260358473,-2259.3927330171764,1981.4375548238359,-1981.4375548238359,2259.3927330171764,8531.8074482458524,0.0
538296.95196600363,3660566.251970998,-27500.0,-6537.8776383147369,2454.7955078532937,-386.45227915641226,-3798.1072309075712,1104.2830866169725,-1567.9417512249668,5016.9378176342934,-2381.8045459042396,2178.0583415660449,-2178.0583415660449,2381.8045459042396,9847.9108950353584,0.0
543296.95196600363,3660566.251970998,-27500.0,-7234.5336669067237,2945.7973847462299,-512.46671723303075,-4504.7691306871393,1378.8517395408583,-1954.4423041769521,5831.9846024731178,-2465.0175851437093,2372.7042873024179,-2372.7042873024179,2465.0175851437093,11410.000834847409,0.0
548296.95196600363,3660566.251970998,-27500.0,-7963.5878262957394,3553.1211538331586,-696.89975165050407,-5354.2414812526331,1732.1573437211325,-2442.2304107275936,6809.8695181275943,-2478.5332033217569,2547.9098596864856,-2547.9098596864856,2478.5332033217569,13268.269808360383,0.0
553296.95196600363,3660566.251970998,-27500.0,-8692.2574601484976,4306.8464290758438,-970.51061756113552,-6373.2425755394615,2188.5451354516408,-3056.056358619142,7988.739299164592,-2375.0526092580048,2673.3113330132292,-2673.3113330132292,2375.0526092580048,15483.58646433799,0.0
558296.95196600363,3660566.251970998,-27500.0,-9359.6845793582252,5244.6226048118742,-1381.8004421436724,-7591.3800647200906,2780.1907353896331,-3825.6949104110035,9418.1647970770882,-2080.717809538738,2696.8888121027758,-2696.8888121027758,2080.717809538738,18130.523511599698,0.0
563296.95196600363,3660566.251970998,-27500.0,-9854.7211018172056,6412.3589348366131,-2008.1276455657887,-9039.0589478094262,3550.0808497751696,-4788.7012493140774,11163.899222820412,-1478.2540903192071,2529.4043200798646,-2529.4043200798646,1478.2540903192071,21301.657475957873,0.0
568296.95196600363,3660566.251970998,-27500.0,-9972.051546401186,7861.6900804520319,-2974.1795600856417,-10738.253536123106,4556.6600865769906,-5998.2059937821496,13313.278374643814,-377.03230002985936,2015.8030614380941,-2015.8030614380941,377.03230002985936,25111.579630870274,0.0
573296.95196600363,3660566.251970998,-27500.0,-9325.6301043228577,9635.4641711554941,-4482.0886712106103,-12666.695818119346,5879.6664887855468,-7538.5547069426748,15975.18027515008,1538.2879277392599,882.41104766688011,-882.41104766688011,-1538.2879277392599,29691.26556150955,0.0
578296.95196600363,3660566.251970998,-27500.0,-7194.9851328919394,11715.448882796833,-6856.4568167109046,-14637.477381979175,7617.3694429899251,-9532.7763817239738,19253.854049686175,4779.5269253657088,-1353.4894758255325,1353.4894758255325,-4779.5269253657088,35142.092844225204,0.0
583296.95196600363,3660566.251970998,-27500.0,-2343.7858735140176,13870.780519794263,-10591.764878178059,-15963.674962223444,9823.1828272603634,-12028.380982465575,23151.276372833985,10079.118036141383,-5495.9587811335696,5495.9587811335696,-10079.118036141383,41390.08790900575,0.0
588296.95196600363,3660566.251970998,-27500.0,6814.1899136219936,15326.249052385047,-16315.415591939463,-14791.555263015085,12197.050737105696,-14342.773881288775,27372.283975584476,18058.981337117653,-12623.596004326928,12623.596004326928,-18058.981337117653,47964.567474174211,0.0
593296.95196600363,3660566.251970998,-27500.0,20478.958823818164,14444.179803307874,-24362.787454117919,-7808.5108045386778,13161.502178547355,-13095.490061523309,31399.656836895811,27838.75897466435,-23228.605157158388,23228.605157158388,-27838.75897466435,54414.941341359183,0.0
598296.95196600363,3660566.251970998,-27500.0,33354.614314790313,9855.1546360921548,-33494.587176887588,6050.1516412494657,8760.7503167632985,-387.21939326155325,36437.830197944699,34922.368227807994,-34770.106100324861,34770.106100324861,-34922.368227807994,63112.200908356317,0.0
603296.95196600363,3660566.251970998,-27500.0,36324.368000688519,4593.80761289979,-39796.535535194795,16136.555099602921,-3843.7068473322265,26547.659681050711,44377.209795118026,34727.833495390536,-40976.725300973274,40976.725300973274,-34727.833495390536,77682.435552537645,0.0
608296.95196600363,3660566.251970998,-27500.0,33279.741187462365,4719.5921954617697,-39796.570037943929,9554.7951375020712,-16280.120511923651,44504.86816290814,47487.087867223541,32906.452613293157,-39940.798074740604,39940.798074740604,-32906.452613293157,86152.623661797217,0.0
613296.95196600363,3660566.251970998,-27500.0,33431.267922440442,7878.0102796070159,-35039.622860760683,-53.342285595546187,-16599.219438076652,32610.494935324372,38591.477316414261,34013.5299848543,-36147.862456953058,36147.862456953058,-34013.5299848543,75136.791436274041,0.0
618296.95196600363,3660566.251970998,-27500.0,31241.118294229353,8294.6552630122769,-29952.124161857333,1145.6760908928154,-6724.3394350513518,8055.8155245123162,32279.34279908552,31771.380727481937,-31623.972984041207,31623.972984041207,-31771.380727481937,56651.382987827681,0.0
623296.95196600363,3660566.251970998,-27500.0,23941.725732444527,4339.8272236300236,-26356.302965223516,9020.5418906575833,5183.242864002339,-10768.076242837764,27341.418074110537,23783.967982425376,-26958.037387097276,26958.037387097276,-23783.967982425376,48683.038904217232,0.0
628296.95196600363,3660566.251970998,-27500.0,13227.062145805025,-1983.8802150957531,-22385.71634333142,17362.670246123609,12617.533338338519,-19392.027888258555,29140.878877903,12011.983944270632,-21127.552909779097,21127.552909779097,-12011.983944270632,50640.096143757612,0.0
633296.95196600363,3660566.251970998,-27500.0,2051.8237374364408,-6907.1212009321443,-17225.926755674438,22136.05359974083,14211.122442623981,-20202.489320324945,29561.206637459167,608.24628839373872,-14114.995596224924,14114.995596224924,-608.24628839373872,51544.937668281578,0.0
638296.95196600363,3660566.251970998,-27500.0,-6570.5545804235426,-8910.6435285009084,-12046.730440055311,22774.154608867113,12429.8618847773,-17501.383061552806,27205.504365142046,-7275.616028707509,-7627.4416811460142,7627.4416811460142,7275.616028707509,48448.96110775807,0.0
643296.95196600363,3660566.251970998,-27500.0,-11687.945308322474,-8768.9755735637391,-7887.904595299151,20903.107708451946,9735.2474254155477,-14152.467350466721,23672.803199091446,-11320.869509030279,-2833.9214479529646,2833.9214479529646,11320.869509030279,43077.942420222738,0.0
648296.95196600363,3660566.251970998,-27500.0,-13984.686333100137,-7657.5651571975486,-4965.411398967939,18126.650107750153,7281.0077687193261,-11211.265446005465,20067.513521897818,-12682.832127059068,208.47341611139291,-208.47341611139291,12682.832127059068,37211.629975676879,0.0
653296.95196600363,3660566.251970998,-27500.0,-14506.016013808625,-6316.0117783943233,-3053.9451094169003,15311.828465342098,5357.7469142993114,-8845.5682034966685,16853.622419961794,-12554.351929254692,1935.9427421180035,-1935.9427421180035,12554.351929254692,31741.382939970666,0.0
658296.95196600363,3660566.251970998,-27500.0,-14056.102696835009,-5068.9166049625619,-1849.0333476436058,12787.488314197777,3929.968594896116,-6975.9668365782954,14137.83997975955,-11721.38135663,2807.1723681078947,-2807.1723681078947,11721.38135663,26957.159247959549,0.0
663296.95196600363,3660566.251970998,-27500.0,-13131.682181101005,-4017.1922442387686,-1104.0429037085969,10630.669098072061,2889.0598050558442,-5500.3386522400642,11887.009603790211,-10616.863604347398,3159.421821594206,-3159.421821594206,10616.863604347398,22882.336859393421,0.0
668296.95196600363,3660566.251970998,-27500.0,-12013.163360523338,-3167.7411390501311,-648.8430943455744,8825.9276329610384,2133.3411373405897,-4336.8983382740416,10031.138456779505,-9459.1170186618256,3211.2643365514182,-3211.2643365514182,9459.1170186618256,19449.562112985055,0.0
673296.95196600363,3660566.251970998,-27500.0,-10852.698855153612,-2495.4374789910935,-373.53208337215779,7330.7469654928691,1583.9774734970651,-3422.2156002699594,8500.420832942762,-8351.5102087898304,3097.3829909047645,-3097.3829909047645,8351.5102087898304,16570.693291760828,0.0
678296.95196600363,3660566.251970998,-27500.0,-9730.2160714166257,-1968.2961737649332,-209.06947775235881,6098.4399775724787,1183.2028610622829,-2705.4157711894836,7234.9598840336002,-7338.4921765427625,2898.8932509628607,-2898.8932509628607,7338.4921765427625,14160.200749313199,0.0
683296.95196600363,3660566.251970998,-27500.0,-8685.2053915681809,-1556.4953325522522,-112.57984678725184,5085.5000474351991,889.45259213991847,-2144.9842548391157,6185.5968565669191,-6434.7461601085997,2663.846925324076,-2663.846925324076,6434.7461601085997,12141.905845552526,0.0
688296.95196600363,3660566.251970998,-27500.0,-7734.3627483352393,-1234.9560323228889,-57.551410446397313,4253.7042055840429,672.97898034779996,-1707.172430492514,5312.468827728193,-5640.1383664444947,2420.0863502125148,-2420.0863502125148,5640.1383664444947,10450.210630054249,0.0
693296.95196600363,3660566.251970998,-27500.0,-6881.5840639650187,-983.53390968054964,-27.616152691893848,3570.4601421434295,512.5084184517865,-1364.908749962937,4583.3326298914726,-4947.4986099300731,2183.1555808085523,-2183.1555808085523,4947.4986099300731,9029.6198946096156,0.0
698296.95196600363,3660566.251970998,-27500.0,-6123.7650253709289,-786.41786376350444,-12.679775846862833,3008.4978231008986,392.80830956642808,-1096.7884156478356,3972.1068380824108,-4346.7238581739466,1961.1605938772534,-1961.1605938772534,4346.7238581739466,7833.7095861803091,0.0
703296.95196600363,3660566.251970998,-27500.0,-5454.2230470649265,-631.34827510692128,-6.5295583135836637,2545.3023299273777,302.94390587668272,-886.08832515113897,3457.6809712197528,-3826.9420309550533,1757.7633892943907,-1757.7633892943907,3826.9420309550533,6823.9460886349043,0.0
708296.95196600363,3660566.251970998,-27500.0,-4864.7148639407096,-508.87776964417577,-5.3573509883427555,2162.4593177361821,235.03768849706336,-719.85419223630288,3022.951171984746,-3377.6190798616462,1574.0266099271041,-1574.0266099271041,3377.6190798616462,5968.5135823158889,0.0
713296.95196600363,3660566.251970998,-27500.0,-4346.6120305860604,-411.74557055127195,-6.8463287690397019,1845.0076987883338,183.39009419774595,-588.10540155425349,2654.0446537270986,-2989.0871910533815,1409.5482681224269,-1409.5482681224269,2989.0871910533815,5241.2364494210051,0.0
513296.95196600363,3665566.251970998,-27500.0,-3430.362841997855,1308.9597571905108,-283.00201231082684,-1539.4032615653934,501.37816889808443,-509.95670433336738,2385.2496612542141,-1217.7862751321163,1086.0547210569794,-1086.0547210569794,1217.7862751321163,4716.6338276809101,0.0
518296.95196600363,3665566.251970998,-27500.0,-3768.3886373441728,1526.8033461542866,-340.50119584755873,-1781.0544382026478,605.87456796354866,-617.55126444743121,2704.4998625315657,-1272.4485815632809,1180.9602395624095,-1180.9602395624095,1272.4485815632809,5337.4689401049454,0.0
523296.95196600363,3665566.251970998,-27500.0,-4134.8481010874193,1788.2975836512314,-415.61291606051486,-2065.6592365952965,736.24881439195633,-750.90021082753026,3077.2610298184018,-1312.1089291805954,1277.2061576287463,-1277.2061576287463,1312.1089291805954,6059.6346066522756,0.0
528296.95196600363,3665566.251970998,-27500.0,-4526.5676531129293,2103.0751717594453,-514.93530595456707,-2400.5439230679081,899.65471401878722,-916.40213061739598,3513.628596109605,-1326.9353800879553,1369.9209745662256,-1369.9209745662256,1326.9353800879553,6901.3460373509979,0.0
533296.95196600363,3665566.251970998,-27500.0,-4936.427944598373,2482.8048443832895,-647.86583478254181,-2793.5961952075681,1105.281548823225,-1121.8097636002303,4025.6199434892278,-1302.6525747703206,1451.0703874171961,-1451.0703874171961,1302.6525747703206,7883.7992452958597,0.0
538296.95196600363,3665566.251970998,-27500.0,-5351.0768458354469,2941.4188842909648,-827.9008085251445,-3252.7350669297252,1364.8532255837822,-1376.248665287344,4627.460364762981,-1218.6679629470036,1507.7580584731959,-1507.7580584731959,1218.6679629470036,9031.3175859533148,0.0
543296.95196600363,3665566.251970998,-27500.0,-5747.4461134154562,3495.1570251744397,-1074.578110520355,-3784.8736447545407,1693.1501949131621,-1689.9740996090782,5335.8737518206599,-1045.4258909663793,1519.631449223926,-1519.631449223926,1045.4258909663793,10371.267498676303,0.0
548296.95196600363,3665566.251970998,-27500.0,-6087.4165315178734,4162.1752255691626,-1416.3888028868244,-4394.0403644740636,2108.4451879773478,-2073.6475538557015,6170.3770912013197,-740.67231849467862,1454.9057704583488,-1454.9057704583488,740.67231849467862,11933.604593236954,0.0
553296.95196600363,3665566.251970998,-27500.0,-6309.5117322163378,4961.1994731485329,-1895.1369915978912,-5078.0677248562533,2632.614184124729,-2536.825515968826,7153.5818151347212,-244.1647911438983,1264.2207496116137,-1264.2207496116137,244.1647911438983,13749.858301769662,0.0
558296.95196600363,3665566.251970998,-27500.0,-6315.6592213596405,5908.111256164214,-2572.4010897144985,-5822.6759464802017,3290.4160636341826,-3085.2859220632618,8311.4892504016134,529.81154539334318,871.06987631000686,-871.06987631000686,-529.81154539334318,15851.299220138384,0.0
563296.95196600363,3665566.251970998,-27500.0,-5949.5865007032726,7007.9671285113809,-3538.8123868489179,-6590.2289560049967,4106.7967050308271,-3716.6882073260749,9673.5785347601632,1702.7813720970503,156.85112739430178,-156.85112739430178,-1702.7813720970503,18265.819271031844,0.0
568296.95196600363,3665566.251970998,-27500.0,-4961.6955480233146,8236.6633708468999,-4926.206374731436,-7296.2837913194935,5099.2246557137814,-4413.0735524714055,11271.745421932746,3444.6865649615761,-1061.8632767222894,1061.8632767222894,-3444.6865649615761,21012.477094503596,0.0
573296.95196600363,3665566.251970998,-27500.0,-2957.1679239040682,9499.1930921795465,-6919.1564880537017,-7757.0645807922283,6256.1679378692361,-5123.0027264246892,13135.489722253189,5981.39128157699,-3063.7814975325791,3063.7814975325791,-5981.39128157699,24092.45221629765,0.0
578296.95196600363,3665566.251970998,-27500.0,652.50382533117886,10539.183566186341,-9749.0291891779671,-7573.9333344146307,7474.4389961310408,-5702.5488726033063,15281.180721687515,9563.9404269694423,-6244.6402202231011,6244.6402202231011,-9563.9404269694423,27484.44246309861,0.0
583296.95196600363,3665566.251970998,-27500.0,6574.4964499423631,10773.308856419673,-13613.242710612793,-5924.2350400603473,8380.2185920751854,-5713.9666644681201,17719.402967881735,14294.115954215084,-11050.637161587261,11050.637161587261,-14294.115954215084,31219.245260271335,0.0
588296.95196600363,3665566.251970998,-27500.0,15055.967624237886,9132.1422122691765,-18376.529527189574,-1407.7781918476996,7889.5949389993075,-3869.4536373613846,20652.242213469184,19590.038988931989,-17581.658986971499,17581.658986971499,-19590.038988931989,35861.539992913269,0.0
593296.95196600363,3665566.251970998,-27500.0,24252.609419347278,4480.1867234151305,-22894.767055773034,7149.2718816724446,3545.1822540636695,2848.2522958810696,25314.351325216074,23290.49594756775,-24500.284765965971,24500.284765965971,-23290.49594756775,43853.389436113372,0.0
598296.95196600363,3665566.251970998,-27500.0,28800.461844513444,-2110.8288791176069,-24544.01063330032,17164.861158177959,-7872.4676501746208,18265.234661871636,34034.126484033986,22156.09654538177,-27958.254955932272,27958.254955932272,-22156.09654538177,58973.036477297159,0.0
603296.95196600363,3665566.251970998,-27500.0,24939.069435400565,-4743.6329291418006,-21468.935650475782,19115.214168741812,-24792.547058721317,39298.763329578171,44846.352888146888,17309.318140538922,-24685.874658314617,24685.874658314617,-17309.318140538922,77678.826325353788,0.0
608296.95196600363,3665566.251970998,-27500.0,20064.4150989308,996.02278572510806,-16957.582597031444,7766.844834065565,-35373.750260383189,49471.6379427867,49174.125487753008,17031.868043977393,-19105.042422249349,19105.042422249349,-17031.868043977393,85217.261442786432,0.0
613296.95196600363,3665566.251970998,-27500.0,21502.344688306715,8477.9238001109588,-15860.505811959621,-4417.0347283334168,-30400.257916146886,38721.05865658234,42072.830302271301,22623.020693354323,-17966.121341782717,17966.121341782717,-22623.020693354323,73365.456117918264,0.0
618296.95196600363,3665566.251970998,-27500.0,23598.515541030181,10182.124900095709,-17880.971386020286,-6469.1507469641037,-15916.537354883769,18666.463242081027,29584.03091130231,25514.819230581859,-19970.970687687579,19970.970687687579,-25514.819230581859,52315.190886258337,0.0
623296.95196600363,3665566.251970998,-27500.0,21263.474088166029,6260.6520822997609,-20170.666694853826,-1150.152158688451,-1626.9610040767152,2206.4256207511403,21734.114830846142,21981.847897862455,-21298.543712280858,21298.543712280858,-21981.847897862455,37680.811288856108,0.0
628296.95196600363,3665566.251970998,-27500.0,14977.077769721973,13.631186939569325,-20409.147533637202,5852.1811878412209,7674.7771986080597,-7193.0319416166249,20305.798437834412,13979.542925680496,-20043.394550931382,20043.394550931382,-13979.542925680496,35194.224741082624,0.0
633296.95196600363,3665566.251970998,-27500.0,7057.1684521488251,-5373.6981083850624,-18096.068784065803,11163.817995242653,11519.435503969898,-10893.027427602932,21160.28208664502,4947.6033148175857,-16268.856294096899,16268.856294096899,-4947.6033148175857,36905.337201360104,0.0
638296.95196600363,3665566.251970998,-27500.0,-169.43813424215597,-8402.1997247817853,-14386.889749197853,13796.804316672167,11699.601993994384,-11298.212319683285,20692.083400819585,-2408.3371229594541,-11443.108543902512,11443.108543902512,2408.3371229594541,36895.136616300806,0.0
643296.95196600363,3665566.251970998,-27500.0,-5449.7384408997468,-9275.5132260831324,-10620.165260094562,14265.427071488915,10208.841262834316,-10268.803593996923,19041.089054929256,-7137.1028383487137,-6993.8802123266578,6993.8802123266578,7137.1028383487137,34732.032246016155,0.0
648296.95196600363,3665566.251970998,-27500.0,-8676.1394050886374,-8833.1810234491204,-7499.0248991670869,13472.683391878896,8293.4218575980231,-8805.5216625579069,16891.770042769644,-9567.0531472165367,-3566.028739428044,3566.028739428044,9567.0531472165367,31408.789035832346,0.0
653296.95196600363,3665566.251970998,-27500.0,-10295.147023579051,-7801.7304040252839,-5170.8126556919196,12115.669981617126,6506.5675044851923,-7332.9379975093034,14694.46920744222,-10423.863692405328,-1197.1406686499577,1197.1406686499577,10423.863692405328,27745.80629183093,0.0
658296.95196600363,3665566.251970998,-27500.0,-10831.090339567874,-6615.9120014025457,-3527.3828268032935,10598.773590091481,5019.9014649018136,-6004.2266614554646,12660.691035562153,-10346.888449800446,321.070801326121,-321.070801326121,10346.888449800446,24192.971452781763,0.0
663296.95196600363,3665566.251970998,-27500.0,-10700.871603541695,-5486.1217456028617,-2399.72502184113,9123.6969953170683,3844.4733792696652,-4863.9622391647845,10863.785797424967,-9773.9047959187665,1230.0296287354849,-1230.0296287354849,9773.9047959187665,20949.548157002777,0.0
668296.95196600363,3665566.251970998,-27500.0,-10191.506214863493,-4494.4523379590337,-1636.4620537535632,7779.443844603833,2937.8127662254519,-3913.8405456684914,9312.3760362157936,-8972.7707419588151,1728.5434337380166,-1728.5434337380166,8972.7707419588151,18081.591092071099,0.0
673296.95196600363,3665566.251970998,-27500.0,-9488.055200629944,-3659.7321393081429,-1122.7252640207719,6597.2267917470017,2246.956036602925,-3137.6562212787626,7988.7490114980546,-8097.5752480935689,1961.2137736097056,-1961.2137736097056,8097.5752480935689,15591.045050440418,0.0
678296.95196600363,3665566.251970998,-27500.0,-8705.4321405965984,-2973.0267031017274,-777.32204548797347,5579.5246412401675,1723.440095244724,-2512.1404149646282,6866.3449448551401,-7232.6083498671487,2027.3346441752419,-2027.3346441752419,7232.6083498671487,13451.073552374432,0.0
683296.95196600363,3665566.251970998,-27500.0,-7912.6348127277406,-2415.216735878786,-544.75689692331844,4715.1408637490422,1327.3474654711699,-2012.5575997923638,5917.2736591604998,-6420.9213640359521,1992.9853663818672,-1992.9853663818672,6420.9213640359521,11623.618934012917,0.0
688296.95196600363,3665566.251970998,-27500.0,-7149.2365413951175,-1965.1416572098572,-387.69865898145099,3987.1366631768938,1027.3603484617242,-1615.6837817409803,5115.3970127184775,-5681.7168525089919,1901.2234198894714,-1901.2234198894714,5681.7168525089919,10068.108235338046,0.0
693296.95196600363,3665566.251970998,-27500.0,-6436.2357481616264,-1603.0762861291787,-281.20893143861673,3377.0559047364336,799.5362174785879,-1301.1925267493516,4437.4756711120062,-5020.7316712564943,1779.5952624956562,-1779.5952624956562,5020.7316712564943,8745.7161082041839,0.0
698296.95196600363,3665566.251970998,-27500.0,-5783.1098141656594,-1311.9713224952952,-208.66186557463308,2867.1080700491807,625.83440617989186,-1052.0636661872604,3863.43981448043,-4436.3881795355246,1645.3717219276332,-1645.3717219276332,4436.3881795355246,7621.2883105557312,0.0
703296.95196600363,3665566.251970998,-27500.0,-5192.3736971551489,-1077.6672124457557,-158.96586954047538,2441.1959136183259,492.76909966026506,-854.45295739961762,3376.2618916740184,-3923.4133666360303,1509.0994598645063,-1509.0994598645063,3923.4133666360303,6664.0155298077307,0.0
708296.95196600363,3665566.251970998,-27500.0,-4662.4981713068019,-888.66850955310554,-124.70404086367635,2085.2890771338198,390.29597300982806,-697.31133306555262,2961.6542460029859,-3474.9346058060546,1376.973552184754,-1376.973552184754,3474.9346058060546,5847.4404893647443,0.0
713296.95196600363,3665566.251970998,-27500.0,-4189.7585872984582,-735.76758293815715,-100.90178234874378,1787.4447966732459,310.94049121698794,-571.9273507619281,2607.7109590135692,-3083.6655606043223,1252.4059282844501,-1252.4059282844501,3083.6655606043223,5149.1406502227628,0.0
513296.95196600363,3670566.251970998,-27500.0,-2943.3652339795244,1477.2870857415646,-445.78323976589019,-1359.0846958887973,576.20646146644924,-458.5531718363282,2232.5387151262771,-765.33996526876649,821.0989260412457,-821.0989260412457,765.33996526876649,4392.1169870780641,0.0
518296.95196600363,3670566.251970998,-27500.0,-3181.1079533049315,1711.9179308977716,-539.18544472231963,-1554.3289911309109,692.86242615320896,-550.15270551423532,2519.2747011761076,-738.09664299333213,857.74520444768609,-857.74520444768609,738.09664299333213,4942.7603662471665,0.0
523296.95196600363,3670566.251970998,-27500.0,-3423.0000113769256,1989.4562759404816,-659.17535066120251,-1778.5444491751668,836.91954353189885,-661.80304139845953,2850.9280489207595,-679.12808550517047,880.89376030305857,-880.89376030305857,679.12808550517047,5576.400635286871,0.0
528296.95196600363,3670566.251970998,-27500.0,-3659.3789995963289,2317.6217908954695,-814.67885915101704,-2034.2995395198757,1015.2363898270032,-797.64448358354434,3235.0033625468718,-575.28152397858332,881.5734730093053,-881.5734730093053,575.28152397858332,6305.7448154543617,0.0
533296.95196600363,3670566.251970998,-27500.0,-3874.8905654180589,2704.8469084037329,-1017.9187042154924,-2322.9541550650838,1236.215286387426,-962.20969372599325,3680.0375400832227,-408.62988801498739,846.55402908829558,-846.55402908829558,408.62988801498739,7144.6605168571105,0.0
538296.95196600363,3670566.251970998,-27500.0,-4045.8417784352164,3159.699473354503,-1285.672286433746,-2643.4320970394474,1509.8910794323272,-1160.015448933792,4195.5582542876837,-154.91381460000815,756.46897633496565,-756.46897633496565,154.91381460000815,8107.6984829659386,0.0
543296.95196600363,3670566.251970998,-27500.0,-4136.4356424974794,3689.6407004437897,-1640.9692104967717,-2990.2056527344535,1847.7323811238932,-1394.6977836948461,4791.922517806106,218.37655330917389,583.16723472114268,-583.16723472114268,-218.37655330917389,9209.1934661216219,0.0
548296.95196600363,3670566.251970998,-27500.0,-4093.4645593027376,4298.5770024129461,-2115.29859821844,-3350.0457470330052,2261.8061064020671,-1667.3665294213527,5479.9908062851919,754.20243867740055,286.0408078350556,-286.0408078350556,-754.20243867740055,10461.781900171552,0.0
553296.95196600363,3670566.251970998,-27500.0,-3838.9366200834152,4982.247916240045,-2751.2751675257373,-3696.8292376464033,2762.6335915812533,-1973.6826537016912,6270.6291097322546,1508.1452958705827,-192.91469495136118,192.91469495136118,-1508.1452958705827,11874.252404829747,0.0
558296.95196600363,3670566.251970998,-27500.0,-3260.095062892638,5719.7232350669938,-3605.307818148277,-3983.2009199528734,3354.4284155101827,-2298.8898285873593,7174.1471751731106,2549.6383482837309,-935.34022733063193,935.34022733063193,-2549.6383482837309,13448.972005470523,0.0
563296.95196600363,3670566.251970998,-27500.0,-2196.804840911328,6457.9072710052033,-4748.6789484330957,-4126.9024534747205,4025.0829041321285,-2609.4730124221046,8200.150311983858,3959.8703345715812,-2053.2294664283154,2053.2294664283154,-3959.8703345715812,15180.27756525368,0.0
568296.95196600363,3670566.251970998,-27500.0,-428.97240809024976,7083.7326246232378,-6262.4038363553373,-3987.7541383942853,4725.3404112708477,-2838.513255675673,9359.4943860504427,5820.1391866958365,-3692.397661109615,3692.397661109615,-5820.1391866958365,17059.009259623632,0.0
573296.95196600363,3670566.251970998,-27500.0,2323.2322183357301,7376.6114714756286,-8213.5831958594463,-3329.2244465288113,5324.9561842534249,-2856.7566494925723,10674.318468717744,8174.9916462406418,-6020.1847703713483,6020.1847703713483,-8174.9916462406418,19100.681897194732,0.0
578296.95196600363,3670566.251970998,-27500.0,6342.7632426212067,6939.1082519939455,-10583.885574242511,-1763.6206780885555,5520.3101915889147,-2407.9566724284423,12217.295621330457,10934.918800208508,-9161.3752486572648,9161.3752486572648,-10934.918800208508,21451.629164834925,0.0
583296.95196600363,3670566.251970998,-27500.0,11689.708868534253,5146.9889584265775,-13093.858726687906,1275.278069191628,4653.2488679991957,-965.30009113763003,14244.199218212179,13662.405490411282,-12998.493581413906,12998.493581413906,-13662.405490411282,24699.187600092002,0.0
588296.95196600363,3670566.251970998,-27500.0,17630.983342620435,1316.6078923870948,-14875.862955695562,6321.8999207451734,1447.9411543289225,2507.6617843319709,17513.935934163841,15251.945158938372,-16721.453679597897,16721.453679597897,-15251.945158938372,30416.897399509402,0.0
593296.95196600363,3670566.251970998,-27500.0,21865.416199288902,-4427.5758607113421,-14207.079278193913,12928.880275951793,-5980.4487077712083,9587.0617232754939,23394.811526880374,13957.807084467673,-18276.490489093583,18276.490489093583,-13957.807084467673,40946.885743855157,0.0
598296.95196600363,3670566.251970998,-27500.0,21116.116099007621,-9429.917630978407,-9326.7707792041583,17900.909913306408,-18632.275001951006,21040.278825373229,32198.012399405794,9086.3352231754652,-14978.770723882928,14978.770723882928,-9086.3352231754652,56515.919785740873,0.0
603296.95196600363,3670566.251970998,-27500.0,15413.797380479209,-8589.055600278336,-1433.1304474350247,15739.801461956462,-32903.488561340208,33354.248631822673,40800.503187033595,4294.5614304305891,-7164.8158355289906,7164.8158355289906,-4294.5614304305891,71556.820868387935,0.0
608296.95196600363,3670566.251970998,-27500.0,11087.345215134445,-416.29496759224548,3753.2420259367677,5512.0572525678335,-39937.015597996913,38355.944393964644,43847.744516907514,5813.9893143293884,-1006.5102672913258,1006.5102672913258,-5813.9893143293884,76641.504196869253,0.0
613296.95196600363,3670566.251970998,-27500.0,12651.371048334559,8588.7127458756931,1911.2358915501645,-4993.5428784828064,-34556.814454121581,32003.798521600023,38896.59163844381,13152.255467694889,-1906.5652100122497,1906.5652100122497,-13152.255467694889,67648.645854516071,0.0
618296.95196600363,3670566.251970998,-27500.0,16367.281141582234,11862.116219843683,-4705.2446203605341,-8803.6618598127516,-21367.845030810728,19530.065931382262,29115.281438170216,19129.519704970739,-7665.976845121505,7665.976845121505,-19129.519704970739,50448.980241666904,0.0
623296.95196600363,3670566.251970998,-27500.0,17424.402144337946,9200.764978253972,-11376.364465532311,-6425.3505590750365,-7866.6043884942865,7842.4576100506392,20071.223477077598,19538.242691725594,-13218.9801242011,13218.9801242011,-19538.242691725594,34767.779364881659,0.0
628296.95196600363,3670566.251970998,-27500.0,14852.154641584668,3704.4493389229856,-15280.109088636391,-1482.8095121116048,1861.5289916887984,-160.35384479550899,15695.468363013248,15181.251800759501,-15825.908376091016,15825.908376091016,-15181.251800759501,27186.922242499302,0.0
633296.95196600363,3670566.251970998,-27500.0,9972.4866293983905,-1724.4100221192837,-15951.155821705246,3265.7576159179912,7151.5465483845528,-4561.4232682276615,15186.27751693035,8696.5080238049504,-15272.272845958987,15272.272845958987,-8696.5080238049504,26473.53458710093,0.0
638296.95196600363,3670566.251970998,-27500.0,4536.0389470287091,-5542.8880821567764,-14356.887614240743,6595.3730417575844,9046.500579696507,-6424.0238194949688,15251.602571815423,2415.7409022656439,-12689.651696147906,12689.651696147906,-2415.7409022656439,27169.526471949164,0.0
643296.95196600363,3670566.251970998,-27500.0,-202.84979617036765,-7503.2140963791271,-11777.860986798005,8370.0458460835034,8947.7291231792678,-6796.3627050859568,14708.240710952632,-2424.1228249813698,-9414.4055252796352,9414.4055252796352,2424.1228249813698,26840.054916993813,0.0
648296.95196600363,3670566.251970998,-27500.0,-3720.3125367846342,-8038.751612125322,-9126.2035100716075,8945.4556688206558,7936.3262210302446,-6408.5975468063734,13638.211553279645,-5575.796187189083,-6340.711635356919,6340.711635356919,5575.796187189083,25392.949677293491,0.0
653296.95196600363,3670566.251970998,-27500.0,-6014.3115664830775,-7711.1115653302959,-6838.0071255592075,8755.4922496391064,6649.5293886629979,-5691.3980683624077,12310.279198098837,-7310.4073711827423,-3851.2535566821439,3851.2535566821439,7310.4073711827423,23282.119995978483,0.0
658296.95196600363,3670566.251970998,-27500.0,-7313.4925627802422,-6959.2467903515189,-5030.7249898828841,8143.8877102860188,5397.8055195689858,-4878.0656827958346,10925.191990767351,-8034.260153892189,-2003.4663577950696,2003.4663577950696,8034.260153892189,20910.614539831098,0.0
663296.95196600363,3670566.251970998,-27500.0,-7889.6993766394553,-6059.598172487611,-3670.3441754627152,7340.1114871612772,4304.3245894369129,-4087.8829860252135,9597.6869583635453,-8107.5540604381422,-711.14628883285877,711.14628883285877,8107.5540604381422,18536.04820077875,0.0
668296.95196600363,3670566.251970998,-27500.0,-7978.2800699230456,-5163.5973499921438,-2673.0255865560657,6483.651195219767,3399.3992899972091,-3376.3499994978524,8382.9300977114381,-7796.3724871562763,149.92607502039391,-149.92607502039391,7796.3724871562763,16299.639051493357,0.0
673296.95196600363,3670566.251970998,-27500.0,-7758.4067017275729,-4343.5419407388181,-1951.9341663915045,5653.0952980213533,2672.6056943117551,-2763.497403475249,7301.0952806085961,-7280.0964570982142,695.92801048914089,-695.92801048914089,7280.0964570982142,14267.495619581972,0.0
678296.95196600363,3670566.251970998,-27500.0,-7357.4805237336686,-3626.6911053134959,-1433.822705556114,4888.5058525340464,2098.7646023400721,-2250.2615496093354,6353.4207219101536,-6672.928294183208,1020.5601595436888,-1020.5601595436888,6672.928294183208,12461.362770189364,0.0
683296.95196600363,3670566.251970998,-27500.0,-6862.1073834950967,-3016.6805784078269,-1062.1035830311264,4206.6070670957988,1649.957200609387,-1828.1768925566862,5531.6297121697753,-6044.2010494275273,1194.1401562088017,-1194.1401562088017,6044.2010494275273,10878.348899215347,0.0
688296.95196600363,3670566.251970998,-27500.0,-6329.0113197479304,-2505.9147017527848,-794.96471348993146,3610.6336514977443,1300.5622842384814,-1485.0301555014366,4823.2644500655151,-5433.8103537383449,1267.3040769830654,-1267.3040769830654,5433.8103537383449,9502.9598639556152,0.0
693296.95196600363,3670566.251970998,-27500.0,-5793.9238477965364,-2082.340394668744,-602.23999345789241,3096.5248039728976,1028.9422118936666,-1207.972416019006,4214.6208574895545,-4862.952203597396,1275.5562235945818,-1275.5562235945818,4862.952203597396,8314.187280895103,0.0
698296.95196600363,3670566.251970998,-27500.0,-5278.2659039738428,-1732.9596382965474,-462.44198546534301,2656.7155250486198,817.61689668130009,-985.07262561109701,3692.3148011646467,-4341.2904181134318,1243.3134740076478,-1243.3134740076478,4341.2904181134318,7289.5649595124969,0.0
703296.95196600363,3670566.251970998,-27500.0,-4793.9406959361268,-1445.5089778914573,-360.3592313208901,2282.3646309511491,652.82143469211007,-805.95513064492081,3244.0457240600572,-3871.6051070971507,1187.0994756110488,-1187.0994756110488,3871.6051070971507,6407.3548057718599,0.0
708296.95196600363,3670566.251970998,-27500.0,-4346.6731230465348,-1209.1512729941142,-285.24578304704562,1964.5968295841515,523.8787143166503,-661.93968124869195,2858.9010503586051,-3452.7464100403099,1117.9226420795608,-1117.9226420795608,3452.7464100403099,5647.6176098775386,0.0
713296.95196600363,3670566.251970998,-27500.0,-3938.29739535933,-1014.6573940091376,-229.50596706403996,1695.1444899297974,422.57817046359628,-545.93823337138235,2527.4119996089353,-3081.4819451820545,1042.9921553522622,-1042.9921553522622,3081.4819451820545,4992.647824368114,0.0
513296.95196600363,3675566.251970998,-27500.0,-2423.0959173518845,1566.8346175054185,-610.5691847140904,-1164.5006814758899,622.7313159841126,-402.68872659860665,2067.9104422589417,-343.6358740583126,534.92034494718416,-534.92034494718416,343.6358740583126,4037.5409436878344,0.0
518296.95196600363,3675566.251970998,-27500.0,-2559.3374927240852,1798.1681473383139,-736.79307175757504,-1311.5252973615777,742.97176574323203,-477.39771008632897,2320.4926312519215,-247.67853979232817,512.97897433550963,-512.97897433550963,247.67853979232817,4514.2282506017018,0.0
523296.95196600363,3675566.251970998,-27500.0,-2677.3847508798381,2065.908785906463,-896.38434794806938,-1473.8281520494752,889.20378293982617,-566.38472048872336,2609.6049538964908,-108.7822769213862,464.34192065492715,-464.34192065492715,108.7822769213862,5055.7974012018722,0.0
528296.95196600363,3675566.251970998,-27500.0,-2762.6317338317299,2374.1322402926526,-1099.3207332371378,-1649.7419259169728,1066.905604134299,-671.64508858957834,2940.4998764528423,87.129545703426146,377.20763285955888,-377.20763285955888,-87.129545703426146,5670.1135085752594,0.0
533296.95196600363,3675566.251970998,-27500.0,-2794.0166626154983,2725.8367184911053,-1358.6456162092786,-1835.0611927617638,1282.2015226309663,-794.74237150806039,3318.863864782827,358.15171324082309,235.23406866250349,-235.23406866250349,-358.15171324082309,6364.9599940407898,0.0
538296.95196600363,3675566.251970998,-27500.0,-2741.6164499916067,3121.5255702155873,-1691.2635386631343,-2021.4534971855649,1541.4106736535009,-936.09779442780791,3750.6684652673207,727.14553136649249,15.991443665129964,-15.991443665129964,-727.14553136649249,7147.3866589499075,0.0
543296.95196600363,3675566.251970998,-27500.0,-2563.5668740826918,3556.7711848669201,-2118.7322792045939,-2194.0624736622121,1849.9939773173728,-1093.7368938137477,4241.9522782002605,1222.2357122365756,-310.91983996446146,310.91983996446146,-1222.2357122365756,8022.8096145748077,0.0
548296.95196600363,3675566.251970998,-27500.0,-2202.3302815314591,4018.1309209023107,-2667.7497653699656,-2327.9606486430998,2210.3775534476454,-1261.1661797629438,4798.5953914293132,1876.5586723997162,-785.92521468566122,785.92521468566122,-1876.5586723997162,8994.0023736170169,0.0
553296.95196600363,3675566.251970998,-27500.0,-1580.6444264315119,4476.4592397479537,-3369.620870560504,-2383.0175555329724,2617.7306672217637,-1423.9011062175061,5426.3264549681617,2726.2613671106778,-1461.1719400998213,1461.1719400998213,-2726.2613671106778,10060.583323911536,0.0
558296.95196600363,3675566.251970998,-27500.0,-598.24912977020142,4876.2407392429986,-4257.1058773731447,-2296.675888092976,3052.076818645834,-1553.9470462497609,6131.6463996250959,3804.7963807402757,-2400.4706690399889,2400.4706690399889,-3804.7963807402757,11220.814578425656,0.0
563296.95196600363,3675566.251970998,-27500.0,867.65164056305309,5119.2589146380506,-5355.2392588067933,-1974.205751339066,3463.9005079733188,-1601.1655080329522,6925.4510791334123,5129.7815609933059,-3674.1630805209097,3674.1630805209097,-5129.7815609933059,12480.583729579033,0.0
568296.95196600363,3675566.251970998,-27500.0,2950.8277158464975,5041.580476255147,-6659.1628550683718,-1276.7607659326741,3748.360936014948,-1479.647693120847,7833.718299219634,6675.5756022907972,-5341.4360550851998,5341.4360550851998,-6675.5756022907972,13881.562901689616,0.0
573296.95196600363,3675566.251970998,-27500.0,5756.2766847141729,4387.5931823818946,-8086.000636457019,-11.099952163805069,3700.3646650310106,-1045.4304921903172,8925.1640155406731,8320.4256411175284,-7404.3944986648739,7404.3944986648739,-8320.4256411175284,15574.08528126608,0.0
578296.95196600363,3675566.251970998,-27500.0,9257.9985923933837,2802.6134472063745,-9381.4295014188701,2062.1523113290027,2941.940306885213,-59.513495884908068,10373.807573293194,9756.5763559337611,-9705.8018247748078,9705.8018247748078,-9756.5763559337611,17968.238527287314,0.0
583296.95196600363,3675566.251970998,-27500.0,13088.110381272287,-85.435984172387947,-9971.5242238205992,5147.7223357975381,830.03179867151391,1864.3861612240471,12566.155297154975,10378.869739479562,-11740.375031192203,11740.375031192203,-10378.869739479562,21920.074043840516,0.0
588296.95196600363,3675566.251970998,-27500.0,16239.777955530175,-4339.4615429293599,-8835.2378146725459,9142.5578815909757,-3564.1108861012076,5278.8062780600503,16152.411474329292,9285.7509416017529,-12425.665832618266,12425.665832618266,-9285.7509416017529,28625.396256621432,0.0
593296.95196600363,3675566.251970998,-27500.0,17032.048471218786,-9002.3771686074324,-4728.8341531214846,13071.447375204038,-11096.855690900167,10685.14292354861,21645.734151094563,5777.1243258990262,-10177.995733044554,10177.995733044554,-5777.1243258990262,38740.70428051745,0.0
598296.95196600363,3675566.251970998,-27500.0,14186.154698286298,-11469.469701933262,2649.0645425750486,14646.088205799884,-21361.176544891528,17740.122814948998,28408.499109391909,704.63560779847489,-4062.6986389457852,4062.6986389457852,-704.63560779847489,50929.432397001088,0.0
603296.95196600363,3675566.251970998,-27500.0,9073.246996037713,-8680.4841864086993,10843.103179172322,11390.456861695055,-31154.664895476984,24197.612512903335,34149.709084825903,-2500.1622359324492,3986.4641369402989,-3986.4641369402989,2500.1622359324492,61091.981841359506,0.0
608296.95196600363,3675566.251970998,-27500.0,5866.9611185463627,-783.37142337534465,15035.657834944688,3738.8801388364577,-35354.285203360298,26562.623047363297,36011.269349815411,-237.92402799230331,9007.445782680401,-9007.445782680401,237.92402799230331,64157.449354997065,0.0
613296.95196600363,3675566.251970998,-27500.0,7072.0848106913172,7539.3632898419091,12391.602863237495,-4077.2843944051933,-31394.274094757558,23288.607394773953,32827.35879475277,6606.315259119322,7563.5038803728794,-7563.5038803728794,-6606.315259119322,58156.761178330729,0.0
618296.95196600363,3675566.251970998,-27500.0,10639.431625505316,11606.427283058849,4907.7937043383135,-8092.7096457667167,-21780.936148708828,16378.80760368498,26176.463642555966,13210.166872396981,1302.2330302224636,-1302.2330302224636,-13210.166872396981,46070.804035569883,0.0
623296.95196600363,3675566.251970998,-27500.0,13140.755606160783,10624.815836127071,-3252.4426632044378,-7795.8914557239032,-11096.128000470462,9012.2645922726188,19041.61307625964,15966.911347832262,-5648.4345086560834,5648.4345086560834,-15966.911347832262,33293.577324134516,0.0
628296.95196600363,3675566.251970998,-27500.0,13027.038859948743,6582.1019890294638,-9198.3402468869517,-4929.5099624148834,-2472.4383832726958,3122.5923954634668,14020.991936942113,14567.8357796584,-10425.116209398309,10425.116209398309,-14567.8357796584,24354.603642057471,0.0
633296.95196600363,3675566.251970998,-27500.0,10632.826525314482,1815.754498491254,-12103.446415892124,-1369.5012595654941,3095.0685269544497,-806.98170162747977,11985.251917606149,10578.892802573215,-12277.595021761468,12277.595021761468,-10578.892802573215,20783.757098736973,0.0
638296.95196600363,3675566.251970998,-27500.0,7049.6063529718995,-2161.7470080673152,-12494.52177152183,1726.8727716017759,5946.8749765498942,-3045.2443446595234,11552.183503233908,5800.0493626718171,-11795.255925416895,11795.255925416895,-5800.0493626718171,20387.387875121771,0.0
643296.95196600363,3675566.251970998,-27500.0,3315.7675229896163,-4791.8771104477901,-11362.102249880467,3913.7998689277069,6903.536687204346,-4073.5290566841359,11306.081149220052,1472.8967040026264,-9994.7366143806539,9994.7366143806539,-1472.8967040026264,20479.22448345715,0.0
648296.95196600363,3675566.251970998,-27500.0,82.056392828963254,-6147.2525871942853,-9582.1313355122929,5189.8925165104074,6754.5010864749047,-4334.2890200694492,10808.801358784942,-1845.9303036471179,-7746.9188919119097,7746.9188919119097,1845.9303036471179,20031.50496103242,0.0
653296.95196600363,3675566.251970998,-27500.0,-2391.0956752501274,-6558.1007200755712,-7715.8302912894451,5743.7603323646736,6069.8242138170153,-4156.5805615531817,10067.497035774184,-4084.9705833774815,-5588.1189274865965,5588.1189274865965,4084.9705833774815,18989.357506709988,0.0
658296.95196600363,3675566.251970998,-27500.0,-4098.7456929751497,-6374.2099907395968,-6041.2320440768144,5798.3519291864741,5197.3778114772604,-3759.8256259765913,9187.5820725882477,-5409.3449952733972,-3762.641944930956,3762.641944930956,5409.3449952733972,17559.584001001644,0.0
663296.95196600363,3675566.251970998,-27500.0,-5156.718880937532,-5869.0489072713763,-4654.2680637192916,5543.7033836985793,4323.3594059360266,-3279.8687326461163,8264.466295125796,-6050.3977927568967,-2331.9528241502858,2331.9528241502858,6050.3977927568967,15951.2211105567,0.0
668296.95196600363,3675566.251970998,-27500.0,-5714.6555466929449,-5225.9278191279682,-3556.5132695185257,5120.0727151210276,3533.7784622560671,-2794.8950175301438,7362.6182557313114,-6222.3852108686697,-1266.9238539259854,1266.9238539259854,6222.3852108686697,14315.044191216286,0.0
673296.95196600363,3675566.251970998,-27500.0,-5912.9416162139723,-4555.3103000435522,-2710.3754177966707,4622.2335800995534,2858.7136331303209,-2345.6182883128117,6519.2118080929822,-6094.5179465206711,-504.78635921546493,504.78635921546493,6094.5179465206711,12744.49109917908,0.0
678296.95196600363,3675566.251970998,-27500.0,-5866.7864747313179,-3917.3606407360808,-2068.0040955276986,4109.8220475437147,2299.8065795111756,-1949.6847980626053,5752.1765214116003,-5789.3672661936234,21.798583728375888,-21.798583728375888,5789.3672661936234,11290.287956855362,0.0
683296.95196600363,3675566.251970998,-27500.0,-5663.9157276790502,-3340.5594534966322,-1584.2074410437256,3617.6222193912263,1845.9425099197267,-1611.4219169571156,5067.1960614180334,-5390.7979990619933,372.43525690525075,-372.43525690525075,5390.7979990619933,9974.7595666443303,0.0
688296.95196600363,3675566.251970998,-27500.0,-5367.8812937021657,-2834.7734696752582,-1221.0098697801702,3163.8676932213589,1481.6101368734442,-1328.1114990158558,4462.7291694421592,-4953.6391515004452,595.32843333988012,-595.32843333988012,4953.6391515004452,8802.6916728126325,0.0
693296.95196600363,3675566.251970998,-27500.0,-5022.9849070688833,-2399.6797508679101,-948.33296170124038,2756.3209368605762,1191.0322855522043,-1093.8121315027008,3933.3334199865913,-4512.1712079641893,727.51839407191733,-727.51839407191733,4512.1712079641893,7768.7935639505749,0.0
698296.95196600363,3675566.251970998,-27500.0,-4659.0590670429301,-2029.8960902462359,-743.13068350963408,2396.4665436564433,959.97992644199314,-901.54830485462799,3471.7705191037958,-4086.6984348476494,796.56390607802814,-796.56390607802814,4086.6984348476494,6862.5442557070073,0.0
703296.95196600363,3675566.251970998,-27500.0,-4295.469380666299,-1717.9555961539493,-588.08118949641937,2082.2714622287522,776.37984773746916,-744.46719145073257,3070.2848628172828,-3688.311010402283,822.5247256131438,-822.5247256131438,3688.311010402283,6071.1922047443722,0.0
708296.95196600363,3675566.251970998,-27500.0,-3944.2233172999804,-1455.9448324902971,-470.30764707580119,1809.9318831160629,630.34035319530892,-616.37971700011019,2721.3356883558167,-3322.1994246859385,819.76821170654694,-819.76821170654694,3322.1994246859385,5381.529363821578,0.0
513296.95196600363,3680566.251970998,-27500.0,-1897.3947520522024,1580.256359832305,-762.50532773992347,-965.40681203535939,641.4014946494342,-345.01458530657897,1897.36633673356,28.314349620606649,248.08471326316032,-248.08471326316032,-28.314349620606649,3668.504792463687,0.0
518296.95196600363,3680566.251970998,-27500.0,-1938.8146506398793,1790.7976893223063,-914.26721392524996,-1065.700609238924,757.41884098749051,-402.98407855926899,2116.3370647103366,175.61606252335059,173.25278933294578,-173.25278933294578,-175.61606252335059,4072.3474901160243,0.0
523296.95196600363,3680566.251970998,-27500.0,-1944.0356989952368,2027.0718326780884,-1102.7578222086793,-1169.0912313164167,895.65472265080973,-469.8400127521586,2364.3635869734003,370.83004143262838,62.044800006868542,-62.044800006868542,-370.83004143262838,4524.905400444447,0.0
528296.95196600363,3680566.251970998,-27500.0,-1895.7514397363639,2288.6953258901071,-1337.433771621555,-1270.6669600408861,1059.5054303605561,-545.74965950392561,2645.053609989593,626.66089269480312,-98.349574578955583,98.349574578955583,-626.66089269480312,5030.537874266779,0.0
533296.95196600363,3680566.251970998,-27500.0,-1770.5367676776104,2572.4818573283592,-1629.8721459335068,-1362.2542093420425,1251.9674619294733,-629.85204030268881,2962.2246688655036,958.26835194814271,-324.66032927795794,324.66032927795794,-958.26835194814271,5593.1172065336477,0.0
538296.95196600363,3680566.251970998,-27500.0,-1537.197333759015,2870.4616379839613,-1993.8096644499797,-1430.8357091188766,1474.6942559467643,-719.40399141068929,3319.8783283863258,1383.0010737281141,-638.33578139426822,638.33578139426822,-1383.0010737281141,6215.7370653728967,0.0
543296.95196600363,3680566.251970998,-27500.0,-1155.0756080795406,3166.8225562414473,-2444.6651504236452,-1456.3592540197667,1726.2556630696745,-808.40579009644375,3722.2903184198158,1919.3292374635355,-1066.0929845624967,1066.0929845624967,-1919.3292374635355,6900.6811912772228,0.0
548296.95196600363,3680566.251970998,-27500.0,-572.77477110003929,3433.3179966557054,-2997.943026498107,-1408.823325726873,1999.051639471812,-885.45599437671262,4174.4511567120908,2584.2512488157927,-1639.671489858091,1639.671489858091,-2584.2512488157927,7650.2872689378009,0.0
553296.95196600363,3680566.251970998,-27500.0,271.68974135835771,3622.6422668523842,-3665.3850141390712,-1244.6431342355743,2274.0115386336893,-930.51324714691759,4683.3882287169517,3387.9579838357495,-2393.6722436818045,2393.6722436818045,-3387.9579838357495,8470.1884647268216,0.0
558296.95196600363,3680566.251970998,-27500.0,1447.2548802425604,3659.4814593193514,-4446.8227627784663,-902.63137689461962,2511.7617403366389,-910.19257045569839,5261.4870402427896,4323.8138983977733,-3359.3167589409609,3359.3167589409609,-4323.8138983977733,9378.1243547221911,0.0
563296.95196600363,3680566.251970998,-27500.0,3018.7517587052844,3429.8991878804363,-5314.2385818045605,-300.73457515704541,2638.4093585030614,-771.22354112362416,5933.949407345046,5350.8387911188593,-4550.1623215697136,4550.1623215697136,-5350.8387911188593,10424.412416264115,0.0
568296.95196600363,3680566.251970998,-27500.0,5021.3711152807773,2772.6473212895985,-6182.7186109913227,663.42786288834066,2523.8077448642666,-431.82140168446801,6753.8499719560878,6365.4495561954163,-5933.1030880326898,5933.1030880326898,-6365.4495561954163,11732.980126905983,0.0
573296.95196600363,3680566.251970998,-27500.0,7409.7022371559906,1483.4873250164464,-6862.2877914002092,2100.8275078891761,1951.4167508652915,228.7517751561721,7828.2132729581972,7161.5751804748543,-7375.3512061009897,7375.3512061009897,-7161.5751804748543,13565.987251745577,0.0
578296.95196600363,3680566.251970998,-27500.0,9970.3163368483329,-640.31867173317733,-6991.0082424168877,4091.702711681884,585.79847556277639,1379.8030109355632,9351.503629310535,7390.2612319729315,-8561.0189073383044,8561.0189073383044,-7390.2612319729315,16378.722864464788,0.0
583296.95196600363,3680566.251970998,-27500.0,12208.196057983138,-3663.9312978952807,-5979.3577032168396,6588.9691275435134,-2033.345421983332,3236.2092694505059,11618.536706704557,6565.9181520466645,-8897.2479517198299,8897.2479517198299,-6565.9181520466645,20761.150441690042,0.0
588296.95196600363,3680566.251970998,-27500.0,13298.093306854105,-7233.8061321996602,-3073.8900554454267,9236.4763592103773,-6389.0258613834012,6005.4283907355166,14935.992460644988,4235.8353608847437,-7514.1107422887135,7514.1107422887135,-4235.8353608847437,27151.605966691219,0.0
593296.95196600363,3680566.251970998,-27500.0,12342.121914103407,-10226.257896008648,2245.9869904765596,11161.389285855295,-12635.880409226473,9710.9585681838762,19307.296223597768,462.77859395934206,-3604.7718124313315,3604.7718124313315,-462.77859395934206,35337.595928268202,0.0
598296.95196600363,3680566.251970998,-27500.0,9169.1132021165758,-10778.248616743023,9421.9881912281362,11048.442256810869,-19965.741928722691,13863.489293826104,24021.275341681161,-3504.5538499950726,2680.3010890131409,-2680.3010890131409,3504.5538499950726,43949.092519410988,0.0
603296.95196600363,3680566.251970998,-27500.0,5210.5639585672188,-7395.6372363508926,16121.874271721852,7945.1510842891912,-26198.732840397122,17246.757742943082,27658.573192340802,-5258.4827469181737,9307.1696944330615,-9307.1696944330615,5258.4827469181737,50449.771487823084,0.0
608296.95196600363,3680566.251970998,-27500.0,2976.4317086840811,-746.08358480067591,19099.474807351475,2477.7243224018748,-28625.090242761373,18391.659956284246,28744.808555289699,-2937.7491150085034,12972.011650768982,-12972.011650768982,2937.7491150085034,52223.711483328465,0.0
613296.95196600363,3680566.251970998,-27500.0,3824.8847571123665,6138.9066893357794,16684.882845761847,-3098.6656040733533,-26003.944218443077,16683.88586096323,26721.351365090544,2682.5312577538352,11660.130815301038,-11660.130815301038,-2682.5312577538352,48330.588522775666,0.0
618296.95196600363,3680566.251970998,-27500.0,6690.3583327078504,10201.408689372416,10184.753214049295,-6588.841623012976,-19567.795086051821,12875.447303114926,22367.210560040596,8622.5241712774223,6357.7734876996274,-6357.7734876996274,-8622.5241712774223,40249.142985300437,0.0
623296.95196600363,3680566.251970998,-27500.0,9408.3845334446196,10486.757500411428,2525.5291136919363,-7317.2607156421527,-11848.125389554853,8373.9346401119747,17273.576577123858,12238.210381001109,-159.09910970349665,159.09910970349665,-12238.210381001109,30870.717577591822,0.0
628296.95196600363,3680566.251970998,-27500.0,10535.233131115892,7976.6414397453136,-3864.1718387303417,-5956.1097856692641,-4960.0800214356777,4304.2689954574025,13010.954460296327,12726.924003196593,-5511.9931481238045,5511.9931481238045,-12726.924003196593,22968.651252790583,0.0
633296.95196600363,3680566.251970998,-27500.0,9830.5980691858986,4280.3612529209177,-7926.5449246342396,-3600.291055753562,89.421877854518598,1191.329889071046,10466.122924612602,10762.181319784777,-8666.7349848673075,8666.7349848673075,-10762.181319784777,18177.434219281764,0.0
638296.95196600363,3680566.251970998,-27500.0,7809.2401722657905,690.93645448467942,-9725.6170728336911,-1139.3683354156369,3204.2873499098623,-895.92795967698351,9390.6293025123177,7533.9817860443618,-9702.5006221197582,9702.5006221197582,-7533.9817860443618,16332.064252544194,0.0
643296.95196600363,3680566.251970998,-27500.0,5189.9042643952116,-2105.7047487394539,-9868.1314957960585,921.99432303922276,4757.2151622507163,-2116.6875739660563,8959.3341569307049,4081.5354015018247,-9232.3558126918397,9232.3558126918397,-4081.5354015018247,15932.774096874249,0.0
648296.95196600363,3680566.251970998,-27500.0,2562.7402214674444,-3932.2939462824952,-9043.0384784384569,2403.7405380623427,5242.1208656490317,-2698.5831031875668,8618.4436890866218,1046.3658511350523,-7942.0504533243611,7942.0504533243611,-1046.3658511350523,15731.372300478128,0.0
653296.95196600363,3680566.251970998,-27500.0,281.85524765092475,-4902.3760214535114,-7792.1226268286009,3323.2624880985481,5091.0622880712763,-2855.3096974710766,8177.9169356629482,-1302.8131051674827,-6361.4628422099759,6361.4628422099759,1302.8131051674827,15254.191574109063,0.0
658296.95196600363,3680566.251970998,-27500.0,-1507.7264175446794,-5235.6613990121141,-6459.1418762303992,3785.9778062913583,4616.0295755178677,-2755.7237709704664,7625.2183598018146,-2942.809827402074,-4816.1281205599125,4816.1281205599125,2942.809827402074,14458.740639529902,0.0
663296.95196600363,3680566.251970998,-27500.0,-2797.8394852815322,-5151.0412684145513,-5225.3156151268004,3917.1355968546436,4015.6455119892166,-2519.9672249053474,7002.2719582544214,-3972.1505908569088,-3465.9516224217505,3465.9516224217505,3972.1505908569088,13440.689735512404,0.0
668296.95196600363,3680566.251970998,-27500.0,-3650.3933136567343,-4823.2472817809003,-4165.1231396347939,3828.762842937761,3403.6260042481381,-2226.8268452857651,6355.3404060990833,-4528.1122835694341,-2363.9680946359504,2363.9680946359504,4528.1122835694341,12310.469856205322,0.0
673296.95196600363,3680566.251970998,-27500.0,-4152.145095798217,-4375.5498115579385,-3293.0073681277258,3608.4297749433367,2837.6871227415786,-1924.0602424044794,5719.919022080383,-4743.0808503619028,-1505.0947006100123,1505.0947006100123,4743.0808503619028,11155.458636609912,0.0
678296.95196600363,3680566.251970998,-27500.0,-4389.6196167876551,-3887.5373585050606,-2594.4252090605632,3318.9786772252833,2341.7841364704982,-1638.0075302391817,5118.9295275870527,-4726.9970675225195,-858.24441033554785,858.24441033554785,4726.9970675225195,10034.53889089023,0.0
683296.95196600363,3680566.251970998,-27500.0,-4437.8014311091765,-3406.6008562574657,-2043.8186412015623,3002.6072278162274,1921.1067799164973,-1381.2080750073983,4565.0204503770947,-4563.8121945138264,-384.59533315464705,384.59533315464705,4563.8121945138264,8982.7711262936082,0.0
688296.95196600363,3680566.251970998,-27500.0,-4356.7454299084147,-2958.3339929450481,-1613.8894701890467,2685.9240019295703,1571.383904905264,-1157.8811737897331,4063.534132878232,-4314.1420728949306,-46.684982462752487,46.684982462752487,4314.1420728949306,8017.9481701533869,0.0
693296.95196600363,3680566.251970998,-27500.0,-4192.1228245216798,-2554.4778791049657,-1279.7790547575885,2384.5183286696038,1284.2923042166949,-967.60087082514826,3615.0368761527375,-4019.9107077213366,187.83285973648867,-187.83285973648867,4019.9107077213366,7146.3589675192861,0.0
698296.95196600363,3680566.251970998,-27500.0,-3977.3645994023373,-2198.4618446212376,-1020.5244632305624,2106.5770185643059,1050.4011233363619,-807.61620208578711,3217.1891284160815,-3709.0203493449462,345.23323400192749,-345.23323400192749,3709.0203493449462,6367.1422492614674,0.0
703296.95196600363,3680566.251970998,-27500.0,-3736.1755083317403,-1889.0458693311853,-819.19279956182834,1855.533666522628,860.64617818456918,-674.23346894796475,2866.0510779475753,-3399.2982371072212,446.06872542662791,-446.06872542662791,3399.2982371072212,5675.3219446873363,0.0
708296.95196600363,3680566.251970998,-27500.0,-3484.8725491473001,-1622.6091418787796,-662.45278835657109,1631.9172001340501,706.97207488675338,-563.59099164060933,2556.9913210664618,-3101.5667060994551,506.02068659196857,-506.02068659196857,3101.5667060994551,5063.8253840160405,0.0
518296.95196600363,3685566.251970998,-27500.0,-1350.0074342118064,1702.3979433948612,-1056.8638803370161,-828.27712913523362,740.08857788641546,-330.20742361432764,1914.9356604185109,517.71660638518085,-138.9846591950502,138.9846591950502,-517.71660638518085,3636.3135172547122,0.0
523296.95196600363,3685566.251970998,-27500.0,-1260.7252684320197,1891.7865677503646,-1260.4144619953618,-879.21670830789003,862.41432916643566,-376.6672645301806,2125.7144613327519,744.4876378186309,-298.10769046859542,298.10769046859542,-744.4876378186309,4008.5152637436381,0.0
528296.95196600363,3685566.251970998,-27500.0,-1105.2503358840875,2089.3590674401335,-1507.7073558104489,-916.43289892262112,1002.6809146320509,-426.10425365701656,2362.2071495563291,1027.929027597047,-510.74830732256964,510.74830732256964,-1027.929027597047,4419.1013707210132,0.0
533296.95196600363,3685566.251970998,-27500.0,-861.0289667490681,2286.368118018484,-1806.9497981236329,-929.5776424436533,1160.593392196856,-475.92161383698311,2627.4523446290264,1378.2244553074447,-791.46993223284164,791.46993223284164,-1378.2244553074447,4870.6331538343993,0.0
538296.95196600363,3685566.251970998,-27500.0,-499.96546300204693,2467.9209428440317,-2166.2840104738129,-903.62207952515871,1333.2449298062561,-521.30066775107889,2925.0827255554673,1804.9526255230294,-1157.3179734949849,1157.3179734949849,-1804.9526255230294,5366.1576106172661,0.0
543296.95196600363,3685566.251970998,-27500.0,11.688447642087363,2610.0316360870197,-2592.1082570317353,-817.25953245490757,1513.0314867442044,-553.92721625735965,3259.906866148578,2314.831922029296,-1626.9425517235327,1626.9425517235327,-2314.831922029296,5910.6055401011154,0.0
548296.95196600363,3685566.251970998,-27500.0,712.20218482223106,2675.7120561880183,-3085.7918355956285,-641.11740721944921,1684.3037434933142,-560.15373249040977,3639.1560338538266,2907.6913503060896,-2218.2272151150191,2218.2272151150191,-2907.6913503060896,6514.0835815254559,0.0
553296.95196600363,3685566.251970998,-27500.0,1640.7568534889315,2610.2318525294731,-3637.6617467014034,-336.14010875807617,1818.1666636925306,-518.46779377309588,4074.9733691002457,3569.7277247752327,-2943.1687025171404,2943.1687025171404,-3569.7277247752327,7198.8022612790483,0.0
558296.95196600363,3685566.251970998,-27500.0,2829.3243566560632,2336.372310786463,-4216.6033366622651,146.9940132006729,1864.746833101173,-396.23075503519095,4589.0102742688759,4262.9478001081288,-3798.0155757282673,3798.0155757282673,-4262.9478001081288,8012.1685858761002,0.0
563296.95196600363,3685566.251970998,-27500.0,4287.0068757937379,1752.0845844453804,-4753.176715274406,865.63000339058794,1742.425173130066,-145.90153132140532,5220.0294411564437,4910.0193587001777,-4745.8427756922447,4745.8427756922447,-4910.0193587001777,9048.0259723718245,0.0
568296.95196600363,3685566.251970998,-27500.0,5973.1159326805664,736.21276871415375,-5114.6039164698368,1876.6548661137529,1324.5252524227942,298.48275273482403,6034.3950390333339,5375.56963486923,-5688.4862331882168,5688.4862331882168,-5375.56963486923,10472.577516979703,0.0
573296.95196600363,3685566.251970998,-27500.0,7756.7184749980224,-826.37960092185824,-5073.5091065865499,3215.8919317971622,426.98043720054977,1022.6387034601407,7135.9313841942076,5450.419124065349,-6427.2250240848407,6427.2250240848407,-5450.419124065349,12537.317237352758,0.0
578296.95196600363,3685566.251970998,-27500.0,9368.7751316766789,-2981.7913564555702,-4283.5952632709805,4856.9345460128316,-1192.0939832132512,2126.8260142669415,8665.6020770453106,4857.7598665467067,-6621.9546826960268,6621.9546826960268,-4857.7598665467067,15545.713734507373,0.0
583296.95196600363,3685566.251970998,-27500.0,10377.017394437382,-5587.3970491838636,-2300.9181847138725,6642.8567379650176,-3795.6691857477608,3704.9825899027824,10774.692191399405,3321.2485879110463,-5785.3745708272199,5785.3745708272199,-3321.2485879110463,19746.377883810947,0.0
588296.95196600363,3685566.251970998,-27500.0,10257.142591704911,-8148.9529717687419,1274.2198122486516,8203.8799692364737,-7551.5704372373357,5792.7335959674747,13541.775484544743,749.07006571375427,-3393.5578201185863,3393.5578201185863,-749.07006571375427,25154.051354427203,0.0
593296.95196600363,3685566.251970998,-27500.0,8658.5580548543257,-9730.2243011303999,6460.3400517276732,8930.3999066746637,-12304.961393247242,8271.974424266502,16801.175228006097,-2464.2012586937853,786.76257131823593,-786.76257131823593,2464.2012586937853,31331.38939138324,0.0
598296.95196600363,3685566.251970998,-27500.0,5843.4791649860636,-9188.9218836334549,12444.758598277855,8141.9741458020198,-17313.714879170035,10762.621979939911,19998.63392755625,-5217.2127217474308,6193.9646032886712,-6193.9646032886712,5217.2127217474308,37239.501524206709,0.0
603296.95196600363,3685566.251970998,-27500.0,2931.3050762836665,-5905.9274632475299,17451.276475198902,5531.2304361643219,-21229.010843995304,12623.93385004515,22294.442265304991,-6000.5315204455164,11212.749270684681,-11212.749270684681,6000.5315204455164,41382.074641765241,0.0
608296.95196600363,3685566.251970998,-27500.0,1400.7815743781234,-577.95095953990642,19458.774637246068,1614.060492304541,-22631.569508038887,13204.395032591918,22920.251172779204,-3893.3555063545582,13783.711279059247,-13783.711279059247,3893.3555063545582,42398.682823045987,0.0
613296.95196600363,3685566.251970998,-27500.0,1997.9444019499963,4880.4914041971879,17512.388800600111,-2366.9702398302466,-20908.422011464467,12240.577053148929,21602.472888515913,522.43568304405017,12745.385325750258,-12745.385325750258,-522.43568304405017,39830.294001926675,0.0
618296.95196600363,3685566.251970998,-27500.0,4160.155437724784,8523.1074023238943,12395.753909104738,-5173.7251032505656,-16665.618746475284,10034.454139457619,18738.906680532054,5433.368367987111,8651.3601462112129,-8651.3601462112129,-5433.368367987111,34429.856524909002,0.0
623296.95196600363,3685566.251970998,-27500.0,6574.9926644775305,9504.5163474294859,5988.9500495991369,-6249.7488040758553,-11270.537194717548,7231.9972733460636,15191.100214277052,9036.4824100044552,3233.5425834845923,-3233.5425834845923,-9036.4824100044552,27756.453898360942,0.0
628296.95196600363,3685566.251970998,-27500.0,8132.5444582963164,8199.850889491825,95.84610384090773,-5787.4598411406196,-6055.170733467633,4460.2746098874622,11897.745513063161,10478.386646880386,-1767.3540776144446,1767.3540776144446,-10478.386646880386,21465.161940565242,0.0
633296.95196600363,3685566.251970998,-27500.0,8391.4268102207134,5595.5204091573451,-4248.8707974910776,-4366.5944158800103,-1840.2375713917897,2119.685420559289,9508.8364375832898,9900.8387437228666,-5334.4640718315786,5334.4640718315786,-9900.8387437228666,16766.800388569969,0.0
638296.95196600363,3685566.251970998,-27500.0,7489.8951532004139,2667.6065782634146,-6811.4328215374953,-2587.2408632390229,1103.6338378560793,368.17800893845072,8128.3606398209076,7981.9550453898928,-7235.9477849619061,7235.9477849619061,-7981.9550453898928,14088.316708077624,0.0
643296.95196600363,3685566.251970998,-27500.0,5847.5411108385206,72.406192011264977,-7862.5843822399293,-882.01282477047062,2874.738932669301,-804.87458644423646,7431.9709095333792,5478.4944103377875,-7740.4397752875284,7740.4397752875284,-5478.4944103377875,12967.600442474304,0.0
648296.95196600363,3685566.251970998,-27500.0,3910.6814440189478,-1889.4222559166976,-7860.3823085370113,517.29823079315622,3736.956859708182,-1496.2356531469306,7032.6891871078742,2971.4001509357463,-7302.0818455589633,7302.0818455589633,-2971.4001509357463,12552.075923248814,0.0
653296.95196600363,3685566.251970998,-27500.0,2018.7448424771826,-3175.6502961882334,-7243.7439683138728,1535.9864785403447,3978.8310407664917,-1828.8630601242432,6691.1169281181919,799.84019504068146,-6353.1798065484809,6353.1798065484809,-799.84019504068146,12238.655054651719,0.0
658296.95196600363,3685566.251970998,-27500.0,372.1313882178963,-3882.3499301871457,-6344.5493124768172,2194.3817803424558,3843.5850496135195,-1917.8712617248093,6313.9856939281262,-899.41564614026265,-5215.6621893400898,5215.6621893400898,899.41564614026265,11788.129215623065,0.0
663296.95196600363,3685566.251970998,-27500.0,-945.18772351068583,-4153.12994778744,-5376.8457021153072,2556.4940827781916,3508.6873260297903,-1856.028499931097,5887.5850395223488,-2120.3769023781947,-4090.8444523652538,4090.8444523652538,2120.3769023781947,11167.712384201648,0.0
668296.95196600363,3685566.251970998,-27500.0,-1926.5262816643794,-4127.5103783312361,-4460.1726677672523,2697.0497607397688,3090.9278090006824,-1711.0381286623074,5428.4534515627811,-2924.0077942693474,-3084.1129227017386,3084.1129227017386,2924.0077942693474,10421.349821437483,0.0
673296.95196600363,3685566.251970998,-27500.0,-2607.1541516088978,-3919.1689513118777,-3649.960228004159,2684.3465703905999,2660.4811936276506,-1528.566817672812,4959.1339576983519,-3394.9135329252763,-2236.784336976431,2236.784336976431,3394.9135329252763,9607.6447924176209,0.0
678296.95196600363,3685566.251970998,-27500.0,-3039.4005740953517,-3611.5404477839074,-2963.1209043553304,2573.5812873661375,2255.4089585327515,-1337.2215728542967,4498.8447058570209,-3617.0912105140651,-1552.8155669075941,1552.8155669075941,3617.0912105140651,8776.8806614251534,0.0
683296.95196600363,3685566.251970998,-27500.0,-3277.797029486132,-3261.3626603562197,-2395.9615952264357,2405.963943083706,1893.3539818603829,-1153.4849408784362,4061.0950060040882,-3662.9382608534302,-1017.3568756567124,1017.3568756567124,3662.9382608534302,7965.3535078484829,0.0
688296.95196600363,3685566.251970998,-27500.0,-3371.5700378429979,-2904.7043084813204,-1935.3600744099315,2210.4668911349831,1579.8753986429615,-985.78315173816611,3654.0518204262703,-3590.0156226214976,-608.15196740826832,608.15196740826832,3590.0156226214976,7196.292034358803,0.0
693296.95196600363,3685566.251970998,-27500.0,-3361.739859528353,-2562.8627438641938,-1565.1225980442757,2006.4059967481655,1313.9312164304699,-837.50744381475647,3281.7334792119818,-3441.6926281937467,-301.83185238627402,301.83185238627402,3441.6926281937467,6482.710888994422,0.0
698296.95196600363,3685566.251970998,-27500.0,-3280.7515709035592,-2247.1691266128892,-1269.2662052966855,1805.9577718962512,1091.2644739900518,-709.09812436582058,2945.2254589457079,-3249.3481691175621,-76.976822952863358,76.976822952863358,3249.3481691175621,5830.34850425076,0.0
703296.95196600363,3685566.251970998,-27500.0,-3153.3261203289217,-1962.5600316831035,-1033.4993231766184,1616.2743430304185,906.38425010623234,-599.40769594777669,2643.6512397592273,-3034.9269206725876,84.691096984028491,-84.691096984028491,3034.9269206725876,5240.1194042494317,0.0
708296.95196600363,3685566.251970998,-27500.0,-2997.7500347383502,-1710.0679509137078,-845.71038958207521,1441.1096604942845,753.64803858480423,-506.54557075622699,2374.8561937575596,-2813.2799566212248,198.1105389226791,-198.1105389226791,2813.2799566212248,4709.9414002865951,0.0
518296.95196600363,3690566.251970998,-27500.0,-815.9502063884828,1550.2500886186042,-1155.3271047653459,-608.2335528117377,696.68114365308475,-261.72966330565032,1723.40880385029,773.53580104596904,-407.30788241384857,407.30788241384857,-773.53580104596904,3222.7613567101689,0.0
523296.95196600363,3690566.251970998,-27500.0,-654.36990302032552,1684.2893599099323,-1359.382519053441,-615.35033205515242,797.86472985075272,-290.35268790576197,1902.4456973752892,1009.1049686174287,-597.10278552101988,597.10278552101988,-1009.1049686174287,3527.3803976028239,0.0
528296.95196600363,3690566.251970998,-27500.0,-421.80348253270631,1810.0135715266006,-1600.2180427695471,-600.6752491710007,908.74029385261747,-317.2354118640381,2102.6553967177765,1291.8811106206822,-838.69837776792656,838.69837776792656,-1291.8811106206822,3861.4927568802677,0.0
533296.95196600363,3690566.251970998,-27500.0,-99.025241436771921,1914.6756561864811,-1881.5657612397863,-553.30849716557043,1026.1132917025029,-338.73898922384774,2327.2424280035357,1626.3166924274315,-1142.68350095401,1142.68350095401,-1626.3166924274315,4228.7987494731096,0.0
538296.95196600363,3690566.251970998,-27500.0,336.05973210163177,1979.1318539204372,-2204.9193102075806,-458.43986043276112,1143.3854647239871,-348.99630668466546,2580.6790245589468,2013.9313752559094,-1519.6597903536042,1519.6597903536042,-2013.9313752559094,4635.573772221037,0.0
543296.95196600363,3690566.251970998,-27500.0,907.20811903222125,1975.5904157977388,-2567.0572069723416,-296.478808224641,1248.4871742791563,-338.87353611776933,2869.6978083183258,2450.5120863616621,-1978.2591298289562,1978.2591298289562,-2450.5120863616621,5093.4028857036419,0.0
548296.95196600363,3690566.251970998,-27500.0,1637.0252763126746,1865.1426506307091,-2955.918419572698,-42.433382772392825,1320.8433797355483,-294.59683032774541,3204.9920223804238,2921.7934868721709,-2521.4333364665167,2521.4333364665167,-2921.7934868721709,5624.0571634548351,0.0
553296.95196600363,3690566.251970998,-27500.0,2541.5116043048729,1595.7039312294246,-3344.0607310817181,333.93598440367583,1327.1291062846453,-196.06685106706877,3603.9090020284402,3397.2123169166739,-3140.0341523064239,3140.0341523064239,-3397.2123169166739,6267.3159581437139,0.0
558296.95196600363,3690566.251970998,-27500.0,3620.6211205865357,1101.8161893838205,-3678.8952725807235,866.22030180545141,1215.7509098560579,-15.04152179098479,4094.2178260284782,3821.6692245087097,-3802.479685193046,3802.479685193046,-3821.6692245087097,7091.5135034087498,0.0
563296.95196600363,3690566.251970998,-27500.0,4843.4920877503237,309.21328042534486,-3869.3774269084684,1586.1046408803129,910.56250356303622,286.31854823229372,4718.3178004516212,4106.3030162629284,-4439.506171887152,4439.506171887152,-4106.3030162629284,8203.4908432814609,0.0
568296.95196600363,3690566.251970998,-27500.0,6128.091632513183,-850.78776923142198,-3770.6703414967037,2512.3520967563645,305.68062475695058,755.4979178631786,5535.824994559368,4121.8001356945852,-4924.4828049871348,4924.4828049871348,-4121.8001356945852,9749.6567154194727,0.0
573296.95196600363,3690566.251970998,-27500.0,7318.6772908090006,-2409.7334219200357,-3172.954118311427,3631.1672798345503,-733.99547653528668,1446.3544589470562,6620.814487162861,3702.6029042741234,-5054.1753999329721,5054.1753999329721,-3702.6029042741234,11897.10382464963,0.0
578296.95196600363,3690566.251970998,-27500.0,8172.961486017969,-4306.3313282495874,-1809.7377055768495,4866.31378118256,-2357.4150165279411,2409.4317755757806,8049.4649496189559,2677.5266488111524,-4544.4881449621771,4544.4881449621771,-2677.5266488111524,14788.025194361859,0.0
583296.95196600363,3690566.251970998,-27500.0,8384.907803721002,-6309.6067190938884,586.20410737701275,6043.4027036194348,-4682.9093194020352,3671.7109974046698,9873.6851851048523,947.36052522535442,-3070.90799145035,3070.90799145035,-947.36052522535442,18468.01713145999,0.0
588296.95196600363,3690566.251970998,-27500.0,7680.3936843933307,-7954.2199185182226,4146.2118617504148,6867.8671810873875,-7711.3267546223824,5202.7127194019486,12068.839690034341,-1381.7875084148604,-394.10082914850864,394.10082914850864,1381.7875084148604,22794.255689280399,0.0
593296.95196600363,3690566.251970998,-27500.0,6002.5562065411132,-8571.2972364527395,8649.2678851523688,6958.5852468098001,-11205.935748011241,6871.9473813586937,14448.2467188276,-3854.0935316805826,3415.2284375157242,-3415.2284375157242,3854.0935316805826,27346.773461832196,0.0
598296.95196600363,3690566.251970998,-27500.0,3712.6089385141381,-7518.7059977858025,13331.704298877576,5984.0330052372001,-14605.601068253429,8422.7336735643748,16622.840778218979,-5647.5087820452645,7743.8316182402286,-7743.8316182402286,5647.5087820452645,31406.920446733824,0.0
603296.95196600363,3690566.251970998,-27500.0,1603.779523316188,-4599.2662153942274,16952.777744277733,3884.862866243614,-17096.449584366987,9508.1605631103721,18096.42123272179,-5855.9080753083417,11433.955142146808,-11433.955142146808,5855.9080753083417,34093.234641097006,0.0
608296.95196600363,3690566.251970998,-27500.0,555.13025865511884,-392.56012493307577,18278.589539203105,1035.8434075176795,-17916.465117833581,9815.3854053321902,18456.171811865341,-4033.7932523970403,13219.497743187756,-13219.497743187756,4033.7932523970403,34676.072027214745,0.0
613296.95196600363,3690566.251970998,-27500.0,986.91010988246182,3881.7316795714032,16761.354142065382,-1844.7745378981492,-16751.310141004891,9221.8093291227742,17564.256213318407,-599.93210539670144,12423.536205167316,-12423.536205167316,599.93210539670144,32923.820691635068,0.0
618296.95196600363,3690566.251970998,-27500.0,2588.5077668252993,6979.8222880682806,12867.029904018355,-4033.3653588445172,-13912.922876574059,7863.1340679922687,15635.811453277729,3325.2357397666256,9357.7858419930544,-9357.7858419930544,-3325.2357397666256,29239.023094506458,0.0
623296.95196600363,3690566.251970998,-27500.0,4565.2498032708818,8240.6593482339285,7771.7178788267101,-5128.3397617479341,-10153.025168279599,6057.554710252406,13153.505870827055,6543.0361678797708,5082.4240022890463,-5082.4240022890463,-6543.0361678797708,24486.734147933359,0.0
628296.95196600363,3690566.251970998,-27500.0,6131.5281662029147,7742.1327997934231,2734.383965454138,-5138.6843000395811,-6290.6735032119032,4157.6335350322133,10682.833204863548,8329.5860506888566,795.99942829188785,-795.99942829188785,-8329.5860506888566,19659.324843031703,0.0
633296.95196600363,3690566.251970998,-27500.0,6844.5536432179952,6042.8607821983524,-1373.8232263124869,-4352.5597343585796,-2926.6285274023435,2435.2505076741845,8664.4408000257863,8580.2396023301135,-2651.0476202857608,2651.0476202857608,-8580.2396023301135,15582.831875035939,0.0
638296.95196600363,3690566.251970998,-27500.0,6649.5975181801714,3818.118177482082,-4197.027373528831,-3144.8032059548646,-353.44852466697137,1040.712829065965,7267.5892772337756,7626.2898477675772,-4904.987188119343,4904.987188119343,-7626.2898477675772,12729.870743904927,0.0
643296.95196600363,3690566.251970998,-27500.0,5748.4837174365866,1612.109348194929,-5779.9736629572644,-1839.1301553285909,1391.3206151260306,17.005790562915202,6414.3261724590584,5963.3207000726061,-6007.2589090060474,6007.2589090060474,-5963.3207000726061,11109.962996775444,0.0
648296.95196600363,3690566.251970998,-27500.0,4436.7298254558464,-249.32455302844448,-6379.1143600172145,-651.12893968135961,2421.4924123365531,-663.86761635415803,5908.1155740719005,4049.1116994011818,-6210.2987042572431,6210.2987042572431,-4049.1116994011818,10338.306627291598,0.0
653296.95196600363,3690566.251970998,-27500.0,2988.0140184790494,-1637.4233611480679,-6306.1151177105348,310.7832867688698,2909.4549558261606,-1064.8796796109084,5561.173117253592,2210.1311236088668,-5821.2891208748279,5821.2891208748279,-2210.1311236088668,9943.1722949840041,0.0
658296.95196600363,3690566.251970998,-27500.0,1600.9611186292213,-2556.0683109841857,-5837.1172171273265,1017.7773826050357,3026.368107042154,-1257.7953316317632,5256.6812505813905,630.32809476293096,-5110.5158797339009,5110.5158797339009,-630.32809476293096,9613.4605185497312,0.0
663296.95196600363,3690566.251970998,-27500.0,391.67688751161302,-3077.5474270295717,-5178.3759780475666,1488.6590427116357,2913.6475972695425,-1308.0681635656338,4944.1153984426228,-618.8819336278043,-4276.5863272656679,4276.5863272656679,618.8819336278043,9218.3073862682031,0.0
668296.95196600363,3690566.251970998,-27500.0,-590.63321091609589,-3296.4641399924217,-4465.8129461198905,1764.2497277306177,2675.4665500986957,-1268.3813873174947,4612.1839808667082,-1538.5217113653712,-3446.3262375070713,3446.3262375070713,1538.5217113653712,8732.8166783827055,0.0
673296.95196600363,3690566.251970998,-27500.0,-1341.7211653603683,-3303.434598478098,-3779.1056402409981,1890.7260864310874,2382.157463103903,-1177.5962321903482,4266.849935205395,-2167.7860721452594,-2689.6504504449872,2689.6504504449872,2167.7860721452594,8176.4548561213842,0.0
678296.95196600363,3690566.251970998,-27500.0,-1882.7945861706319,-3173.5464232480595,-3158.5952286330071,1910.6219100872954,2077.6035560877426,-1062.4270734890727,3919.0318638923759,-2560.4118729087722,-2037.2942728282005,2037.2942728282005,2560.4118729087722,7580.3841654073822,0.0
683296.95196600363,3690566.251970998,-27500.0,-2246.3881371629841,-2963.6578660389682,-2619.7255984395715,1859.0646119335938,1786.8819770794648,-940.06939170905127,3579.0523334634472,-2770.8015289962759,-1495.8868946978782,1495.8868946978782,2770.8015289962759,6973.5612411186394,0.0
688296.95196600363,3690566.251970998,-27500.0,-2467.5015600193774,-2714.0577683142128,-2163.5940664209334,1763.0703227591157,1522.6239149097876,-820.82298646999743,3254.7349064583636,-2847.1964061411954,-1058.8703598509851,1058.8703598509851,2847.1964061411954,6378.2601458540285,0.0
693296.95196600363,3690566.251970998,-27500.0,-2578.7551482258928,-2451.6984387824386,-1783.9146790213736,1642.3296970198942,1289.7211209562463,-710.28375939449268,2951.1682325155848,-2829.2104637218326,-713.60141644059559,713.60141644059559,2829.2104637218326,5809.6624636737561,0.0
698296.95196600363,3690566.251970998,-27500.0,-2608.2252475644491,-2193.5815791204086,-1471.2776660750355,1510.5550109912904,1088.5658946183767,-611.00853643278901,2671.1355100524438,-2747.7510237101401,-445.58081085942058,445.58081085942058,2747.7510237101401,5276.9736177175982,0.0
703296.95196600363,3690566.251970998,-27500.0,-2578.8663715727721,-1949.6710911892574,-1215.5609740078069,1376.8789033829703,917.15293349251147,-523.69495032097166,2415.703441268678,-2626.0363595411714,-240.73873241952333,240.73873241952333,2626.0363595411714,4784.8774312084988,0.0
518296.95196600363,3695566.251970998,-27500.0,-351.4930163440315,1353.5632701212842,-1206.0101152641612,-411.76064640882043,633.79247098366591,-199.46770334719091,1547.2865078032264,945.64329535301624,-621.9564617777113,621.9564617777113,-945.64329535301624,2844.8794622702717,0.0
523296.95196600363,3695566.251970998,-27500.0,-140.54577761291782,1430.2672869045309,-1397.3451970756378,-384.58567585121449,711.25480712812134,-213.24988107129894,1700.9296574790014,1171.373758227088,-825.20956932776585,825.20956932776585,-1171.373758227088,3097.0660885051507,0.0
528296.95196600363,3695566.251970998,-27500.0,139.53859961363619,1484.7963157343402,-1615.4006542825991,-331.15210894804602,790.61055410210372,-221.94835441184281,1873.437154366635,1431.736627918172,-1073.7499163425114,1073.7499163425114,-1431.736627918172,3375.5203387945598,0.0
533296.95196600363,3695566.251970998,-27500.0,503.26692386367444,1502.3426240945312,-1859.2230790188526,-241.2389386029412,866.49329443348381,-221.48178198427877,2068.7722441034657,1725.8157587889277,-1373.3588848924201,1373.3588848924201,-1725.8157587889277,3686.8046833380586,0.0
538296.95196600363,3695566.251970998,-27500.0,965.51761250196569,1462.3977374687297,-2123.9422533399752,-101.77457041452286,929.85523237771258,-205.76167335465198,2292.7819467857403,2048.280894464875,-1727.6814267249956,1727.6814267249956,-2048.280894464875,4042.1312397706292,0.0
543296.95196600363,3695566.251970998,-27500.0,1539.5293336437435,1337.4786528016014,-2398.0273553749685,103.37662723461222,966.18776294743247,-165.93666532081187,2554.3021463568884,2386.6699417445857,-2135.6706376346369,2135.6706376346369,-2386.6699417445857,4460.5786510077987,0.0
548296.95196600363,3695566.251970998,-27500.0,2233.3588894027043,1092.2788492579257,-2659.2113368089272,393.12256013370757,953.14932490908166,-89.49529315384639,2866.7015446959585,2717.6938444855077,-2587.4922163085839,2587.4922163085839,-2717.6938444855077,4973.5805975792227,0.0
553296.95196600363,3695566.251970998,-27500.0,3044.191482577447,684.08635291707878,-2868.7872656672348,787.83672199671742,857.6372750082196,40.665146664408965,3249.7511131594792,3002.6674243187445,-3058.3720622032934,3058.3720622032934,-3002.6674243187445,5630.0362642208411,0.0
558296.95196600363,3695566.251970998,-27500.0,3949.9977922347543,65.972870514847472,-2964.3108461413021,1306.2516081519686,632.63865988406599,246.94159586490323,3731.3159483343297,3182.7505280681248,-3500.0786950669594,3500.0786950669594,-3182.7505280681248,6499.9113659736395,0.0
563296.95196600363,3695566.251970998,-27500.0,4898.6615684005428,-804.856538663013,-2851.6868440205913,1959.4882902397551,214.81874592451726,556.98269525118633,4347.7970739372431,3175.8747331163595,-3830.5412696622634,3830.5412696622634,-3175.8747331163595,7672.623963987975,0.0
568296.95196600363,3695566.251970998,-27500.0,5796.379195737175,-1950.3760900911493,-2399.6618447053638,2741.0870840160946,-475.0830455734025,1002.02160816891,5141.7650189190726,2879.2613698004261,-3924.0859240726168,3924.0859240726168,-2879.2613698004261,9246.3987286552037,0.0
573296.95196600363,3695566.251970998,-27500.0,6500.5162576193843,-3343.8468905475356,-1443.3785387950957,3612.5334412038342,-1525.3228437545756,1612.2966138165534,6155.3164966762624,2184.1677162752103,-3608.6158377469646,3608.6158377469646,-2184.1677162752103,11306.794958660224,0.0
578296.95196600363,3695566.251970998,-27500.0,6827.2920103606793,-4871.4762163689475,191.5113317533646,4486.0039415792526,-3014.2165729825915,2408.0408123632487,7418.4512686633207,1011.4415359193304,-2681.758606662846,2681.758606662846,-1011.4415359193304,13894.647349611419,0.0
583296.95196600363,3695566.251970998,-27500.0,6589.3558434803554,-6294.5781348155533,2629.8412303759851,5210.9863241216763,-4973.7013215764309,3385.0307320940165,8931.4880310687295,-626.68936114072153,-962.77734709793071,962.77734709793071,626.68936114072153,16964.647797475005,0.0
588296.95196600363,3695566.251970998,-27500.0,5674.8498161326761,-7241.0601081580544,5846.5401995826078,5578.8827927477132,-7335.5589675461842,4495.9729681640611,10635.204698113652,-2548.9049842883032,1607.9477279322928,-1607.9477279322928,2548.9049842883032,20340.195678583787,0.0
593296.95196600363,3695566.251970998,-27500.0,4155.3946076870179,-7270.8823602948678,9549.0312793566754,5364.7751845209268,-9876.5286329989831,5634.2085477186438,12369.394621068514,-4353.9405113482171,4839.0093994322851,-4839.0093994322851,4353.9405113482171,23682.886328868852,0.0
598296.95196600363,3695566.251970998,-27500.0,2362.6355858597244,-6044.8608147481791,13118.684905390181,4415.6359221330949,-12202.326650814619,6633.237671683999,13869.936308473169,-5470.9379229568585,8200.8191900491001,-8200.8191900491001,5470.9379229568585,26510.388683674093,0.0
603296.95196600363,3695566.251970998,-27500.0,838.29710542237035,-3550.0807718225224,15716.350735928218,2758.146819988202,-13819.641484125439,7297.3981072126189,14838.290408667048,-5363.2900340653032,10895.482784819857,-10895.482784819857,5363.2900340653032,28294.10590254717,0.0
608296.95196600363,3695566.251970998,-27500.0,115.11426762733268,-232.40547444106409,16584.365477722091,654.60201118044097,-14304.40299053649,7464.6737463230656,15044.089410830382,-3821.2466769427574,12138.132933011817,-12138.132933011817,3821.2466769427574,28627.013495188468,0.0
613296.95196600363,3695566.251970998,-27500.0,436.31511318844963,3115.1556336188696,15403.417405321283,-1460.6765845312773,-13488.999182295704,7073.9444889578281,14415.999752934855,-1144.160885794985,11525.834723204696,-11525.834723204696,1144.160885794985,27387.931755566278,0.0
618296.95196600363,3695566.251970998,-27500.0,1621.3181383419726,5684.5195163104863,12457.070246414485,-3148.7978975723263,-11544.055762669008,6193.7486531115073,13078.231390586101,1957.6188416394566,9239.8804326806185,-9239.8804326806185,-1957.6188416394566,24804.367807275616,0.0
623296.95196600363,3695566.251970998,-27500.0,3181.4189410691274,6985.6500796703231,8483.4756532319188,-4132.5833960750688,-8897.1317091984674,4992.9119399379506,11313.217826537099,4688.4571375686182,5934.108931417165,-5934.108931417165,-4688.4571375686182,21375.176941631798,0.0
628296.95196600363,3695566.251970998,-27500.0,4579.156416049922,6972.5185345594182,4339.1406201155141,-4363.1268277222352,-6052.799901701067,3675.2396124052621,9468.2987108227771,6488.6395077376283,2414.148372183844,-2414.148372183844,-6488.6395077376283,17706.652707327652,0.0
633296.95196600363,3695566.251970998,-27500.0,5443.6835776759153,5942.8126646782748,700.9918873614339,-3975.9983857787656,-3429.2018854967455,2418.0555649623393,7835.1924506956393,7170.0668636695191,-665.02333189009323,665.02333189009323,-7170.0668636695191,14351.061348026711,0.0
638296.95196600363,3695566.251970998,-27500.0,5645.3196085052023,4337.9874651591253,-2064.8507532435397,-3195.1070636606751,-1278.74688809591,1338.9539296236642,6566.2241690171722,6860.4851652750613,-2942.4290615603613,2942.4290615603613,-6860.4851652750613,11695.07645734367,0.0
643296.95196600363,3695566.251970998,-27500.0,5252.0018257833444,2571.3007995665557,-3880.3937261643391,-2244.9988692509846,309.74480651536777,491.67599972695768,5679.0489606968094,5857.6105059496649,-4338.5046371004346,4338.5046371004346,-5857.6105059496649,9890.9464055576336,0.0
648296.95196600363,3695566.251970998,-27500.0,4437.9204813128517,937.75651351994554,-4857.3114433970077,-1299.7734742595658,1364.8129295841438,-120.28635193502397,5099.2685144623474,4490.3268721520853,-4961.7849835081324,4961.7849835081324,-4490.3268721520853,8837.6204082530257,0.0
653296.95196600363,3695566.251970998,-27500.0,3400.0931633573673,-402.04530348170778,-5192.4057176536908,-467.89998807177977,1977.6959839856008,-524.43415448015367,4714.360061167692,3032.2677737327795,-5005.7348642353491,5005.7348642353491,-3032.2677737327795,8269.6439942417746,0.0
658296.95196600363,3695566.251970998,-27500.0,2306.4112775591684,-1395.9768035511211,-5092.0162167837543,200.26664999102869,2259.0431183246656,-762.07073950741005,4425.0370343185286,1669.3919272690487,-4672.8663233943425,4672.8663233943425,-1669.3919272690487,7920.023414735113,0.0
663296.95196600363,3695566.251970998,-27500.0,1274.9331611981652,-2061.5138138429274,-4731.5247409791946,695.78112988738769,2312.4782069718813,-876.30240893721646,4168.5113920887834,503.55788147606518,-4133.7595948973212,4133.7595948973212,-503.55788147606518,7617.6481441739779,0.0
668296.95196600363,3695566.251970998,-27500.0,374.11391957957574,-2451.0622108669181,-4241.6974112429079,1034.1072206906042,2222.5384982308969,-905.31934746834258,3915.2168507062333,-427.52258418302495,-3513.3165986881304,3513.3165986881304,427.52258418302495,7286.1048853372495,0.0
673296.95196600363,3695566.251970998,-27500.0,-366.95607086538126,-2627.7425056404027,-3710.5663545549119,1241.888795276162,2052.0279324310854,-879.68665770057305,3656.4526513641413,-1127.4703016587805,-2892.9468014696968,2892.9468014696968,1127.4703016587805,6906.7114023060194,0.0
678296.95196600363,3695566.251970998,-27500.0,-945.91677429832407,-2651.4455146715959,-3191.8796834841373,1348.3112381717233,1844.2609524229488,-822.11520714575749,3393.7221905154556,-1622.2251251228547,-2319.508378707555,2319.508378707555,1622.2251251228547,6487.3680999342459,0.0
683296.95196600363,3695566.251970998,-27500.0,-1376.0509048675965,-2572.4915191813243,-2714.7658284511799,1380.3250463842612,1627.1322499695593,-748.47784463480582,3132.1907577632196,-1946.7454105135321,-1815.4512679178583,1815.4512679178583,1946.7454105135321,6044.6550472634653,0.0
688296.95196600363,3695566.251970998,-27500.0,-1678.0901434215182,-2429.9736318562818,-2292.1061791120746,1360.5524810575882,1417.3009192401312,-669.25238826210773,2877.3772842335839,-2136.9011042748116,-1387.5481868962709,1387.5481868962709,2136.9011042748116,5595.360781050782,0.0
693296.95196600363,3695566.251970998,-27500.0,-1874.8714335979105,-2252.5407456130674,-1926.8612161656997,1306.8135105437252,1223.7389907402178,-590.94191880011124,2633.787900443991,-2225.2215318208318,-1033.428568401755,1033.428568401755,2225.2215318208318,5153.2169167521743,0.0
698296.95196600363,3695566.251970998,-27500.0,-1988.242727592939,-2060.1724932685106,-1616.444413105178,1232.4925513849892,1050.4413066779941,-517.27415971604262,2404.5556228980076,-2239.1453269382,-746.02885146381095,746.02885146381095,2239.1453269382,4728.1503222911333,0.0
523296.95196600363,3700566.251970998,-27500.0,275.35208863858679,1153.6888383312876,-1378.2649663221657,-190.24149849960324,611.54452550440828,-146.62586007636492,1524.8467049338328,1244.6355618536763,-980.92265449685976,980.92265449685976,-1244.6355618536763,2727.3163056738208,0.0
528296.95196600363,3700566.251970998,-27500.0,576.92650171614616,1143.9666294699191,-1561.5588611618393,-110.43716524490642,660.24060863376872,-141.47659506621196,1677.7345949438891,1468.1867290915447,-1218.0972113477574,1218.0972113477574,-1468.1867290915447,2970.3954591747779,0.0
533296.95196600363,3700566.251970998,-27500.0,950.39578938260809,1086.8935121361501,-1754.9381432646833,5.8633724754627385,697.48185194961081,-125.0741241104442,1853.7537387569789,1707.7243470042129,-1491.9864446515169,1491.9864446515169,-1707.7243470042129,3251.0798868108591,0.0
538296.95196600363,3700566.251970998,-27500.0,1403.6171191677979,963.02729845203953,-1948.4073559053952,169.20171249649681,713.04069312560432,-91.68338573927636,2059.9428772043548,1953.0744857145494,-1799.9908422708729,1799.9908422708729,-1953.0744857145494,3585.1277903044302,0.0
543296.95196600363,3700566.251970998,-27500.0,1940.6124314159074,748.20609365493806,-2124.5392554437758,391.62390658812905,691.80561093553968,-33.413930910271851,2306.395931726348,2186.8726978413201,-2133.2690054383615,2133.2690054383615,-2186.8726978413201,3996.605016506885,0.0
548296.95196600363,3700566.251970998,-27500.0,2558.1092946604631,414.05757133357207,-2255.0880698351825,685.83440269906555,612.1760078602947,60.277290623776501,2607.1947313249166,2381.9727842034204,-2473.0289455143015,2473.0289455143015,-2381.9727842034204,4520.30873568471,0.0
553296.95196600363,3700566.251970998,-27500.0,3240.7044952303631,-69.87410078501027,-2296.8647053394634,1063.3766412054151,444.40427567575688,202.95787936027855,2981.0817552055205,2498.8955210866438,-2785.637815267974,2785.637815267974,-2498.8955210866438,5202.911429952891,0.0
558296.95196600363,3700566.251970998,-27500.0,3954.7966593634637,-731.20510423951339,-2187.4615244285087,1531.3409662720487,149.37683485477089,411.21601484627604,3451.3330974721412,2484.3194004788152,-3016.9032351791443,3016.9032351791443,-2484.3194004788152,6101.2007557172055,0.0
563296.95196600363,3700566.251970998,-27500.0,4642.2260424727001,-1585.5157692949947,-1842.3585043569328,2087.095351327971,-321.1926182972183,703.86905341567308,4044.1443198706597,2272.5205242952152,-3086.8074661364199,3086.8074661364199,-2272.5205242952152,7276.0469708419296,0.0
568296.95196600363,3700566.251970998,-27500.0,5216.0280730195745,-2621.588548929321,-1156.4987929678282,2710.8288397453907,-1021.5105421528444,1099.801164677172,4784.930376945751,1792.8167587679218,-2887.6337525096569,2887.6337525096569,-1792.8167587679218,8781.5753698745484,0.0
573296.95196600363,3700566.251970998,-27500.0,5562.8335892573205,-3781.2366465842065,-15.416658927983828,3356.5905977675957,-2003.0597603530173,1613.7549089299428,5692.3092793567757,986.89445169763439,-2290.7637002757456,2290.7637002757456,-986.89445169763439,10649.565596411545,0.0
578296.95196600363,3700566.251970998,-27500.0,5558.5145700262901,-4937.7073202953643,1677.5966727107468,3944.3581915876798,-3298.1153186752999,2249.5965268058694,6770.0507236005487,-161.02223570501917,-1169.5667763470733,1169.5667763470733,161.02223570501917,12869.275909193237,0.0
583296.95196600363,3700566.251970998,-27500.0,5103.3099373362256,-5883.4497743063375,3953.7070618947118,4358.4555290339194,-4894.6131339427393,2991.3629819486277,7996.676136963858,-1583.3491967467826,554.97867129452288,-554.97867129452288,1583.3491967467826,15364.213847439441,0.0
588296.95196600363,3700566.251970998,-27500.0,4175.8133358353625,-6345.7119240528664,6714.9563937855482,4460.1859375710192,-6706.5248526503219,3794.098059151725,9308.7228155067987,-3091.3311773692649,2847.6802957905529,-2847.6802957905529,3091.3311773692649,17971.604429656894,0.0
593296.95196600363,3700566.251970998,-27500.0,2888.7673914324255,-6049.1573623790537,9678.8650449686993,4121.5271410318519,-8552.4640926933571,4578.9532913917255,10580.83125835498,-4368.9860394907082,5492.8222271085124,-5492.8222271085124,4368.9860394907082,20436.668654291836,0.0
598296.95196600363,3700566.251970998,-27500.0,1509.2854504498216,-4826.2139981046366,12375.978493180479,3277.6203138292099,-10163.128870127315,5238.8649484945972,11634.644481105179,-5032.7485218237616,8073.5569917617067,-8073.5569917617067,5032.7485218237616,22437.458859177423,0.0
603296.95196600363,3700566.251970998,-27500.0,403.06966577506091,-2735.041612808493,14243.295129925506,1978.3954909752124,-11234.856791158043,5659.3631809386779,12286.066361547975,-4765.305645489032,10046.532232756908,-10046.532232756908,4765.305645489032,23649.137414321442,0.0
608296.95196600363,3700566.251970998,-27500.0,-100.04251540466001,-108.42751938527225,14808.206412685544,405.78434737488158,-11523.040171786572,5751.4305314466801,12401.61725834113,-3473.4550449164935,10917.046952652439,-10917.046952652439,3473.4550449164935,23835.499217215591,0.0
613296.95196600363,3700566.251970998,-27500.0,144.31509897250683,2526.2615878721904,13880.916243099104,-1167.6927218602821,-10935.14862855036,5482.9965878269313,11943.6569155701,-1372.2324407255501,10439.571943139581,-10439.571943139581,1372.2324407255501,22930.968821201695,0.0
618296.95196600363,3700566.251970998,-27500.0,1025.9773845968798,4633.2712959884602,11639.886010392487,-2466.9999796435964,-9570.1803344302753,4892.0808221390971,10988.534640475185,1075.535855912769,8724.0743644613394,-8724.0743644613394,-1075.535855912769,21071.124170022144,0.0
623296.95196600363,3700566.251970998,-27500.0,2237.9017974804779,5856.9288473153165,8556.0090898273666,-3303.1105016362631,-7680.5201603325986,4073.9204086209279,9709.0889517593441,3336.8111129332929,6181.3888825303866,-6181.3888825303866,-3336.8111129332929,18555.401231112181,0.0
628296.95196600363,3700566.251970998,-27500.0,3416.2525945633261,6110.7084662459174,5208.8046298002719,-3617.0158251685134,-5581.2581579783591,3149.8964940709893,8323.9649494182322,4996.2100180431889,3350.6425798836453,-3350.6425798836453,-4996.2100180431889,15763.364416781207,0.0
633296.95196600363,3700566.251970998,-27500.0,4274.0626427889783,5543.4634479781789,2102.9160787550918,-3467.7680450192433,-3557.4677433639281,2234.4638706224355,7025.7045992627081,5858.6991758645618,715.6879338529593,-715.6879338529593,-5858.6991758645618,13064.39855341021,0.0
638296.95196600363,3700566.251970998,-27500.0,4668.1754481127482,4433.3604999493036,-437.24216015154786,-2985.4894970733635,-1807.0621944291736,1412.8888871577935,5933.3731526506826,5945.2067086567158,-1406.4352111158532,1406.4352111158532,-5945.2067086567158,10749.069825943427,0.0
643296.95196600363,3700566.251970998,-27500.0,4594.8933229318,3077.3381329536151,-2282.2745209630671,-2319.180498322241,-427.30849280413122,733.60282307817408,5093.2952161278963,5420.262155816612,-2886.9545609025317,2886.9545609025317,-5420.262155816612,8985.7587973907321,0.0
648296.95196600363,3700566.251970998,-27500.0,4144.2394015074933,1717.4945721594183,-3453.6175124021493,-1599.0043102118314,568.00706680033784,211.93809780510989,4492.4397602928348,4504.8285117562118,-3745.511635805387,3745.511635805387,-4504.8285117562118,7797.5036923144526,0.0
653296.95196600363,3700566.251970998,-27500.0,3446.1665731142602,512.20151355743906,-4060.191709779283,-918.39741720179723,1219.0676502407346,-160.44357024064328,4076.9478804223136,3409.3015186282873,-4088.6369163914869,4088.6369163914869,-3409.3015186282873,7075.0500988619006,0.0
658296.95196600363,3700566.251970998,-27500.0,2629.0545604234349,-460.11993273153809,-4242.9772597858037,-332.04569613069418,1591.7497876013304,-405.26304931024293,3779.7287609408786,2297.5436967773667,-4054.6247820254384,4054.6247820254384,-2297.5436967773667,6644.3113847434306,0.0
663296.95196600363,3700566.251970998,-27500.0,1796.5367032840268,-1181.2680508547076,-4138.2762962536171,137.20808922512259,1756.9843441503162,-549.24843118733349,3544.353057446539,1277.1303594024507,-3776.5748455125199,3776.5748455125199,-1277.1303594024507,6348.744748871989,0.0
668296.95196600363,3700566.251970998,-27500.0,1019.887937629108,-1670.4204060802508,-3859.250016999586,488.48226734063888,1778.7220017163243,-618.5819060707455,3334.5269045164782,405.50253489538545,-3363.7653624185964,3363.7653624185964,-405.50253489538545,6088.8885571126566,0.0
673296.95196600363,3700566.251970998,-27500.0,340.1653567349839,-1965.0692159119037,-3490.5384733269243,733.64207437476534,1708.7400942362992,-635.93342163392128,3131.9140142976667,-297.32199760508024,-2896.3378925851448,2896.3378925851448,297.32199760508024,5817.772478257667,0.0
678296.95196600363,3700566.251970998,-27500.0,-225.22434565744223,-2107.8963714692295,-3090.2718017251254,890.29640589063797,1585.8260893513147,-619.37428918082082,2929.9555089944988,-835.52286073927235,-2427.5532729666306,2427.5532729666306,835.52286073927235,5521.4753804653674,0.0
683296.95196600363,3700566.251970998,-27500.0,-675.09481475600273,-2139.1429048876967,-2695.2050916080557,977.21947026451801,1437.2438923618799,-582.43518635518899,2728.3477713635698,-1226.6343856128804,-1989.233628286255,1989.233628286255,1226.6343856128804,5202.5277322798884,0.0
688296.95196600363,3700566.251970998,-27500.0,-1018.0224128097713,-2093.0224490410887,-2326.3888426575854,1011.7688726409655,1281.047773531875,-534.72621115659081,2529.4048471879296,-1493.8600142141102,-1597.7122004397927,1597.7122004397927,1493.8600142141102,4869.7263090362048,0.0
693296.95196600363,3700566.251970998,-27500.0,-1267.4976314952314,-1996.6965759162324,-1994.1436232051039,1008.7114106818858,1128.4419986377081,-482.74431164828508,2336.0535131147076,-1661.2412670153324,-1259.0098962443524,1259.0098962443524,1661.2412670153324,4532.8933184491952,0.0
698296.95196600363,3700566.251970998,-27500.0,-1438.660290216872,-1870.6447959959833,-1701.9250307557011,979.91988853467114,985.8103651079274,-430.65688145975628,2150.8913240641327,-1750.9882889814216,-972.81542947022899,972.81542947022899,1750.9882889814216,4200.5811504607627,0.0
528296.95196600363,3705566.251970998,-27500.0,898.19533152553686,811.55826725180896,-1451.839105579372,62.913651816817172,527.59820876844333,-75.785055615345584,1515.1935006542371,1424.9625591964034,-1281.4270790819376,1281.4270790819376,-1424.9625591964034,2646.7426499651065,0.0
533296.95196600363,3705566.251970998,-27500.0,1258.0799412603094,696.07537842734939,-1588.6388266367546,192.26714963698598,531.45549739446199,-48.736945958260797,1679.2982188263209,1604.6852877474685,-1515.4851764587652,1515.4851764587652,-1604.6852877474685,2916.0307896430709,0.0
538296.95196600363,3705566.251970998,-27500.0,1677.5671630162701,511.55394024099076,-1707.4202231033946,363.35213810344169,507.82934179113607,-4.6293444568093864,1875.1143128259719,1772.0512099311848,-1763.8142564716084,1763.8142564716084,-1772.0512099311848,3247.8484087848497,0.0
543296.95196600363,3705566.251970998,-27500.0,2153.6918404678208,238.81516461915359,-1787.5587091825741,584.27662384752944,442.38216380149089,63.149852947355775,2112.7150043180791,1907.8939725385169,-2012.3319759455055,2012.3319759455055,-1907.8939725385169,3666.9896978247143,0.0
548296.95196600363,3705566.251970998,-27500.0,2675.7111464659242,-142.37196078797768,-1798.831878090396,862.3707015453133,315.86683999901248,162.98411038468436,2404.952411579141,1985.323304479959,-2237.3974502258725,2237.3974502258725,-1985.323304479959,4205.1399254588232,0.0
553296.95196600363,3705566.251970998,-27500.0,3221.5987357179374,-650.33273941966161,-1699.0152802201687,1202.3325823463404,103.47082762242323,305.04549510812387,2767.2288648576696,1968.942593336614,-2402.5431872922018,2402.5431872922018,-1968.942593336614,4899.5122117705259,0.0
558296.95196600363,3705566.251970998,-27500.0,3754.3987525816733,-1296.2438491265191,-1432.2756219898406,1603.3537552812261,-225.11149595009061,500.9267612094601,3216.4687824801176,1815.6670355187887,-2455.497915927097,2455.497915927097,-1815.6670355187887,5789.3843334320754,0.0
563296.95196600363,3705566.251970998,-27500.0,4219.6031301712746,-2075.9759421308427,-929.8710568985282,2055.1144709243008,-704.10735235170682,762.61233148205235,3769.0184643237039,1478.6260886542743,-2326.9331627417678,2326.9331627417678,-1478.6260886542743,6910.3546360780092,0.0
568296.95196600363,3705566.251970998,-27500.0,4545.6689068467194,-2959.0145764803833,-115.55696329063308,2532.9214067655257,-1367.5258613923008,1100.465137640545,4437.3545683109251,916.01983478653835,-1933.4081429232706,1933.4081429232706,-916.01983478653835,8286.2740711145379,0.0
573296.95196600363,3705566.251970998,-27500.0,4650.7448454251917,-3876.0066142933301,1081.2154488588458,2993.0059449885093,-2241.2835324280686,1519.9643647815492,5225.7455576350167,106.52397980072192,-1187.9834730583411,1187.9834730583411,-106.52397980072192,9918.7955302860846,0.0
578296.95196600363,3705566.251970998,-27500.0,4458.8590052692189,-4709.263279677476,2701.6550263811205,3370.1493833307359,-3330.9417199232889,2017.2141765127787,6125.3045793619713,-928.9836079100246,-22.018728252827998,22.018728252827998,928.9836079100246,11774.958514556092,0.0
583296.95196600363,3705566.251970998,-27500.0,3926.7772354063823,-5294.0614678221227,4723.9631905635215,3581.0055621270926,-4606.0734144233365,2573.8649644198213,7108.1660536801519,-2103.8897371747971,1580.896795104017,-1580.896795104017,2103.8897371747971,13774.766771217604,0.0
588296.95196600363,3705566.251970998,-27500.0,3077.0089839573607,-5440.609869986647,7027.1047152231222,3536.7960489206612,-5985.4396352257054,3153.0550027721538,8117.8284859382065,-3251.5315993433205,3544.814759601848,-3544.814759601848,3251.5315993433205,15783.301278782112,0.0
593296.95196600363,3705566.251970998,-27500.0,2023.457751225515,-4982.7762974303614,9369.3366254096945,3166.8476841393413,-7330.9907700823906,3698.9453331655263,9059.6417306498824,-4136.4774721553977,5671.7130791029622,-5671.7130791029622,4136.4774721553977,17614.269638753314,0.0
598296.95196600363,3705566.251970998,-27500.0,969.27036119385252,-3846.338212757255,11405.066393307274,2448.6506152218567,-8460.4178769434293,4142.5771778706567,9812.3709849146671,-4504.7286323814351,7647.191348998851,-7647.191348998851,4504.7286323814351,19051.676217462576,0.0
603296.95196600363,3705566.251970998,-27500.0,161.28401170165463,-2109.7096306915528,12755.425519311244,1432.4209151207049,-9183.3783045620203,4415.06043201393,10259.637141307963,-4168.215840414754,9101.0795523681645,-9101.0795523681645,4168.215840414754,19890.846548962651,0.0
608296.95196600363,3705566.251970998,-27500.0,-192.03587201839414,-18.671354084154402,13120.074689939316,244.52086774298664,-9354.2359482705197,4465.3558275482474,10321.479845945443,-3091.0659786066976,9715.6490420377504,-9715.6490420377504,3091.0659786066976,19989.734354723874,0.0
613296.95196600363,3705566.251970998,-27500.0,-3.0597240843227702,2068.5246038975588,12384.026476737508,-938.9787617031991,-8920.4116919670378,4276.0135074910477,9977.8911920111823,-1429.0336169092952,9337.8725677054208,-9337.8725677054208,1429.0336169092952,19311.856021800362,0.0
618296.95196600363,3705566.251970998,-27500.0,658.19595209550528,3789.4188649306611,10663.487344518995,-1940.941791493063,-7942.2860260683965,3869.5396766246645,9278.4131886434989,508.60606382317883,8037.2986440362074,-8037.2986440362074,-508.60606382317883,17941.815061872803,0.0
623296.95196600363,3705566.251970998,-27500.0,1594.4691708632035,4887.2868629931681,8265.1582617396034,-2632.2752830339068,-6574.0429236838345,3302.1552299649534,8333.2995462316649,2359.8282441490264,6077.8684966529818,-6077.8684966529818,-2359.8282441490264,16066.122777023051,0.0
628296.95196600363,3705566.251970998,-27500.0,2559.1933104239693,5271.2028809428393,5583.0232696270059,-2959.9061940147835,-5015.9620200238669,2648.0440091425526,7283.7558922050821,3821.5360499489152,3822.3471166055069,-3822.3471166055069,-3821.5360499489152,13928.46980437558,0.0
633296.95196600363,3705566.251970998,-27500.0,3338.5734146901241,5008.6739471457668,2985.9070448218176,-2945.7042269273579,-3461.3500550984077,1981.1922451386447,6257.7060258666897,4721.3930312420789,1621.2330725606025,-1621.2330725606025,-4721.3930312420789,11778.070785750466,0.0
638296.95196600363,3705566.251970998,-27500.0,3802.5458501587209,4270.4957371942555,740.83763395406879,-2663.7629024414059,-2058.3580358281215,1361.3920319799345,5343.5140939922358,5030.5776245726402,-266.74151386047834,266.74151386047834,-5030.5776245726402,9826.9019431086872,0.0
643296.95196600363,3705566.251970998,-27500.0,3914.7500477945518,3262.6267888299158,-1012.378969464786,-2210.3368277799295,-894.61486971198985,827.47994613901812,4590.1613507830207,4830.7813356559991,-1704.0827017631609,1704.0827017631609,-4830.7813356559991,8221.2184980654183,0.0
648296.95196600363,3705566.251970998,-27500.0,3712.5351680674039,2172.2357983788202,-2245.8659991587278,-1678.3737748815477,-1.1982848339249124,397.29304552594249,4010.5284179597002,4262.6378094870215,-2662.4436649539484,2662.4436649539484,-4262.6378094870215,7024.704780391281,0.0
653296.95196600363,3705566.251970998,-27500.0,3275.0112719940962,1138.612454619695,-3008.4045273889747,-1142.1384967280028,632.69744962032144,71.877991272006923,3586.2154840928847,3478.5819313825509,-3189.1132488013959,3189.1132488013959,-3478.5819313825509,6214.3730857766377,0.0
658296.95196600363,3705566.251970998,-27500.0,2693.4319220270359,246.46692267560019,-3388.1962565622307,-651.78570026497653,1042.5793660845511,-158.73650277414342,3279.4204972935022,2611.5036352559569,-3370.4035634863462,3370.4035634863462,-2611.5036352559569,5700.2513099490152,0.0
663296.95196600363,3705566.251970998,-27500.0,2050.8454916259302,-466.64940407545089,-3483.7508446733173,-234.86635711197172,1274.0685020602996,-310.13213704601134,3048.5169356073911,1760.353472881643,-3302.5899720175175,3302.5899720175175,-1760.353472881643,5369.1188378580182,0.0
668296.95196600363,3705566.251970998,-27500.0,1411.8740029516707,-997.10287009971137,-3385.7639947629009,98.710045549704631,1372.8735541360916,-399.41209321450833,2859.6147877525013,988.40365339030768,-3073.7043876072858,3073.7043876072858,-988.40365339030768,5125.8571465151026,0.0
673296.95196600363,3705566.251970998,-27500.0,820.27275880969034,-1361.7984573833546,-3168.543630497059,350.90122263758866,1379.1883571168939,-442.61880965932988,2690.5498749095659,328.62026495369696,-2754.9510903202554,2754.9510903202554,-328.62026495369696,4909.9358863478883,0.0
678296.95196600363,3705566.251970998,-27500.0,301.11880492975337,-1587.4717674463304,-2887.9875663629678,530.4581640191609,1325.4365297133481,-453.42626876737148,2529.4418904734093,-208.35506409372488,-2398.787822264193,2398.787822264193,208.35506409372488,4691.2809151917527,0.0
683296.95196600363,3705566.251970998,-27500.0,-135.00981551000288,-1703.3763806037041,-2583.2148083209504,649.1350801925413,1236.1219337583304,-442.72507829102176,2371.3910991531611,-626.3957820992938,-2040.7331424719528,2040.7331424719528,626.3957820992938,4459.5561406298029,0.0
688296.95196600363,3705566.251970998,-27500.0,-487.58147199478475,-1736.9800346994621,-2279.7283801399776,719.20244116559286,1128.7719442694879,-418.74011481442778,2215.4524799822348,-937.5509427371228,-1702.7199512884451,1702.7199512884451,937.5509427371228,4214.8946821640911,0.0
693296.95196600363,3705566.251970998,-27500.0,-762.26695198807238,-1711.8842514078115,-1992.8277833258235,752.02181403442296,1015.2894916952417,-387.40717819276887,2062.537804731096,-1157.4979099898158,-1396.6704046312022,1396.6704046312022,1157.4979099898158,3961.9161169003328,0.0
528296.95196600363,3710566.251970998,-27500.0,1117.209464518578,504.62836479713093,-1301.3975715124939,193.06252531841406,400.23406823527245,-23.93165063704345,1382.6794423085021,1325.4142348469343,-1277.6889227025169,1277.6889227025169,-1325.4142348469343,2397.5449553797343,0.0
533296.95196600363,3710566.251970998,-27500.0,1447.9767635187422,347.73979760244106,-1381.2734484246994,325.2868311623098,377.11831018793134,9.4240621419022634,1539.3931959571848,1446.7538393880604,-1464.5961742254913,1464.5961742254913,-1446.7538393880604,2666.6314385171395,0.0
538296.95196600363,3710566.251970998,-27500.0,1819.3666980815219,124.95023037750587,-1429.0347778036789,492.61679844580948,323.69700838298371,58.819339841868697,1728.3213507324481,1542.7570805197461,-1648.6887334981643,1648.6887334981643,-1542.7570805197461,3003.6420197023722,0.0
543296.95196600363,3710566.251970998,-27500.0,2223.8402337543075,-177.45818177901225,-1423.2594022579983,699.81728064506603,227.26102159418616,129.53060403491025,1958.426321589654,1594.8217718658921,-1813.1672015160098,1813.1672015160098,-1594.8217718658921,3430.4463711603516,0.0
548296.95196600363,3710566.251970998,-27500.0,2646.7007781791494,-571.92587124630609,-1334.8405163584387,950.06899341980738,71.698295283410232,227.91411016572505,2240.1734951755698,1578.9790100297146,-1933.0358574586166,1933.0358574586166,-1578.9790100297146,3972.0666968355995,0.0
553296.95196600363,3710566.251970998,-27500.0,3063.9315014131694,-1066.5357476730746,-1126.0539366306716,1243.354173262238,-162.48954905132683,361.23440372799377,2584.8872748475783,1466.3633876033866,-1973.3549337816855,1973.3549337816855,-1466.3633876033866,4654.6515395315428,0.0
558296.95196600363,3710566.251970998,-27500.0,3440.5416713461896,-1660.3432924546653,-750.86351754904649,1574.2361501110415,-497.40757641815884,537.16664150979489,3003.5363648225398,1225.3302936569394,-1888.4016968237961,1888.4016968237961,-1225.3302936569394,5502.3053043784957,0.0
563296.95196600363,3710566.251970998,-27500.0,3730.4555047864551,-2337.0716751933778,-157.65573544278413,1929.1382248952689,-955.70791016808403,762.81231361536288,3504.8761502053903,826.16516626729572,-1622.9587247021145,1622.9587247021145,-826.16516626729572,6532.7142922235789,0.0
568296.95196600363,3710566.251970998,-27500.0,3879.4445911919174,-3057.8021498386338,704.0562453425332,2283.5494869398349,-1556.6684999909226,1043.0817804210835,4092.9868305686859,249.25489978333036,-1117.4352884245411,1117.4352884245411,-249.25489978333036,7751.4772091861641,0.0
573296.95196600363,3710566.251970998,-27500.0,3832.806362572368,-3754.4945017805012,1871.4826693562179,2600.0818594623006,-2309.9907007599136,1378.3979575789308,4764.447575074314,-503.0919769109355,-318.67944273545743,318.67944273545743,503.0919769109355,9145.2259087863749,0.0
578296.95196600363,3710566.251970998,-27500.0,3548.8874361112566,-4327.7978938557344,3350.5421008819576,2828.8801056724233,-3207.4955554842668,1761.9139931464044,5505.5463322197393,-1392.6787879107942,802.46497471074144,-802.46497471074144,1392.6787879107942,10674.242460878711,0.0
583296.95196600363,3710566.251970998,-27500.0,3017.4854373232215,-4653.9809027630399,5094.23321503435,2912.2319173415858,-4214.1116739753925,2176.8312261535743,6289.0710471004759,-2333.6078819606464,2228.3121889988779,-2228.3121889988779,2333.6078819606464,12266.357167189479,0.0
588296.95196600363,3710566.251970998,-27500.0,2278.4330782828938,-4605.4398557409704,6983.9474364871194,2794.7797036498632,-5261.252924631618,2594.8741859564916,7068.2377440952469,-3189.9805807891307,3872.1126598616638,-3872.1126598616638,3189.9805807891307,13815.134409602522,0.0
593296.95196600363,3710566.251970998,-27500.0,1431.4479054676244,-4085.270143070562,8824.6210920515769,2438.900980592995,-6247.1401586011343,2977.2811327957465,7772.3805351218125,-3791.4648991692029,5567.4154166003718,-5567.4154166003718,3791.4648991692029,15185.9569423513,0.0
598296.95196600363,3710566.251970998,-27500.0,626.87548940230488,-3068.27017079911,10365.227528687876,1841.603624083597,-7048.3456024818215,3279.4054545502195,8318.204646040258,-3970.7751856241935,7081.7893649263005,-7081.7893649263005,3970.7751856241935,16232.529978581146,0.0
603296.95196600363,3710566.251970998,-27500.0,32.205809808216408,-1631.75096200181,11348.78656196548,1046.0810482410604,-7543.4249254125816,3458.8875928644579,8630.4968257172986,-3616.2322489344097,8161.5063981432613,-8161.5063981432613,3616.2322489344097,16822.880132515358,0.0
608296.95196600363,3710566.251970998,-27500.0,-218.27723333489718,43.045181384239406,11580.863960102435,140.58890404255524,-7643.2987099294705,3485.5514203812368,8660.0077856835996,-2719.6411422608653,8598.6916120035676,-8598.6916120035676,2719.6411422608653,16868.935421289389,0.0
613296.95196600363,3710566.251970998,-27500.0,-70.323521638576807,1708.0525182569952,10990.586927139413,-758.4090215436695,-7317.3793923792427,3349.6534143283538,8396.1984960647824,-1394.8448014915016,8295.9785756648798,-8295.9785756648798,1394.8448014915016,16349.982569902442,0.0
618296.95196600363,3710566.251970998,-27500.0,430.03951414253567,3113.385754031915,9655.9783778585679,-1534.1787339531525,-6603.9963230776339,3065.1032619888165,7872.6650196483524,146.81224257756958,7299.0230475771841,-7299.0230475771841,-146.81224257756958,15320.884434707194,0.0
623296.95196600363,3710566.251970998,-27500.0,1153.3470235712791,4073.3396523057554,7781.0882373084605,-2097.9280350282984,-5600.1930205134113,2666.2048450522057,7162.3663089241891,1655.7435091654338,5781.2081263105847,-5781.2081263105847,-1655.7435091654338,13901.638095597456,0.0
628296.95196600363,3710566.251970998,-27500.0,1931.3511370412375,4506.275248962299,5636.3625146507466,-2406.4381122619093,-4435.6239854337273,2199.2729174976666,6358.8030568152981,2911.8295875422732,3989.119519438887,-3989.119519438887,-2911.8295875422732,12252.46512285973,0.0
633296.95196600363,3710566.251970998,-27500.0,2607.5671649665724,4436.7985130325515,3489.3159731943656,-2464.2026401777098,-3241.6874073888675,1712.4336921915485,5547.920755994789,3773.1067279315876,2174.8032618700954,-2174.8032618700954,-3773.1067279315876,10543.531979403682,0.0
638296.95196600363,3710566.251970998,-27500.0,3073.504615815868,3967.5274262526518,1551.2250815559678,-2312.5603625944714,-2126.770755850031,1247.0060172373785,4793.9568657350201,4191.8126476245125,541.30610302226933,-541.30610302226933,-4191.8126476245125,8928.0501871916094,0.0
643296.95196600363,3710566.251970998,-27500.0,3281.877252059619,3238.0555787951907,-47.782001387871631,-2012.642702220923,-1163.3172429262615,832.4654266818701,4139.8107678119741,4201.1769027024638,-784.5551536183425,784.5551536183425,-4201.1769027024638,7523.1420990217957,0.0
648296.95196600363,3710566.251970998,-27500.0,3239.8427031061919,2387.6805643597368,-1257.2058401089705,-1628.9572507187852,-386.53601809364955,485.2329661800843,3606.8284638696086,3886.2450181548338,-1752.8634058046189,1752.8634058046189,-3886.2450181548338,6398.0854624140884,0.0
653296.95196600363,3710566.251970998,-27500.0,2991.3154365852597,1530.9838357724348,-2088.2461513180524,-1217.7384373778302,199.03690265059311,210.30209182588837,3194.8973206221262,3352.651249061515,-2374.1294101313169,2374.1294101313169,-3352.651249061515,5568.5630889115528,0.0
658296.95196600363,3710566.251970998,-27500.0,2597.3517937546981,747.58442410180248,-2590.3955771646806,-821.11858932411951,609.68410685399635,4.3073446930064581,2886.6940388172466,2702.3071701164681,-2696.6000535718376,2696.6000535718376,-2702.3071701164681,4999.9041523937758,0.0
663296.95196600363,3710566.251970998,-27500.0,2120.3430049427184,82.664660662662826,-2830.2690671886699,-466.10024762982107,872.86242614388175,-141.16762718054943,2655.8580324347304,2019.08735874375,-2785.3173346151207,2785.3173346151207,-2019.08735874375,4624.396554914726,0.0
668296.95196600363,3710566.251970998,-27500.0,1614.106666839984,-446.50830859254773,-2876.2412762483336,-166.51861357404547,1019.6416929936901,-236.78488956980556,2475.7274501978054,1363.4723878171551,-2706.7783522475311,2706.7783522475311,-1363.4723878171551,4367.8574852645788,0.0
673296.95196600363,3710566.251970998,-27500.0,1119.4682642127007,-842.10275769775899,-2789.3533337665631,73.701079596402778,1079.7452531192973,-293.44828791591516,2325.0582482709292,773.33234789513222,-2519.8381755827295,2519.8381755827295,-773.33234789513222,4170.567932413277,0.0
678296.95196600363,3710566.251970998,-27500.0,663.77099361444539,-1117.8315294350618,-2619.2769127739743,257.17819937330682,1078.8920314279253,-321.09288248768388,2189.7273018965934,267.91920682587386,-2271.7167374711144,2271.7167374711144,-267.91920682587386,3994.2575071356787,0.0
683296.95196600363,3710566.251970998,-27500.0,262.62745318259658,-1292.803004427323,-2403.6485727385075,390.23456500476476,1037.8154737024802,-328.10559064233661,2061.7765895250291,-147.12837653810652,-1997.4277875894843,1997.4277875894843,147.12837653810652,3819.0295583184097,0.0
688296.95196600363,3710566.251970998,-27500.0,-77.418897268000151,-1387.3378041857736,-2169.2770707381715,480.79594833168329,972.33022016213533,-321.17840920563458,1937.5537206779434,-475.08647715805148,-1721.1053647089811,1721.1053647089811,475.08647715805148,3637.2063375416778,0.0
533296.95196600363,3715566.251970998,-27500.0,1543.5503466356495,51.144090785945274,-1152.0867965563427,413.60930330213841,239.79065521873554,51.896835506462956,1426.6310146411633,1259.0577812154397,-1360.3493945834275,1360.3493945834275,-1259.0577812154397,2482.7599545746725,0.0
538296.95196600363,3715566.251970998,-27500.0,1860.6967829033622,-190.60293400022462,-1137.1661422387344,569.7533600448744,165.52548634984734,102.61002587382963,1609.2360669508078,1294.4819174077509,-1482.1743047273878,1482.1743047273878,-1294.4819174077509,2823.5773805921854,0.0
543296.95196600363,3715566.251970998,-27500.0,2192.148876873548,-500.18623090080916,-1060.0081869459434,756.3147196011048,49.808559900772927,171.76679883346335,1830.4087648583968,1280.0379946015728,-1570.3959998202035,1570.3959998202035,-1280.0379946015728,3249.9087375227264,0.0
548296.95196600363,3715566.251970998,-27500.0,2521.9652801801003,-883.49235345623492,-894.60579369237257,973.5718865178286,-120.17983400260732,263.99136333680707,2097.930131280732,1196.0039869232069,-1601.1679254588335,1601.1679254588335,-1196.0039869232069,3779.604237234988,0.0
553296.95196600363,3715566.251970998,-27500.0,2827.1890157760795,-1340.927593203786,-609.48655344615577,1218.6313091450083,-358.9991783097816,384.24326525217913,2419.3785025639481,1020.6548830737445,-1543.6702307211369,1543.6702307211369,-1020.6548830737445,4429.3565440076763,0.0
558296.95196600363,3715566.251970998,-27500.0,3077.5730320973053,-1863.7195255184026,-169.1444198322026,1483.8656650986889,-681.88899661989728,537.32452438527571,2801.0528804014621,732.85536304355389,-1360.6683170339534,1360.6683170339534,-732.85536304355389,5212.2364382360965,0.0
563296.95196600363,3715566.251970998,-27500.0,3236.8553852704349,-2429.543204251851,462.4240985699638,1755.2431048513988,-1102.7470478499285,727.0603781567645,3246.5414852483141,316.54218496173229,-1011.0666096300406,1011.0666096300406,-316.54218496173229,6134.5020108729068,0.0
568296.95196600363,3715566.251970998,-27500.0,3266.4872396727746,-2998.2828760769025,1315.2575672110183,2010.9561034616033,-1630.8938730235043,955.10801357947548,3755.0289662190098,-232.68878096457877,-455.45359717391761,455.45359717391761,232.68878096457877,7191.6700335540363,0.0
573296.95196600363,3715566.251970998,-27500.0,3132.5542035752737,-3509.513221252726,2403.5964209993267,2221.038841958828,-2266.5967177093994,1219.440954401929,4319.5972352015506,-899.37307395280004,334.61362072257702,-334.61362072257702,899.37307395280004,8364.1063339792618,0.0
578296.95196600363,3715566.251970998,-27500.0,2815.8737946172951,-3884.0603073220032,3713.2822042564831,2348.889778510259,-2995.8079524334526,1512.7202014498087,4925.8021863294198,-1640.0505811018115,1363.7779745852258,-1363.7779745852258,1640.0505811018115,9612.8679896137055,0.0
583296.95196600363,3715566.251970998,-27500.0,2323.7077583432397,-4032.2616387428952,5188.8546826686988,2355.5895529812587,-3785.3212397220695,1820.9825421733594,5549.7784324264503,-2378.482603738139,2598.5572599821999,-2598.5572599821999,2378.482603738139,10877.130136561018,0.0
588296.95196600363,3715566.251970998,-27500.0,1699.417128120378,-3870.489642454193,6725.1237294883276,2207.3550441608736,-4580.3662129586555,2123.2797678797788,6153.8892376458834,-3008.6198640853527,3956.1024483602896,-3956.1024483602896,3008.6198640853527,12075.005595780383,0.0
593296.95196600363,3715566.251970998,-27500.0,1024.6936281302549,-3344.5068600825548,8169.5398794509256,1885.2420225663097,-5307.0641389748125,2392.9445690861962,6685.3550982363067,-3409.1590671637696,5302.6500124491977,-5302.6500124491977,3409.1590671637696,13109.514719242203,0.0
598296.95196600363,3715566.251970998,-27500.0,409.42440828848481,-2453.698793771136,9340.5767138890606,1394.5460202608076,-5881.4790833324796,2600.8773797777258,7086.3349703501626,-3470.0249533794204,6467.8117535584743,-6467.8117535584743,3470.0249533794204,13880.465594342368,0.0
603296.95196600363,3715566.251970998,-27500.0,-31.832960835863993,-1266.3836190162522,10062.189938405967,770.10274513000377,-6224.8403743646222,2720.5809433749359,7307.3210786845357,-3124.9624919932808,7276.16034336335,-7276.16034336335,3124.9624919932808,14300.993734628504,0.0
608296.95196600363,3715566.251970998,-27500.0,-211.05930907621041,83.395203817034229,10206.299568286302,74.017619991745846,-6281.4002751203143,2733.7946967008679,7317.2851595191014,-2378.5206483835427,7589.3137463321655,-7589.3137463321655,2378.5206483835427,14315.068928531136,0.0
613296.95196600363,3715566.251970998,-27500.0,-94.080387588884662,1420.9159517413577,9728.5691132174343,-615.14425350135446,-6033.0244036188624,2634.9740954178528,7110.8512806225954,-1314.6664398479415,7344.1552463524795,-7344.1552463524795,1314.6664398479415,13910.787184027333,0.0
618296.95196600363,3715566.251970998,-27500.0,287.99206564849294,2570.9138215280473,8682.7815206065225,-1218.9225011713436,-5504.8276946444048,2432.9748590009426,6711.6031019245447,-80.688263530350468,6571.6215093890187,-6571.6215093890187,80.688263530350468,13124.871653089809,0.0
623296.95196600363,3715566.251970998,-27500.0,848.48965493042408,3398.247200165481,7207.4538479933162,-1675.6573124790089,-4759.4698102799666,2149.259928436431,6169.3963492718294,1148.7537828551717,5388.0147421576221,-5388.0147421576221,-1148.7537828551717,12036.70512774395,0.0
628296.95196600363,3715566.251970998,-27500.0,1471.4851541327023,3834.3563207158245,5490.4207113797183,-1951.6457395282912,-3882.3719764859243,1813.2689399761962,5547.662398022977,2213.5303037046706,3962.9954383261738,-3962.9954383261738,-2213.5303037046706,10753.93495943042,0.0
633296.95196600363,3715566.251970998,-27500.0,2043.2169748861486,3882.1781420830703,3725.5867289235362,-2043.8114154561731,-2963.425628259683,1456.5668939897794,4904.9099010595301,3000.6957051948411,2477.7466723675334,-2477.7466723675334,-3000.6957051948411,9394.2844170350545,0.0
638296.95196600363,3715566.251970998,-27500.0,2477.069017228916,3601.9556429971326,2076.5716778076021,-1974.6043933103106,-2081.1010534326829,1107.5573288794874,4287.4866607297972,3458.9434345714385,1088.293624448856,-1088.293624448856,-3458.9434345714385,8068.4484426878835,0.0
643296.95196600363,3715566.251970998,-27500.0,2725.7507728178102,3086.8158451866279,655.96657937697921,-1782.3926512140024,-1292.6759382235177,787.97818827856486,3730.2652001978308,3594.7805252258149,-96.507253709933821,96.507253709933821,-3594.7805252258149,6867.1171717267234,0.0
648296.95196600363,3715566.251970998,-27500.0,2780.7272724831687,2437.875595492344,-478.8192201395608,-1511.1414963774512,-631.31615323638312,511.54213493232669,3255.3424559176156,3456.6738046512037,-1020.5425507417056,1020.5425507417056,-3456.6738046512037,5852.6377343348304,0.0
653296.95196600363,3715566.251970998,-27500.0,2663.1435008452258,1745.4800907884094,-1317.5737403385685,-1202.141770097393,-108.49285004171799,284.37243315567798,2870.7076787454394,3115.18735810921,-1673.5626819142849,1673.5626819142849,-3115.18735810921,5054.3343170529561,0.0
658296.95196600363,3715566.251970998,-27500.0,2411.5399063976824,1078.9116270411166,-1883.4036201514293,-888.97207250224528,280.67185968289596,106.54272450034179,2571.3040157621526,2645.3751471746127,-2077.9662471909451,2077.9662471909451,-2645.3751471746127,4467.5512523205325,0.0
663296.95196600363,3715566.251970998,-27500.0,2070.4686682946635,483.63272671965535,-2218.2472585091177,-595.5602102879617,551.33590896242447,-25.982314994651784,2342.7553418753037,2114.5736829914604,-2274.619154164764,2274.619154164764,-2114.5736829914604,4058.9160983186975,0.0
668296.95196600363,3715566.251970998,-27500.0,1682.1717067506959,-16.391672977719544,-2370.9507882925968,-336.513344041577,723.59337271406071,-119.51404614930682,2166.6682930970319,1576.0406595966056,-2311.0344290404742,2311.0344290404742,-1576.0406595966056,3779.2475862320898,0.0
673296.95196600363,3715566.251970998,-27500.0,1281.7806473149071,-413.88438486005623,-2389.0772983745273,-118.72146080454253,818.51777876589756,-181.18994406022645,2025.5113440438108,1067.2806417112338,-2233.2104977973113,2233.2104977973113,-1067.2806417112338,3579.2768905642961,0.0
678296.95196600363,3715566.251970998,-27500.0,895.47417677531303,-712.9168893246125,-2314.2586472272269,56.586845816679471,855.66234576637476,-217.98263493560682,1905.5003746971531,611.36885563817691,-2081.0113096899713,2081.0113096899713,-611.36885563817691,3420.3952743601926,0.0
683296.95196600363,3715566.251970998,-27500.0,540.65618904016355,-924.19632201311742,-2180.2835464783543,191.87116233679268,851.77718800738342,-236.12485548494868,1797.3251996296119,219.74273405366353,-1886.3063497458563,1886.3063497458563,-219.74273405366353,3277.6150953578399,0.0
538296.95196600363,3720566.251970998,-27500.0,1829.8837048770549,-436.52917246717101,-850.26200968913827,606.8498762972041,34.715168814932632,130.68122376745978,1508.9620303926424,1048.1641350202185,-1287.5097862538373,1287.5097862538373,-1048.1641350202185,2682.6197599284123,0.0
543296.95196600363,3720566.251970998,-27500.0,2092.9289634142415,-736.94247301184078,-717.75277038397667,769.7835460139928,-90.727239806289006,195.48891300393441,1718.7974087155519,984.50310424670874,-1311.0398366265829,1311.0398366265829,-984.50310424670874,3098.1861641610981,0.0
548296.95196600363,3720566.251970998,-27500.0,2341.0204354492616,-1093.240878059928,-497.64035485358698,953.3158726586579,-264.07417969149856,279.01969263070697,1968.5911510295061,854.84151089442571,-1271.1783247867268,1271.1783247867268,-854.84151089442571,3602.4557341186642,0.0
553296.95196600363,3720566.251970998,-27500.0,2553.9350731626309,-1500.6807435483977,-165.11701386439839,1153.0719891493434,-495.69415084534307,384.50751001386033,2262.9434077992692,644.06701788111332,-1142.3662584847943,1142.3662584847943,-644.06701788111332,4205.0998623911737,0.0
558296.95196600363,3720566.251970998,-27500.0,2707.1381097752583,-1946.2043753689541,305.58458371334734,1360.845368437977,-795.48568460433398,514.75739624940502,2604.8532530663479,339.64235830678655,-895.98580122981002,895.98580122981002,-339.64235830678655,4911.8326604523827,0.0
563296.95196600363,3720566.251970998,-27500.0,2773.6274202107184,-2405.7024983775977,937.64555319057331,1563.6833217744997,-1171.1415511182845,671.51733829373268,2994.6893262402355,-64.63426208906435,-503.29035422257436,503.29035422257436,64.63426208906435,5722.1069495771435,0.0
568296.95196600363,3720566.251970998,-27500.0,2727.5403794235162,-2841.9579438712694,1746.1699068590415,1743.3920941918932,-1625.6924181179807,854.65129394750727,3429.1001497608577,-563.77739092604929,59.568310256391783,-59.568310256391783,563.77739092604929,6626.4510747075174,0.0
573296.95196600363,3720566.251970998,-27500.0,2549.6984988601198,-3204.4394942189756,2730.8475064970148,1876.9168063241018,-2154.4666367629297,1061.1859329884439,3900.0959036580221,-1136.3555195430163,804.3025408796999,-804.3025408796999,1136.3555195430163,7603.7526375191101,0.0
578296.95196600363,3720566.251970998,-27500.0,2234.6249487245268,-3432.390655816248,3867.6871372026035,1938.1041978282344,-2741.9350238993165,1284.4058306593724,4394.4245868861544,-1740.2764082190602,1721.7138896504212,-1721.7138896504212,1740.2764082190602,8619.0984974899784,0.0
583296.95196600363,3720566.251970998,-27500.0,1797.5694125161733,-3462.4505226098577,5101.8715364496848,1901.2076397149394,-3359.3187272660894,1513.2801836166484,4892.1510958762137,-2311.8126532129281,2773.2478237306968,-2773.2478237306968,2311.8126532129281,9623.0525126563189,0.0
588296.95196600363,3720566.251970998,-27500.0,1279.0077927448344,-3241.018724763243,6344.8973687801654,1746.0542501913621,-3964.18910680211,1732.5815639019916,5363.1610551306167,-2770.3047826437537,3886.0324855464419,-3886.0324855464419,2770.3047826437537,10553.403290090571,0.0
593296.95196600363,3720566.251970998,-27500.0,743.57293957670447,-2739.5979167626901,7479.4632460059593,1464.0473295006964,-4503.2823997044416,1924.0157198833306,5767.8571534803441,-3030.0605757030798,4955.163815466025,-4955.163815466025,3030.0605757030798,11340.171136132511,0.0
598296.95196600363,3720566.251970998,-27500.0,271.22320759516856,-1968.9627891299597,8374.2365253007538,1063.3591392151195,-4919.1375782863652,2068.4722998472025,6065.7495248656996,-3018.5626832718367,5855.9930345123012,-5855.9930345123012,3018.5626832718367,11913.948997325864,0.0
603296.95196600363,3720566.251970998,-27500.0,-58.957416562066356,-986.48925117089925,8907.3282354892708,571.23345201920517,-5159.8818034739643,2149.1302462772592,6223.7650736761107,-2696.7336795442661,6466.0398500832944,-6466.0398500832944,2696.7336795442661,12216.510613378396,0.0
608296.95196600363,3720566.251970998,-27500.0,-188.34332338366173,108.16178202770548,8993.0094358115275,31.747345788379533,-5189.9313161167565,2154.7289854865239,6221.9849263173983,-2074.3612413872347,6691.6946277275638,-6691.6946277275638,2074.3612413872347,12211.426399832766,0.0
613296.95196600363,3720566.251970998,-27500.0,-95.073088350881761,1190.0283207400225,8603.1962064518284,-501.18679844816245,-4998.3705040263994,2082.0683346617525,6057.851267128317,-1213.9306172844376,6491.3499574135931,-6491.3499574135931,1213.9306172844376,11891.831693660188,0.0
618296.95196600363,3720566.251970998,-27500.0,199.32660104561171,2134.2402697126277,7775.8017908118791,-973.90723809744145,-4602.0828462489308,1936.9135196771576,5748.3593395543376,-219.88838605585215,5886.5343148499978,-5886.5343148499978,219.88838605585215,11282.966387653991,0.0
623296.95196600363,3720566.251970998,-27500.0,635.76794146935038,2841.6727139370246,6606.6176804164561,-1343.1404857061375,-4042.4302970428798,1732.9702075241794,5328.5596924681704,783.7680039425768,4956.7748442619377,-4956.7748442619377,-783.7680039425768,10438.62003358953,0.0
628296.95196600363,3720566.251970998,-27500.0,1133.4865921898613,3256.5993187843142,5227.7302956571102,-1583.1278050098974,-3376.626040356633,1489.250445674114,4842.538001297864,1679.9469551299644,3820.3057507394105,-3820.3057507394105,-1679.9469551299644,9432.5407004331264,0.0
633296.95196600363,3720566.251970998,-27500.0,1609.8276922946209,3371.7627640145593,3780.1576018813657,-1687.9823138208649,-2666.6879860538984,1226.6502756675052,4330.6866633635336,2380.3566833739956,2607.8441475786617,-2607.8441475786617,-2380.3566833739956,8347.2545179620593,0.0
638296.95196600363,3720566.251970998,-27500.0,1997.249128108898,3221.4512830484096,2389.2212660650139,-1669.3845265893083,-1969.2348555066737,964.69423129565905,3826.384704110852,2837.1240135637272,1438.007188550534,-1438.007188550534,-2837.1240135637272,7263.0559319590284,0.0
643296.95196600363,3720566.251970998,-27500.0,2253.2339715145913,2867.0580635283918,1148.4729364920793,-1551.1839114428435,-1328.4586131967171,719.17182511686133,3356.9849560375224,3043.0864747719743,400.58540143014352,-400.58540143014352,-3043.0864747719743,6249.1646473819001,0.0
648296.95196600363,3720566.251970998,-27500.0,2362.244551106181,2380.7705753366427,113.84833016420765,-1362.9939557817916,-773.08445969630293,500.96828396476212,2942.3284119709492,3023.5654912101572,-450.19028565922804,450.19028565922804,-3023.5654912101572,5357.7224915939278,0.0
653296.95196600363,3720566.251970998,-27500.0,2331.5485703426248,1831.8596792126184,-693.68198802534016,-1134.5318169785198,-316.82004366787658,316.0029158948044,2593.1383864255345,2824.1067096553179,-1093.7894638977716,1093.7894638977716,-2824.1067096553179,4620.2484473477516,0.0
658296.95196600363,3720566.251970998,-27500.0,2183.8824236057976,1277.7868020608992,-1280.3708461077078,-891.66960085103688,38.933841996943336,165.94162865536515,2310.8740615514521,2498.2745586496985,-1536.1909653908158,1536.1909653908158,-2498.2745586496985,4046.0433351135912,0.0
663296.95196600363,3720566.251970998,-27500.0,1949.6766756270174,760.29173087316576,-1670.2442043486565,-654.39633035295617,301.41737942100389,49.294296300375812,2089.2216212644908,2098.0755822532174,-1800.7453066895459,1800.7453066895459,-2098.0755822532174,3623.1806523506884,0.0
668296.95196600363,3720566.251970998,-27500.0,1660.622585659188,305.35985976788999,-1896.3858018494225,-436.37228502000636,482.90734470619128,-37.431300168060112,1916.9157288817453,1667.9473159611396,-1919.6057677203555,1919.6057677203555,-1667.9473159611396,3323.5972243394976,0.0
673296.95196600363,3720566.251970998,-27500.0,1345.310959389639,-74.453733877711088,-1994.2096671603852,-245.53897434840536,597.75986789021624,-98.728963254135834,1781.0567755458273,1242.0475226201311,-1927.0612778048376,1927.0612778048376,-1242.0475226201311,3112.0245860740065,0.0
678296.95196600363,3720566.251970998,-27500.0,1026.9192578388825,-376.70520193616176,-1997.0287569838554,-85.263771385151685,660.31083093806023,-139.34056941537122,1669.8492712940033,843.99925346619057,-1855.1380921232494,1855.1380921232494,-843.99925346619057,2955.2116390567676,0.0
543296.95196600363,3725566.251970998,-27500.0,1953.0039711112081,-899.4301061287531,-408.85484197755602,753.48636899953647,-197.58820684078034,205.57014884049536,1617.0869461664499,720.05710646079478,-1054.4742293847216,1054.4742293847216,-720.05710646079478,2958.374893999332,0.0
548296.95196600363,3725566.251970998,-27500.0,2132.6431638079011,-1219.8743253933953,-153.78975721459727,905.23985577683914,-366.51909431702234,279.39159512262273,1846.7836229937759,563.36529142941072,-962.00922892093217,962.00922892093217,-563.36529142941072,3427.9218077154001,0.0
553296.95196600363,3725566.251970998,-27500.0,2272.6079765743657,-1572.516173610602,202.54656356439639,1064.8648333376148,-583.53225733415206,370.09797085058756,2112.3285394150935,337.76500381116898,-785.21734060829999,785.21734060829999,-337.76500381116898,3975.9462269357277,0.0
558296.95196600363,3725566.251970998,-27500.0,2353.9476514099324,-1942.5968133112901,677.70650678693471,1224.5231958656441,-854.59899871758387,479.17013931364136,2414.5546528441891,37.18728706237448,-503.2146203402317,503.2146203402317,-37.18728706237448,4603.5239270288475,0.0
563296.95196600363,3725566.251970998,-27500.0,2357.4931759667452,-2306.8574931167159,1285.0832316624171,1373.0213245239568,-1183.2536720305916,607.11411214635734,2751.9955114030868,-338.02426395046837,-97.178666454941677,97.178666454941677,338.02426395046837,5306.3519438424819,0.0
568296.95196600363,3725566.251970998,-27500.0,2266.9288987716827,-2632.876885802531,2029.5986254178767,1495.7993897094643,-1568.8324728071632,752.91153165370838,3120.2402451485646,-777.78236560343976,445.51957932356169,-445.51957932356169,777.78236560343976,6072.9998850924221,0.0
573296.95196600363,3725566.251970998,-27500.0,2072.9217698944922,-2880.0365547731549,2902.5412013160826,1575.604783996451,-2004.5044102353206,913.44445602326505,3511.5364038055422,-1259.1464651076465,1126.026237751975,-1126.026237751975,1259.1464651076465,6883.3217069057118,0.0
578296.95196600363,3725566.251970998,-27500.0,1777.7465496665429,-3002.9161440715125,3876.436038955816,1594.1032624337645,-2475.4787018617822,1083.0211062834649,3914.558533432566,-1744.5141186912062,1928.3074304150007,-1928.3074304150007,1744.5141186912062,7707.4736554271003,0.0
583296.95196600363,3725566.251970998,-27500.0,1399.2598155325184,-2957.5891961395346,4901.4603937111715,1534.5266318081678,-2957.9786858130469,1253.1789575815337,4312.9139945356792,-2182.4830786621569,2814.4923198676443,-2814.4923198676443,2182.4830786621569,8506.09100584714,0.0
588296.95196600363,3725566.251970998,-27500.0,972.59402300126521,-2710.492935577,5905.3714503891924,1385.1484387389135,-3419.6914485808602,1412.9606676156029,4682.3116000361297,-2512.6306778624271,3723.2855291209303,-3723.2855291209303,2512.6306778624271,9232.1762629111872,0.0
593296.95196600363,3725566.251970998,-27500.0,547.92441251645175,-2248.3383816817159,6798.748784671895,1142.9547741018125,-3822.2795038500308,1549.8049168592206,4992.9747627454271,-2674.634911570266,4573.495218437678,-4573.495218437678,2674.634911570266,9835.0173310062455,0.0
598296.95196600363,3725566.251970998,-27500.0,183.44279825490108,-1586.3203437080961,7486.2554152101902,816.49016081263142,-4126.0957448943536,1651.05708787242,5216.4330180530796,-2620.6285245773011,5273.7838067537123,-5273.7838067537123,2620.6285245773011,10265.985349941428,0.0
603296.95196600363,3725566.251970998,-27500.0,-65.713131414614864,-771.37750699293224,7882.5877396740289,426.74157145932793,-4296.4967749595125,1705.8947651720669,5330.3202032612198,-2327.8726554610239,5737.7654324381456,-5737.7654324381456,2327.8726554610239,10485.411636266854,0.0
608296.95196600363,3725566.251970998,-27500.0,-159.91224496205217,121.90527569124076,7929.5183254957219,5.275826540320562,-4310.3713057226432,1707.2597029358401,5321.6370466849048,-1807.6840113852113,5901.1724422449688,-5901.1724422449688,1807.6840113852113,10469.165619713916,0.0
613296.95196600363,3725566.251970998,-27500.0,-84.977731615701629,1002.9010969784883,7609.0778437468416,-410.34006669610551,-4161.070791366591,1653.2854114898362,5189.337231717649,-1106.9694359686355,5736.1574620138208,-5736.1574620138208,1106.9694359686355,10213.317573543434,0.0
618296.95196600363,3725566.251970998,-27500.0,143.89469825585974,1781.357512310216,6948.5093649399041,-782.82267280845895,-3860.1892798939152,1547.7943364329103,4945.8999870612552,-300.95673409667506,5258.0413516909402,-5258.0413516909402,300.95673409667506,9735.6068372052723,0.0
623296.95196600363,3725566.251970998,-27500.0,485.73602300978627,2383.9273275201144,6015.1903761131525,-1081.4693012837797,-3435.5660379882165,1399.6947719957409,4616.5998639283762,521.11441604158654,4522.1682350842166,-4522.1682350842166,-521.11441604158654,9073.2513971810531,0.0
628296.95196600363,3725566.251970998,-27500.0,883.62462001394067,2766.0548668347392,4903.1665093086376,-1286.7643171576135,-2926.1164307162589,1221.4455505810226,4232.8601867186735,1273.0186652372722,3611.9942195576978,-3611.9942195576978,-1273.0186652372722,8277.6743412931428,0.0
633296.95196600363,3725566.251970998,-27500.0,1277.3205695971303,2916.3522392249392,3715.5709568256821,-1392.2402623839223,-2375.0338490514332,1027.0166716831488,3822.9729133787282,1886.3012316441459,2622.3866942918607,-2622.3866942918607,-1886.3012316441459,7407.4764876353356,0.0
638296.95196600363,3725566.251970998,-27500.0,1614.8023835790864,2853.4066404268428,2547.939866234788,-1403.5178277711068,-1823.2067461060778,829.87177867173784,3410.9828182057527,2319.1489640580039,1643.1273603034208,-1643.1273603034208,-2319.1489640580039,6521.2677868210576,0.0
643296.95196600363,3725566.251970998,-27500.0,1859.8789861547043,2617.271940176166,1476.193080606148,-1335.2765486738867,-1304.2771890407953,641.39372392256178,3017.9428370477158,2558.245284418239,746.58688605465591,-746.58688605465591,-2558.245284418239,5671.6003169765736,0.0
648296.95196600363,3725566.251970998,-27500.0,1994.8896959698707,2258.8989789431685,550.87748064918526,-1207.3063831554459,-842.02170650363803,469.97882062253836,2660.5692425891366,2614.7796760860347,-18.567838195985814,18.567838195985814,-2614.7796760860347,4900.6301724141604,0.0
653296.95196600363,3725566.251970998,-27500.0,2019.1706168502014,1830.4063519923416,-202.83473408926869,-1040.7145260074874,-449.95688312992246,320.80177810150229,2349.7305018081097,2517.0661292601744,-627.91923663552325,627.91923663552325,-2517.0661292601744,4237.4267956705107,0.0
658296.95196600363,3725566.251970998,-27500.0,1944.8803563552906,1377.9640547767401,-781.15710778345067,-854.99313478132581,-132.58019880061678,196.10139236483354,2089.9020889079566,2302.3347901686348,-1077.7373427398188,1077.7373427398188,-2302.3347901686348,3696.5386872221015,0.0
663296.95196600363,3725566.251970998,-27500.0,1791.9034563320565,937.83392863964843,-1195.7812511663794,-666.22341156424659,112.50222768049267,95.777196447926514,1879.6364837958579,2009.5979702914074,-1379.3530271389159,1379.3530271389159,-2009.5979702914074,3277.7648331473329,0.0
668296.95196600363,3725566.251970998,-27500.0,1583.1396381363688,535.18733462890202,-1467.7830044122281,-486.34059888696999,292.23123705713533,18.093775514647724,1712.927574984587,1674.5488692783031,-1553.2214478422941,1553.2214478422941,-1674.5488692783031,2967.7801359905484,0.0
548296.95196600363,3730566.251970998,-27500.0,1916.5911159360762,-1281.6790222382115,134.12781072531385,841.17111885877102,-434.74444894253827,270.08899628814498,1730.0024823440633,322.49774380985548,-684.35872251316232,684.35872251316232,-322.49774380985548,3251.3279077333509,0.0
553296.95196600363,3730566.251970998,-27500.0,2000.8651155516918,-1580.0366336444042,496.27781376047818,966.63092737379316,-633.11476264721784,346.96593461251473,1966.7778634069048,96.586966041257512,-478.68093578236767,478.68093578236767,-96.586966041257512,3742.4465248852625,0.0
558296.95196600363,3730566.251970998,-27500.0,2030.9972926916651,-1881.0504942450902,957.93139185870325,1087.2393888538279,-873.58464674133108,437.27945687181028,2231.3161263525622,-187.3815984398129,-181.90317734415189,181.90317734415189,187.3815984398129,4293.2522007639554,0.0
563296.95196600363,3730566.251970998,-27500.0,1994.0002227020043,-2163.721860175574,1525.4382615361228,1193.7276532813821,-1157.0523409139423,540.84479714642737,2521.2359685395186,-525.10135663626193,217.29312244568601,-217.29312244568601,525.10135663626193,4897.6179924806638,0.0
568296.95196600363,3730566.251970998,-27500.0,1880.3698870139253,-2400.9515721025427,2197.2329710894737,1274.770963285903,-1480.8864088377711,656.29732362061384,2831.9427389104608,-904.27479544358118,723.89743569312884,-723.89743569312884,904.27479544358118,5543.8724111371921,0.0
573296.95196600363,3730566.251970998,-27500.0,1687.0076199268358,-2560.9729244403729,2960.3729679791481,1317.7088849862926,-1837.703823987928,780.75950828459543,3156.5684356631887,-1302.9510137740344,1332.8859306671411,-1332.8859306671411,1302.9510137740344,6213.936996908129,0.0
578296.95196600363,3730566.251970998,-27500.0,1420.1345253883082,-2610.4722205391499,3787.5352473522139,1309.8713545531539,-2214.4162852169275,909.61177663435774,3485.8086901148226,-1689.085488769198,2025.6934647976882,-2025.6934647976882,1689.085488769198,6883.0033104080376,0.0
583296.95196600363,3730566.251970998,-27500.0,1097.3803007356503,-2519.4849805000913,4635.5143060028577,1240.4965819156016,-2591.9222823369005,1036.4735801640722,3806.0128887657447,-2022.1269856291224,2767.8740648224289,-2767.8740648224289,2022.1269856291224,7520.0857954012545,0.0
588296.95196600363,3730566.251970998,-27500.0,748.04784739512559,-2267.5975337095369,5446.3876631564081,1103.0274319472858,-2945.8375610852308,1153.4962883945834,4097.368858951113,-2257.208803509584,3509.1944723813103,-3509.1944723813103,2257.208803509584,8089.7300319314572,0.0
593296.95196600363,3730566.251970998,-27500.0,410.70051140643102,-1850.279956967729,6152.2377111052901,897.3402505564693,-3248.5276738768976,1252.0265811966558,4337.5940907959784,-2351.903396643374,4187.22893895164,-4187.22893895164,2351.903396643374,8554.9772952103958,0.0
598296.95196600363,3730566.251970998,-27500.0,127.81589644716971,-1283.5930219701565,6683.5072325128822,631.28616233573109,-3472.4029949604751,1323.6102288883242,4506.6319708916553,-2274.5578835986712,4734.7894611980046,-4734.7894611980046,2274.5578835986712,8881.3795047288113,0.0
603296.95196600363,3730566.251970998,-27500.0,-61.773259412081913,-605.41065855156091,6979.8633651969803,320.92378340775298,-3594.0206114632074,1361.1956606125862,4589.1863393565636,-2012.2791645112386,5090.3239856550108,-5090.3239856550108,2012.2791645112386,9041.5126900904452,0.0
608296.95196600363,3730566.251970998,-27500.0,-130.90384469411649,128.04352653289473,7001.2225048797427,-10.927885659767641,-3598.1338782452176,1360.2927729958956,4576.6400126063008,-1576.153199441314,5209.099512830413,-5209.099512830413,1576.153199441314,9019.1317119175819,0.0
613296.95196600363,3730566.251970998,-27500.0,-70.271097990481906,850.19684049467537,6735.9991182897384,-337.72071875664022,-3480.6581199811544,1319.8052406567106,4468.7227846706564,-1001.6946846718197,5072.2201483683493,-5072.2201483683493,1001.6946846718197,8812.037448919853,0.0
618296.95196600363,3730566.251970998,-27500.0,109.20904754066063,1494.9478838117664,6204.0973354480984,-633.17306775398004,-3249.7018223046098,1242.3084147625689,4274.7068472554984,-343.85633412973948,4690.7993545025938,-4690.7993545025938,343.85633412973948,8432.9402395932029,0.0
623296.95196600363,3730566.251970998,-27500.0,378.68305407812875,2007.5277675211751,5453.6514820803932,-875.26242195383986,-2924.3328141380803,1133.6865071118832,4013.225761207299,332.30416808311679,4103.9776348805408,-4103.9776348805408,-332.30416808311679,7908.0743186712079,0.0
628296.95196600363,3730566.251970998,-27500.0,697.56338872004471,2352.5881575190383,4552.4360015436223,-1049.2404877323929,-2531.4041125113704,1002.2167632761942,3707.295744239435,962.78089606164008,3371.3999233607692,-3371.3999233607692,-962.78089606164008,7273.8715174417639,0.0
633296.95196600363,3730566.251970998,-27500.0,1021.7132956169793,2517.7163876505415,3576.4054126030214,-1149.0341795623485,-2101.3011895483355,857.33594865097223,3377.0485186747906,1494.6440368303561,2562.4183382263941,-2562.4183382263941,-1494.6440368303561,6572.467677229226,0.0
638296.95196600363,3730566.251970998,-27500.0,1311.2931317212858,2512.1276412246698,2598.3305759404975,-1176.9175225298322,-1663.6539341012995,708.37558906615277,3039.8018390423072,1892.6470141704408,1744.9543695328175,-1744.9543695328175,-1892.6470141704408,5846.9604119164296,0.0
643296.95196600363,3730566.251970998,-27500.0,1536.4333233944376,2361.6701309354812,1678.9830930575981,-1141.8166136493928,-1243.9034211799942,563.52013760833267,2711.5858754224801,2141.4655992628468,976.5642121988094,-976.5642121988094,-2141.4655992628468,5137.2316647966309,0.0
648296.95196600363,3730566.251970998,-27500.0,1679.8909882500132,2102.0141712233526,862.13622282383994,-1056.8814491814533,-861.21801084779554,429.13877106690882,2406.0250016566747,2243.9907671950837,299.12717842816471,-299.12717842816471,-2243.9907671950837,4476.8036238778432,0.0
653296.95196600363,3730566.251970998,-27500.0,1736.849966887236,1771.8694969879089,173.39217788655998,-936.97380573248256,-527.81110021728716,309.52021462675339,2133.0168650407677,2216.9905317327421,-262.68840005509571,262.68840005509571,-2216.9905317327421,3890.7812344725244,0.0
658296.95196600363,3730566.251970998,-27500.0,1712.6862329207065,1407.5412868708704,-378.01975074935547,-796.55972740342838,-249.40049057779768,206.95068216878519,1898.1037030182438,2085.712920718508,-699.94457588524256,699.94457588524256,-2085.712920718508,3394.6843988761229,0.0
663296.95196600363,3730566.251970998,-27500.0,1619.7397820591812,1039.4134496028298,-795.70992841272925,-648.25410502037107,-26.386298002533096,122.02143560577954,1702.5008383578668,1878.7484880272577,-1016.1331468129852,1016.1331468129852,-1878.7484880272577,2993.9645997660846,0.0
553296.95196600363,3735566.251970998,-27500.0,1748.6595828314842,-1542.7191174936568,722.98009039982014,866.69250129933766,-653.82677082342207,319.31894781543247,1826.6895596125792,-87.655714213294317,-223.14008596875325,223.14008596875325,87.655714213294317,3507.829889785226,0.0
558296.95196600363,3735566.251970998,-27500.0,1743.6768254562589,-1783.1421818327385,1159.6170740774212,956.33020724713219,-864.22747895019143,393.51697739904881,2056.6273252662645,-347.94893079443568,73.617994158074282,-73.617994158074282,347.94893079443568,3987.3100339953626,0.0
563296.95196600363,3735566.251970998,-27500.0,1682.3117966000061,-1998.0686498970233,1679.3925421673284,1030.9636791747005,-1106.271283081215,476.9035118245074,2304.5268578564451,-645.42608262660235,453.25246870346211,-453.25246870346211,645.42608262660235,4504.0537884576861,0.0
568296.95196600363,3735566.251970998,-27500.0,1559.7102817967011,-2165.4901643145881,2276.9336925061721,1081.9607332765863,-1376.4484789470166,568.06306660599967,2566.1069298101593,-967.38327041454966,915.83608760946697,-915.83608760946697,967.38327041454966,5047.0583020248923,0.0
573296.95196600363,3735566.251970998,-27500.0,1376.4961196301185,-2261.0498887040317,2937.7239192846509,1100.1627089007566,-1667.6809088192929,664.50938857769756,2835.6538505448698,-1294.0777658724821,1453.1303419548638,-1453.1303419548638,1294.0777658724821,5600.6716938084473,0.0
578296.95196600363,3735566.251970998,-27500.0,1140.5276286944327,-2260.6721660146486,3636.4736314845659,1076.9151141786588,-1968.8641119871966,762.59029628642384,3105.5952339842306,-1598.9979227911178,2046.5107612401077,-2046.5107612401077,1598.9979227911178,6144.6176724539546,0.0
583296.95196600363,3735566.251970998,-27500.0,867.87193762899426,-2144.2335817756939,4336.7664337299821,1005.4214789396327,-2264.9091564499809,857.54306190439434,3364.1381951220405,-1850.5973660589909,2665.9797897634608,-2665.9797897634608,1850.5973660589909,6654.6552098814,0.0
588296.95196600363,3735566.251970998,-27500.0,582.40769782862981,-1899.8287892240776,4992.6474049929075,882.24360331626451,-2537.4940927748189,943.75157428542616,3595.1348298984572,-2015.7177088924641,3271.0043594442445,-3271.0043594442445,2015.7177088924641,7104.0065444989159,0.0
593296.95196600363,3735566.251970998,-27500.0,313.63825681773795,-1527.7872929995342,5552.5524704048576,708.64762020577632,-2766.6288166320846,1015.2246002158047,3782.1217711159193,-2064.4941546463933,3813.7039065681238,-3813.7039065681238,2064.4941546463933,7465.557332306862,0.0
598296.95196600363,3735566.251970998,-27500.0,92.716894569726449,-1043.331688297282,5965.4269362703189,491.42307246588103,-2932.9446149606374,1066.2619296960718,3910.9398173046616,-1975.976290626573,4244.3972994172282,-4244.3972994172282,1975.976290626573,7714.6465085982318,0.0
603296.95196600363,3735566.251970998,-27500.0,-52.729818662260193,-476.81397989622081,6188.1591053720349,242.83435816500025,-3020.3799651655563,1092.2126564563232,3971.0058974951235,-1743.1984047243386,4518.7845558258887,-4518.7845558258887,1743.1984047243386,7832.0606940032576,0.0
608296.95196600363,3735566.251970998,-27500.0,-103.84255139242981,129.0609925806514,6192.8121097437088,-20.467161979874724,-3018.7330372477109,1090.1811598157221,3956.5177676421436,-1376.2553230458345,4605.329553787722,-4605.329553787722,1376.2553230458345,7806.7068576921365,0.0
613296.95196600363,3735566.251970998,-27500.0,-54.44942551417541,724.80649471518939,5971.8773377187117,-279.47338518646717,-2925.4799598698087,1059.5208396391024,3867.5696282866434,-902.26157123252597,4491.0480221066464,-4491.0480221066464,902.26157123252597,7637.4107953409266,0.0
618296.95196600363,3735566.251970998,-27500.0,87.484829137161682,1261.4110443956215,5540.1134609623878,-515.40697990366118,-2746.3846218255458,1001.9929480745413,3711.0881484914712,-361.88178448951294,4184.1372517095206,-4184.1372517095206,361.88178448951294,7333.4373215714922,0.0
623296.95196600363,3735566.251970998,-27500.0,301.34215930376695,1697.6034592450474,4932.4002144580691,-712.30116832588476,-2494.7147843212119,921.54237828724808,3501.0542737908563,196.87703493864024,3712.6898975609065,-3712.6898975609065,-196.87703493864024,6913.5852309026213,0.0
628296.95196600363,3735566.251970998,-27500.0,557.84724930086691,2005.4178031465187,4198.1550672240564,-858.99864408738597,-2189.2548500611097,823.74209449861962,3254.8399303549481,726.09778214089715,3119.8501278000031,-3119.8501278000031,-726.09778214089715,6404.0495076886873,0.0
633296.95196600363,3735566.251970998,-27500.0,824.44813827287521,2172.9216209693554,3393.7458673198644,-950.18265471699215,-1851.5972949770712,715.0336926496451,2987.0423078199124,1184.8308403968704,2456.7215927879115,-2456.7215927879115,-1184.8308403968704,5835.4883772452458,0.0
638296.95196600363,3735566.251970998,-27500.0,1070.6808464946516,2203.8356906021932,2574.6992638110282,-986.33384207363429,-1503.3231320315915,601.92651958970453,2710.1068128474039,1543.9556825347358,1774.7920922613257,-1774.7920922613257,-1543.9556825347358,5239.8470469050817,0.0
643296.95196600363,3735566.251970998,-27500.0,1272.3334608584873,2114.617677515278,1789.2944002912245,-972.78757654753247,-1163.6263544761093,490.30883446481454,2436.1507818306204,1788.3049619986155,1119.5044609832235,-1119.5044609832235,-1788.3049619986155,4647.4656498607274,0.0
648296.95196600363,3735566.251970998,-27500.0,1413.7592104747798,1930.0825453957382,1074.4734773828152,-918.23992079506058,-847.7193779359452,384.96632554479822,2176.0718251411031,1916.1423803808066,525.99430253831667,-525.99430253831667,-1916.1423803808066,4084.7899388257888,0.0
653296.95196600363,3735566.251970998,-27500.0,1488.2879392638599,1678.7261707854761,454.2803905080047,-833.09560522310062,-566.12262832407521,289.34467166346707,1938.4199529196551,1936.6850788268496,17.293943184576847,-17.293943184576847,-1936.6850788268496,3572.8020100822259,0.0
658296.95196600363,3735566.251970998,-27500.0,1497.1375561150214,1388.6722788645861,-59.564408983155779,-727.98215787367326,-324.72931299320913,205.53315397724759,1728.7945208314507,1866.6175152519677,-395.3203658740108,395.3203658740108,-1866.6175152519677,3126.0795526960151,0.0
563296.95196600363,3740566.251970998,-27500.0,1418.3062483559731,-1824.6783164957444,1765.7185404865443,886.58062577917872,-1041.0046005666816,417.58351591655457,2103.1488477266344,-715.56700127500744,624.2861405992287,-624.2861405992287,715.56700127500744,4131.259480533944,0.0
568296.95196600363,3740566.251970998,-27500.0,1295.6166688692413,-1938.2517749008155,2291.8391685435959,916.30339513890624,-1265.4730335916206,489.48731361643598,2323.3370126756422,-985.92633963865092,1040.2133782127464,-1040.2133782127464,985.92633963865092,4586.8234725569109,0.0
573296.95196600363,3740566.251970998,-27500.0,1127.3497916365582,-1987.0369830939082,2860.3359874743492,918.34021633669329,-1502.806153729681,564.29709805296352,2547.797391226256,-1251.580958499557,1509.6755310103415,-1509.6755310103415,1251.580958499557,5044.4330919006061,0.0
578296.95196600363,3740566.251970998,-27500.0,921.67447353846092,-1953.8483713405794,3448.765864954979,886.84141731780346,-1743.822644238998,639.172093169974,2770.1035143484546,-1491.0152912059366,2015.2880629855517,-2015.2880629855517,1491.0152912059366,5487.6856274419297,0.0
583296.95196600363,3740566.251970998,-27500.0,692.59641284531585,-1825.4033561560504,4026.9766243629651,817.60098684856348,-1976.7219535149411,710.57584587903887,2979.6774153622191,-1679.9009168677599,2531.6097689395133,-2531.6097689395133,1679.9009168677599,5897.665622333896,0.0
588296.95196600363,3740566.251970998,-27500.0,459.30774888838425,-1595.2258491939447,4558.7179086175947,709.02996887155768,-2187.7524013176794,774.4839265797192,3163.6727023877124,-1793.7833714584938,3026.2302610350634,-3026.2302610350634,1793.7833714584938,6254.0908199545811,0.0
593296.95196600363,3740566.251970998,-27500.0,244.35462527470537,-1266.1777873306944,5004.7773766313649,562.96512322194815,-2362.3840108190966,826.72284438015856,3310.1027951009032,-1811.6067355216355,3462.4171064189222,-3462.4171064189222,1811.6067355216355,6536.9290186879425,0.0
598296.95196600363,3740566.251970998,-27500.0,70.717235094979586,-851.92494757735244,5327.4322136551518,385.09004536292611,-2486.8970026102215,863.41261905641704,3408.916744097322,-1719.5115524056528,3803.2118827589748,-3803.2118827589748,1719.5115524056528,6728.3449764462157,0.0
603296.95196600363,3740566.251970998,-27500.0,-41.754167014027594,-376.7276641143921,5495.5705963986193,184.78156608016309,-2550.1573750341272,881.4494611869585,3452.6999464596156,-1514.080865950322,4016.4177614881837,-4016.4177614881837,1514.080865950322,6814.7123163825436,0.0
608296.95196600363,3740566.251970998,-27500.0,-79.806579694596437,126.72751557301669,5489.4970636051521,-25.695571496870077,-2545.2492730957638,878.94174435654281,3437.4828929451864,-1204.1612499800494,4079.535340770125,-4079.535340770125,1204.1612499800494,6788.3593635998868,0.0
613296.95196600363,3740566.251970998,-27500.0,-39.308572368411774,621.24417083854144,5304.3351178789489,-232.56361070343075,-2470.6105154535226,855.50842354663564,3363.5029952358673,-810.62373487746504,3983.5400601665015,-3983.5400601665015,810.62373487746504,6648.7202953675696,0.0
618296.95196600363,3740566.251970998,-27500.0,73.846297183351737,1070.0649498559806,4951.1721752133571,-422.23724619500797,-2330.39772375341,812.37053155013598,3235.9310130551721,-363.92008368871598,3734.5667148087678,-3734.5667148087678,363.92008368871598,6402.6504609417725,0.0
623296.95196600363,3740566.251970998,-27500.0,244.72374141854931,1441.8082054741121,4455.6189397966236,-583.01821929905861,-2133.9787392730054,752.21050658289107,3065.3731407680675,100.11661163486156,3353.0564687420374,-3353.0564687420374,-100.11661163486156,6063.8244385122644,0.0
628296.95196600363,3740566.251970998,-27500.0,451.9703727607548,1714.3435653301813,3854.1140021194647,-706.43878122367767,-1894.6642532810474,678.82914343508605,2865.361601257352,545.30352082728996,2870.5796211914139,-2870.5796211914139,-545.30352082728996,5651.3349562740095,0.0
633296.95196600363,3740566.251970998,-27500.0,671.40124915624278,1876.8715493662689,3188.8247644708495,-788.0120052821527,-1627.9531876777814,596.66983458990046,2646.758716736671,939.87479862516875,2325.1057742005669,-2325.1057742005669,-939.87479862516875,5187.7413682471497,0.0
638296.95196600363,3740566.251970998,-27500.0,879.69481615242353,1929.9790440526674,2502.2658651061342,-827.30699015076925,-1349.6622077631669,510.30719777826278,2418.4568516087097,1260.042967904124,1755.8097252320099,-1755.8097252320099,-1260.042967904124,4696.9217367786214,0.0
643296.95196600363,3740566.251970998,-27500.0,1057.4276248490362,1883.9497918595696,1832.6522980212821,-827.4296108803743,-1074.2771183930502,423.98855115734779,2189.5502947383766,1491.8297162705101,1198.4496220969938,-1198.4496220969938,-1491.8297162705101,4202.0482709969283,0.0
648296.95196600363,3740566.251970998,-27500.0,1190.9722421288641,1755.951302233158,1210.6676753872669,-794.10269356976028,-813.76205122135411,341.29288459285578,1968.6582195208225,1631.1247747429784,682.04569253727811,-682.04569253727811,-1631.1247747429784,3723.9221182863903,0.0
573296.95196600363,3745566.251970998,-27500.0,927.54786673173396,-1741.3391338404845,2747.5103772192369,767.22778135988585,-1347.8548857977789,478.82589357658225,2291.0989724231554,-1188.9197031142835,1520.4967751259901,-1520.4967751259901,1188.9197031142835,4543.4691414884346,0.0
578296.95196600363,3745566.251970998,-27500.0,749.92331784203884,-1687.5205410741157,3242.3067340326402,732.06935616630847,-1541.0889517782825,536.19845753182199,2474.9030061823696,-1376.0747922348396,1950.0453169981483,-1950.0453169981483,1376.0747922348396,4905.7269119790108,0.0
583296.95196600363,3745566.251970998,-27500.0,557.99898489854502,-1555.7994500323296,3720.1441240421159,667.38977590611637,-1725.0014505440238,590.17486723573541,2645.2974024527775,-1516.9234266070193,2380.3984658261361,-2380.3984658261361,1516.9234266070193,5236.7075053639355,0.0
588296.95196600363,3745566.251970998,-27500.0,367.07850686589853,-1343.107980444453,4152.501232768037,572.66997653429712,-1889.259724509579,637.86205398001209,2792.4883530415718,-1593.4362389323855,2785.7670950245879,-2785.7670950245879,1593.4362389323855,5520.9868246131537,0.0
593296.95196600363,3745566.251970998,-27500.0,194.41038375891904,-1053.4748153679047,4509.469286705913,449.88417851242116,-2023.243052042041,676.33290225542248,2907.809463315727,-1590.7392078140929,3137.9156563620936,-3137.9156563620936,1590.7392078140929,5743.658313370237,0.0
598296.95196600363,3745566.251970998,-27500.0,57.054688199177676,-698.80095018158784,4762.9828116965864,303.70360059743587,-2117.1459272738366,702.92101246583195,2984.0564447028496,-1499.6886883225948,3409.1710529352736,-3409.1710529352736,1499.6886883225948,5891.6974532003424,0.0
603296.95196600363,3745566.251970998,-27500.0,-30.587270391303797,-298.47732434772564,4890.3754152941228,141.31828473913305,-2163.1636232362143,715.53125508564005,3015.9650426980756,-1318.9660389689222,3575.909898831319,-3575.909898831319,1318.9660389689222,5955.329922005074,0.0
608296.95196600363,3745566.251970998,-27500.0,-59.095897730143506,122.28442312451661,4877.6133454921937,-28.154246169135909,-2156.5508844612236,712.91274026430824,3000.7765936334918,-1056.157875915455,3621.8993134835332,-3621.8993134835332,1056.157875915455,5929.1893954553689,0.0
613296.95196600363,3745566.251970998,-27500.0,-25.684521275379335,535.23450020810822,4721.5342876824525,-194.61162057896922,-2096.3435632879728,694.84233278016347,2938.7605016061802,-727.45688862867451,3540.8014699016358,-3540.8014699016358,727.45688862867451,5813.0684409230416,0.0
618296.95196600363,3745566.251970998,-27500.0,65.229922288274651,912.50920198039103,4430.5662814603074,-348.10800176648053,-1985.578441958535,662.17740523977818,2833.7572849133071,-355.92044015640158,3337.2669446174154,-3337.2669446174154,355.92044015640158,5612.1077319984433,0.0
623296.95196600363,3745566.251970998,-27500.0,202.6919075106278,1230.0365617511761,4023.7474254424392,-479.98525218482666,-1830.9609160573586,616.76704978970133,2693.8302680357187,31.414678753693352,3026.3609353166585,-3026.3609353166585,-31.414678753693352,5336.3939483882077,0.0
628296.95196600363,3745566.251970998,-27500.0,370.95723895969144,1470.2666750616347,3528.2331391724838,-583.78750451232975,-1642.0377771038868,561.235383230455,2529.831374042179,406.99135225881309,2631.4389013228806,-2631.4389013228806,-406.99135225881309,5000.0176305670884,0.0
633296.95196600363,3745566.251970998,-27500.0,551.9178563190402,1623.7441022601865,2975.8264491817863,-655.80519501038384,-1430.0458646477027,498.68012677914919,2350.1688669535288,746.06930444239265,2180.9507274762273,-2180.9507274762273,-746.06930444239265,4619.7597478404314,0.0
638296.95196600363,3745566.251970998,-27500.0,727.66803119462975,1689.3470416595565,2399.2249266605941,-695.18942806737186,-1206.6561972618413,432.34168169690469,2161.1268272566244,1029.3344805652446,1704.8437935176453,-1704.8437935176453,-1029.3344805652446,4213.618129678579,0.0
593296.95196600363,3750566.251970998,-27500.0,158.02115856143425,-880.02651042581704,4064.5859714731951,361.61565870673434,-1738.4052187405816,555.97302901392641,2563.8398954029822,-1398.6775843332648,2841.6898937845185,-2841.6898937845185,1398.6775843332648,5064.2655241397761,0.0
598296.95196600363,3750566.251970998,-27500.0,48.669219455558334,-575.76075783846898,4264.8085591532581,240.99452620381291,-1809.7162211702732,575.39069683832599,2622.9890613870202,-1311.3698482908203,3058.8457494468284,-3058.8457494468284,1311.3698482908203,5179.4295191562223,0.0
603296.95196600363,3750566.251970998,-27500.0,-20.130500034458606,-237.02334820300212,4361.6056545745651,108.55797954073033,-1843.3398799220374,584.25141068473022,2646.1867994673894,-1152.6175743838139,3190.0425306810421,-3190.0425306810421,1152.6175743838139,5226.303435460045,0.0
608296.95196600363,3750566.251970998,-27500.0,-41.611332951491327,116.59183322224521,4344.8793459132521,-28.854793546715978,-1835.9841554940942,581.71862839450625,2631.4881018863166,-928.8458236380468,3223.4455163066386,-3223.4455163066386,928.8458236380468,5201.0962183858801,0.0
613296.95196600363,3750566.251970998,-27500.0,-13.882023390928634,463.4197072242851,4212.5892777150621,-163.75535657301683,-1787.0580952835903,567.66310352251367,2579.1439871756734,-652.71353151656103,3154.5598737536466,-3154.5598737536466,652.71353151656103,5103.8046041965663,0.0
618296.95196600363,3750566.251970998,-27500.0,59.708007488991726,782.12494058673576,3971.2137287419428,-288.78062785225461,-1698.8084166981428,542.69468807981605,2491.9902396210982,-341.86099627052067,2986.953925929829,-2986.953925929829,341.86099627052067,4938.3336367308866,0.0
598296.95196600363,3550566.251970998,-32500.0,239.43455961729055,1172.893450919177,3023.7604689138338,519.83949095578646,1614.0519052651784,632.0798967514088,2241.3615958143751,242.17519775341293,2272.0545444359504,-2272.0545444359504,-242.17519775341293,4423.4167375429879,0.0
603296.95196600363,3550566.251970998,-32500.0,108.04804625851473,954.15189027092686,3390.9190192369038,415.11536538056021,1773.7780082113727,686.25191901683593,2367.8661165701997,-67.203501748936105,2562.4948091188226,-2562.4948091188226,67.203501748936105,4679.7903681089792,0.0
608296.95196600363,3550566.251970998,-32500.0,5.923221766076689,680.23416277742422,3683.1713486516633,287.75639715242937,1900.8057915711984,729.40657491439356,2472.2385681849869,-377.81141731592925,2781.9904615914088,-2781.9904615914088,377.81141731592925,4884.7629314548631,0.0
613296.95196600363,3550566.251970998,-32500.0,-56.261005620908293,365.87080934824553,3882.7474572648011,143.80642062494698,1987.9936805331852,759.26394827952072,2547.2986573869257,-669.23741156081951,2915.4852188693453,-2915.4852188693453,669.23741156081951,5028.7663253296241,0.0
618296.95196600363,3550566.251970998,-32500.0,-71.709160434847234,29.79108396812866,3978.1146240890621,-9.1528960026336481,2030.6680201928261,774.31675744472602,2588.0876243111907,-922.2662562808531,2954.2511518581518,-2954.2511518581518,922.2662562808531,5105.3235286450144,0.0
623296.95196600363,3550566.251970998,-32500.0,-38.485639944424335,-307.2715662350771,3965.3280000947866,-162.7541323945479,2027.1401085759246,773.98986160606557,2592.3635325540176,-1121.1106286914628,2896.9931052231741,-2896.9931052231741,1121.1106286914628,5111.5794856339689,0.0
628296.95196600363,3550566.251970998,-32500.0,40.251709504229403,-624.89108587740157,3848.3886842660786,-308.71489292071936,1978.855321972356,758.69003682207006,2560.342067193048,-1255.1639359257383,2749.9389239689758,-2749.9389239689758,1255.1639359257383,5048.4785539029162,0.0
633296.95196600363,3550566.251970998,-32500.0,156.8043522784908,-905.16544668980782,3638.5386118840161,-439.67900527213141,1890.1440253452288,729.73574552514549,2494.3670176207993,-1319.9588510283686,2525.8937487715657,-2525.8937487715657,1319.9588510283686,4920.5475941126242,0.0
638296.95196600363,3550566.251970998,-32500.0,300.14035818997843,-1134.4632570664705,3352.6643052943814,-549.89319571027386,1767.6360158399616,689.18496690917686,2398.5503497810641,-1317.2051968128101,2242.4700543717781,-2242.4700543717781,1317.2051968128101,4735.3426115818456,0.0
643296.95196600363,3550566.251970998,-32500.0,457.48887336432193,-1304.4369411005748,3011.1319719593057,-635.62023634243769,1619.4500217348489,639.5920115132227,2278.3808950492225,-1253.9732483179114,1919.8491460086311,-1919.8491460086311,1253.9732483179114,4502.6425329041585,0.0
648296.95196600363,3550566.251970998,-32500.0,616.00017331073639,-1412.2230627924455,2635.4639327719433,-695.25476217390087,1454.3078284238863,583.73760540853232,2140.3549623770364,-1141.2636331761823,1578.4923868332476,-1578.4923868332476,1141.2636331761823,4233.5234858685481,0.0
583296.95196600363,3555566.251970998,-32500.0,807.56360826650644,1608.6298553331196,1717.3864541951034,783.24694441749284,1127.9346571268516,501.06757655610699,1984.7278368316099,1179.7815042167833,1167.5623964729446,-1167.5623964729446,-1179.7815042167833,3823.7130717057203,0.0
588296.95196600363,3555566.251970998,-32500.0,645.83697660627729,1604.92742544219,2248.7309882855493,765.13052556040054,1375.481341148942,589.93067214426549,2169.2288651127642,956.35683370955621,1612.4015461316271,-1612.4015461316271,-956.35683370955621,4221.5522801432098,0.0
593296.95196600363,3555566.251970998,-32500.0,468.14491978179279,1521.1637496130568,2778.7403635423143,711.79891598903384,1619.4668090777027,676.87673304260852,2350.0411904136708,670.3950249218974,2052.9028124024762,-2052.9028124024762,-670.3950249218974,4607.5952822311465,0.0
598296.95196600363,3555566.251970998,-32500.0,290.45293370089007,1353.2639994793637,3278.5114649797524,622.06334885540514,1847.5473007480928,757.76228487718038,2520.4035851388144,335.71033399925454,2461.9963242616955,-2461.9963242616955,-335.71033399925454,4964.4411563487629,0.0
603296.95196600363,3555566.251970998,-32500.0,130.47606521497707,1104.4784216086753,3717.6668724064839,497.71252628075189,2046.9178059091889,828.32340254077815,2672.9477481450463,-27.620582220001779,2811.7375133769724,-2811.7375133769724,27.620582220001779,5274.8465172387641,0.0
608296.95196600363,3555566.251970998,-32500.0,5.4193129033472554,785.98721569325699,4067.6138047216969,343.71181179899793,2205.6141305263595,884.59133712819698,2798.6849543867788,-395.00765056855539,3076.5294401887522,-3076.5294401887522,395.00765056855539,5523.1279181379468,0.0
613296.95196600363,3555566.251970998,-32500.0,-70.494413923752276,416.32184630334928,4304.9903820115524,167.95075820083073,2313.8744311871883,923.32391423981744,2888.5394661050386,-740.05281171778233,3236.4254180075145,-3236.4254180075145,740.05281171778233,5696.5554280308534,0.0
618296.95196600363,3555566.251970998,-32500.0,-88.215537787046728,19.556695427714441,4414.6664769840527,-19.474122016507611,2365.3205073143231,942.37954231537367,2936.109635027804,-1037.7911181018997,3279.8757723947001,-3279.8757723947001,1037.7911181018997,5786.5303102665712,0.0
623296.95196600363,3555566.251970998,-32500.0,-45.291736460161744,-377.48161731045064,4391.6983525897585,-207.34806739907441,2357.7353531110734,940.96642859697761,2938.515907412801,-1267.8644252400452,3205.3402623515494,-3205.3402623515494,1267.8644252400452,5789.3672606062673,0.0
628296.95196600363,3555566.251970998,-32500.0,53.806163074930431,-748.48074551007392,4241.8143537415481,-384.61053229417638,2293.2735168585937,919.71552516490101,2896.1766530691002,-1416.9911257503422,3021.3992373580854,-3021.3992373580854,1416.9911257503422,5706.534189932253,0.0
633296.95196600363,3555566.251970998,-32500.0,198.52393486934685,-1070.7588382844713,3980.3572266208766,-541.58023014188313,2178.076231903271,880.56917519444198,2812.3881282817761,-1480.2595214931976,2745.3542320966949,-2745.3542320966949,1480.2595214931976,5544.3319239010771,0.0
638296.95196600363,3555566.251970998,-32500.0,374.01296060895368,-1327.6430863321043,3629.9179964276987,-670.91191641664966,2021.3677689621866,826.50437777564161,2692.8033115375147,-1461.0454035850769,2400.6274525307567,-2400.6274525307567,1461.0454035850769,5313.0459122884495,0.0
643296.95196600363,3555566.251970998,-32500.0,563.44106428407576,-1509.7428190537455,3217.2365601088122,-768.14339010286085,1834.253647641488,761.1597149364909,2544.8798804519383,-1369.7081156241584,2013.5668805811424,-2013.5668805811424,1369.7081156241584,5025.7915404362975,0.0
648296.95196600363,3555566.251970998,-32500.0,750.32429973390367,-1615.0178733281259,2769.9356418863213,-831.78431651698202,1628.4215463865121,688.42268431459638,2377.2844897939021,-1221.4406417528116,1610.2528945435888,-1610.2528945435888,1221.4406417528116,4697.1685968535221,0.0
653296.95196600363,3555566.251970998,-32500.0,920.44876739457482,-1647.8290586844878,2313.6937952482031,-863.0067748766171,1414.9868613754777,612.05532516087465,2199.0159646630214,-1033.803178342198,1213.8763891384115,-1213.8763891384115,1033.803178342198,4341.9849385788857,0.0
658296.95196600363,3555566.251970998,-32500.0,1063.1185802490015,-1617.3213227539848,1870.2043844115137,-865.05960165417525,1203.6206117172646,535.40148895799962,2017.8030469179262,-824.4149300564726,842.99408464123155,-842.99408464123155,824.4149300564726,3974.174461937278,0.0
573296.95196600363,3560566.251970998,-32500.0,1212.3227909073789,1531.4190601612997,598.16790513324963,829.30807549877534,671.23980902203891,366.2170892216497,1785.3262236848955,1634.3772105625496,199.78104271328971,-199.78104271328971,-1634.3772105625496,3320.2587912631047,0.0
578296.95196600363,3560566.251970998,-32500.0,1114.0163467354691,1698.3266937569106,1120.7136581300579,888.59160760364489,937.5583726627209,468.91277695010803,1985.0509727962792,1565.2331106989966,635.4264212472392,-635.4264212472392,-1565.2331106989966,3752.2389112583164,0.0
583296.95196600363,3560566.251970998,-32500.0,967.47173082267295,1801.5953679922673,1702.6213179612191,916.55736368331134,1227.44640483432,579.12275743210466,2198.1254900068866,1410.5188089898468,1124.0159809199347,-1124.0159809199347,-1410.5188089898468,4213.5612337972761,0.0
588296.95196600363,3560566.251970998,-32500.0,781.60610343887436,1822.341269613479,2321.6750388782893,905.57355695787282,1530.3296999880158,692.98898032686475,2417.4736730699497,1168.3557686355696,1644.1543874730971,-1644.1543874730971,-1168.3557686355696,4686.6664358429198,0.0
593296.95196600363,3560566.251970998,-32500.0,571.41100922165742,1746.034612086916,2947.6073102971091,850.03433937773138,1832.3536150810323,805.57821299159127,2634.7844392760371,845.35495443604918,2166.9567134090221,-2166.9567134090221,-845.35495443604918,5150.8116781160734,0.0
598296.95196600363,3560566.251970998,-32500.0,356.97517941156462,1565.4318102974644,3543.9799942795721,747.51395906538608,2117.2384405694038,911.18311322597049,2841.0869222587912,457.51706375480853,2658.0797472540135,-2658.0797472540135,-457.51706375480853,5583.3717615909127,0.0
603296.95196600363,3560566.251970998,-32500.0,161.32944477641746,1282.9440987044511,4071.5422271198795,599.67242648954448,2367.7171384814264,1003.8090597451142,3026.4682442024105,29.69091853685768,3081.174051116207,-3081.174051116207,-29.69091853685768,5961.5578859538791,0.0
608296.95196600363,3560566.251970998,-32500.0,7.3247615643914701,911.77428667110246,4492.7188280377695,412.65875188508988,2567.4040867237868,1077.794854344125,3179.2103291500189,-406.64107134119945,3402.3583289887802,-3402.3583289887802,406.64107134119945,6264.4022833948711,0.0
613296.95196600363,3560566.251970998,-32500.0,-85.915965717476084,475.33464489998016,4776.5201205416533,196.83355240896913,2702.8120800433662,1128.4765084823898,3287.638566364481,-817.07376383425571,3594.9598255380029,-3594.9598255380029,817.07376383425571,6474.7792874344977,0.0
618296.95196600363,3560566.251970998,-32500.0,-106.21344179665809,4.810585985636683,4902.9076548512585,-34.234406346369695,2765.1397390861357,1152.775151504909,3343.4423606356208,-1168.8834288235309,3643.5408572986416,-3643.5408572986416,1168.8834288235309,6581.1472293793131,0.0
623296.95196600363,3560566.251970998,-32500.0,-50.438424289099423,-464.78359436469759,4865.6433975740356,-265.36176355707471,2751.4470252873207,1149.5872626708747,3342.9276190847781,-1435.5916086423263,3546.2729827689859,-3546.2729827689859,1435.5916086423263,6578.6930181851158,0.0
628296.95196600363,3560566.251970998,-32500.0,75.026975715432414,-899.28328255622716,4672.9763012591429,-481.63813006881691,2664.9691621936649,1119.8994526516044,3286.8653265768994,-1600.4970044675229,3315.0876943115309,-3315.0876943115309,1600.4970044675229,6469.6881556155549,0.0
633296.95196600363,3560566.251970998,-32500.0,255.58106121513637,-1269.798555399796,4346.0077111558194,-670.22963244695234,2514.4957368267101,1066.6007961668515,3179.9352160318285,-1658.4199990279408,2973.5582920666207,-2973.5582920666207,1658.4199990279408,6262.9690465167605,0.0
638296.95196600363,3560566.251970998,-32500.0,471.0870281363691,-1555.9838647152262,3915.19363653956,-821.74879908066669,2312.9881765216592,994.0456033910018,3029.9929233139096,-1615.3932126429502,2553.0691030711032,-2553.0691030711032,1615.3932126429502,5972.6915589911578,0.0
643296.95196600363,3560566.251970998,-32500.0,699.25522906072274,-1747.5977480380548,3415.8027734608004,-930.96572474723223,2075.7405660978384,907.45819776252461,2847.2151251639052,-1486.5512852310908,2088.168258997895,-2088.168258997895,1486.5512852310908,5616.570811076509,0.0
648296.95196600363,3560566.251970998,-32500.0,918.93398359745515,-1844.2809118275477,2883.3423858955684,-996.81628019902712,1818.4838643594635,812.30651011377154,2643.1086771231858,-1292.8944874607616,1612.1214926876107,-1612.1214926876107,1292.8944874607616,5213.9643960578724,0.0
653296.95196600363,3560566.251970998,-32500.0,1112.6697046686811,-1853.9005022891447,2349.7647838971202,-1021.8230586453368,1555.7585066966876,713.74932787883836,2428.9382709107067,-1057.738884699656,1153.4416939939797,-1153.4416939939797,1057.738884699656,4784.0783895520672,0.0
658296.95196600363,3560566.251970998,-32500.0,1268.1931444483432,-1790.055695835254,1840.9443947070429,-1011.1465899767345,1299.7676892904215,616.2293259055233,2213.6963751882822,-803.57109158995922,733.80518411487105,-733.80518411487105,803.57109158995922,4344.5198247639755,0.0
663296.95196600363,3560566.251970998,-32500.0,1378.8102024706543,-1669.3777560070364,1375.5377839097998,-971.50989210486591,1059.7799851087691,523.24110481385674,2003.5990166190531,-549.76440526184354,367.37568517350428,-367.37568517350428,549.76440526184354,3910.3159652425456,0.0
668296.95196600363,3560566.251970998,-32500.0,1442.9128578320135,-1509.1247910721393,965.03134788643274,-910.19849298388988,842.02627021460978,437.26275133349037,1803.1023267824401,-311.30767208985623,61.265471220287509,-61.265471220287509,311.30767208985623,3493.4084784130969,0.0
568296.95196600363,3565566.251970998,-32500.0,1447.087660030739,1368.0608819187194,-94.110753466072424,825.54186938955888,385.04582764722608,285.43405134083645,1751.7054906669,1829.4950040722749,-406.17736484060174,406.17736484060174,-1829.4950040722749,3168.3597791320267,0.0
573296.95196600363,3565566.251970998,-32500.0,1416.3717750840915,1634.8665617835095,393.43763124284175,936.67102730231727,658.19209234326445,398.71754382065666,1955.6318055384613,1876.4679514485229,-8.1000509007855044,8.1000509007855044,-1876.4679514485229,3604.3162310217144,0.0
578296.95196600363,3565566.251970998,-32500.0,1321.4607230455674,1857.8728284017782,976.06405493981265,1022.6191901011944,973.48173584613198,526.81311695022328,2185.3220693662056,1832.9323524253271,476.71745774073065,-476.71745774073065,-1832.9323524253271,4100.1974921040819,0.0
583296.95196600363,3565566.251970998,-32500.0,1163.546753496568,2010.4603133605171,1640.0585203704948,1071.7205208123089,1323.1800225228628,666.55931345989325,2434.9952278591059,1685.1530498056231,1034.8896294660212,-1034.8896294660212,-1685.1530498056231,4640.5714193064596,0.0
588296.95196600363,3565566.251970998,-32500.0,951.73044855200521,2066.7595717208746,2360.2702933571177,1072.9976075661914,1694.5125214806401,813.02928768744266,2696.1905871585213,1427.4165559140577,1642.0396690109071,-1642.0396690109071,-1427.4165559140577,5203.9565384252737,0.0
593296.95196600363,3565566.251970998,-32500.0,703.62774490652248,2005.6170807337273,3100.1297141807963,1017.8423912048119,2069.8180135513367,959.62001650606089,2958.3995058408182,1065.0239508560344,2263.0435203304578,-2263.0435203304578,-1065.0239508560344,5763.9584141547111,0.0
598296.95196600363,3565566.251970998,-32500.0,444.43464676305632,1814.8959001092851,3813.7268497541795,901.78558830356565,2427.5732944111201,1098.437618737805,3209.7568957635594,616.07616083085213,2854.3414840114024,-2854.3414840114024,-616.07616083085213,6291.0136025931242,0.0
603296.95196600363,3565566.251970998,-32500.0,204.19250944109365,1495.1807010089408,4450.1394342384392,725.97660413789015,2744.3423886597247,1220.9889200567156,3436.8317436110533,111.2332639457436,3368.4440959511257,-3368.4440959511257,-111.2332639457436,6754.7571495870707,0.0
608296.95196600363,3565566.251970998,-32500.0,13.472459865600419,1061.8351506775909,4959.6342284068396,497.96032217412403,2997.4752021865197,1319.1156099839941,3624.0147207612072,-409.0251807421489,3760.1678027784619,-3760.1678027784619,409.0251807421489,7126.8678895955982,0.0
613296.95196600363,3565566.251970998,-32500.0,-101.7626965421001,544.54372660229319,5300.7263188058141,231.41741867165663,3168.1309528252314,1386.0292273584125,3756.0006822929822,-899.50839134792045,3993.5041759787837,-3993.5041759787837,899.50839134792045,7384.0395260365594,0.0
618296.95196600363,3565566.251970998,-32500.0,-124.93749484415075,-15.972528640610108,5446.5981764187827,-55.243170755790892,3244.0124368556317,1417.2444481844898,3821.8874779550033,-1316.9192433492124,4047.5898361102591,-4047.5898361102591,1316.9192433492124,7510.5781424986371,0.0
623296.95196600363,3565566.251970998,-32500.0,-52.029057710709075,-573.59404518942392,5389.3332359911856,-341.24654335107851,3221.1855079789689,1411.2066371171811,3816.9348526230842,-1626.5107345295523,3920.2703039859321,-3920.2703039859321,1626.5107345295523,7500.1315321681304,0.0
628296.95196600363,3565566.251970998,-32500.0,107.76981118681053,-1083.5923097005748,5140.8788643634625,-606.29223047303014,3104.5415384996522,1369.4687168792641,3742.5037917185464,-1807.1999944091531,3628.2919879489409,-3628.2919879489409,1807.1999944091531,7356.1963585199719,0.0
633296.95196600363,3565566.251970998,-32500.0,334.06493962949588,-1508.9943339895392,4730.5234124198705,-833.24846022693498,2906.8035274836275,1296.3807533315678,3605.3222257472698,-1853.9408449732741,3204.0766990310053,-3204.0766990310053,1853.9408449732741,7091.3142820808444,0.0
638296.95196600363,3565566.251970998,-32500.0,599.34225751572137,-1825.0949628447913,4199.6002169401991,-1010.1250117852428,2646.3438022566011,1198.3726637622444,3416.3865320541659,-1776.9553255822721,2689.9634456564454,-2689.9634456564454,1776.9553255822721,6725.1327021638281,0.0
643296.95196600363,3565566.251970998,-32500.0,873.96760321463262,-2021.3125215957295,3594.8410599238391,-1130.9850817646043,2344.3808067796554,1083.012068107196,3189.6419998745009,-1598.3324708078551,2131.4374400868537,-2131.4374400868537,1598.3324708078551,6281.793312177706,0.0
648296.95196600363,3565566.251970998,-32500.0,1130.8462903966645,-2100.366427604592,2961.893094859267,-1195.7543527688945,2022.1613763176431,958.03153528043651,2940.2806375811092,-1347.1088874052066,1570.8851658983899,-1570.8851658983899,1347.1088874052066,5787.1013424315861,0.0
653296.95196600363,3565566.251970998,-32500.0,1348.7965565105142,-2075.4589157995197,2340.2773293387663,-1209.1721912194844,1698.6794133505607,830.51485302953336,2682.2826163042205,-1054.1613102650383,1043.0591942296558,-1043.0591942296558,1054.1613102650383,5266.0167998739889,0.0
658296.95196600363,3565566.251970998,-32500.0,1514.2168113160708,-1966.4537271158545,1760.3792484995226,-1179.2636243024665,1389.2028720294857,706.34020236741401,2426.2326059360098,-747.96249986451096,572.72023333614027,-572.72023333614027,747.96249986451096,4740.7375126878906,0.0
663296.95196600363,3565566.251970998,-32500.0,1621.1458212587061,-1796.0261575911868,1242.4820237633037,-1115.7247630319994,1104.6551996159526,589.90815528866517,2179.4508048429607,-451.7840676220784,174.32473032022946,-174.32473032022946,451.7840676220784,4229.5140940103111,0.0
668296.95196600363,3565566.251970998,-32500.0,1670.1538121665978,-1586.4783331504771,797.41591053932609,-1028.5201439007965,851.71231608625408,484.12012530648536,1947.1408144338482,-182.43416529803824,-146.77829510481922,146.77829510481922,182.43416529803824,3746.1705743585853,0.0
673296.95196600363,3565566.251970998,-32500.0,1666.6160194358956,-1357.5479940094422,428.20405270552067,-926.85171555682757,633.37682927371736,390.53405143247272,1732.8788639754575,49.737993869621505,-392.31811461307353,392.31811461307353,-49.737993869621505,3300.1825416621678,0.0
678296.95196600363,3565566.251970998,-32500.0,1618.8582908214764,-1125.2294041464245,132.11627360833211,-818.53559303683414,449.78901294576843,309.61867166480823,1538.7488421921917,239.99743386292792,-568.84020373323278,568.84020373323278,-239.99743386292792,2897.1303576622122,0.0
558296.95196600363,3570566.251970998,-32500.0,1466.0640378614582,703.50862846145492,-1086.4053187234883,577.09603909695556,-151.14057670457626,78.39788381188356,1569.0814218265241,1626.4316913121129,-1214.9858475164374,1214.9858475164374,-1626.4316913121129,2729.6822056388537,0.0
563296.95196600363,3570566.251970998,-32500.0,1588.4931532004814,1037.9460216937821,-801.552002857974,738.8215293356086,46.188183596829738,171.59794014514617,1724.6267748099717,1859.5523128323887,-1010.0999410504153,1010.0999410504153,-1859.5523128323887,3034.7045960955534,0.0
568296.95196600363,3570566.251970998,-32500.0,1655.0380330206904,1384.384546782429,-403.62245784967513,899.92710885825647,300.53561167534167,287.02885304820524,1915.0999844724306,2040.1405364135187,-701.94713021977782,701.94713021977782,-2040.1405364135187,3426.8642763817488,0.0
573296.95196600363,3570566.251970998,-32500.0,1651.5670802838731,1719.4391994170305,116.53985318576329,1048.6939956267024,614.48807717437376,425.17059552946256,2142.43840380242,2141.8547460861341,-281.59147837649209,281.59147837649209,-2141.8547460861341,3908.872278838176,0.0
578296.95196600363,3570566.251970998,-32500.0,1568.4322782605175,2013.1715890583589,759.14995891423564,1170.7808111326794,986.08052706010312,584.72221287468869,2404.9128481944354,2138.8479950851679,251.10531306957705,-251.10531306957705,-2138.8479950851679,4473.7401895432313,0.0
583296.95196600363,3570566.251970998,-32500.0,1403.5773432850635,2231.1142869457308,1511.9149865859986,1250.2691389467914,1407.3025863721014,762.09700224430969,2696.6665586898603,2009.8527568143943,884.0366983893316,-884.0366983893316,-2009.8527568143943,5104.6414069694583,0.0
588296.95196600363,3570566.251970998,-32500.0,1165.2937065622941,2338.0582635957639,2347.2962846096498,1271.4393820644091,1863.0488365039462,951.09668486638361,3007.8516707451422,1743.0224480724009,1590.3238558024486,-1590.3238558024486,-1743.0224480724009,5775.6617309848607,0.0
593296.95196600363,3570566.251970998,-32500.0,873.73882357709056,2303.4526438319886,3221.659450604524,1221.1790886679673,2330.9585508733931,1142.9151878275236,3325.3177442087549,1340.6374135291826,2327.7683854031075,-2327.7683854031075,-1340.6374135291826,6453.2784762908732,0.0
598296.95196600363,3570566.251970998,-32500.0,560.30332303900514,2107.6712866168687,4077.3146066594959,1091.6835129981198,2782.5451335467305,1326.6009826535953,3633.4040389788893,822.38581905122601,3041.2481694295143,-3041.2481694295143,-822.38581905122601,7098.6849945877484,0.0
603296.95196600363,3570566.251970998,-32500.0,264.25246254516969,1747.8095159069039,4847.9945950648244,882.87945875183982,3185.8100208970163,1490.0331195517317,3913.7924421332505,225.85418493952693,3668.5067341165823,-3668.5067341165823,-225.85418493952693,7671.092940987236,0.0
608296.95196600363,3570566.251970998,-32500.0,26.769744719943713,1241.3102288975265,5467.4221078193823,603.87288776064065,3509.1522711218172,1621.334688251374,4145.3067760113272,-396.73652244904019,4148.8512566309519,-4148.8512566309519,396.73652244904019,8131.8418331686325,0.0
613296.95196600363,3570566.251970998,-32500.0,-116.54135033783953,625.90594947337877,5879.5327385937408,272.81395724795561,3725.9413208185206,1710.5009365924063,4307.48640075206,-985.56466806830167,4433.185557823952,-4433.185557823952,985.56466806830167,8448.8094072039657,0.0
618296.95196600363,3570566.251970998,-32500.0,-142.85522318055246,-44.793841632908794,6048.0459225957975,-85.075564168211571,3818.7702155057004,1750.9074868458956,4385.8347757273077,-1482.7815008502816,4492.9883460543442,-4492.9883460543442,1482.7815008502816,8600.3632111342304,0.0
623296.95196600363,3570566.251970998,-32500.0,-46.959378311274939,-709.45734541187051,5962.8476003655296,-441.05074888445489,3782.3175999320538,1740.3359358449304,4374.2411456802492,-1842.3581341398365,4325.7450079535256,-4325.7450079535256,1842.3581341398365,8578.0096965090579,0.0
628296.95196600363,3570566.251970998,-32500.0,157.77513545457708,-1309.0240461090443,5641.3744677425912,-767.18539514662928,3624.0493646267555,1681.2548865310166,4275.0481165510155,-2037.6019089040228,3955.2039386381157,-3955.2039386381157,2037.6019089040228,8387.148096132627,0.0
633296.95196600363,3570566.251970998,-32500.0,442.58147033896836,-1795.9781902321351,5124.6464655592481,-1040.4561961459624,3362.5910600187231,1580.293129401859,4098.0332073535974,-2064.389574575524,3426.3775221445198,-3426.3775221445198,2064.389574575524,8045.7812972700112,0.0
638296.95196600363,3570566.251970998,-32500.0,769.5886292083627,-2140.6048774735245,4469.160509999032,-1245.6067350984833,3024.2416725888634,1447.0494353529891,3858.7227636600433,-1939.5337583879716,2796.7843185381153,-2796.7843185381153,1939.5337583879716,7581.4747588365954,0.0
643296.95196600363,3570566.251970998,-32500.0,1099.2847065469903,-2333.0529330929321,3737.0412758783009,-1376.2694813939777,2638.6291364318713,1292.5727535491849,3576.2755312528557,-1695.2554400873278,2126.4719961381729,-2126.4719961381729,1695.2554400873278,7027.3839622851638,0.0
648296.95196600363,3570566.251970998,-32500.0,1397.1224730729696,-2381.3626697309192,2986.8655276270674,-1434.3516914342044,2234.5184671933139,1127.8491539486599,3270.682247783041,-1371.6810347720957,1469.2630890066002,-1469.2630890066002,1371.6810347720957,6418.0872265775643,0.0
653296.95196600363,3570566.251970998,-32500.0,1637.8771514866489,-2306.7375159451408,2267.0340867563373,-1428.1680634280603,1836.6236673572994,962.60179555687375,2959.2792729592584,-1009.5005489731896,866.92997255346927,-866.92997255346927,1009.5005489731896,5786.0482948216668,0.0
658296.95196600363,3570566.251970998,-32500.0,1807.3055653340709,-2137.7331530706915,1612.3911073402739,-1369.9919445948376,1463.7838826590064,804.54593301977525,2654.6652842576368,-644.33141762896003,346.78300742648855,-346.78300742648855,644.33141762896003,5159.1083364547831,0.0
663296.95196600363,3570566.251970998,-32500.0,1901.4856874645966,-1904.8452202721621,1043.8312807741199,-1273.6552137868821,1128.4667623189957,659.11047992794204,2365.4430476627535,-303.4701587051054,-77.807488696447749,77.807488696447749,303.4701587051054,4559.1390763484414,0.0
668296.95196600363,3570566.251970998,-32500.0,1924.6689000689539,-1636.4092785285475,570.02685096746063,-1152.619458764899,837.27856496431332,529.53386362397384,2097.4539211602214,-4.9186334359824571,-404.97309380863578,404.97309380863578,4.9186334359824571,4001.7190410305702,0.0
673296.95196600363,3570566.251970998,-32500.0,1886.5386522581875,-1356.1141087010865,190.2521956768735,-1018.6955232532372,592.06229615724908,417.19807476696081,1854.280246009263,241.9058585773966,-641.07792325618516,641.07792325618516,-241.9058585773966,3496.555215648063,0.0
678296.95196600363,3570566.251970998,-32500.0,1799.5717067146429,-1081.9775550144918,-102.55306747058438,-881.39390056567117,391.20597175815692,322.06959943637719,1637.5254699059158,434.5053782528193,-797.46744343170349,797.46744343170349,-434.5053782528193,3048.3464404431302,0.0
683296.95196600363,3570566.251970998,-32500.0,1676.9085536943667,-826.40305300686703,-319.04690613225944,-747.7749511633192,230.89102682844222,243.14635273728618,1447.1692418775658,575.31472514784753,-887.74570044263567,887.74570044263567,-575.31472514784753,2657.8274780430138,0.0
553296.95196600363,3575566.251970998,-32500.0,1359.1217655197388,215.13892658258925,-1593.6397680939908,375.41897427156238,-460.94816884156648,-50.124192623237249,1603.9050594826726,1351.5286515681328,-1605.4485576478987,1605.4485576478987,-1351.5286515681328,2782.5707041014898,0.0
558296.95196600363,3575566.251970998,-32500.0,1578.7566940207964,555.81394003227626,-1443.6166726751524,558.34410023895941,-315.82084158845311,29.730266764583,1732.5545612494366,1679.9742227714084,-1531.7236949709938,1531.7236949709938,-1679.9742227714084,3002.2903997725266,0.0
563296.95196600363,3575566.251970998,-32500.0,1759.205494804384,941.27926037555108,-1182.87922936721,757.15761923383059,-108.34998688990028,136.06882002627651,1894.6104447482703,1988.5102437584555,-1358.5065606235421,1358.5065606235421,-1988.5102437584555,3305.7724742054324,0.0
568296.95196600363,3575566.251970998,-32500.0,1879.2311444987768,1354.9695405072614,-789.72980531498138,962.10998346586632,170.71462668674897,272.04484232440433,2097.9630670604693,2248.0245132843247,-1064.505858442777,1064.505858442777,-2248.0245132843247,3713.3687618124536,0.0
573296.95196600363,3575566.251970998,-32500.0,1918.1846297663562,1770.6421913124234,-247.51928138002322,1159.041235120216,527.41843392688281,439.36479712413569,2347.8098566793465,2424.5227350312298,-633.39574292032216,633.39574292032216,-2424.5227350312298,4236.1134674567238,0.0
578296.95196600363,3575566.251970998,-32500.0,1859.7037439979306,2152.225216606952,450.49121850908756,1329.5562294570611,962.3056233390995,637.42798332461632,2644.8157224613001,2482.4380132648066,-58.651344580519208,58.651344580519208,-2482.4380132648066,4871.8443586154181,0.0
583296.95196600363,3575566.251970998,-32500.0,1696.2226816060024,2455.6834186710689,1295.7623292529406,1452.1362810580144,1468.0112177327514,862.46284858256035,2983.9589099921691,2389.8940817087177,651.1907157574949,-651.1907157574949,-2389.8940817087177,5603.9316106756951,0.0
588296.95196600363,3575566.251970998,-32500.0,1433.4426251550792,2633.51127738581,2259.7390343772977,1504.4050437536857,2027.2779218498001,1106.8600521821859,3354.3124252718949,2125.5359112618357,1468.0348289128103,-1468.0348289128103,-2125.5359112618357,6401.9287569336047,0.0
593296.95196600363,3575566.251970998,-32500.0,1093.4399045133255,2641.9319767313705,3291.3599846498159,1466.5250597483125,2612.1218777665426,1358.9617722246974,3739.6876409819452,1685.7879111025532,2342.1340062422441,-2342.1340062422441,-1685.7879111025532,7223.4895840375066,0.0
598296.95196600363,3575566.251970998,-32500.0,714.86562805299582,2449.9654195663547,4318.5588938933843,1325.3042526897739,3184.8875695866113,1603.558182420732,4119.4816842243235,1090.6264065753896,3204.1147267539372,-3204.1147267539372,-1090.6264065753896,8017.5193474915959,0.0
603296.95196600363,3575566.251970998,-32500.0,349.04197038742865,2048.4597826531681,5254.9593251376273,1078.1564644069672,3701.6631374208491,1823.2375831496997,4468.544791545256,385.59026621063981,3972.1966267951038,-3972.1966267951038,-385.59026621063981,8728.7887151007853,0.0
608296.95196600363,3575566.251970998,-32500.0,51.798974591098343,1456.3876967468875,6011.6614114129979,735.7536351869245,4117.9423852027367,2000.5281366307677,4757.6715313934019,-361.82677826154941,4564.2909877655284,-4564.2909877655284,361.82677826154941,9303.9180966285312,0.0
613296.95196600363,3575566.251970998,-32500.0,-127.53997759665555,721.76262025599647,6512.168631264447,322.26246980910054,4395.6218353958093,2120.4931851813853,4958.9803679534934,-1071.8268590033495,4912.7812185369221,-4912.7812185369221,1071.8268590033495,9698.0387432405969,0.0
618296.95196600363,3575566.251970998,-32500.0,-157.14961471294606,-84.25223607319154,6706.8329447131218,-127.41157616149549,4509.7120451361461,2173.2041934729291,5052.8774012754211,-1666.3295338782166,4978.2001092325045,-4978.2001092325045,1666.3295338782166,9880.8806382811799,0.0
623296.95196600363,3575566.251970998,-32500.0,-30.219241735603269,-879.27003654426608,6582.6488883709835,-573.022635973295,4452.932423903475,2155.4518825410378,5031.4224546753812,-2083.754900933166,4757.6612686739072,-4757.6612686739072,2083.754900933166,9840.9279023937852,0.0
628296.95196600363,3575566.251970998,-32500.0,233.59739882910193,-1584.6189599362949,6165.2794638562364,-975.73643555117098,4236.8002198430358,2071.2040786103021,4898.5748260007504,-2290.2489599022174,4285.2101618813167,-4285.2101618813167,2290.2489599022174,9586.5643832005808,0.0
633296.95196600363,3575566.251970998,-32500.0,593.30615109710084,-2139.0354820096372,5512.7075743949508,-1304.4172318505205,3888.9083389423067,1930.6904090817422,4668.6963010066884,-2284.0864066812896,3623.9419169991211,-3623.9419169991211,2284.0864066812896,9143.945129157526,0.0
638296.95196600363,3575566.251970998,-32500.0,996.41725191448347,-2507.3729411073318,4702.6920664584495,-1539.8200708395445,3447.2874557999739,1748.4045599553519,4363.9113781487704,-2092.4328591053977,2852.5184498044296,-2852.5184498044296,2092.4328591053977,8552.2016726424918,0.0
643296.95196600363,3575566.251970998,-32500.0,1390.1860352571493,-2682.5672903036284,3817.995121747857,-1675.8581589948344,2953.558332186009,1540.6044160028766,4010.6351036095248,-1762.2801610193294,2050.3112282760967,-2050.3112282760967,1762.2801610193294,7857.2399423251045,0.0
648296.95196600363,3575566.251970998,-32500.0,1730.9584614035903,-2681.5213243061016,2933.4241918455664,-1718.128964478454,2446.6829600701067,1322.949238702628,3635.1614506879723,-1348.9616399039564,1285.1775022456472,-1285.1775022456472,1348.9616399039564,7105.5862701015258,0.0
653296.95196600363,3575566.251970998,-32500.0,1989.6020083304315,-2537.2597830560526,2107.3128363293899,-1680.6277963771881,1958.5611356788368,1108.7386083396207,3259.0336144822577,-905.65522032918852,606.22284506813776,-606.22284506813776,905.65522032918852,6339.3958296687133,0.0
658296.95196600363,3575566.251970998,-32500.0,2152.7063777402182,-2290.1882529941131,1378.1638960508524,-1581.8533030964966,1511.9347314716977,907.96348419880553,2897.2837982073324,-476.10503581834178,41.879813413542223,-41.879813413542223,476.10503581834178,5593.2728249062138,0.0
663296.95196600363,3575566.251970998,-32500.0,2220.51656075242,-1980.6351191221454,765.55226377367524,-1441.2870958315455,1120.308697392567,727.10568783460087,2559.7948942158932,-91.194510128551144,-397.92190362583244,397.92190362583244,91.194510128551144,4892.880979086719,0.0
668296.95196600363,3575566.251970998,-32500.0,2203.1168391613965,-1643.7990507267921,273.67206128152321,-1276.8226344826428,789.24630538855286,569.48745012322149,2252.7145328864071,231.20219928651818,-717.31431244398652,717.31431244398652,-231.20219928651818,4255.030870269602,0.0
673296.95196600363,3575566.251970998,-32500.0,2116.2572559745645,-1307.2127785510168,-104.10854007894248,-1103.2815957333391,518.31447028534717,435.9194490745025,1979.1320692918014,484.25678438903708,-929.46245878881757,929.46245878881757,-484.25678438903708,3688.7194357012345,0.0
678296.95196600363,3575566.251970998,-32500.0,1977.7512623207747,-990.22373957008301,-380.87507256369179,-931.86875691013245,303.10934350624382,325.4341673623515,1739.619308268348,669.29039432242973,-1052.0814499487687,1052.0814499487687,-669.29039432242973,3196.6333042837723,0.0
683296.95196600363,3575566.251970998,-32500.0,1804.865690387079,-704.77638291289247,-572.62340134754163,-770.28873439967811,137.0145589631135,235.96223011925005,1532.8418371554817,792.8255795930263,-1104.0382195459006,1104.0382195459006,-792.8255795930263,2776.7506202491595,0.0
688296.95196600363,3575566.251970998,-32500.0,1612.7393304503919,-456.83388415265142,-695.7475770113997,-623.23933378309164,12.542206502547263,164.87819434672465,1356.1792594210165,864.09207555216835,-1103.1269964150733,1103.1269964150733,-864.09207555216835,2423.8173426083217,0.0
548296.95196600363,3580566.251970998,-32500.0,1074.704245381922,-329.85458040265405,-1946.3495392104808,105.39143327923125,-739.73358929658559,-186.95104831450681,1689.1802701436914,893.38865439551682,-1828.7941414100328,1828.7941414100328,-893.38865439551682,2984.6881067046656,0.0
553296.95196600363,3580566.251970998,-32500.0,1374.4141757794353,-30.783414357424654,-1941.2062095677231,287.36883792400204,-662.84530952396244,-129.87662769923571,1796.7995531155216,1277.1278376402815,-1893.0809191931953,1893.0809191931953,-1277.1278376402815,3136.4389398739513,0.0
558296.95196600363,3580566.251970998,-32500.0,1663.2986920319231,338.98774232669257,-1845.2837907936894,501.24533265167082,-526.83501943356589,-45.000317173919335,1927.8397540304536,1680.2967322772922,-1879.2445854017426,1879.2445854017426,-1680.2967322772922,3341.5374749476682,0.0
563296.95196600363,3580566.251970998,-32500.0,1917.9970463982415,774.37378369251815,-1628.5984020290048,741.98946618967523,-316.67217437540529,73.600819368807635,2093.5207148755262,2078.1647531355679,-1757.9342867287482,1757.9342867287482,-2078.1647531355679,3631.8401156572618,0.0
568296.95196600363,3580566.251970998,-32500.0,2110.9032711889645,1260.1910383250022,-1260.4289036649097,999.35264267735374,-17.937334558265267,231.29752916967547,2305.8833144654118,2436.5131737498473,-1498.9307614779661,1498.9307614779661,-2436.5131737498473,4040.2165512436145,0.0
573296.95196600363,3580566.251970998,-32500.0,2212.9416919712608,1768.46520290995,-713.8023678744313,1256.8277174979037,380.73938846944304,431.88647523584802,2575.0885683131692,2712.6055617772231,-1075.6715415363774,1075.6715415363774,-2712.6055617772231,4591.4527551728279,0.0
578296.95196600363,3580566.251970998,-32500.0,2198.2222929916229,2257.0304977754408,28.099662391009424,1491.3332767800509,884.41578024163186,676.28770618474641,2906.2720833211029,2858.6196025152785,-471.67999458027066,471.67999458027066,-2858.6196025152785,5293.797415581912,0.0
583296.95196600363,3580566.251970998,-32500.0,2050.3546434345135,2670.6731085266656,964.14590502233807,1674.1705403239789,1488.0787427114276,961.11041323975212,3297.0323398721252,2828.1091743272036,311.70377252640515,-311.70377252640515,-2828.1091743272036,6134.5184326832323,0.0
588296.95196600363,3580566.251970998,-32500.0,1769.4430438548864,2946.0544851642003,2067.4860306852688,1773.7532931278677,2173.123335038355,1277.3842336848622,3736.3327682745626,2585.3819182561392,1247.7938884723203,-1247.7938884723203,-2585.3819182561392,7079.6408512948492,0.0
593296.95196600363,3580566.251970998,-32500.0,1377.8581811022884,3021.0132981123652,3280.1799710594491,1760.2835771282885,2905.201493295669,1609.8834939943847,4204.8167984423835,2116.4611489723497,2279.6819842476511,-2279.6819842476511,-2116.4611489723497,8076.3372352578499,0.0
598296.95196600363,3580566.251970998,-32500.0,922.25794891612907,2847.5092427547647,4513.132206397655,1611.9359823626257,3634.7544507378961,1937.514570855283,4675.5292183693118,1438.9094527130578,3320.9194946862531,-3320.9194946862531,-1438.9094527130578,9057.2470608281528,0.0
603296.95196600363,3580566.251970998,-32500.0,469.52721186649114,2405.635025389292,5653.8114094064622,1321.3199187709774,4301.2956224418858,2235.1284986892711,5113.7161119095317,606.79809106537323,4264.0861561007741,-4264.0861561007741,-606.79809106537323,9947.0147480908308,0.0
608296.95196600363,3580566.251970998,-32500.0,95.753260237040578,1714.435266091928,6582.3009560113578,900.28832434115043,4841.5656176743014,2476.755700953313,5478.4891202890758,-292.66632106494035,4997.4787108299142,-4997.4787108299142,292.66632106494035,10671.067550775915,0.0
613296.95196600363,3580566.251970998,-32500.0,-130.03533896467857,834.91644813553307,7193.2081251232667,381.06853688508318,5200.3310749376096,2639.7838433666921,5731.1135637959997,-1152.2668234556036,5427.0182844184037,-5427.0182844184037,1152.2668234556036,11165.794145326254,0.0
618296.95196600363,3580566.251970998,-32500.0,-162.87948192531678,-137.66789701971749,7417.7766729667137,-187.52881370083489,5341.1681632415248,2709.0927653783497,5844.6092631461288,-1865.4957196832322,5497.3915023243489,-5497.3915023243489,1865.4957196832322,11388.139830383698,0.0
623296.95196600363,3580566.251970998,-32500.0,6.201468008071326,-1091.4735625185344,7239.1726109242563,-748.44104950798567,5253.9862073720633,2679.9674163739387,5808.534994213258,-2349.1064076911234,5205.3734732549465,-5205.3734732549465,2349.1064076911234,11322.24239194785,0.0
628296.95196600363,3580566.251970998,-32500.0,347.9904907849297,-1920.7589171640675,6695.5148493157458,-1247.0464399533573,4956.7663816233162,2558.8662616633187,5629.5058220960236,-2560.1656796612806,4600.3321684078846,-4600.3321684078846,2560.1656796612806,10981.227943942931,0.0
633296.95196600363,3580566.251970998,-32500.0,803.45260676649787,-2546.407967253172,5869.5691124095592,-1641.0135747693471,4490.9317979670595,2361.8041251728969,5328.8847400027807,-2502.036271993361,3771.5977898921901,-3771.5977898921901,2502.036271993361,10403.651669555938,0.0
638296.95196600363,3580566.251970998,-32500.0,1299.3766671868993,-2928.0326447629241,4869.0061754396247,-1906.4599460427792,3912.0314055898502,2110.917736758528,4938.4945402691737,-2218.1302674770423,2827.3681993940336,-2827.3681993940336,2218.1302674770423,9645.7149047460662,0.0
643296.95196600363,3580566.251970998,-32500.0,1765.4532679144857,-3065.1103498303064,3804.1087305669316,-2039.1338878981646,3278.8436195923691,1830.3109077626978,4494.9475624063534,-1776.9505651667644,1872.4486665255056,-1872.4486665255056,1776.9505651667644,8771.5136709998642,0.0
648296.95196600363,3580566.251970998,-32500.0,2147.3860494978953,-2988.9108539214017,2769.5276446099688,-2051.2188259964933,2644.0166237305684,1542.3298885865167,4032.8753174917765,-1254.4463018771235,991.3055520493017,-991.3055520493017,1254.4463018771235,7843.8074773309345,0.0
653296.95196600363,3580566.251970998,-32500.0,2413.2323234657279,-2749.6372956989071,1833.8088725991433,-1965.614866682924,2048.1607624023436,1265.030310371857,3579.057168100976,-719.19628351660049,239.63165472142927,-239.63165472142927,719.19628351660049,6917.0899182800686,0.0
658296.95196600363,3580566.251970998,-32500.0,2553.1847054259824,-2403.4537771528608,1036.9663025128209,-1809.7946708744034,1517.7699014970692,1011.062700572051,3151.214804247908,-223.434613534562,-355.95399900619316,355.95399900619316,223.434613534562,6033.7038053312581,0.0
663296.95196600363,3580566.251970998,-32500.0,2574.9500604457194,-2002.5326378749176,393.95088090837834,-1610.7571108391162,1066.1632579633279,787.75360160397997,2760.1723550031161,199.84673487128674,-792.71863280871548,792.71863280871548,-199.84673487128674,5222.7476656205808,0.0
668296.95196600363,3580566.251970998,-32500.0,2497.3756186977262,-1589.2658581654944,-98.89194422215958,-1391.7691771842963,696.18277287407682,597.95858082090865,2411.6851847357384,535.27615352701173,-1084.2943294450795,1084.2943294450795,-535.27615352701173,4501.040889545654,0.0
673296.95196600363,3580566.251970998,-32500.0,2344.3705278795214,-1194.2163754633436,-456.86891183359,-1170.8530061008003,403.44457246067196,441.23706558297573,2107.5067287685943,781.08473668443935,-1253.2981498513532,1253.2981498513532,-781.08473668443935,3875.2003779673628,0.0
678296.95196600363,3580566.251970998,-32500.0,2140.2479269150235,-836.6834118226592,-700.99796283096123,-960.6050669740722,179.34801574264802,315.02751665882175,1846.3470171496742,944.47982378363531,-1325.4586121898928,1325.4586121898928,-944.47982378363531,3344.1155145557154,0.0
683296.95196600363,3580566.251970998,-32500.0,1906.7762789160749,-526.66188267311543,-853.68914672387564,-768.82158666408429,13.440841495803243,215.63320994033666,1624.8403021902288,1037.5331400444031,-1325.6611590861173,1325.6611590861173,-1037.5331400444031,2901.329411698167,0.0
688296.95196600363,3580566.251970998,-32500.0,1661.731085756551,-267.25441405499248,-936.03538711496833,-599.48470131107717,-104.94732802961038,138.95192152108805,1438.4294600039057,1074.0716735467997,-1275.7311317763085,1275.7311317763085,-1074.0716735467997,2537.1016305938911,0.0
693296.95196600363,3580566.251970998,-32500.0,1418.5335942553222,-56.952336680694408,-966.40099524758375,-453.80335619514653,-185.71758438643957,80.957457425032487,1282.0894106310873,1067.6276097074963,-1193.5222755194966,1193.5222755194966,-1067.6276097074963,2240.0909693354247,0.0
543296.95196600363,3585566.251970998,-32500.0,618.82721085153059,-862.48842815682224,-2110.557482389876,-210.36797094325388,-957.72686682861251,-319.81848134342903,1813.4579776160981,293.65148383772248,-1854.5334157357993,1854.5334157357993,-293.65148383772248,3299.2145314556947,0.0
548296.95196600363,3585566.251970998,-32500.0,961.89710026624937,-647.40835094945385,-2235.9345924289933,-54.443868968127468,-955.36126679385166,-292.86745562147598,1917.0233815646689,678.49921951689043,-2038.5540447495507,2038.5540447495507,-678.49921951689043,3434.0189771376636,0.0
553296.95196600363,3585566.251970998,-32500.0,1327.9027972185356,-349.62929693332387,-2303.6745316446791,144.87308190003537,-905.68963785753317,-240.51857464247402,2031.2174145371428,1119.2890743865191,-2178.8653178419763,2178.8653178419763,-1119.2890743865191,3583.7080970464253,0.0
558296.95196600363,3585566.251970998,-32500.0,1697.8636598565097,38.528586442939748,-2282.5219743232251,388.9906787202288,-790.5822779842108,-154.74321992107681,2165.0305085851232,1602.1702048682723,-2245.2618757128625,2245.2618757128625,-1602.1702048682723,3772.9282862037107,0.0
563296.95196600363,3585566.251970998,-32500.0,2044.7740352783724,517.44776494087864,-2134.9082477498541,674.82285460407729,-589.42873743118582,-26.778099947956381,2331.6686233377923,2102.0311030457692,-2200.9932442247277,2200.9932442247277,-2102.0311030457692,4039.1008171609315,0.0
568296.95196600363,3585566.251970998,-32500.0,2334.1079015270711,1075.8664338082654,-1819.316255864481,992.71326590142917,-280.81757147329341,152.03613313145325,2547.6943932242739,2580.4789895426743,-2005.1465179970567,2005.1465179970567,-2580.4789895426743,4428.8576402992339,0.0
573296.95196600363,3585566.251970998,-32500.0,2526.4392891733451,1686.326996177967,-1295.2100185111813,1324.4419923576679,154.47328531466866,388.89122110289469,2830.0856296695306,2985.5858730899499,-1617.6486502350044,1617.6486502350044,-2985.5858730899499,4987.0109339020009,0.0
578296.95196600363,3585566.251970998,-32500.0,2582.8961220414262,2301.6744598545029,-531.04334015017571,1641.9574013462704,729.02667768935862,687.60380223102493,3191.5060907074071,3254.7943726863596,-1007.3712799208097,1007.3712799208097,-3254.7943726863596,5741.3024982120041,0.0
583296.95196600363,3585566.251970998,-32500.0,2473.6195084154119,2854.4987316439278,484.87474200427573,1907.7295149221654,1443.1234338599691,1046.3103644592577,3635.4244209888084,3322.2910631034874,-163.02606899193279,163.02606899193279,-3322.2910631034874,6690.6176110661236,0.0
588296.95196600363,3585566.251970998,-32500.0,2188.2907309241309,3261.742314707838,1732.2168622043996,2077.7052851592966,2278.7761193383894,1455.1689865840644,4152.9984993674416,3131.3756964812255,894.85330199760392,-894.85330199760392,-3131.3756964812255,7801.0923299480164,0.0
593296.95196600363,3585566.251970998,-32500.0,1746.192105588206,3436.1338989949636,3148.451078109224,2107.5003277200417,3195.1437032273798,1894.7447339611474,4722.3052349995351,2650.5991306153469,2104.2832443814054,-2104.2832443814054,-2650.5991306153469,9008.4760151588671,0.0
598296.95196600363,3585566.251970998,-32500.0,1201.8183422435686,3304.2967389541204,4625.3315217007575,1961.5752837890195,4127.6137012656309,2335.9497347616916,5308.4773033590754,1890.0187252190344,3359.335578251179,-3359.335578251179,-1890.0187252190344,10224.188522108832,0.0
603296.95196600363,3585566.251970998,-32500.0,641.6947012937818,2828.2914862556304,6016.7709558917741,1623.7186643255718,4992.7131488260393,2742.3113653048904,5863.1962236502304,911.65412954282078,4519.3434723330438,-4519.3434723330438,-911.65412954282078,11344.677131449034,0.0
608296.95196600363,3585566.251970998,-32500.0,169.89379035655307,2024.0641786694976,7160.3192355816591,1105.7159317635765,5699.7333988018745,3074.8273019197741,6328.3909545098877,-172.23718282186201,5431.5756395608969,-5431.5756395608969,172.23718282186201,12264.468129176013,0.0
613296.95196600363,3585566.251970998,-32500.0,-116.00998498269739,968.7325011626815,7909.4053934587073,450.47911596345165,6167.5159163782364,3298.7518060014067,6649.2001570891416,-1216.6612181947526,5963.825448866377,-5963.825448866377,1216.6612181947526,12891.93113187981,0.0
618296.95196600363,3585566.251970998,-32500.0,-151.62116566269458,-209.17045968593723,8167.6131990035101,-273.01555790315956,6342.069011093703,3390.6362827947673,6787.6744230447457,-2074.7461206858557,6037.525598447246,-6037.525598447246,2074.7461206858557,13164.678716334331,0.0
623296.95196600363,3585566.251970998,-32500.0,75.02503168634307,-1356.120649566943,7913.0163027585113,-982.75618824437129,6209.202138359602,3343.4289092760687,6729.8645646218974,-2632.7157305416536,5649.2400714698451,-5649.2400714698451,2632.7157305416536,13060.476347351661,0.0
628296.95196600363,3585566.251970998,-32500.0,519.96572374156801,-2328.6939203289289,7202.8090320894698,-1600.9832305978337,5797.3774715695663,3167.800992537711,6486.7749341966673,-2836.2861847768431,4871.4251769088696,-4871.4251769088696,2836.2861847768431,12600.119156905361,0.0
633296.95196600363,3585566.251970998,-32500.0,1097.271084693688,-3024.8024041397689,6156.2863396146886,-2069.9145124934116,5169.6693567383281,2889.2256147261132,6090.6267479804146,-2698.7158015177242,3831.8188552974184,-3831.8188552974184,2698.7158015177242,11841.350509001404,0.0
638296.95196600363,3585566.251970998,-32500.0,1704.3024058389899,-3400.4058404590751,4923.2940732442776,-2360.8045968105107,4408.0527337626909,2541.9350928481654,5587.7041263557494,-2288.9233571740128,2679.9277813849253,-2679.9277813849253,2288.9233571740128,10865.931373641641,0.0
643296.95196600363,3585566.251970998,-32500.0,2247.8398877840436,-3468.1350938340879,3650.3610405331351,-2474.3761919093026,3595.8436346123081,2161.9064893740333,5029.0763343722228,-1706.5990565702286,1553.4859790718369,-1553.4859790718369,1706.5990565702286,9764.0536448816929,0.0
648296.95196600363,3585566.251970998,-32500.0,2662.1601570247408,-3282.0408711631953,2455.3421133270708,-2434.2513135762019,2803.7298164691406,1780.9803614874249,4460.4251141767982,-1055.1109069439322,555.38896444205716,-555.38896444205716,1055.1109069439322,8620.4307037396193,0.0
653296.95196600363,3585566.251970998,-32500.0,2915.452275160962,-2916.7386180207977,1415.5230277099938,-2277.0659362181154,2082.2070970369482,1423.3197814375062,3914.7976477269194,-421.04174417325152,-254.94203580432151,254.94203580432151,421.04174417325152,7504.8046925850003,0.0
658296.95196600363,3585566.251970998,-32500.0,3006.3152891019818,-2448.5988647592117,568.04880243754099,-2042.9343933405844,1460.3340055597253,1104.3546000599797,3412.42031384538,135.94040643278561,-858.02113861039675,858.02113861039675,-135.94040643278561,6467.6494298138914,0.0
663296.95196600363,3585566.251970998,-32500.0,2954.7558061066652,-1943.1240718887357,-81.967162466530738,-1768.4721031300535,948.8156545675306,831.57240993794335,2964.1103519742005,583.95572877483812,-1263.9345796911566,1263.9345796911566,-583.95572877483812,5540.081406437369,0.0
668296.95196600363,3585566.251970998,-32500.0,2792.1006860418543,-1449.1575232803243,-550.6035826811476,-1483.009040852163,545.06734352403373,606.30682678708877,2573.9260202292417,913.98157939342968,-1500.3480992209186,1500.3480992209186,-913.98157939342968,4736.4880886509245,0.0
673296.95196600363,3585566.251970998,-32500.0,2552.6229790816456,-998.33810713628827,-865.09168413889188,-1207.4773666278811,238.38350704577479,425.76511991189454,2240.9414507925176,1132.7104402907917,-1602.2492009850666,1602.2492009850666,-1132.7104402907917,4058.303385771701,0.0
678296.95196600363,3585566.251970998,-32500.0,2267.9651943702597,-607.60999131342271,-1056.2381117086936,-955.04633457747696,14.187956691334731,284.83072153634225,1960.8245886085938,1255.6962527965607,-1604.7730321014269,1604.7730321014269,-1255.6962527965607,3497.9024985041237,0.0
683296.95196600363,3585566.251970998,-32500.0,1964.2387763954159,-282.91351281366678,-1153.5940852068632,-732.61211462498795,-142.97232455200748,177.43456863830392,1727.2797331051152,1302.0142473161397,-1539.0759916861796,1539.0759916861796,-1302.0142473161397,3042.0715160887048,0.0
688296.95196600363,3585566.251970998,-32500.0,1661.1266498176192,-22.845549977980411,-1182.9169712720211,-542.49973390185016,-247.60412966707224,97.471939898591927,1533.2390415690629,1290.7107924309398,-1430.5652281240177,1430.5652281240177,-1290.7107924309398,2674.8654215824272,0.0
693296.95196600363,3585566.251970998,-32500.0,1372.2255434880469,178.30536400750651,-1165.2393305218766,-384.01000960207966,-312.34765704686311,39.336401043075853,1371.7366381424968,1238.8039807137798,-1298.6590455869468,1298.6590455869468,-1238.8039807137798,2379.8350195952394,0.0
698296.95196600363,3585566.251970998,-32500.0,1106.0026000048524,328.32231599586328,-1116.9108795834766,-254.65508248457641,-347.66497977397171,-1.8267587433534214,1236.4625926833462,1160.4148975483972,-1157.3824738384551,1157.3824738384551,-1160.4148975483972,2141.6275325851884,0.0
538296.95196600363,3590566.251970998,-32500.0,29.258828071399805,-1313.4112718472566,-2084.6791643593783,-540.41564470579851,-1094.2087397883734,-436.55015499757877,1951.2726098501291,-378.63430184868139,-1686.6315014167121,1686.6315014167121,378.63430184868139,3652.9705105417106,0.0
543296.95196600363,3590566.251970998,-32500.0,366.64552168049346,-1208.5110837195955,-2305.4406497573677,-433.22478819730935,-1161.2046702218042,-443.36740494301773,2069.7872374351009,-48.566301703208751,-1950.9187873689007,1950.9187873689007,48.566301703208751,3823.8041577923368,0.0
548296.95196600363,3590566.251970998,-32500.0,757.29407414690513,-1025.703115368301,-2506.4701633996024,-278.80160423983227,-1198.9023315553643,-430.81192182560812,2190.5119276229502,361.79774526674703,-2210.0896117133029,2210.0896117133029,-361.79774526674703,3985.9185947431497,0.0
553296.95196600363,3590566.251970998,-32500.0,1192.0123065495143,-747.41615881645362,-2662.3870188853061,-69.445674810008498,-1189.7548271322398,-390.08163959402492,2316.8954997461638,852.58416259389969,-2440.4706423749681,2440.4706423749681,-852.58416259389969,4147.0838031355197,0.0
558296.95196600363,3590566.251970998,-32500.0,1652.5955663644825,-358.41787720299442,-2738.3049362892816,200.19637503647752,-1111.2482947477088,-310.35046180808132,2456.5995219079755,1414.5944105646518,-2608.6233414131802,2608.6233414131802,-1414.5944105646518,4327.1593267993749,0.0
563296.95196600363,3590566.251970998,-32500.0,2109.7869478927191,149.96583866047993,-2689.3059229916935,530.74798021657625,-936.16009430403744,-179.07987058658867,2623.2220796818797,2025.1251809386645,-2670.7313455556937,2670.7313455556937,-2025.1251809386645,4563.7107648766087,0.0
568296.95196600363,3590566.251970998,-32500.0,2522.4770281744595,774.00725123830591,-2461.8897570142044,915.03464344592601,-634.05225379889521,17.088855864854693,2837.0338176108071,2643.9370738803668,-2574.0344194577342,2574.0344194577342,-2643.9370738803668,4914.0922056719473,0.0
573296.95196600363,3590566.251970998,-32500.0,2839.43239797262,1490.5852915286766,-1998.7121496233754,1334.684263267068,-174.62700239184352,290.63130610902334,3123.0565574493221,3210.7888986332227,-2261.6561111369765,2261.6561111369765,-3210.7888986332227,5447.3594626669883,0.0
578296.95196600363,3590566.251970998,-32500.0,3004.9837101920807,2250.4592190894955,-1247.878830932797,1757.2062839745251,466.53246874666854,650.46908297191828,3505.3312509594007,3646.651074947828,-1682.0840409740399,1682.0840409740399,-3646.651074947828,6223.1126745158344,0.0
583296.95196600363,3590566.251970998,-32500.0,2969.6710335236835,2974.4457058913135,-177.32655091296789,2134.9126072755198,1299.783765631222,1098.3995324090658,3998.6259940386904,3861.0836343812216,-803.74129953434044,803.74129953434044,-3861.0836343812216,7266.3756261078433,0.0
588296.95196600363,3590566.251970998,-32500.0,2705.3872246973501,3556.1597765838646,1207.0026160064569,2407.4299424121509,2311.7358165539581,1625.0999509659359,4601.1462285320613,3767.6162277195026,366.85554224075872,-366.85554224075872,-3767.6162277195026,8552.8844558245892,0.0
593296.95196600363,3590566.251970998,-32500.0,2222.0372566074575,3874.9357769299977,2843.337146371081,2509.3897425778327,3456.39856143825,2206.7284238584111,5290.7914983069832,3306.7176656394154,1767.7953483325759,-1767.7953483325759,-3306.7176656394154,10008.612531339095,0.0
598296.95196600363,3590566.251970998,-32500.0,1579.7353425756855,3820.3380806174068,4603.8183866540767,2383.6875917950233,4650.9434694947549,2803.6432122707029,6023.4400724532406,2471.9189506907201,3272.7983725631234,-3272.7983725631234,-2471.9189506907201,11518.094630645806,0.0
603296.95196600363,3590566.251970998,-32500.0,888.82668652454083,3324.8447412100754,6300.3668447497475,1998.3376000294504,5780.3264936232081,3362.8654083196025,6731.6243528079885,1330.0798660461148,4699.0833102416327,-4699.0833102416327,-1330.0798660461148,12938.223790544273,0.0
608296.95196600363,3590566.251970998,-32500.0,291.81320962405346,2395.0227157919035,7712.4445419276426,1362.0115883250357,6713.4360831880404,3825.2123283601081,7331.7201263002135,24.403027924214712,5837.2562303423656,-5837.2562303423656,-24.403027924214712,14117.893849616865,0.0
613296.95196600363,3590566.251970998,-32500.0,-72.081673047767822,1127.2667166211229,8634.4422120366416,531.46398353724987,7329.300342149455,4136.3986379666312,7744.4484862599629,-1248.0270621580885,6499.7872192057412,-6499.7872192057412,1248.0270621580885,14922.771642924774,0.0
618296.95196600363,3590566.251970998,-32500.0,-109.28072156137884,-303.6615674739914,8929.4589650224516,-394.79213505506976,7546.4034217163635,4259.2938050498597,7915.1584931661873,-2282.4383748757632,6573.5568084383613,-6573.5568084383613,2282.4383748757632,15260.592318490315,0.0
623296.95196600363,3590566.251970998,-32500.0,196.35225003600956,-1684.5922436293581,8568.7649401041399,-1297.1345149340777,7344.4317386592948,4183.1083186742308,7824.8182577421321,-2921.53658410146,6055.2161407765752,-6055.2161407765752,2921.53658410146,15099.536771875873,0.0
628296.95196600363,3590566.251970998,-32500.0,777.8058072349703,-2819.2250733148471,7639.0994582071608,-2063.4230683201513,6769.1522053886729,3925.7977241029776,7491.7736422729113,-3097.2115394002335,5052.4547211870768,-5052.4547211870768,3097.2115394002335,14473.057927709076,0.0
633296.95196600363,3590566.251970998,-32500.0,1508.6521578416523,-3576.4565319093535,6314.0307868676491,-2614.6477051225061,5918.1005993529479,3528.6311554680738,6965.4103638113656,-2841.137534714001,3749.6989191491157,-3749.6989191491157,2841.137534714001,13469.19563168787,0.0
638296.95196600363,3590566.251970998,-32500.0,2244.5338485808643,-3913.0811987798529,4802.7596460355608,-2918.1968836117035,4913.4901978574753,3045.2715313876338,6313.9150090951243,-2262.2643990475644,2354.0427790646472,-2354.0427790646472,2262.2643990475644,12208.547112695258,0.0
643296.95196600363,3590566.251970998,-32500.0,2863.3045849058076,-3866.2356929986163,3298.4654386527495,-2985.8603607555024,3873.5655825436702,2529.7238083802322,5609.0140282054426,-1505.0731030543614,1044.5883239912403,-1044.5883239912403,1505.0731030543614,10818.907289955432,0.0
648296.95196600363,3590566.251970998,-32500.0,3289.0864222988612,-3525.2531086022564,1943.9615248101582,-2860.6906408913351,2891.9891248185695,2027.0754429313949,4910.8496057224684,-708.20298262675237,-57.837131954068752,57.837131954068752,708.20298262675237,9414.2527517919843,0.0
653296.95196600363,3590566.251970998,-32500.0,3496.455154465968,-2998.384840085067,820.42328080768129,-2600.0920332817855,2029.0962829941552,1568.8589599320733,4259.3894410170942,22.67641811100043,-896.75678106114424,896.75678106114424,-22.67641811100043,8082.2355008528175,0.0
658296.95196600363,3590566.251970998,-32500.0,3500.2021909145278,-2386.4715042214066,-45.684589954620492,-2261.3774836622533,1313.3225971426216,1172.6922460061312,3676.2048974476493,624.2801658839827,-1468.6435843871773,1468.6435843871773,-624.2801658839827,6880.3488781543929,0.0
663296.95196600363,3590566.251970998,-32500.0,3339.2610858461585,-1768.3049155238855,-666.69032009235207,-1892.7105145600485,748.42625891955913,844.64284754531286,3170.073347269948,1071.7275996911628,-1804.218260241392,1804.218260241392,-1071.7275996911628,5838.2907666799265,0.0
668296.95196600363,3590566.251970998,-32500.0,3061.6574048445341,-1196.5216869829469,-1076.7551614858967,-1529.4247853224017,322.32162045473927,582.66517613109056,2741.1106312697498,1368.0147098605698,-1950.4706241873378,1950.4706241873378,-1368.0147098605698,4963.5526685243058,0.0
673296.95196600363,3590566.251970998,-32500.0,2713.8151787784032,-700.23310994125427,-1318.3272760011305,-1194.1696753517176,14.852057794183814,379.92797437480993,2383.6982051331306,1532.534501220581,-1957.3887873662582,1957.3887873662582,-1532.534501220581,4247.8701949561673,0.0
678296.95196600363,3590566.251970998,-32500.0,2334.6744287778502,-290.61590511543523,-1433.2987559704293,-899.07843150668134,-196.58208800245922,227.4406152912313,2088.9347252290618,1591.7126736138889,-1870.0864209185934,1870.0864209185934,-1591.7126736138889,3673.1986340737094,0.0
683296.95196600363,3590566.251970998,-32500.0,1953.5933372196901,33.117095902611794,-1458.3119963572381,-648.58089650401439,-333.56169627141691,115.83843160494288,1846.6474840981527,1572.6954960067526,-1725.2950288222726,1725.2950288222726,-1572.6954960067526,3216.7137444663858,0.0
688296.95196600363,3590566.251970998,-32500.0,1590.6302061115346,278.68173927665225,-1423.0043343536872,-442.04766610104235,-414.89461194494578,36.43105906817496,1646.8567976270688,1499.8063780363434,-1550.7152667269509,1550.7152667269509,-1499.8063780363434,2854.7086488224404,0.0
693296.95196600363,3590566.251970998,-32500.0,1258.0057320060821,457.03819495098145,-1350.0081551027902,-275.90876536286311,-456.00940160440695,-18.295212362581026,1480.6731501663794,1393.0283548203308,-1365.9090964599552,1365.9090964599552,-1393.0283548203308,2565.3327946495747,0.0
698296.95196600363,3590566.251970998,-32500.0,961.93374465150714,579.97964024235694,-1255.817206484079,-145.17690925648711,-469.01918675939982,-54.530480450233249,1340.7034813058533,1267.752765755587,-1183.8143836300187,1183.8143836300187,-1267.752765755587,2330.1608199941697,0.0
533296.95196600363,3595566.251970998,-32500.0,-631.20648850133591,-1628.8984443555453,-1898.4810419306816,-850.76302328467091,-1141.639177607972,-527.37489628674075,2074.7822438315688,-1042.0122368117834,-1362.2242030675973,1362.2242030675973,1042.0122368117834,3973.624611730751,0.0
538296.95196600363,3595566.251970998,-32500.0,-349.20367691941271,-1638.2340156433579,-2168.3696701010108,-807.54836720162859,-1262.8179152136047,-567.16474645670417,2221.15728500144,-810.92053190497199,-1656.4981351412489,1656.4981351412489,810.92053190497199,4213.3510416459176,0.0
543296.95196600363,3595566.251970998,-32500.0,4.9537019142114271,-1588.7016731492502,-2451.9015677883172,-721.92768670228054,-1374.7964575419044,-596.19284311577974,2368.6098768526203,-492.75811383085875,-1978.6279203223212,1978.6279203223212,492.75811383085875,4441.4230377367885,0.0
548296.95196600363,3595566.251970998,-32500.0,433.86649867730597,-1458.6422466463596,-2734.0933384874265,-581.97845781053195,-1463.9795108272915,-606.49226900846168,2515.9475862768882,-74.978819523388438,-2316.1046813637176,2316.1046813637176,74.978819523388438,4653.0868801964434,0.0
553296.95196600363,3595566.251970998,-32500.0,933.306317620953,-1223.7629270618315,-2990.6289938355062,-375.35540547543502,-1510.8068476658166,-587.22340079065521,2663.8393533478556,450.32584210943082,-2646.9733154090891,2646.9733154090891,-450.32584210943082,4848.2876191442065,0.0
558296.95196600363,3595566.251970998,-32500.0,1488.6835019716596,-859.59509150806036,-3185.109865584307,-91.069919123141574,-1488.5626094986737,-524.30510711880015,2816.879351340132,1081.9747353750377,-2936.8907673939848,2936.8907673939848,-1081.9747353750377,5037.5810717584936,0.0
563296.95196600363,3595566.251970998,-32500.0,2071.2931781720104,-346.06337394807167,-3266.8522146930095,277.59817003634953,-1362.7915761737349,-400.43048574293181,2986.496149944292,1803.8361036024442,-3136.7426032280064,3136.7426032280064,-1803.8361036024442,5250.9864088395789,0.0
568296.95196600363,3595566.251970998,-32500.0,2635.3734778302105,325.29369841209473,-3170.5182035406247,728.89685419569923,-1092.0906857940565,-195.81504377980644,3194.0066538785968,2578.1376144293899,-3182.1698594278059,3182.1698594278059,-2578.1376144293899,5547.5885586029717,0.0
573296.95196600363,3595566.251970998,-32500.0,3117.7549480867324,1141.4712692289399,-2819.5259675757607,1247.3006514453737,-631.32909979180226,109.88968632547868,3471.6612628925286,3339.5120404018708,-2997.0329266327462,2997.0329266327462,-3339.5120404018708,6017.6318520084169,0.0
578296.95196600363,3595566.251970998,-32500.0,3442.5419604661115,2056.765911996145,-2135.6366290091669,1797.9783892100468,61.534078815739093,534.09169544089013,3858.2985086492463,3992.6725255412803,-2503.2599206588457,2503.2599206588457,-3992.6725255412803,6764.0003375445231,0.0
583296.95196600363,3595566.251970998,-32500.0,3533.2672531577955,2983.4228503693894,-1056.687077070424,2322.8917532220626,1014.2707562914028,1085.9793482368666,4387.9421434237402,4417.8399314125136,-1638.9929238617406,1638.9929238617406,-4417.8399314125136,7861.3045120851157,0.0
588296.95196600363,3595566.251970998,-32500.0,3333.4501877238054,3789.7214919036337,437.67178881205706,2741.4183185850043,2225.3596607730033,1759.8673096850646,5075.2261973312743,4488.1423372129284,-384.63614020883551,384.63614020883551,-4488.1423372129284,9316.3144704832248,0.0
593296.95196600363,3595566.251970998,-32500.0,2832.7997633599398,4312.3294557365216,2296.7227008206064,2958.8063223450699,3648.0080271876782,2528.5498034311886,5904.2636758168164,4100.7570321920866,1208.1685087199874,-1208.1685087199874,-4100.7570321920866,11054.089446601394,0.0
598296.95196600363,3595566.251970998,-32500.0,2090.8061698631795,4387.8029632021708,4376.2739603416057,2884.5311495913575,5179.1034721164888,3339.1931700390896,6821.6936792335227,3217.5149373749659,2995.5627684166252,-2995.5627684166252,-3217.5149373749659,12927.413800129603,0.0
603296.95196600363,3595566.251970998,-32500.0,1244.6674934759119,3901.0986130541678,6437.8747565874719,2458.9428881369977,6661.0478124026531,4115.0080993239026,7733.2095729606217,1902.0603971129294,4743.5146052435584,-4743.5146052435584,-1902.0603971129294,14737.895664386453,0.0
608296.95196600363,3595566.251970998,-32500.0,488.91816913103708,2837.6493667970826,8182.5510515441583,1680.9309553165751,7903.112221523339,4765.2809611662769,8516.7785655497464,333.87869808639607,6165.1489541622277,-6165.1489541622277,-333.87869808639607,16266.204137375518,0.0
613296.95196600363,3595566.251970998,-32500.0,23.825763497883674,1315.4109443302507,9319.8982286679293,624.37854575464701,8722.3306509769263,5203.5920022096079,9055.4247363182076,-1218.4073699387332,6992.3982244802937,-6992.3982244802937,1218.4073699387332,17311.645755825379,0.0
618296.95196600363,3595566.251970998,-32500.0,-12.583239932383442,-426.45650343954259,9653.1991723176397,-568.54523417847804,8993.0988450679743,5369.6353829319596,9268.3204724153602,-2466.2217330801946,7060.2193470481234,-7060.2193470481234,2466.2217330801946,17734.573010109099,0.0
623296.95196600363,3595566.251970998,-32500.0,401.78159067892273,-2088.4792161776509,9144.6831563589185,-1720.4919286935192,8685.7293839362246,5246.4130764568044,9128.8242453637577,-3189.5341080055487,6366.008056093714,-6366.008056093714,3189.5341080055487,17488.391702790919,0.0
628296.95196600363,3595566.251970998,-32500.0,1163.3723659067114,-3399.6769562800196,7927.3232342989477,-2667.4500334226382,7875.1328846817905,4864.8184661324158,8667.7638093376845,-3304.214476523483,5071.868340192701,-5071.868340192701,3304.214476523483,16627.921341429417,0.0
633296.95196600363,3595566.251970998,-32500.0,2084.2246613772777,-4193.5999841128942,6255.7454596433799,-3301.6042509865842,6714.6692708769178,4293.2007898564052,7962.2489488803085,-2875.373785974738,3446.374993158649,-3446.374993158649,2875.373785974738,15290.105822595297,0.0
638296.95196600363,3595566.251970998,-32500.0,2961.3042999195777,-4438.0711690335565,4421.9364894477549,-3590.4621977042648,5388.2912365514694,3616.9790901496117,7114.170646929686,-2074.613100458077,1776.0330791099759,-1776.0330791099759,2074.613100458077,13655.416030004346,0.0
643296.95196600363,3595566.251970998,-32500.0,3638.1251200700044,-4213.7049175926613,2676.5804020581686,-3568.3934425540915,4063.3167635274694,2917.5300223366489,6224.8520114428893,-1109.562106896399,289.05075010362702,-289.05075010362702,1109.562106896399,11905.83021767386,0.0
648296.95196600363,3595566.251970998,-32500.0,4034.548806816199,-3662.9408390090994,1184.8829129183346,-3310.7789616216378,2860.8573049141814,2257.8247223951166,5372.7621038428269,-161.63241202094446,-881.62042728969004,881.62042728969004,161.63241202094446,10193.280457163868,0.0
653296.95196600363,3595566.251970998,-32500.0,4143.3191193391222,-2938.2022987558489,21.135826906330884,-2905.5053658073089,1848.0339230805591,1677.1920764472329,4604.1456092810595,647.26305762228878,-1695.4772200613093,1695.4772200613093,-647.26305762228878,8624.327259264126,0.0
658296.95196600363,3595566.251970998,-32500.0,4007.1564428543593,-2167.207210213619,-811.43239069606091,-2432.0202263563401,1045.9461028997587,1193.2620497220798,3938.8073325085934,1258.80605427921,-2178.3922900273033,2178.3922900273033,-1258.80605427921,7259.0865865974556,0.0
663296.95196600363,3595566.251970998,-32500.0,3692.097899511361,-1438.8061626264814,-1352.6306319857304,-1950.877147714192,444.31010742312952,807.52315575457339,3379.611883627651,1664.6260517208118,-2391.5007996153936,2391.5007996153936,-1664.6260517208118,6118.7130811704019,0.0
668296.95196600363,3595566.251970998,-32500.0,3266.7090868530368,-803.78624693850509,-1660.7173792316723,-1501.7577112857778,15.873624450332271,511.50654237456314,2919.1515915665759,1887.2218536955975,-2406.2174362079627,2406.2174362079627,-1887.2218536955975,5196.09625402248,0.0
673296.95196600363,3595566.251970998,-32500.0,2789.9515737917759,-283.06870416124121,-1795.7499582341879,-1106.3622599572182,-272.69674850390146,291.92634034880626,2544.394241941266,1963.2062598307309,-2288.8043536524046,2288.8043536524046,-1963.2062598307309,4466.4501611724545,0.0
678296.95196600363,3595566.251970998,-32500.0,2306.3948443320778,122.39932621684645,-1810.6336509304897,-773.10351853847703,-454.03172634943132,134.24311912485086,2240.2359471246255,1931.7627060126401,-2093.2547408342321,2093.2547408342321,-1931.7627060126401,3896.3832667376373,0.0
683296.95196600363,3595566.251970998,-32500.0,1846.1405666536314,423.08301820202416,-1747.7265040082468,-501.73127147396548,-556.61857014695659,24.767696084087817,1992.0174611838147,1828.1802711548469,-1859.7014530230315,1859.7014530230315,-1828.1802711548469,3450.9681101674237,0.0
688296.95196600363,3595566.251970998,-32500.0,1427.0811799847711,634.63517741682995,-1638.7136255158878,-287.05571023200076,-603.59761691355095,-48.325965917229531,1786.98868647566,1681.1289102178205,-1615.7605283398836,1615.7605283398836,-1681.1289102178205,3098.5653274886472,0.0
693296.95196600363,3595566.251970998,-32500.0,1057.889926915313,773.9210090072894,-1506.0368068881271,-121.58889296449263,-612.8357980140421,-94.691594498951019,1614.8822541949921,1512.2278963116139,-1379.0197451538586,1379.0197451538586,-1512.2278963116139,2813.3513451724821,0.0
698296.95196600363,3595566.251970998,-32500.0,740.86457606640204,856.78593218147751,-1364.8182008671345,2.7646890601824818,-597.60334333741753,-121.89723146988756,1467.8746325338443,1336.7848152444515,-1159.6517997141939,1159.6517997141939,-1336.7848152444515,2575.890877748091,0.0
703296.95196600363,3595566.251970998,-32500.0,474.25608422885938,897.00845314813819,-1224.7245167193478,93.734835882049026,-567.44518210842193,-135.69711453537957,1340.2251860238903,1164.9812812817663,-962.68176889450376,962.68176889450376,-1164.9812812817663,2372.4444340004343,0.0
528296.95196600363,3600566.251970998,-32500.0,-1288.8048853203443,-1781.9813598559779,-1603.364732566326,-1111.7947112706861,-1106.1776588307644,-586.5997872433544,2162.5445320871295,-1620.9484461547906,-940.9615181008146,940.9615181008146,1620.9484461547906,4209.3286406493617,0.0
533296.95196600363,3600566.251970998,-32500.0,-1100.7595930884022,-1888.486758286507,-1876.895079003049,-1137.4642073245773,-1260.3457486218222,-654.49176672818521,2340.7266012511755,-1511.9521544633476,-1216.9464748325722,1216.9464748325722,1511.9521544633476,4527.023410289783,0.0
538296.95196600363,3600566.251970998,-32500.0,-837.12984770330115,-1962.7183741127767,-2186.281026950368,-1132.7477340655698,-1423.1878152448842,-721.17675183773542,2524.7835387943942,-1326.2866923730885,-1541.1770373055556,1541.1770373055556,1326.2866923730885,4844.8555694308588,0.0
543296.95196600363,3600566.251970998,-32500.0,-485.5470737460621,-1985.0880549665749,-2527.5001899041445,-1084.6802918602009,-1586.9647271897111,-780.8878922350998,2711.6781943175383,-1044.1915731822462,-1912.7140435771278,1912.7140435771278,1044.1915731822462,5153.6798041406064,0.0
548296.95196600363,3600566.251970998,-32500.0,-36.342372867716556,-1930.3313659803971,-2890.0235885593102,-977.55560150199119,-1738.6432960914449,-824.84959947618745,2898.0376993568048,-645.31507328500675,-2324.3066512091473,2324.3066512091473,645.31507328500675,5443.2633418633477,0.0
553296.95196600363,3600566.251970998,-32500.0,514.12127645898261,-1767.6638247548283,-3253.4242699743813,-793.52651380575423,-1857.8639397160252,-840.35680604366712,3081.1236531740919,-111.66643946801037,-2758.7952956998588,2758.7952956998588,111.66643946801037,5704.7249613654167,0.0
558296.95196600363,3600566.251970998,-32500.0,1158.7868069789324,-1462.4427899350696,-3583.2058341620846,-514.22337178863904,-1914.7102355294132,-809.88421519933775,3260.84547306989,567.43011791930962,-3184.6580431282764,3184.6580431282764,-567.43011791930962,5935.8719603868331,0.0
563296.95196600363,3600566.251970998,-32500.0,1874.1098093085993,-980.39219285468425,-3826.4065093921504,-123.93067179719353,-1867.7682750761178,-710.51253484351344,3443.3444173780904,1387.9315066294419,-3551.2910542047293,3551.2910542047293,-1387.9315066294419,6151.2385004124371,0.0
568296.95196600363,3600566.251970998,-32500.0,2614.067557725421,-295.59259668670137,-3908.3281226654562,385.15493630269719,-1663.4234868976323,-514.15531200816122,3646.317967496735,2321.3161758126712,-3785.4602340010329,3785.4602340010329,-2321.3161758126712,6397.8127056257617,0.0
573296.95196600363,3600566.251970998,-32500.0,3306.0868715720912,596.87760928807177,-3732.9213101636897,1005.3548522460943,-1237.9638067634137,-189.30633436927116,3904.7301200833326,3303.7788621329141,-3791.5936123072011,3791.5936123072011,-3303.7788621329141,6771.9993658047915,0.0
578296.95196600363,3600566.251970998,-32500.0,3852.5018096832182,1664.1016953778594,-3190.6437705187745,1704.237491591919,-524.61965380265542,294.81342044482517,4272.2438862813378,4227.7973138330417,-3459.8859335814714,3459.8859335814714,-4227.7973138330417,7419.7295145328044,0.0
583296.95196600363,3600566.251970998,-32500.0,4142.2013645106726,2817.5886005874681,-2178.1227854014724,2415.8180624476031,532.31444681653102,960.94896800446941,4811.1209609912203,4942.1436544253693,-2686.6072000911709,2686.6072000911709,-4942.1436544253693,8493.2526826610811,0.0
588296.95196600363,3600566.251970998,-32500.0,4076.297412584855,3902.2208786539913,-632.19075112964435,3036.5529845791038,1955.4563195568792,1813.2788037866083,5568.6783353415176,5268.3189743039165,-1408.9660328658997,1408.9660328658997,-5268.3189743039165,10072.293252917991,0.0
593296.95196600363,3600566.251970998,-32500.0,3606.9912554743082,4703.494588598046,1425.0126256248864,3432.2740127234197,3707.1219736526355,2825.1580386264304,6550.1453903112179,5039.8145368684718,349.44443563682853,-349.44443563682853,-5039.8145368684718,12108.043164012728,0.0
598296.95196600363,3600566.251970998,-32500.0,2779.6769956325484,4984.6184151582293,3843.321422119212,3461.7838912356647,5665.3310964932307,3929.0075615712785,7697.3089107013011,4162.5715286147142,2437.118094472803,-2437.118094472803,-4162.5715286147142,14422.512119145029,0.0
603296.95196600363,3600566.251970998,-32500.0,1757.5486929831802,4556.1035122386847,6328.2561523450204,3017.801940582628,7617.1155242672321,5014.4756795307758,8879.0716208944286,2679.984951275927,4561.9663054160355,-4561.9663054160355,-2679.984951275927,16741.249942382165,0.0
608296.95196600363,3600566.251970998,-32500.0,803.68195909609744,3361.2603847900405,8477.3826616091537,2075.6697425098046,9284.0755859030633,5941.247020796779,9915.1806032705663,809.93663049036832,6333.3933325592698,-6333.3933325592698,-809.93663049036832,18741.870979948901,0.0
613296.95196600363,3600566.251970998,-32500.0,207.79882470743084,1538.9218611451981,9879.1534317065125,728.46268797102789,10385.516316977415,6568.738164128793,10629.248872726819,-1081.8965844018512,7366.4374419129144,-7366.4374419129144,1081.8965844018512,20118.434628146595,0.0
618296.95196600363,3600566.251970998,-32500.0,176.52336260857737,-582.18279146594148,10248.222103701448,-816.66120634234733,10723.669044122975,6795.921970636291,10898.216293664484,-2584.9160634734362,7417.5647998529985,-7417.5647998529985,2584.9160634734362,20654.196065825006,0.0
623296.95196600363,3600566.251970998,-32500.0,740.67046077896555,-2576.5469344514054,9535.0474774949325,-2291.9634003973188,10254.048264897574,6594.9186878014389,10683.580503457626,-3387.780464361585,6486.3024697489291,-6486.3024697489291,3387.780464361585,20279.063386088223,0.0
628296.95196600363,3600566.251970998,-32500.0,1737.9558394859268,-4067.3866933029462,7945.5352201914166,-3453.8451653465722,9101.733134921802,6020.4000061459519,10037.846131063037,-3389.7007019083253,4819.6550077148886,-4819.6550077148886,3389.7007019083253,19084.874605180845,0.0
633296.95196600363,3600566.251970998,-32500.0,2886.2689413002754,-4848.2655411079049,5855.2876172236174,-4156.4861695217342,7512.1150822022046,5188.6651711959021,9083.9352330935235,-2715.5600373114876,2811.170078478397,-2811.170078478397,2715.5600373114876,17289.361758601521,0.0
638296.95196600363,3600566.251970998,-32500.0,3901.6120095082874,-4919.0284232463391,3669.2041781523126,-4378.3094808062351,5764.1851995576471,4238.0454044314993,7976.3360622330192,-1634.203875001501,854.12735442443022,-854.12735442443022,1634.203875001501,15166.482362257655,0.0
643296.95196600363,3600566.251970998,-32500.0,4591.7361870114191,-4434.3871374876626,1703.0991863982065,-4197.557794636421,4092.2541620420284,3291.1938963070902,6858.5041596133997,-439.23347252846384,-771.40408419612072,771.40408419612072,439.23347252846384,12975.681636930265,0.0
648296.95196600363,3600566.251970998,-32500.0,4887.3622708384828,-3613.4623275927761,132.68304886532056,-3742.0262698920096,2646.0565650587996,2433.641074306483,5830.4705396510253,641.74275710410984,-1936.7378528085128,1936.7378528085128,-641.74275710410984,10915.380105771061,0.0
653296.95196600363,3600566.251970998,-32500.0,4819.614825871884,-2662.2272023534656,-994.66790945613764,-3142.2783235706061,1490.1783136438773,1710.3384812951481,4940.8845956933183,1481.5382400249068,-2639.8905095198329,2639.8905095198329,-1481.5382400249068,9107.209549703055,0.0
658296.95196600363,3600566.251970998,-32500.0,4475.1603484385932,-1732.6114656889529,-1716.9793746912007,-2503.6070952740292,626.01430223611476,1133.5676212227438,4201.0055227636649,2042.6428991694495,-2954.4789464519154,2954.4789464519154,-2042.6428991694495,7602.820653946218,0.0
663296.95196600363,3600566.251970998,-32500.0,3955.4799296570732,-914.78696424125735,-2112.8597865782112,-1896.9507869085103,18.661576536436232,694.52589787598913,3601.0820297893633,2346.7337420515569,-2982.2298651880055,2982.2298651880055,-2346.7337420515569,6401.3130248539783,0.0
668296.95196600363,3600566.251970998,-32500.0,3351.2604494728957,-248.07507848153233,-2269.2336079421534,-1361.825357125022,-381.34077302941216,373.69200201310014,3121.0583576207273,2444.1797821117466,-2821.8283501768078,2821.8283501768078,-2444.1797821117466,5468.5512289264143,0.0
673296.95196600363,3600566.251970998,-32500.0,2731.4532149108786,262.46858823952243,-2263.6605887985093,-914.21656190264036,-624.21470202136265,148.15771177351945,2737.5212170641535,2392.2628639819136,-2554.0409976714086,2554.0409976714086,-2392.2628639819136,4754.3348188809141,0.0
678296.95196600363,3600566.251970998,-32500.0,2142.0356544246797,631.0805319119562,-2157.5581606322116,-554.90415791892747,-753.96151395378058,-4.0460965276201666,2428.2153825489445,2242.9899720338976,-2237.9436087211893,2237.9436087211893,-2242.9899720338976,4205.8069039742441,0.0
683296.95196600363,3600566.251970998,-32500.0,1609.5586837651363,880.46744266657402,-1995.7576011099882,-276.19915955579194,-805.92351949809824,-101.87957957868228,2174.4516534528352,2038.0680388402209,-1912.9638431120163,1912.9638431120163,-2038.0680388402209,3776.25674970297,0.0
688296.95196600363,3600566.251970998,-32500.0,1146.1662404521362,1035.0950598113541,-1808.9374126394353,-66.637300207861543,-806.86241687998177,-160.65463406594222,1961.8295664368006,1808.1621071303355,-1603.0875727252649,1603.0875727252649,-1808.1621071303355,3429.1828582858443,0.0
693296.95196600363,3600566.251970998,-32500.0,754.33909071936284,1117.5997968952863,-1616.86893372379,86.112095821499025,-776.16494539077348,-192.17738621482394,1779.8988137754091,1574.2256562439745,-1321.2302965104575,1321.2302965104575,-1574.2256562439745,3138.5925723928162,0.0
698296.95196600363,3600566.251970998,-32500.0,430.68622627877852,1147.2427498237857,-1431.4687232453809,193.64696701617606,-727.3710205246955,-205.24074185711046,1621.3606467457223,1349.5398823458388,-1072.9242586169837,1072.9242586169837,-1349.5398823458388,2887.2184958295961,0.0
703296.95196600363,3600566.251970998,-32500.0,168.67902166317711,1139.5510947387186,-1259.2821775033219,266.09426229849112,-669.62454252552186,-206.21514746963811,1481.2103442368348,1141.7472587718262,-859.10284641736359,859.10284641736359,-1141.7472587718262,2664.1366599260818,0.0
708296.95196600363,3600566.251970998,-32500.0,-39.526345770290597,1106.5677513208648,-1103.3445173452815,311.88751478120901,-608.88866087321969,-199.60890539277099,1356.0136902489205,954.57593801795463,-678.05453977310538,678.05453977310538,-954.57593801795463,2462.6349763269636,0.0
523296.95196600363,3605566.251970998,-32500.0,-1875.0992278023343,-1775.1839110025726,-1258.086338851524,-1303.5664442198567,-1004.7039477038641,-613.17364092328717,2203.2390624181521,-2061.0516991867407,-489.3268445028425,489.3268445028425,2061.0516991867407,4332.9570716406406,0.0
528296.95196600363,3605566.251970998,-32500.0,-1800.8115023117925,-1947.6207146539598,-1500.2460090803702,-1392.7339688487821,-1169.6822312050549,-701.50892126078156,2409.3093570775422,-2073.8094350064621,-711.21329139904242,711.21329139904242,2073.8094350064621,4719.2865978171576,0.0
533296.95196600363,3605566.251970998,-32500.0,-1661.884683193688,-2114.1052647847637,-1787.2647270378557,-1467.4783324648231,-1355.9107945416672,-797.43337355973449,2629.0038452989129,-2032.0899999982739,-987.16026337262065,987.16026337262065,2032.0899999982739,5124.028160931819,0.0
538296.95196600363,3605566.251970998,-32500.0,-1440.9172232974483,-2261.2443482891686,-2123.3362045040003,-1516.849824194639,-1561.5353697107862,-898.10527697159046,2859.8963702323676,-1915.2215485460592,-1324.6379497240705,1324.6379497240705,1915.2215485460592,5539.6860884389416,0.0
543296.95196600363,3605566.251970998,-32500.0,-1119.1027376295617,-2369.5360760944104,-2509.8720035562628,-1526.0463755768731,-1781.2000590090224,-998.22483677543107,3098.2063247384458,-1698.248294592742,-1728.8762007610551,1728.8762007610551,1698.248294592742,5955.2952157733316,0.0
548296.95196600363,3605566.251970998,-32500.0,-678.10512807514817,-2411.8818118574213,-2942.9044921429991,-1475.8693530990515,-2004.0129246852596,-1088.8931219999984,3338.7426304160954,-1352.7067123562413,-2200.1621396931696,2200.1621396931696,1352.7067123562413,6356.2572808454552,0.0
553296.95196600363,3605566.251970998,-32500.0,-103.44490736243664,-2352.5098454768936,-3409.1857873850158,-1342.6699445917691,-2210.7791993911314,-1156.1749664153781,3575.3151895350416,-848.91286650561744,-2729.7157644873628,2729.7157644873628,848.91286650561744,6725.3208113929368,0.0
558296.95196600363,3605566.251970998,-32500.0,610.07259697267932,-2147.1485733467598,-3880.752573159813,-1099.3434773171914,-2370.5277234996929,-1179.4604127133905,3802.1599068502483,-160.69774762401835,-3293.8872562210063,3293.8872562210063,160.69774762401835,7046.1389082139858,0.0
563296.95196600363,3605566.251970998,-32500.0,1450.58329200611,-1745.8434047272178,-4308.1076213155975,-718.19437484810737,-2436.6754736817024,-1129.9012249571751,4017.2783367465681,726.3329471592665,-3846.8367270658541,3846.8367270658541,-726.3329471592665,7311.9551278342897,0.0
568296.95196600363,3605566.251970998,-32500.0,2379.4593188368367,-1100.4202108491343,-4613.0670486182953,-176.72881039362645,-2343.8011258144684,-969.50773501383082,4228.9032456813493,1802.188399342898,-4312.8255211183741,4312.8255211183741,-1802.188399342898,7543.2054983445796,0.0
573296.95196600363,3605566.251970998,-32500.0,3321.6454007421094,-178.87623091058933,-4684.016667251507,532.60227865550451,-2007.0347948833742,-651.94264058204089,4465.8111383115511,3015.8782712532247,-4581.0480827219872,4581.0480827219872,-3015.8782712532247,7816.6729300939414,0.0
578296.95196600363,3605566.251970998,-32500.0,4160.5638369812405,1011.9360174879376,-4378.7738394249573,1388.4448182192837,-1327.3995386298054,-126.54961252416977,4788.8008997422075,4257.8965175637204,-4508.4964356812052,4508.4964356812052,-4257.8965175637204,8296.4974196273379,0.0
583296.95196600363,3605566.251970998,-32500.0,4745.1122210749572,2397.3226747931058,-3542.6702866230798,2324.1683881255331,-207.52553901657274,652.53756222760762,5292.3704535222514,5349.5412973009097,-3938.7699378570414,3938.7699378570414,-5349.5412973009097,9224.6453710943115,0.0
588296.95196600363,3605566.251970998,-32500.0,4917.6005593097516,3808.2403212756285,-2049.4268875176876,3214.6480152983568,1418.422388183712,1710.8302984497134,6079.5800481564802,6052.1079516620266,-2744.4152524682941,2744.4152524682941,-6052.1079516620266,10817.898380099406,0.0
593296.95196600363,3605566.251970998,-32500.0,4567.2060496769191,4975.0238012129757,134.04602106075907,3876.4520970067383,3541.1572231166351,3032.180054932287,7208.1954131985185,6110.79730853199,-893.23443032746536,893.23443032746536,-6110.79730853199,13120.853945023431,0.0
598296.95196600363,3605566.251970998,-32500.0,3699.9393907652834,5564.3935270274951,2873.6092991502187,4094.1435939217135,6029.3140460971363,4536.7614570466958,8631.7052399934455,5339.606044300047,1477.7771419991659,-1477.7771419991659,-5339.606044300047,15946.972399764147,0.0
603296.95196600363,3605566.251970998,-32500.0,2494.9871969138699,5274.1735450690485,5820.9667223308843,3680.2482430117543,8602.4143967713298,6069.1171554260782,10171.333904871106,3729.6789173224029,4019.2971364153386,-4019.2971364153386,-3729.6789173224029,18921.867328650846,0.0
608296.95196600363,3605566.251970998,-32500.0,1301.2193569193926,3969.9949853676871,8443.0224327106334,2559.3474009329507,10854.83087877646,7410.7700720784715,11558.168819108416,1530.7475980690047,6207.331494014652,-6207.331494014652,-1530.7475980690047,21566.505770599313,0.0
613296.95196600363,3605566.251970998,-32500.0,538.30631443453831,1803.8784401165374,10158.487080896457,841.00594907653283,12350.795592111508,8327.4532804700684,12520.462139704518,-763.24473965097877,7489.833972253401,-7489.833972253401,763.24473965097877,23405.041063449691,0.0
618296.95196600363,3605566.251970998,-32500.0,519.70262071774368,-772.04999507751461,10551.986645990839,-1170.6074413054955,12772.215558241604,8643.4703756545641,12865.073098926716,-2564.0955307351232,7505.1664639371902,-7505.1664639371902,2564.0955307351232,24092.114883405393,0.0
623296.95196600363,3605566.251970998,-32500.0,1289.3528378321253,-3147.3964743139827,9559.797940792485,-3063.1782965938651,12050.682373303634,8310.633991517454,12534.315686413047,-3427.00087423476,6258.1412953769668,-6258.1412953769668,3427.00087423476,23519.223316739615,0.0
628296.95196600363,3605566.251970998,-32500.0,2589.3468102326506,-4796.1893537601063,7503.0254407630118,-4468.8793850353495,10399.484290093746,7429.1207399746472,11619.138432954713,-3238.478595992603,4128.8703606230083,-4128.8703606230083,3238.478595992603,21843.931009894633,0.0
633296.95196600363,3605566.251970998,-32500.0,3993.2748426462053,-5474.0848167506529,4935.4913936120565,-5194.8278585734506,8217.9249275366874,6203.3942779984973,10319.775139109375,-2228.8365631376787,1694.6046453991253,-1694.6046453991253,2228.8365631376787,19420.308503298671,0.0
638296.95196600363,3605566.251970998,-32500.0,5109.9031187077135,-5253.4260609917601,2408.7456349865015,-5256.0628720128807,5930.3442961118581,4861.6714006557022,8873.4977058422537,-814.92598503568979,-515.36427197031117,515.36427197031117,814.92598503568979,16669.383763794482,0.0
643296.95196600363,3605566.251970998,-32500.0,5721.5210693661238,-4409.6777820604811,299.39706366806172,-4813.0214690948496,3857.0378279954534,3587.4354307367134,7482.234513414428,600.30203930884682,-2180.8342302921492,2180.8342302921492,-600.30203930884682,13958.653126473358,0.0
648296.95196600363,3605566.251970998,-32500.0,5801.5090341659361,-3265.4713552196081,-1235.4447491787409,-4075.237601695489,2167.835399886289,2490.4845085194465,6267.0847627979647,1751.7855512052424,-3212.396797114498,3212.396797114498,-1751.7855512052424,11536.602637040272,0.0
653296.95196600363,3605566.251970998,-32500.0,5450.6333363146978,-2082.5621678484549,-2207.5192404815998,-3228.2918079429865,903.93985400445308,1612.8033463889708,5268.0957772840557,2532.4057748717328,-3681.01910031338,3681.01910031338,-2532.4057748717328,9524.3726099905671,0.0
658296.95196600363,3605566.251970998,-32500.0,4817.9784392309948,-1024.2301986405221,-2717.9469236209256,-2402.1302221901169,26.80585630637615,950.14769540034172,4474.9116450609126,2950.4305855599255,-3728.9336017973342,3728.9336017973342,-2950.4305855599255,7941.1956851623136,0.0
663296.95196600363,3605566.251970998,-32500.0,4045.3699629570015,-165.31285718397041,-2893.172648343841,-1670.3401871807512,-536.95806399377614,474.01008206312702,3854.893585947736,3073.6828083222331,-3504.9396318836311,3504.9396318836311,-3073.6828083222331,6740.5502880900794,0.0
668296.95196600363,3605566.251970998,-32500.0,3241.782579359186,479.98498132448486,-2848.6055894031679,-1063.4441120031249,-866.18024168677016,147.46665110265721,3369.5851237152142,2986.9743918107506,-3132.0860503847307,3132.0860503847307,-2986.9743918107506,5844.3764003027036,0.0
673296.95196600363,3605566.251970998,-32500.0,2478.7853993621607,931.0527173893737,-2674.5584119757195,-584.49668725112394,-1030.3331904137492,-65.617485404804114,2983.6779089346724,2768.2376258403383,-2698.7402042944277,2698.7402042944277,-2768.2376258403383,5170.0098344009348,0.0
678296.95196600363,3605566.251970998,-32500.0,1796.2535362890526,1221.415439480387,-2435.0175900138224,-221.74167763480017,-1084.4614104418411,-196.31423503580928,2669.0152017219725,2478.9750144901282,-2261.7192885394725,2261.7192885394725,-2478.9750144901282,4646.9486745621562,0.0
683296.95196600363,3605566.251970998,-32500.0,1211.1054059430728,1387.097108096418,-2171.9331234090414,42.810871818060662,-1069.2767948374724,-269.36152111057413,2405.2005404722668,2163.0098811711841,-1853.6470312527024,1853.6470312527024,-2163.0098811711841,4223.2602836630913,0.0
688296.95196600363,3605566.251970998,-32500.0,725.44804795360665,1460.7713684555001,-1910.8459583431081,228.29317611521003,-1013.4087046606304,-303.45139941799943,2178.387758714367,1848.9890025162572,-1490.4657598770445,1490.4657598770445,-1848.9890025162572,3864.5960484604343,0.0
693296.95196600363,3605566.251970998,-32500.0,332.86875417784813,1469.5110225985738,-1665.9750976993571,352.34419583160621,-936.16777125551027,-312.1700678415163,1979.5261872368287,1553.9795357031467,-1177.5367604942176,1177.5367604942176,-1553.9795357031467,3549.9545720926112,0.0
698296.95196600363,3605566.251970998,-32500.0,22.781955241206258,1434.4918293965609,-1444.1741777588227,430.00884497838615,-850.07609795640849,-305.08957258270021,1802.7669734188421,1286.8846980040223,-914.04311186260816,914.04311186260816,-1286.8846980040223,3267.1697613335618,0.0
703296.95196600363,3605566.251970998,-32500.0,-216.81629409735132,1371.6065180074349,-1247.7585366308706,473.50373185429544,-762.90974476652593,-288.77303221504394,1644.2714017493204,1051.2095562529489,-695.9277199091257,695.9277199091257,-1051.2095562529489,3009.3954455306448,0.0
708296.95196600363,3605566.251970998,-32500.0,-397.74528551362783,1292.3961032451709,-1076.4124470371269,492.41681799940807,-679.23368313563867,-267.60434518908215,1501.4129554616143,847.10861502377691,-517.73342077332029,517.73342077332029,-847.10861502377691,2772.7620494663588,0.0
523296.95196600363,3610566.251970998,-32500.0,-2378.9789473372898,-1837.5913194631546,-1106.2439304081415,-1557.6038693444179,-1016.7022123095884,-710.16069569597823,2420.4647746692758,-2451.6688946759373,-215.21984908436616,215.21984908436616,2451.6688946759373,4773.9407760894128,0.0
528296.95196600363,3610566.251970998,-32500.0,-2373.735056787451,-2054.220564899379,-1339.9979805761791,-1698.9326172725944,-1201.0744750792203,-824.56337797944775,2667.0520347954339,-2538.6825665223141,-412.55086194163209,412.55086194163209,2538.6825665223141,5245.3247008435519,0.0
533296.95196600363,3610566.251970998,-32500.0,-2306.9147345075762,-2278.8877363897382,-1624.8302896640514,-1835.0507949046455,-1415.4703399136706,-953.39223959189701,2934.6869352439699,-2580.9678253781867,-669.01299543026676,669.01299543026676,2580.9678253781867,5750.3857913170987,0.0
538296.95196600363,3610566.251970998,-32500.0,-2157.2662358854991,-2500.9050717924538,-1969.224398384672,-1955.3264137492033,-1661.0305251271034,-1095.2153728069322,3221.5675760308773,-2556.2631251063635,-996.81998720659465,996.81998720659465,2556.2631251063635,6282.8458262226723,0.0
543296.95196600363,3610566.251970998,-32500.0,-1899.740289918577,-2703.0227508868898,-2380.6556951947459,-2044.2933069175738,-1936.0086849115494,-1246.0972988176004,3524.0205929684967,-2435.8270053583428,-1408.0044759016955,1408.0044759016955,2435.8270053583428,6831.8127905072051,0.0
548296.95196600363,3610566.251970998,-32500.0,-1506.6115085013294,-2859.0438694515324,-2863.3253586062297,-2080.388943519546,-2233.52692257423,-1398.13793989583,3835.9598477088834,-2184.0760846675553,-1912.1145564415815,1912.1145564415815,2184.0760846675553,7380.5138121909868,0.0
553296.95196600363,3610566.251970998,-32500.0,-950.25014520135062,-2931.2895590512571,-3414.298024915699,-2034.9085976397566,-2538.2237119864944,-1537.4634165663131,4148.5381381305115,-1759.5163929126916,-2512.1654302584234,2512.1654302584234,1759.5163929126916,7905.5109283884822,0.0
558296.95196600363,3610566.251970998,-32500.0,-208.48978349634228,-2868.6422335344196,-4017.399248427922,-1871.7701124654466,-2821.5447947235925,-1641.6455329731755,4450.4856278147772,-1118.1852865244598,-3198.1341383873414,3198.1341383873414,1118.1852865244598,8377.6014559720261,0.0
563296.95196600363,3610566.251970998,-32500.0,726.36842245381524,-2606.6737778240536,-4634.3581535503026,-1549.1322774689618,-3035.6597266739413,-1676.7040864958992,4730.1373183023979,-221.36561616571612,-3937.433400883222,3937.433400883222,221.36561616571612,8766.9435473761605,0.0
568296.95196600363,3610566.251970998,-32500.0,1834.2579665106189,-2072.5498085429181,-5193.4149751880677,-1024.5300452884806,-3106.6620870051502,-1594.2415316009208,4981.0630734217411,950.28991946734777,-4662.5985929181988,4662.5985929181988,-950.28991946734777,9057.4744916452746,0.0
573296.95196600363,3610566.251970998,-32500.0,3050.6446157919945,-1198.6895233984708,-5577.5183805180068,-265.71609495635147,-2929.0950848461066,-1329.9347091218342,5214.284617687912,2374.6323972739251,-5258.4829760411085,5258.4829760411085,-2374.6323972739251,9278.9815377127888,0.0
578296.95196600363,3610566.251970998,-32500.0,4250.8078964646229,50.398306109961176,-5617.9529342392898,730.69681842334353,-2366.239373120266,-805.6668111847564,5479.6941856713729,3959.0320911132867,-5555.2129934864306,5555.2129934864306,-3959.0320911132867,9563.7794343183432,0.0
583296.95196600363,3610566.251970998,-32500.0,5245.2802735649593,1636.3788170565472,-5104.5625944359435,1912.6858037602285,-1263.6782561144526,61.16834633122086,5891.3078870698337,5512.2790665701459,-5338.7227019163447,5338.7227019163447,-5512.2790665701459,10204.826116342159,0.0
588296.95196600363,3610566.251970998,-32500.0,5802.6236029354386,3397.7366121054661,-3827.8827968317837,3143.7489481432576,514.41901377880254,1336.9898628239525,6626.9890178026235,6735.7499134362106,-4394.7732721955626,4394.7732721955626,-6735.7499134362106,11608.59247589527,0.0
593296.95196600363,3610566.251970998,-32500.0,5715.3063212416891,5016.5844576859199,-1664.3298410685886,4186.2483582775176,3020.4494092828627,3037.5451542374558,7854.0727856063331,7261.9136712899235,-2597.3640517985664,2597.3640517985664,-7261.9136712899235,14046.717065936851,0.0
598296.95196600363,3610566.251970998,-32500.0,4907.5358698699356,6042.2808573301027,1306.0266625087406,4721.7625444432979,6138.7444319616989,5083.9084391823999,9585.6703285032963,6763.9304121241876,-29.019073717532137,29.019073717532137,-6763.9304121241876,17409.834328445981,0.0
603296.95196600363,3610566.251970998,-32500.0,3546.6619796805508,6010.4173282106831,4699.1084736941993,4432.1004267678245,9516.177461914378,7265.8240198150643,11590.295908785984,5126.5133372739674,2920.9249291784231,-2920.9249291784231,-5126.5133372739674,21209.737300709163,0.0
608296.95196600363,3610566.251970998,-32500.0,2079.1424186099043,4653.0853892424457,7829.255431607804,3139.7916293296093,12567.956414566157,9242.8867033486222,13464.458363090624,2606.6843201232673,5568.9194006716789,-5568.9194006716789,-2606.6843201232673,24730.138763597384,0.0
613296.95196600363,3610566.251970998,-32500.0,1108.9740245736291,2114.2910524231988,9887.7693630147187,955.32841826088872,14613.526613059315,10615.121757873054,14781.301099063265,-140.32598705441251,7132.8385180359674,-7132.8385180359674,140.32598705441251,27217.562055573359,0.0
618296.95196600363,3610566.251970998,-32500.0,1115.868325627828,-987.61974928356324,10275.480330819288,-1673.1767955550406,15132.740537456237,11064.040925911821,15228.868433918553,-2271.1454174506957,7078.0885452869734,-7078.0885452869734,2271.1454174506957,28108.13899190769,0.0
623296.95196600363,3610566.251970998,-32500.0,2163.7708350716921,-3772.7446736280167,8915.7153217715495,-4097.6515827953344,14018.479812878491,10501.113547132161,14717.522286594471,-3147.6252910642334,5422.5790491252183,-5422.5790491252183,3147.6252910642334,27229.269988061871,0.0
628296.95196600363,3610566.251970998,-32500.0,3837.800360740071,-5509.3646459934889,6309.3291635992691,-5753.7094242038183,11641.803345727405,9117.6101106975802,13407.67751235206,-2659.1811311348292,2753.7782439685661,-2753.7782439685661,2659.1811311348292,24857.699249776222,0.0
633296.95196600363,3610566.251970998,-32500.0,5492.3698010570934,-5935.5006661127973,3262.7676563490859,-6399.0037175230227,8660.5504536539156,7286.4565220452223,11631.939531346266,-1218.5427506897281,-89.68247146477961,89.68247146477961,1218.5427506897281,21580.955149639969,0.0
638296.95196600363,3610566.251970998,-32500.0,6606.2793286419001,-5268.8555620384313,498.47955239566051,-6142.2154220989878,5715.1559496286036,5390.3710832573315,9757.2917638454564,541.6481772641755,-2424.9589634981003,2424.9589634981003,-541.6481772641755,18050.182744776277,0.0
643296.95196600363,3610566.251970998,-32500.0,6974.0367569890768,-3969.3807878401772,-1579.7214988817391,-5291.7522342164566,3221.7864633438694,3697.081644051033,8061.6392786862471,2098.1609661059183,-3936.0199523967776,3936.0199523967776,-2098.1609661059183,14774.658505307765,0.0
648296.95196600363,3610566.251970998,-32500.0,6669.8817475806773,-2483.3032125856262,-2888.9172201929109,-4176.2702380362261,1339.7343813198834,2331.0150015865279,6675.0807388791218,3184.1613102000338,-4635.3637342775692,4635.3637342775692,-3184.1613102000338,12038.720689948534,0.0
653296.95196600363,3610566.251970998,-32500.0,5905.6620004906317,-1111.9565674471953,-3542.7619279740152,-3041.5212223165627,47.930973100597647,1308.8992419755609,5603.8899973091875,3758.867031189282,-4710.5474421618765,4710.5474421618765,-3758.867031189282,9921.6716204803724,0.0
658296.95196600363,3610566.251970998,-32500.0,4907.0348097545175,-0.84636617234771727,-3723.9262985485261,-2029.1604910682918,-760.5099444233872,589.44060772834848,4794.1557720943474,3908.5660770166528,-4387.5796552608163,4387.5796552608163,-3908.5660770166528,8364.0735816067772,0.0
663296.95196600363,3610566.251970998,-32500.0,3850.8722975773712,815.64719292562154,-3606.2835317718991,-1198.324362869429,-1211.8899259119746,110.70290255059675,4178.3608026165148,3760.4057370371529,-3857.518193434601,3857.518193434601,-3760.4057370371529,7239.9468646750092,0.0
668296.95196600363,3610566.251970998,-32500.0,2851.117432624857,1363.7994523252778,-3324.2536873286672,-556.54179714855945,-1418.6317902798094,-188.99294114269654,3697.2240936030421,3433.3153583166222,-3254.6605073056362,3254.6605073056362,-3433.3153583166222,6414.8485074704304,0.0
673296.95196600363,3610566.251970998,-32500.0,1968.3051616090197,1694.0851439177763,-2969.5683400626453,-84.856456592963355,-1468.269129219213,-362.06412623587488,3306.8275813568143,3019.1660265111313,-2661.3289292313621,2661.3289292313621,-3019.1660265111313,5779.7028442077299,0.0
678296.95196600363,3610566.251970998,-32500.0,1225.557410286593,1860.3502921743313,-2599.1224084315386,245.90057178805961,-1423.6633567910546,-449.33878718147628,2978.023956714836,2580.796604622667,-2121.285675196003,2121.285675196003,-2580.796604622667,5260.4252932537747,0.0
683296.95196600363,3610566.251970998,-32500.0,623.08289463124254,1910.155823670337,-2244.99576876828,466.05825650513498,-1327.4412921613323,-480.85468085030914,2692.8014457036479,2156.9687324556912,-1653.0260284780943,1653.0260284780943,-2156.9687324556912,4812.7322223373103,0.0
688296.95196600363,3610566.251970998,-32500.0,148.84582522667509,1881.6219117671496,-1923.068145463061,602.80797436602347,-1207.1715367712575,-477.79950792276594,2440.439814150081,1768.8996433470516,-1260.0424707700936,1260.0424707700936,-1768.8996433470516,4412.548178893242,0.0
693296.95196600363,3610566.251970998,-32500.0,-214.48212648183397,1803.4860165972946,-1639.3394486885525,678.66396027282383,-1079.8698102370772,-454.60988285925896,2214.5561078311835,1426.0742146652428,-937.80278508492609,937.80278508492609,-1426.0742146652428,4047.6571132421045,0.0
698296.95196600363,3610566.251970998,-32500.0,-485.39585439100694,1696.4727143109592,-1394.187004212906,711.35676421839412,-955.47190181513838,-420.81653971988328,2011.1828265523188,1130.6900799166335,-678.11854839160605,678.11854839160605,-1130.6900799166335,3712.0998055265113,0.0
703296.95196600363,3610566.251970998,-32500.0,-681.34776175502543,1574.9897751482663,-1185.0631303644832,714.37064981975209,-839.33062317992665,-382.51066008174979,1827.6353562486356,880.7673658668665,-471.68695775419849,471.68695775419849,-880.7673658668665,3402.9022852842309,0.0
708296.95196600363,3610566.251970998,-32500.0,-817.73550141152987,1448.7080041138609,-1008.1195451159645,697.69284565290025,-733.93073740649766,-343.43955133685648,1661.8909034557209,672.19109296709735,-309.45388297354316,309.45388297354316,-672.19109296709735,3118.3416521203881,0.0
518296.95196600363,3615566.251970998,-32500.0,-2793.3113916464995,-1602.5908875347632,-747.44902352837619,-1631.1627005788444,-830.20032344824551,-686.72262684837403,2376.5981739600502,-2636.611037624346,213.46592140225403,-213.46592140225403,2636.611037624346,4697.6743215257884,0.0
523296.95196600363,3615566.251970998,-32500.0,-2908.1950095796001,-1828.4883011668076,-916.08572173719142,-1819.3624866746272,-994.00859064857639,-808.76377517034553,2638.0662281135214,-2819.567361835544,103.37035164218355,-103.37035164218355,2819.567361835544,5207.5254845834215,0.0
528296.95196600363,3615566.251970998,-32500.0,-2988.7302350961854,-2079.6174670049822,-1127.5126405319513,-2020.3130852695799,-1190.723370941326,-951.71939362309342,2928.8125049491778,-2988.0458515935597,-52.48815070032424,52.48815070032424,2988.0458515935597,5770.1916291571551,0.0
533296.95196600363,3615566.251970998,-32500.0,-3016.8513948488949,-2353.4349886387345,-1392.1772739927083,-2228.9458068878203,-1425.4937472552119,-1117.4933395852477,3249.9320939418653,-3126.7114191409187,-267.58522366844409,267.58522366844409,3126.7114191409187,6385.7617697667529,0.0
538296.95196600363,3615566.251970998,-32500.0,-2968.9321252582595,-2643.4437120590501,-1722.1955229750315,-2436.3985842590555,-1702.9494297564725,-1306.8616872151281,3601.1800939504456,-3213.764473257078,-558.06066247189028,558.06066247189028,3213.764473257078,7050.9768605026748,0.0
543296.95196600363,3615566.251970998,-32500.0,-2815.042330722456,-2936.9681129373325,-2130.7821462105671,-2628.3855718717409,-2025.9655509970191,-1518.3939351349852,3980.217146105349,-3219.1360189425841,-942.30666397786899,942.30666397786899,3219.1360189425841,7757.4770812074357,0.0
548296.95196600363,3615566.251970998,-32500.0,-2518.8518261424192,-3212.0999018717548,-2630.773335735521,-2783.1668030030478,-2393.5069876315461,-1746.7663691214489,4381.6187572182098,-3102.7442153571046,-1439.580628336631,1439.580628336631,3102.7442153571046,8489.5519402079681,0.0
553296.95196600363,3615566.251970998,-32500.0,-2038.9654735703493,-3433.8031214284556,-3231.5497080396703,-2869.2729393816826,-2797.0720508559411,-1980.2464958302787,4795.7173754506002,-2813.4521950257217,-2066.8689132276409,2066.8689132276409,2813.4521950257217,9221.5921514132497,0.0
558296.95196600363,3615566.251970998,-32500.0,-1332.9491501839825,-3549.537035535639,-3933.3356144139962,-2843.4373706739898,-3215.1237408920188,-2197.119590366372,5207.5480580618141,-2289.982330469214,-2832.8642274709359,2832.8642274709359,2289.982330469214,9915.9332867912108,0.0
563296.95196600363,3615566.251970998,-32500.0,-365.89436064667655,-3485.6076643586853,-4717.5729553192814,-2649.7900041413227,-3604.9090048628286,-2360.9378684722442,5596.685972970753,-1466.0356603327418,-3727.6102463876596,3727.6102463876596,1466.0356603327418,10523.030334873916,0.0
568296.95196600363,3615566.251970998,-32500.0,874.27639654755001,-3147.0802083777994,-5532.2215678488474,-2222.3602613232697,-3891.4878146898823,-2414.7984252644087,5939.868125691125,-283.12244743527572,-4706.5378113538482,4706.5378113538482,283.12244743527572,10988.621721738484,0.0
573296.95196600363,3615566.251970998,-32500.0,2353.2562452553966,-2426.671418679809,-6272.3051627016757,-1494.3885865705643,-3955.2161648871893,-2275.6517652184434,6220.5402312548686,1284.447915798276,-5669.2112850715093,5669.2112850715093,-1284.447915798276,11278.172177902979,0.0
578296.95196600363,3615566.251970998,-32500.0,3960.5424681280006,-1230.9652345973559,-6760.3416667106285,-419.39365085557563,-3622.2670911541945,-1831.2810861654091,6453.1469781754458,3189.2006680134941,-6437.7745926655934,6437.7745926655934,-3189.2006680134941,11437.878449702348,0.0
583296.95196600363,3615566.251970998,-32500.0,5483.9571537612301,467.34037455946918,-6739.9942521624725,991.34363241029314,-2668.8085649176487,-945.45826739664471,6731.6950872902235,5258.6362069717088,-6749.4129827743145,6749.4129827743145,-5258.6362069717088,11710.705960515428,0.0
588296.95196600363,3615566.251970998,-32500.0,6612.9681013930485,2551.258678226161,-5907.8558296381316,2616.1313628472599,-856.88810048759319,519.54876736630592,7291.0213886048778,7152.8684109901687,-6289.3644276408058,6289.3644276408058,-7152.8684109901687,12643.896732251796,0.0
593296.95196600363,3615566.251970998,-32500.0,7005.9248032948135,4681.1857427593122,-4012.4654655301924,4172.5059167896161,1978.1295088051863,2652.504764760793,8480.2032675252303,8377.3016125589329,-4794.8742242068547,4794.8742242068547,-8377.3016125589329,14902.966650024629,0.0
598296.95196600363,3615566.251970998,-32500.0,6442.079514424393,6280.6122517380891,-1025.5976231782438,5211.2864590902427,5786.6270879306903,5411.9541052793538,10491.826213487691,8406.9143650299375,-2233.8203329436055,2233.8203329436055,-8406.9143650299375,18692.262191446036,0.0
603296.95196600363,3615566.251970998,-32500.0,5019.9243535364267,6668.1679008224819,2674.9372742161559,5211.4554198590404,10156.313612414071,8535.5807326911508,13069.064722029716,6938.7101687520735,1008.5715752782867,-1008.5715752782867,-6938.7101687520735,23461.165439599401,0.0
608296.95196600363,3615566.251970998,-32500.0,3277.1927135584679,5364.8900700944205,6248.9400252770711,3803.3239360120233,14263.616658404404,11498.729586376065,15607.945493310104,4182.3274757077206,4081.4261101311395,-4081.4261101311395,-4182.3274757077206,28144.037669617861,0.0
613296.95196600363,3615566.251970998,-32500.0,2066.6010097918929,2465.4098090297857,8610.1432332145923,1054.3782068725768,17052.031868217113,13605.718560282327,17428.138521191624,978.57018271448624,5909.5085963132969,-5909.5085963132969,-978.57018271448624,31533.279643163023,0.0
618296.95196600363,3615566.251970998,-32500.0,2121.0691845135862,-1197.2811896665712,8923.3417911285906,-2378.2815093330883,17668.308468381991,14257.116134211778,18014.581539962848,-1475.8834089862721,5722.9115356614866,-5722.9115356614866,1475.8834089862721,32692.175461682731,0.0
623296.95196600363,3615566.251970998,-32500.0,3533.7655784100475,-4361.7159893189619,7114.5616840280627,-5458.1912837138325,15946.715669560883,13281.217898882172,17224.064180829166,-2273.3274478639614,3573.2584136729156,-3573.2584136729156,2273.3274478639614,31341.24703169565,0.0
628296.95196600363,3615566.251970998,-32500.0,5632.7564851972902,-6029.4178852593386,3953.9522731146367,-7310.1152767575713,12541.784389218972,11059.374965537192,15343.824382670145,-1348.5935748713832,361.50184709081037,-361.50184709081037,1348.5935748713832,27975.719201774129,0.0
633296.95196600363,3615566.251970998,-32500.0,7450.2119965742513,-5982.3956472046912,573.7599911096803,-7665.8216124801347,8537.497161162848,8295.4266323464908,12933.170213173285,581.51711441570774,-2730.6093671024291,2730.6093671024291,-581.51711441570774,23582.626384564541,0.0
638296.95196600363,3615566.251970998,-32500.0,8338.9080315672127,-4701.7337551949204,-2153.3304798600484,-6846.1585331254837,4872.0814401028911,5634.3117396129592,10556.096310441757,2597.7863418201023,-4896.0537237889484,4896.0537237889484,-2597.7863418201023,19161.543108113394,0.0
643296.95196600363,3615566.251970998,-32500.0,8197.3510143073108,-2899.4857327757518,-3885.5458059009525,-5409.915979827997,2031.7451268433281,3442.1167563513163,8573.227245914275,4089.60203052928,-5926.8106974890334,5926.8106974890334,-4089.60203052928,15380.449719448894,0.0
648296.95196600363,3615566.251970998,-32500.0,7291.4341007174817,-1134.5520663693528,-4698.0327779395793,-3837.9320743082872,93.99980425275217,1817.4630427917932,7082.2781225313656,4871.2733985348214,-6028.2920034178705,6028.2920034178705,-4871.2733985348214,12496.358724373104,0.0
653296.95196600363,3615566.251970998,-32500.0,5984.007536176684,302.38635081027627,-4845.082224590139,-2417.6262781469541,-1084.0708229746945,704.67081576262649,6007.162726737417,5035.2172639921728,-5541.0698732558294,5541.0698732558294,-5035.2172639921728,10454.896539759988,0.0
658296.95196600363,3615566.251970998,-32500.0,4572.3005724146287,1331.3153495859858,-4589.7822341435422,-1268.0928301921624,-1707.8874356442236,-6.840239837586342,5223.3337485222964,4773.8580634458804,-4767.2216789504682,4767.2216789504682,-4773.8580634458804,9047.090309292611,0.0
663296.95196600363,3615566.251970998,-32500.0,3243.5050367821736,1986.8053287701302,-4133.5418314520339,-405.29945079670551,-1964.1333525456316,-428.63308631296297,4624.7629063664353,4272.5247056325079,-3914.0234126334062,3914.0234126334062,-4272.5247056325079,8045.1434112757233,0.0
668296.95196600363,3615566.251970998,-32500.0,2090.7051066692052,2346.3572403471139,-3607.2871473676946,203.84886317419716,-1994.944479793229,-652.90254854589352,4140.1664083388823,3670.1275785507019,-3100.6215300708977,3100.6215300708977,-3670.1275785507019,7276.1043101855112,0.0
673296.95196600363,3615566.251970998,-32500.0,1144.1350163423738,2491.5679117946943,-3086.2701419599016,608.77129422354744,-1898.5558416549788,-748.84568334906919,3727.7006991700364,3056.4133646110904,-2383.6514544558941,2383.6514544558941,-3056.4133646110904,6634.810525641783,0.0
678296.95196600363,3615566.251970998,-32500.0,398.30941147368117,2491.9833814654157,-2608.3711917056617,858.79149390979057,-1738.5920673055177,-765.44678178266292,3364.8112876835548,2482.403372196839,-1781.5709435742272,1781.5709435742272,-2482.403372196839,6066.7975649276104,0.0
683296.95196600363,3615566.251970998,-32500.0,-169.41404510810548,2401.0213277670259,-2188.8159238613666,996.37691349191334,-1554.1107208222484,-735.929482110923,3039.8511436761755,1972.6314281947925,-1292.1645866484228,1292.1645866484228,-1972.6314281947925,5547.4041549690473,0.0
688296.95196600363,3615566.251970998,-32500.0,-587.69117432337282,2257.1340005289708,-1830.1975573123291,1055.3427489091507,-1367.774353169905,-682.00978649480737,2746.704592232863,1535.1419458912228,-903.53274229580995,903.53274229580995,-1535.1419458912228,5066.8681964639409,0.0
693296.95196600363,3615566.251970998,-32500.0,-885.16674825764244,2086.7120673462923,-1528.7332187809809,1061.3232236914441,-1191.790561548336,-617.37302569167969,2481.8241001487645,1168.5860619105699,-600.4013281832265,600.4013281832265,-1168.5860619105699,4621.8666445432091,0.0
698296.95196600363,3615566.251970998,-32500.0,-1087.6192205747489,1907.1159255457205,-1277.904405062121,1033.07989742973,-1031.9482343724994,-550.28903021957433,2242.735235027023,866.82964995843611,-367.42899110163683,367.42899110163683,-866.82964995843611,4211.2902201592606,0.0
703296.95196600363,3615566.251970998,-32500.0,-1216.9150319432731,1729.2619457330024,-1070.4550777336649,983.96770107238353,-890.25358920046335,-485.48439753705674,2027.3616968534993,621.76527148916512,-190.74676501385014,190.74676501385014,-621.76527148916512,3834.3954274835978,0.0
708296.95196600363,3615566.251970998,-32500.0,-1290.9187499340778,1559.6254902169142,-899.40510519831525,923.26196999788738,-766.59498912164986,-425.43300330094615,1833.75879367483,424.91919476291559,-58.515827491740964,58.515827491740964,-424.91919476291559,3490.1340474949752,0.0
713296.95196600363,3615566.251970998,-32500.0,-1323.854727030709,1401.7104156924775,-758.50225410796168,857.24889966795001,-659.7646305668934,-371.22011459793549,1660.0359719394125,268.29718262194751,39.021354341361274,-39.021354341361274,-268.29718262194751,3177.016397358283,0.0
518296.95196600363,3620566.251970998,-32500.0,-3239.0606626843855,-1498.5659181238029,-561.94700397360361,-1837.7749177146857,-768.57669938719948,-760.2326064399731,2547.6512188067309,-2888.5887887673935,510.93952140279589,-510.93952140279589,2888.5887887673935,5031.5903482960548,0.0
523296.95196600363,3620566.251970998,-32500.0,-3437.9956771806264,-1733.9503788694865,-698.92016820202298,-2077.1825414304012,-931.16564316236747,-904.74075702984305,2846.6302575325212,-3137.5225777683363,451.32878639447586,-451.32878639447586,3137.5225777683363,5616.5968940277935,0.0
528296.95196600363,3620566.251970998,-32500.0,-3617.1337864958332,-2003.7533411678708,-874.96204772646956,-2342.5018352053185,-1130.2931316285374,-1077.4474976777208,3183.7223086745589,-3387.9843081303716,352.57889337115921,-352.57889337115921,3387.9843081303716,6272.5569678356896,0.0
533296.95196600363,3620566.251970998,-32500.0,-3759.408034965154,-2309.3592958182007,-1101.489912923664,-2631.7588867135646,-1373.4685276139651,-1282.6130457058798,3562.1706453302081,-3627.6378690020215,200.40839251822717,-200.40839251822717,3627.6378690020215,7003.7887496507274,0.0
538296.95196600363,3620566.251970998,-32500.0,-3841.0655399781513,-2649.4123083222844,-1392.8242562707064,-2939.5665134496935,-1668.8167548870435,-1524.0356252432825,3984.2557639941342,-3837.5013233326099,-23.546748619874506,23.546748619874506,3837.5013233326099,7811.9154757213746,0.0
543296.95196600363,3620566.251970998,-32500.0,-3829.9335037510655,-3017.686397383663,-1766.4094450820974,-3255.2144543578006,-2024.2642640447746,-1804.0520266408896,4450.4271538950115,-3989.4066817735606,-342.24584700841342,342.24584700841342,3989.4066817735606,8693.8694822549642,0.0
548296.95196600363,3620566.251970998,-32500.0,-3683.8123534254396,-3399.8403008657592,-2242.4776650761382,-3560.025742719924,-2445.8558793310117,-2121.8330294016982,4958.0235028211991,-4042.9282728427834,-783.18246444401757,783.18246444401757,4042.9282728427834,9639.015257709143,0.0
553296.95196600363,3620566.251970998,-32500.0,-3349.6339726058477,-3768.700022606838,-2842.4920671106975,-3823.8776433337766,-2934.588376114099,-2470.6117753679409,5499.4589941709282,-3942.0931004355343,-1377.0079940802818,1377.0079940802818,3942.0931004355343,10625.202634768539,0.0
558296.95196600363,3620566.251970998,-32500.0,-2764.6805459201023,-4077.857410005503,-3585.1848578855379,-4000.998975099596,-3480.8231103528847,-2833.3725554174162,6059.8353049086199,-3612.810811123416,-2153.5105097827063,2153.5105097827063,3612.810811123416,11613.815650770737,0.0
563296.95196600363,3620566.251970998,-32500.0,-1862.2018529124068,-4253.9771741865288,-4478.2733244045994,-4025.6778742207393,-4054.9702890411986,-3176.4320706342055,6614.2295261002564,-2963.1769355534593,-3132.7961949386522,3132.7961949386522,2963.1769355534593,12544.659238140555,0.0
568296.95196600363,3620566.251970998,-32500.0,-585.22283735003339,-4189.8335122496574,-5503.1745548817307,-3809.6982970278036,-4592.9452113180714,-3440.3729619341825,7125.7854591050218,-1890.9596333725747,-4308.6489806500158,4308.6489806500158,1890.9596333725747,13333.70150924438,0.0
573296.95196600363,3620566.251970998,-32500.0,1086.4270397084404,-3743.6515647121396,-6590.1232926921675,-3245.6906442760915,-4975.5997953071965,-3528.2452114569446,7548.0923342617389,-305.68292117724059,-5621.0762758617093,5621.0762758617093,305.68292117724059,13882.288915955987,0.0
578296.95196600363,3620566.251970998,-32500.0,3092.0882772225846,-2756.4740492663818,-7584.3435764943924,-2224.5489382836149,-5004.6688568013433,-3292.6702141064839,7841.1506832072246,1824.7423600577467,-6918.5281935802404,6918.5281935802404,-1824.7423600577467,14119.678883478566,0.0
583296.95196600363,3620566.251970998,-32500.0,5234.5805403283093,-1106.0514027541235,-8214.6157352945866,-679.41462294751636,-4386.7550371509151,-2528.1877953113813,8022.6218280241683,4396.5203686723735,-7921.9386841345813,7921.9386841345813,-4396.5203686723735,14125.302785390668,0.0
588296.95196600363,3620566.251970998,-32500.0,7141.8566984518047,1186.6209181884233,-8096.9985866032721,1332.8981469667438,-2753.6036890478276,-984.77345262815959,8289.7417248467209,7076.4943515630284,-8226.1876284008285,8226.1876284008285,-7076.4943515630284,14377.946551362695,0.0
593296.95196600363,3620566.251970998,-32500.0,8308.9335337073826,3814.0232489750142,-6829.0527107828248,3523.8404193686156,236.18617705944905,1569.6808539718188,9171.0360648914393,9255.037495689834,-7399.1034015238147,7399.1034015238147,-9255.037495689834,15925.371754565505,0.0
598296.95196600363,3620566.251970998,-32500.0,8288.8203803771194,6091.7103903017169,-4214.8457106647202,5301.3180667972556,4681.3455025350577,5211.6492824257602,11267.913875120254,10156.541166896757,-5220.9599939959407,5220.9599939959407,-10156.541166896757,19715.943829420052,0.0
603296.95196600363,3620566.251970998,-32500.0,7015.9850835418201,7076.931949253848,-559.82400669708431,5851.5252176654776,10156.207096893921,9664.1111209903902,14454.002638738373,9186.5448181224529,-1997.1238956438119,1997.1238956438119,-9186.5448181224529,25433.889194057407,0.0
608296.95196600363,3620566.251970998,-32500.0,5077.4130550458094,5994.0339812145294,3177.5634429860015,4471.0479809055996,15544.816054471232,14141.240028482829,17848.056487827656,6416.3015103377893,1285.6894957030518,-1285.6894957030518,-6416.3015103377893,31554.117874862142,0.0
613296.95196600363,3620566.251970998,-32500.0,3631.4030258010239,2831.3555373660861,5632.5884910669565,1091.1123044118588,19249.04301376679,17429.162903614546,20356.546311657345,2870.3839342468764,3233.1921610807394,-3233.1921610807394,-2870.3839342468764,36138.197464019278,0.0
618296.95196600363,3620566.251970998,-32500.0,3772.7169134353417,-1318.4258610411821,5733.5653401057807,-3340.6621307774117,19903.53746422672,18378.751129979388,21121.202574350165,196.56049391619626,2808.2638143716849,-2808.2638143716849,-196.56049391619626,37625.631746359773,0.0
623296.95196600363,3620566.251970998,-32500.0,5629.0111438002987,-4693.5037642258067,3467.4071764558821,-7156.347417705003,17275.194381080022,16651.033808752476,19912.510416307752,-359.32567093233354,150.21716764779916,-150.21716764779916,359.32567093233354,35566.931886437196,0.0
628296.95196600363,3620566.251970998,-32500.0,8118.0983057716858,-6001.2119833372517,-31.644081349692414,-9007.4326406567307,12516.243680119087,13033.64638929047,17248.262526288599,1123.3814644019926,-3402.337318534032,3402.337318534032,-1123.3814644019926,30855.398169933462,0.0
633296.95196600363,3620566.251970998,-32500.0,9836.8575355385474,-5207.4610910795245,-3302.1179618675919,-8698.4921978882521,7366.2135768932212,8877.7366989860639,14065.716781740082,3459.9623990060491,-6299.2898591925268,6299.2898591925268,-3459.9623990060491,25141.167130957572,0.0
638296.95196600363,3620566.251970998,-32500.0,10097.23609710269,-3211.0657053777991,-5456.4542172476322,-6985.1253928559563,3102.1178169419645,5242.6174992216274,11202.433917707538,5426.5446798448293,-7754.4427290570484,7754.4427290570484,-5426.5446798448293,19903.656293881548,0.0
643296.95196600363,3620566.251970998,-32500.0,9078.9281802684873,-998.6451696129983,-6378.2733151254333,-4803.5737521396522,168.08973500227495,2552.7190162561465,9059.6322755496149,6457.9747515811232,-7849.913144438493,7849.913144438493,-6457.9747515811232,15904.060973555475,0.0
648296.95196600363,3620566.251970998,-32500.0,7347.1992828270513,840.46319080914986,-6384.2459380291502,-2777.1096989927378,-1564.0341122330333,774.96415927205317,7599.605476262408,6590.1920593017467,-7072.6463645349222,7072.6463645349222,-6590.1920593017467,13194.519084593465,0.0
653296.95196600363,3620566.251970998,-32500.0,5421.5488589790557,2119.0048653799017,-5866.3333627862185,-1166.3242851091404,-2423.7022122443364,-299.37303536100092,6597.3889887003807,6112.9192838807267,-5905.8433202787,5905.8433202787,-6112.9192838807267,11434.273870425104,0.0
658296.95196600363,3620566.251970998,-32500.0,3624.6833110905291,2877.1266108308309,-5124.5844711127183,-5.7789424219494521,-2727.104734940357,-888.65497202008703,5853.8437497422738,5322.1749674036237,-4674.2481618558159,4674.2481618558159,-5322.1749674036237,10226.264100377468,0.0
663296.95196600363,3620566.251970998,-32500.0,2103.4614108655705,3235.43559020974,-4341.812844228828,767.72357562409854,-2708.9531195862801,-1165.0317831203968,5249.5142921314709,4430.6627053285483,-3548.546377914307,3548.546377914307,-4430.6627053285483,9292.248533030619,0.0
668296.95196600363,3620566.251970998,-32500.0,894.15320807852163,3318.7247493471386,-3611.7904671765,1242.6745510396818,-2523.4441408383686,-1249.8983153941626,4725.2078722423221,3564.5965046564042,-2596.3235836107115,2596.3235836107115,-3564.5965046564042,8486.3032552019249,0.0
673296.95196600363,3620566.251970998,-32500.0,-23.333424274099588,3228.3756896948425,-2973.1735252250251,1501.7817873323061,-2264.5966281275764,-1224.185319244935,4254.9349685157022,2787.052029024037,-1828.2381465456206,1828.2381465456206,-2787.052029024037,7747.2413719886626,0.0
678296.95196600363,3620566.251970998,-32500.0,-691.88543648691473,3038.0160952468982,-2434.5889844472867,1612.1429244830717,-1986.3584968692849,-1139.8296637088056,3828.1599357898804,2121.7534852669833,-1228.2221296097835,1228.2221296097835,-2121.7534852669833,7055.4614121814611,0.0
683296.95196600363,3620566.251970998,-32500.0,-1159.3493259633035,2797.5824854743328,-1990.127938260059,1624.4079627765,-1717.601992356048,-1028.9848851481293,3440.5461216716926,1570.4054448474412,-770.42669091038351,770.42669091038351,-1570.4054448474412,6407.9223442112479,0.0
688296.95196600363,3620566.251970998,-32500.0,-1470.2028563464601,2539.2152635925736,-1628.0258110932218,1575.1227153689501,-1472.1924170346208,-910.74028998585038,3089.7681817079479,1123.7511960544698,-427.76312729701891,427.76312729701891,-1123.7511960544698,5806.3871031664794,0.0
693296.95196600363,3620566.251970998,-32500.0,-1662.3694690394509,2282.545809103899,-1335.1356179349573,1489.7735929534967,-1255.3711778558727,-795.79557263229412,2773.8263912888815,768.06430751401172,-175.68810850997767,175.68810850997767,-768.06430751401172,5252.6805125751525,0.0
698296.95196600363,3620566.251970998,-32500.0,-1766.6128291623866,2038.8020910326136,-1099.037831649164,1385.6184010040308,-1067.6745561423584,-689.62422638049975,2490.5261521794464,488.71341181454659,6.4876512773486468,-6.4876512773486468,-488.71341181454659,4747.244884804667,0.0
703296.95196600363,3620566.251970998,-32500.0,-1807.0934590696049,1813.7576046320071,-908.87772502962764,1273.9981746870399,-907.26099714129646,-594.55099080079242,2237.4159107887426,271.94956989964544,135.49124925393212,-135.49124925393212,-271.94956989964544,4289.0159200266644,0.0
708296.95196600363,3620566.251970998,-32500.0,-1802.3574145612574,1609.7636700318305,-755.56413547602756,1162.1105692598594,-771.25230638118614,-511.08324223638817,2011.8843202602459,105.67427862791351,224.49455838254767,-224.49455838254767,-105.67427862791351,3875.7552216464392,0.0
713296.95196600363,3620566.251970998,-32500.0,-1766.396544231379,1427.1075119008601,-631.67274146231148,1054.3157744173238,-656.47628433060959,-438.74221060546,1811.2850604094883,-20.349011041472636,283.68923393605468,-283.68923393605468,20.349011041472636,3504.4656237070308,0.0
518296.95196600363,3625566.251970998,-32500.0,-3651.9721902411084,-1317.942706418828,-372.50532594714292,-2026.9479745284004,-673.30172578413271,-826.94131866310443,2699.5032167538347,-3070.3491072815932,808.62525789430697,-808.62525789430697,3070.3491072815932,5326.1229852301658,0.0
523296.95196600363,3625566.251970998,-32500.0,-3937.3107886348112,-1545.192278330798,-471.33927275673597,-2316.891556954462,-825.08434626215455,-993.05265742273639,3034.7055307303813,-3376.5589700325754,806.97211505017003,-806.97211505017003,3376.5589700325754,5982.1408542722929,0.0
528296.95196600363,3625566.251970998,-32500.0,-4220.9638155285083,-1812.3070163829757,-602.09627461236653,-2647.2075825539473,-1014.2893549945463,-1194.9118751820183,3417.4851249407225,-3700.8324172768307,776.92536032913745,-776.92536032913745,3700.8324172768307,6727.9383385682841,0.0
533296.95196600363,3625566.251970998,-32500.0,-4488.7696256722575,-2124.224286314125,-775.67894822062135,-3020.0582891790123,-1250.1244708632378,-1439.5122184803972,3853.7335666055501,-4035.1120778683785,705.17089479528158,-705.17089479528158,4035.1120778683785,7573.012617596014,0.0
538296.95196600363,3625566.251970998,-32500.0,-4719.5187110708048,-2484.6977107729967,-1006.6102405448697,-3435.1830875776559,-1543.5340744069888,-1734.3415809438195,4349.1020759600551,-4365.3342834453269,573.49342380020335,-573.49342380020335,4365.3342834453269,8525.4554922381885,0.0
543296.95196600363,3625566.251970998,-32500.0,-4882.4028513070207,-2894.6394990270278,-1313.9788575936293,-3888.0160844626057,-1906.9734125661778,-2086.6588489411088,4908.2406691406322,-4668.5260081210254,357.40484701338073,-357.40484701338073,4668.5260081210254,9590.0937348472507,0.0
548296.95196600363,3625566.251970998,-32500.0,-4933.93595216835,-3349.2993055775642,-1722.3167435379678,-4366.8216229208738,-2353.5475577357847,-2502.0764063768506,5533.5305259691868,-4908.8186141306433,24.771921923673744,-24.771921923673744,4908.8186141306433,10765.528368620504,0.0
553296.95196600363,3625566.251970998,-32500.0,-4814.6303693989548,-3833.6488202640758,-2261.9647441392281,-4848.4683737574569,-2894.9054930094239,-2982.0070732413074,6223.0417631987002,-5032.2395966997638,-465.06626070208677,465.06626070208677,5032.2395966997638,12039.580367834013,0.0
558296.95196600363,3625566.251970998,-32500.0,-4446.2910324997047,-4315.163035440376,-2967.9438739963998,-5292.4267479067139,-3536.8116941886392,-3519.2980197936472,6967.3443839829324,-4960.5091934207057,-1160.590438636181,1160.590438636181,4960.5091934207057,13382.554258212109,0.0
563296.95196600363,3625566.251970998,-32500.0,-3732.0307013802344,-4733.2344336515816,-3875.3403763437836,-5632.7299202451804,-4270.5486623650741,-4091.0017676792513,7744.734678604349,-4585.1024722587781,-2113.5481259512662,2113.5481259512662,4585.1024722587781,14737.848390128756,0.0
568296.95196600363,3625566.251970998,-32500.0,-2563.520587921787,-4985.3820554092772,-5007.5776263775906,-5768.4306225037526,-5057.2204961397938,-4646.6617910915156,8514.6852667989224,-3765.3253711748248,-3366.3887299498283,3366.3887299498283,3765.3253711748248,16010.449458235122,0.0
573296.95196600363,3625566.251970998,-32500.0,-843.95682913297651,-4913.7408316485244,-6351.9749915396133,-5555.6242428904307,-5801.0451409004236,-5089.7858405011284,9210.7358088990368,-2339.2729046213626,-4925.098724664238,4925.098724664238,2339.2729046213626,17057.697031216925,0.0
578296.95196600363,3625566.251970998,-32500.0,1460.6518417688933,-4303.8176631606184,-7816.8478826819992,-4810.6062659381587,-6308.9253911384094,-5250.3373935137279,9739.1876746229354,-164.76269406594611,-6710.2819720747721,6710.2819720747721,164.76269406594611,17698.873778176992,0.0
583296.95196600363,3625566.251970998,-32500.0,4232.4797781978596,-2923.1676665308014,-9172.7359496696827,-3346.2508066167775,-6242.8984678250999,-4850.8939853667562,10005.541627690969,2786.2074750541065,-8488.2445175103221,8488.2445175103221,-2786.2074750541065,17793.008673152173,0.0
588296.95196600363,3625566.251970998,-32500.0,7094.9396142301612,-642.13772307821966,-10009.243344725799,-1076.7297522644922,-5099.8971701642968,-3487.0625365137716,10032.316231033958,6271.1247576957076,-9816.476872950363,9816.476872950363,-6271.1247576957076,17500.778846570887,0.0
593296.95196600363,3625566.251970998,-32500.0,9379.5526598235047,2345.3101539313966,-9790.8879674168566,1789.901165936016,-2301.1152621570213,-679.75384305371847,10292.916127370674,9623.057976054637,-10097.662471972102,10097.662471972102,-9623.057976054637,17828.409215401378,0.0
598296.95196600363,3625566.251970998,-32500.0,10325.850043677776,5303.1809675754366,-8116.1297586061883,4545.9395907890748,2507.510596051718,3913.8219974329286,11939.870375722647,11789.921409495044,-8861.1569303516917,8861.1569303516917,-11789.921409495044,20693.016806521064,0.0
603296.95196600363,3625566.251970998,-32500.0,9573.6028201502959,7013.7393190020957,-5146.3325961629162,5992.6890523601433,8966.4616772815425,10105.029828360248,15484.454997811379,11778.900412142182,-6237.3067908044468,6237.3067908044468,-11778.900412142182,26856.812423198633,0.0
608296.95196600363,3625566.251970998,-32500.0,7673.256219422341,6348.8926197284363,-1876.9896233585696,4908.047000509423,15633.536201800001,16769.21274309947,19818.843819316189,9414.0860634973669,-3266.1834000980548,3266.1834000980548,-9414.0860634973669,34456.156094400176,0.0
613296.95196600363,3625566.251970998,-32500.0,6102.2427758897911,3160.5038041202552,163.97048921110044,942.95199848170796,20217.037573948783,21835.066265368943,23179.990386888858,5866.3789737185471,-1584.1605387522527,1584.1605387522527,-5866.3789737185471,40435.507360757736,0.0
618296.95196600363,3625566.251970998,-32500.0,6400.2974454620926,-1166.6858244461278,-169.2397829699155,-4573.1766876884321,20691.238538931353,23147.309665957968,24144.595482360874,3271.3934538342,-2400.4866524592771,2400.4866524592771,-3271.3934538342,42247.469951122046,0.0
623296.95196600363,3625566.251970998,-32500.0,8702.5830417733505,-4325.1030020774178,-2678.0901044301895,-9006.7283156665471,16828.340351416948,20077.952337291779,22361.280973654353,3192.2311476181749,-5363.254111563605,5363.254111563605,-3192.2311476181749,39210.205782188939,0.0
628296.95196600363,3625566.251970998,-32500.0,11319.228914267907,-4834.545715222388,-5851.8510203001688,-10375.643601222971,10587.448418095628,14270.200646456629,18755.44262318296,5208.3412315112282,-8632.3973924435813,8632.3973924435813,-5208.3412315112282,32917.901224646674,0.0
633296.95196600363,3625566.251970998,-32500.0,12373.863338047628,-3088.8793548743743,-8123.5844747065494,-8830.237244298236,4550.6395567025675,8257.5164872818259,14846.370946369872,7532.6899321935407,-10467.900439071194,10467.900439071194,-7532.6899321935407,26026.579317754855,0.0
638296.95196600363,3625566.251970998,-32500.0,11397.249537873759,-508.89188010765901,-8916.1915795835412,-5901.5727648859311,197.24424034508715,3629.8433556120199,11760.001382136928,8803.7084607628931,-10442.285173688088,10442.285173688088,-8803.7084607628931,20507.682773038799,0.0
643296.95196600363,3625566.251970998,-32500.0,9108.4048225418301,1767.8912270503549,-8526.5505895406041,-2972.1718721708153,-2317.4791902019701,674.60765269901572,9747.7716439194464,8787.163235116137,-9139.2376384913241,9139.2376384913241,-8787.163235116137,16893.218003676244,0.0
648296.95196600363,3625566.251970998,-32500.0,6426.9087122696146,3304.0614241661201,-7509.0259350846591,-681.3995721337069,-3466.4276509984647,-974.6873560716183,8464.8290163673628,7894.5136364760428,-7323.0120459534855,7323.0120459534855,-7894.5136364760428,14698.213617756946,0.0
653296.95196600363,3625566.251970998,-32500.0,3946.6765228172681,4123.9043844020007,-6297.8188975080748,874.78067891901162,-3781.6373692365255,-1775.7710840824391,7538.2474080294087,6611.2015492152022,-5509.8436928764477,5509.8436928764477,-6611.2015492152022,13239.725606286635,0.0
658296.95196600363,3625566.251970998,-32500.0,1914.2331105613848,4413.7339706329576,-5134.819218345142,1823.3533850211993,-3651.7014433055342,-2074.3830846758124,6770.0494226637984,5268.9696694308877,-3940.1942489015892,3940.1942489015892,-5268.9696694308877,12079.072782796784,0.0
663296.95196600363,3625566.251970998,-32500.0,367.29110036501419,4364.0686198391768,-4121.932098736338,2332.3043138948838,-3315.6453210733453,-2092.7993657070524,6083.3250739822943,4040.1565668336389,-2680.9624089329618,2680.9624089329618,-4040.1565668336389,11027.057700027208,0.0
668296.95196600363,3625566.251970998,-32500.0,-748.42771375813732,4120.2997570939206,-3283.7954819481142,2545.2790678666925,-2907.5761413008295,-1965.6554651116248,5454.3109720466055,2992.3459707981847,-1716.2230103170132,1716.2230103170132,-2992.3459707981847,10027.539929044648,0.0
673296.95196600363,3625566.251970998,-32500.0,-1514.6755210384567,3780.3256604284747,-2609.6177566235219,2569.2347210603143,-2497.5439115342178,-1772.2933954600287,4877.7562141544968,2136.5948345009874,-999.92913416728504,999.92913416728504,-2136.5948345009874,9075.8940606232427,0.0
678296.95196600363,3625566.251970998,-32500.0,-2011.9890684132977,3405.3755368050606,-2075.760964399728,2479.0087808983471,-2118.8950169654991,-1558.1611825587311,4353.1016901334697,1457.6166845801922,-480.98221336657696,480.98221336657696,-1457.6166845801922,8181.3395966380349,0.0
683296.95196600363,3625566.251970998,-32500.0,-2309.3555953483719,3031.4671928687949,-1656.4528724570182,2325.0595475138352,-1784.7906460732195,-1348.0802360035991,3879.780588675339,930.2249124106711,-113.33591147668261,113.33591147668261,-930.2249124106711,7352.9743407810329,0.0
688296.95196600363,3625566.251970998,-32500.0,-2462.0306548165445,2678.2825976248746,-1328.2361447346341,2140.3837323052776,-1497.7774825205768,-1154.4687556027636,3456.0409939969609,527.5601695840603,140.96393651097048,-140.96393651097048,-527.5601695840603,6595.910426366896,0.0
693296.95196600363,3625566.251970998,-32500.0,-2512.5812850725688,2355.3378021889293,-1071.3955186828357,1945.8660257568963,-1255.2033922183196,-982.47250235942136,3078.9950928098019,224.83271699276318,311.75122325238971,-311.75122325238971,-224.83271699276318,5911.1519373858619,0.0
698296.95196600363,3625566.251970998,-32500.0,-2492.9591808289647,2066.0507635148706,-870.03859574431556,1754.1846497690508,-1052.203084835347,-833.14640589371686,2744.9960557962122,0.72920921555197538,421.81906432938951,-421.81906432938951,-0.72920921555197538,5296.5732296862625,0.0
703296.95196600363,3625566.251970998,-32500.0,-2426.6868792002638,1810.3436316260484,-711.65405055920462,1572.5790526293399,-883.28703920737155,-705.39470328674895,2450.0287514746647,-162.33651830266408,488.26218366365595,-488.26218366365595,162.33651830266408,4748.0255447618292,0.0
708296.95196600363,3625566.251970998,-32500.0,-2330.8032520254424,1586.265232714798,-586.52527147639046,1404.7665385965415,-743.1368905801329,-597.12111921043322,2190.0135758632437,-278.50151801901688,523.73818301155973,-523.73818301155973,278.50151801901688,4260.2479276908016,0.0
713296.95196600363,3625566.251970998,-32500.0,-2217.4671665580313,1390.9780396045762,-487.16282046260073,1252.244817217181,-626.96105876454646,-505.88553594804625,1961.0123965791188,-358.93326698800246,537.53100555691287,-537.53100555691287,358.93326698800246,3827.5265052729092,0.0
513296.95196600363,3630566.251970998,-32500.0,-3661.2734343138045,-895.89181065195498,-152.82758833949774,-1898.9060124589648,-441.85789945661952,-732.34035589199812,2505.1782462037108,-2847.0916016328974,1019.3255019485271,-1019.3255019485271,2847.0916016328974,4941.9583053134775,0.0
518296.95196600363,3630566.251970998,-32500.0,-4004.4431147155428,-1061.7767774883787,-195.427721550928,-2186.9332130661633,-545.34711513834623,-882.92036387079622,2823.5314798896807,-3161.6465610993091,1085.144722418848,-1085.144722418848,3161.6465610993091,5566.410439427802,0.0
523296.95196600363,3630566.251970998,-32500.0,-4370.896214850487,-1261.1576483224997,-254.05357792366419,-2522.783813706561,-676.0549846639193,-1068.2128275835332,3190.8004066919871,-3509.2635777459473,1143.3438762415008,-1143.3438762415008,3509.2635777459473,6284.5448880177892,0.0
528296.95196600363,3630566.251970998,-32500.0,-4755.3162971265929,-1500.5623957610035,-335.09109148026124,-2913.4085637048788,-841.64378621542096,-1296.4244932032823,3614.8609832298757,-3889.4865413359985,1186.7287382848581,-1186.7287382848581,3889.4865413359985,7110.3618980415831,0.0
533296.95196600363,3630566.251970998,-32500.0,-5147.9976305338305,-1787.250050571974,-447.52673106296362,-3365.7226790405202,-1051.8942767681995,-1577.3976657685726,4104.5203908417243,-4299.0099966163407,1204.6383881646434,-1204.6383881646434,4299.0099966163407,8058.9459578810965,0.0
538296.95196600363,3630566.251970998,-32500.0,-5532.7198777397007,-2128.7934180157722,-603.98612052728299,-3885.7575505171449,-1319.1512543243146,-1922.6322203622803,4669.3365765898216,-4729.8400740679854,1181.5128738634494,-1181.5128738634494,4729.8400740679854,9145.7688582941519,0.0
543296.95196600363,3630566.251970998,-32500.0,-5883.769386307732,-2532.1386979805843,-822.12759986943036,-4477.1772631450704,-1658.7061226112664,-2345.0283247563616,5319.1815036916541,-5166.4962604880766,1094.9701379223836,-1094.9701379223836,5166.4962604880766,10385.350843580636,0.0
548296.95196600363,3630566.251970998,-32500.0,-6161.8483461623055,-3001.7263937563375,-1126.4280877095414,-5138.7848388538305,-2088.9145769739616,-2858.105279221179,6063.3574351316802,-5581.8093780452518,913.32309147938395,-913.32309147938395,5581.8093780452518,11788.873817388365,0.0
553296.95196600363,3630566.251970998,-32500.0,-6308.6449639431166,-3535.9604149661036,-1550.2634607755465,-5860.4291106009814,-2630.6130457186232,-3474.2914896915695,6908.93192323315,-5930.7251838308584,592.6102479351689,-592.6102479351689,5930.7251838308584,13360.094694276941,0.0
558296.95196600363,3630566.251970998,-32500.0,-6240.0853121232904,-4120.8604723924345,-2137.8216644037443,-6616.386597538969,-3304.928652706602,-4201.5990891759557,7857.7017728200663,-6141.4616448254692,73.613434969583523,-73.613434969583523,6141.4616448254692,15088.519917781063,0.0
563296.95196600363,3630566.251970998,-32500.0,-5839.1661262521839,-4719.1290047654948,-2944.499321823228,-7354.7974287528768,-4127.6183695566779,-5037.411956416413,8900.739039367807,-6103.7190104490292,-719.65020758160199,719.65020758160199,6103.7190104490292,16938.195477550369,0.0
568296.95196600363,3630566.251970998,-32500.0,-4951.8013896856037,-5252.4956261409889,-4032.5098377125983,-7981.3263137075346,-5096.2211152982036,-5956.8191067909102,10008.834613853542,-5655.4170523401517,-1876.1692843691492,1876.1692843691492,5655.4170523401517,18829.878144048322,0.0
573296.95196600363,3630566.251970998,-32500.0,-3395.2538831753004,-5576.5972749671218,-5454.8414578541715,-8336.1728693164205,-6163.1412200132827,-6890.1753866795261,11116.815517521536,-4575.0038693210054,-3480.5694596339195,3480.5694596339195,4575.0038693210054,20615.088049938262,0.0
578296.95196600363,3630566.251970998,-32500.0,-1000.4247046646196,-5455.2911634665534,-7215.931287391003,-8170.1608420831508,-7184.3041023534179,-7680.2151909629547,12102.043140031294,-2599.8191646648233,-5567.1835004727091,5567.1835004727091,2599.8191646648233,22047.941109734671,0.0
583296.95196600363,3630566.251970998,-32500.0,2278.1794632698229,-4563.7198338415928,-9197.422874881413,-7147.1540398970901,-7836.4072700287534,-8007.937307347499,12770.101853877963,486.35556884508378,-8028.8380612605852,8028.8380612605852,-486.35556884508378,22790.571450920033,0.0
588296.95196600363,3630566.251970998,-32500.0,6167.6824263308026,-2590.1088987869221,-11062.206376735916,-4942.8655311222183,-7528.4294719531172,-7298.9872638332508,12905.616471449463,4642.6313203868049,-10491.939274998393,10491.939274998393,-4642.6313203868049,22575.308229177794,0.0
593296.95196600363,3630566.251970998,-32500.0,9892.7061651896474,478.36459560457234,-12229.725242614884,-1535.9238759297882,-5426.6807117356984,-4705.8894560547387,12589.760534925936,9261.5540289175988,-12267.602208925564,12267.602208925564,-9261.5540289175988,21809.970435163057,0.0
598296.95196600363,3630566.251970998,-32500.0,12305.176292590413,3952.1220247931569,-12113.215384084931,2345.9937028266877,-822.30534725542111,611.15851755822951,13074.727577153792,13037.462169115381,-12613.707355651903,12613.707355651903,-13037.462169115381,22646.329075671521,0.0
603296.95196600363,3630566.251970998,-32500.0,12596.797339136976,6366.8854094003018,-10679.226342532344,5043.4591756051414,6077.2179059824075,8738.8059588971337,16002.956728824065,14490.58956011302,-11393.663356902734,11393.663356902734,-14490.58956011302,27849.192814822625,0.0
608296.95196600363,3630566.251970998,-32500.0,11180.582162036777,6260.6226076872854,-8845.7138334085485,4629.51491018453,13472.368198805332,18126.709559925144,20859.395059538332,13121.130380248449,-9580.7037943981504,9580.7037943981504,-13121.130380248449,36260.225403162229,0.0
613296.95196600363,3630566.251970998,-32500.0,9793.6111332063047,3439.462600057725,-8022.0813638951831,366.07124198706163,18335.705162020393,25411.975968184677,25046.884777237792,10205.47710884249,-8816.1544282596005,8816.1544282596005,-10205.47710884249,43405.877358223319,0.0
618296.95196600363,3630566.251970998,-32500.0,10353.41597010501,-393.52136442199622,-8983.1489577803222,-5919.2517501013726,18110.742190888854,26881.472483871872,26180.031538727493,8242.0470810963179,-10128.513738410622,10128.513738410622,-8242.0470810963179,45345.886058090648,0.0
623296.95196600363,3630566.251970998,-32500.0,12869.371755479277,-2586.2311577708592,-11067.887726093197,-10326.212819321432,12901.49912126637,21611.722133155301,23780.882611145065,8838.4016493796062,-12745.845160273415,12745.845160273415,-8838.4016493796062,41206.708412412372,0.0
628296.95196600363,3630566.251970998,-32500.0,14900.560316830628,-1868.9435042689936,-12668.68405668362,-10301.365357704686,5737.7727654059954,12901.392262381054,19444.826892732821,10943.41366224428,-14527.543648601904,14527.543648601904,-10943.41366224428,33712.663773234257,0.0
633296.95196600363,3630566.251970998,-32500.0,14343.501997120751,678.63007883415071,-12741.904906857721,-6897.2828536857578,-152.23287306932991,5070.4894784318813,15395.6739813729,12293.243758559196,-14117.032018154083,14117.032018154083,-12293.243758559196,26694.819426572973,0.0
638296.95196600363,3630566.251970998,-32500.0,11445.872225475023,3280.1247863287231,-11456.609906018242,-2726.7373066337564,-3579.6131437258787,34.811869834969343,12733.395915582434,11908.284196927045,-11915.244463696108,11915.244463696108,-11908.284196927045,22054.890975995011,0.0
643296.95196600363,3630566.251970998,-32500.0,7673.7281852401093,5002.2216769664574,-9539.9150333076705,571.549456558781,-4981.9220813408892,-2515.4989384154301,11135.592296196513,10253.402740321726,-9051.0114457156451,9051.0114457156451,-10253.402740321726,19371.150099764618,0.0
648296.95196600363,3630566.251970998,-32500.0,4174.0021134846365,5777.2319470099637,-7585.8996440309757,2645.8904822470731,-5189.0459978830386,-3519.4548033326414,9969.5312601308578,8135.2920521176611,-6353.8929310104149,6353.8929310104149,-8135.2920521176611,17576.128769018636,0.0
653296.95196600363,3630566.251970998,-32500.0,1412.6261126336756,5877.5684747341074,-5883.606247657156,3735.5085762937056,-4824.7476646706755,-3712.1083310425092,8944.2831538771061,6090.4054892741615,-4163.3380693571244,4163.3380693571244,-6090.4054892741615,16044.959740279835,0.0
658296.95196600363,3630566.251970998,-32500.0,-572.93374755135164,5587.4517236234342,-4510.5636770505262,4172.640311251319,-4243.9292888351829,-3519.4546469540301,7990.3424172726354,4347.2870934771281,-2518.0265682400823,2518.0265682400823,-4347.2870934771281,14577.689981939076,0.0
663296.95196600363,3630566.251970998,-32500.0,-1909.7353218482701,5108.0038551365597,-3445.6909083254764,4216.4207789624425,-3622.9175630654972,-3163.9471156999971,7104.5812387626884,2954.4770982270497,-1337.8915259816781,1337.8915259816781,-2954.4770982270497,13152.646535600696,0.0
668296.95196600363,3630566.251970998,-32500.0,-2753.7643687223231,4561.1927397369282,-2635.8666595320542,4038.6875777362516,-3040.9162192898925,-2758.7060461486217,6294.1157747833868,1882.942974524191,-518.19668589784908,518.19668589784908,-1882.942974524191,11794.170209872642,0.0
673296.95196600363,3630566.251970998,-32500.0,-3241.4977761597675,4014.6263795065306,-2025.4604692895293,3746.8984697538881,-2528.2651269896032,-2360.3408681931396,5562.9877248822022,1079.4039952046714,35.172079450355227,-35.172079450355227,-1079.4039952046714,10527.557054746381,0.0
678296.95196600363,3630566.251970998,-32500.0,-3479.6020656918117,3502.6645371767154,-1566.6253433298084,3406.4742038851459,-2091.7079437910402,-1995.5328659003796,4910.813200746411,489.03255574497365,396.97342149050843,-396.97342149050843,-489.03255574497365,9368.3965516004646,0.0
683296.95196600363,3630566.251970998,-32500.0,-3547.4399304707299,3040.4158746598077,-1221.3897432971955,3056.2424949034589,-1727.2115750073272,-1674.7272354958548,4333.9412348973783,63.598176272958653,623.43673948254843,-623.43673948254843,-63.598176272958653,8322.5932681244612,0.0
688296.95196600363,3630566.251970998,-32500.0,-3502.5191598748979,2632.2462645454266,-960.75872942798662,2718.2942088267882,-1426.4116858222253,-1399.6281278424717,3826.7374726712683,-236.52682047484194,755.6793211285451,-755.6793211285451,236.52682047484194,7388.8519991160201,0.0
693296.95196600363,3630566.251970998,-32500.0,-3385.7800662893369,2276.817683547637,-763.02930624298403,2404.2588607823945,-1179.8187985119541,-1167.4982938675309,3382.6081355654769,-442.7281223238748,823.26970936090959,-823.26970936090959,442.7281223238748,6561.2949072443389,0.0
698296.95196600363,3630566.251970998,-32500.0,-3225.9250913484498,1970.0027565040323,-612.11719940225373,2119.318629049249,-978.32845746510384,-973.63201017547078,2994.6967280464773,-579.31091545174058,847.22979010750146,-847.22979010750146,579.31091545174058,5831.5007534268834,0.0
703296.95196600363,3630566.251970998,-32500.0,-3042.7658484575009,1706.5452180989623,-496.15419526513455,1864.7922796688122,-813.85469527308339,-812.74079150239129,2656.3329681064074,-664.81363487375097,842.37137877236364,-842.37137877236364,664.81363487375097,5189.9473743103217,0.0
708296.95196600363,3630566.251970998,-32500.0,-2849.7333288219811,1480.9740169481645,-406.39116552740205,1639.7865774771051,-679.51415208998799,-679.68301603799932,2361.2927141785731,-713.22203990947662,819.04566760614409,-819.04566760614409,713.22203990947662,4626.9465617804453,0.0
713296.95196600363,3630566.251970998,-32500.0,-2655.7304259544567,1288.079132852836,-336.36948785735933,1442.2385693765714,-569.59353193768163,-569.80778937639195,2103.9289081335046,-735.00071499190199,784.4266613312011,-784.4266613312011,735.00071499190199,4133.208333622727,0.0
513296.95196600363,3635566.251970998,-32500.0,-3873.0612676661594,-614.08029808991932,-34.213140199023748,-1990.4998462155913,-310.75930313405047,-762.91820629872325,2574.5369734732108,-2820.2779399932833,1208.3866607150546,-1208.3866607150546,2820.2779399932833,5077.1689675405978,0.0
518296.95196600363,3635566.251970998,-32500.0,-4269.1428356681236,-738.42860341903804,-47.838616910193629,-2306.2680923849148,-388.65386176337563,-924.38074469586672,2912.1515306068463,-3147.0432504884075,1317.8118173185449,-1317.8118173185449,3147.0432504884075,5738.7444488177916,0.0
523296.95196600363,3635566.251970998,-32500.0,-4702.8295069024325,-890.49083819436692,-69.61095781741426,-2679.1271106599611,-488.4794596733534,-1124.801210306824,3304.5732910646821,-3513.788664413989,1430.8519357706664,-1430.8519357706664,3513.788664413989,6505.316142463691,0.0
528296.95196600363,3635566.251970998,-32500.0,-5172.855660743935,-1076.6495378017635,-103.68248493010829,-3119.3977784212557,-616.98301645494075,-1374.1798207657853,3761.6874957536043,-3922.9995490534557,1543.3321184169179,-1543.3321184169179,3922.9995490534557,7394.7118579144808,0.0
533296.95196600363,3635566.251970998,-32500.0,-5674.6493235643557,-1304.5580123832146,-156.23513249402382,-3638.669749165068,-783.07718360787851,-1684.9608929777683,4295.0792015926618,-4375.474344141483,1648.3356821432433,-1648.3356821432433,4375.474344141483,8427.2624727139646,0.0
538296.95196600363,3635566.251970998,-32500.0,-6198.3813827020413,-1583.158905018425,-236.46636842413145,-4249.4737751125967,-998.50609258123359,-2072.4417878757818,4918.1813144566613,-4868.8942610380054,1734.8217454617254,-1734.8217454617254,4868.8942610380054,9625.6744523031211,0.0
543296.95196600363,3635566.251970998,-32500.0,-6726.0406760271426,-1922.4457754963694,-358.04167384672866,-4964.513559667952,-1278.6590610673547,-2555.1014518623633,5646.3131171986661,-5395.5088137588682,1785.6004473293481,-1785.6004473293481,5395.5088137588682,11014.494695659523,0.0
548296.95196600363,3635566.251970998,-32500.0,-7227.0610798431344,-2332.6745922051805,-541.20376944393365,-5795.1266732620197,-1643.4946463297215,-3154.7220788032087,6496.4804073627629,-5938.4043826808302,1774.3986674689627,-1774.3986674689627,5938.4043826808302,12618.849833809871,0.0
553296.95196600363,3635566.251970998,-32500.0,-7651.7943891274399,-2822.4546473969622,-815.75206414181855,-6748.3684896399109,-2118.420550479681,-3896.0952116795293,7486.6636772838519,-6465.4893362705443,1661.6841743950422,-1661.6841743950422,6465.4893362705443,14461.878572832313,0.0
558296.95196600363,3635566.251970998,-32500.0,-7921.8639191702832,-3394.6059042901406,-1225.0209311128967,-7821.5495890141501,-2734.6698783380493,-4805.9349925766937,8633.9963339971873,-6919.8283223523995,1388.9507167788743,-1388.9507167788743,6919.8283223523995,16559.741905777042,0.0
563296.95196600363,3635566.251970998,-32500.0,-7916.4121672248129,-4037.6828046399137,-1830.562012131986,-8991.8846152788283,-3527.9334816300525,-5910.117509504269,9950.4986339665738,-7204.3887676755767,871.57829743282537,-871.57829743282537,7204.3887676755767,18911.962874290148,0.0
568296.95196600363,3635566.251970998,-32500.0,-7454.6006650312065,-4709.4917012246524,-2715.882873709189,-10196.740858980844,-4532.0403330849613,-7226.7093464869722,11433.515191542343,-7159.3705613434404,-7.9989811488621854,7.9989811488621854,7159.3705613434404,21482.647544999028,0.0
573296.95196600363,3635566.251970998,-32500.0,-6280.7023619192805,-5307.4733370190597,-3984.0794629928873,-11297.214104233441,-5759.9148007039357,-8747.3327676455101,13045.466007039324,-6533.8634088463259,-1400.3319527232948,1400.3319527232948,6533.8634088463259,24164.901757002615,0.0
578296.95196600363,3635566.251970998,-32500.0,-4075.7368668093868,-5623.6265328551563,-5736.7882969877119,-12019.176228334783,-7155.2938451806049,-10387.645400436588,14675.333385729513,-4968.114299107423,-3464.6563186844396,3464.6563186844396,4968.114299107423,26720.158762490122,0.0
583296.95196600363,3635566.251970998,-32500.0,-555.12486739314318,-5302.1390433335264,-8011.697972786309,-11889.474807198949,-8489.5286313353372,-11869.83922249257,16080.216610442796,-2040.7323859288072,-6285.5153229501038,6285.5153229501038,2040.7323859288072,28703.438934777365,0.0
588296.95196600363,3635566.251970998,-32500.0,4260.6940991684742,-3879.9013398611273,-10660.491699672595,-10266.272779610843,-9197.0967935314366,-12507.157655793515,16843.658593996519,2507.7694602907786,-9696.503413813698,9696.503413813698,-2507.7694602907786,29473.991051480785,0.0
593296.95196600363,3635566.251970998,-32500.0,9628.4773280231548,-1078.378318490611,-13224.429444415558,-6694.0439783956763,-8272.1735400781236,-10999.253173930445,16528.311901930836,8292.9157214241513,-13080.225503212352,13080.225503212352,-8292.9157214241513,28627.974963343666,0.0
598296.95196600363,3635566.251970998,-32500.0,13976.866024984443,2588.8500464838535,-15048.808661096949,-1724.5367183174858,-4623.9306709419507,-5710.4513951839681,15743.876820267866,13845.142801675371,-15483.294035660219,15483.294035660219,-13845.142801675371,27419.214179518538,0.0
603296.95196600363,3635566.251970998,-32500.0,15866.347162245531,5491.9858559449694,-15875.629607071944,2467.7903904679274,1749.6925557928002,3980.982339793446,17114.898745851282,17129.952527568305,-16409.986813174582,16409.986813174582,-17129.952527568305,29824.318573548015,0.0
608296.95196600363,3635566.251970998,-32500.0,15505.581488409998,5925.902001515251,-16358.410579232122,3092.0835731374741,8636.5838737734648,15896.754084809219,20447.575940666946,17299.607406833919,-16596.827564529525,16596.827564529525,-17299.607406833919,37225.461126577538,0.0
613296.95196600363,3635566.251970998,-32500.0,14801.492055270206,3905.6949396549844,-17361.990787399114,-846.03131735636214,12433.24673894124,24902.152066235303,24741.28642407872,15751.884215362677,-17318.750700853328,17318.750700853328,-15751.884215362677,44419.06015956519,0.0
618296.95196600363,3635566.251970998,-32500.0,15684.095744593153,1466.0408738796582,-18700.400728019464,-6787.0589232516922,10790.140667629619,25583.49801537181,26078.563035088715,14995.253566869196,-18865.437086371243,18865.437086371243,-14995.253566869196,45984.774288353299,0.0
623296.95196600363,3635566.251970998,-32500.0,17720.192306307483,987.24317818259442,-19172.568979493164,-9662.7434446822863,4841.7578113516274,17344.528672443339,23649.555735201611,16059.239892047844,-19948.600587753717,19948.600587753717,-16059.239892047844,41239.729942279955,0.0
628296.95196600363,3635566.251970998,-32500.0,17893.853681438366,2859.3111178779586,-17855.743004608848,-7060.5846915455786,-1563.8009985833719,6103.2174932753469,19796.278689097373,17106.747702467721,-18834.236149053002,18834.236149053002,-17106.747702467721,34306.868787363142,0.0
633296.95196600363,3635566.251970998,-32500.0,14634.428298855777,5401.0803699382332,-15045.270738027055,-1635.0879146783557,-5568.649938654773,-2111.0301178872519,16860.597409436032,16112.123857185334,-15395.312997397281,15395.312997397281,-16112.123857185334,29203.764788719651,0.0
638296.95196600363,3635566.251970998,-32500.0,9451.8406242539622,7104.0716634278224,-11750.007126383187,3107.3662932827337,-6979.591653850076,-5982.0868554574208,15089.654396249569,13251.520830935175,-11045.298352551717,11045.298352551717,-13251.520830935175,26210.903499759323,0.0
643296.95196600363,3635566.251970998,-32500.0,4433.5799301405923,7662.4005755282042,-8760.8202934849851,5892.4903269114857,-6840.638275893607,-6996.4400559554306,13631.6720420077,9807.0864801361058,-7100.2727234135882,7100.2727234135882,-9807.0864801361058,23971.01930343885,0.0
648296.95196600363,3635566.251970998,-32500.0,581.54031439724156,7420.1118430725728,-6381.8962241647569,7033.5949403341729,-6063.5044961165759,-6698.8902829405997,12169.695713144192,6701.2223053977204,-4082.9825278010312,4082.9825278010312,-6701.2223053977204,21787.246605290558,0.0
653296.95196600363,3635566.251970998,-32500.0,-2013.9333783970005,6775.2011584512147,-4609.8343533479656,7181.3321386451253,-5133.0824295497123,-5941.8641992332314,10741.25006230293,4252.4061591481768,-1977.9310794085907,1977.9310794085907,-4252.4061591481768,19581.65148071996,0.0
658296.95196600363,3635566.251970998,-32500.0,-3610.9147190868102,5989.5084740979128,-3330.6120792251654,6822.4764891704563,-4250.0532351340607,-5089.5747171823896,9414.9366920330503,2446.3512284520561,-586.06913746621194,586.06913746621194,-2446.3512284520561,17439.309802424785,0.0
663296.95196600363,3635566.251970998,-32500.0,-4503.3590913387725,5200.7881554177711,-2419.0295617652018,6240.0804605559042,-3480.4446304081771,-4279.4743796629809,8223.5777912320409,1161.891888490512,298.41503633532579,-298.41503633532579,-1161.891888490512,15434.662085301909,0.0
668296.95196600363,3635566.251970998,-32500.0,-4924.7009840751462,4471.4447204729449,-1771.5278769445947,5584.0076686251659,-2835.3811935937597,-3558.7469093686359,7173.010536294074,270.85703661041947,836.88716629178975,-836.88716629178975,-270.85703661041947,13606.773300723595,0.0
673296.95196600363,3635566.251970998,-32500.0,-5040.528418083064,3824.4483502538287,-1310.7178711193544,4930.6821984226826,-2305.6031684592886,-2939.1733968377616,6256.0547095897,-332.61712681925042,1144.3852236384541,-1144.3852236384541,332.61712681925042,11968.752558576518,0.0
678296.95196600363,3635566.251970998,-32500.0,-4963.7659054414362,3263.5807699410484,-981.19754453827466,4317.6070414289579,-1875.4175673699024,-2417.7611265374312,5460.4928981918556,-729.16212770019229,1299.9987412483927,-1299.9987412483927,729.16212770019229,10518.222101604173,0.0
683296.95196600363,3635566.251970998,-32500.0,-4770.3646621432827,2783.8631213380736,-744.02694418181875,3761.4120564962504,-1528.2854627976471,-1985.1537918866381,4772.7340167433958,-978.35355258492098,1357.337331158998,-1357.337331158998,978.35355258492098,9244.2364968765633,0.0
688296.95196600363,3635566.251970998,-32500.0,-4511.008735751514,2376.7708861668293,-572.02120526144631,3267.3255639295126,-1249.01187637266,-1629.6365282422632,4179.3913539305695,-1123.6521160186421,1352.4920329284564,-1352.4920329284564,1123.6521160186421,8131.5250677567228,0.0
693296.95196600363,3635566.251970998,-32500.0,-4219.1898049011879,2032.8239280384148,-446.2226928966362,2834.3869910540557,-1024.4973996949991,-1339.2498775869733,3667.9804688783342,-1196.5402232844754,1309.6241167884759,-1309.6241167884759,1196.5402232844754,7163.1396162041028,0.0
698296.95196600363,3635566.251970998,-32500.0,-3916.6852083988333,1742.8294563799159,-353.38284821397269,2458.4355624359473,-843.8428050783383,-1102.8839139441104,3227.2075239935666,-1219.6958155762204,1244.7924483230372,-1244.7924483230372,1219.6958155762204,6322.0620422632355,0.0
703296.95196600363,3635566.251970998,-32500.0,-3617.3009638348708,1498.4369066685222,-284.20684470381366,2133.8644315285337,-698.17559496153297,-910.768085517229,2847.0626015178473,-1209.3631769324156,1168.5621551201289,-1168.5621551201289,1209.3631769324156,5592.1486942740949,0.0
708296.95196600363,3635566.251970998,-32500.0,-3329.4449079817018,1292.3339188901195,-232.14129358022089,1854.6413237335939,-580.37241275416841,-754.60461211504935,2518.8032842759226,-1177.1064451610439,1087.781871583438,-1087.781871583438,1177.1064451610439,4958.6279028991112,0.0
713296.95196600363,3635566.251970998,-32500.0,-3057.9014377624494,1118.2585782589749,-192.53939565448937,1614.8794730902507,-484.76295367671707,-627.507032446376,2234.8756859655832,-1131.0998987664821,1006.7952020455529,-1006.7952020455529,1131.0998987664821,4408.3053395320476,0.0
718296.95196600363,3635566.251970998,-32500.0,-2805.0552316438761,970.92402749424377,-162.08600345245429,1409.1335544237845,-406.85596469053331,-523.84735800237695,1988.8043653675404,-1077.0728158521797,928.26640347649914,-928.26640347649914,1077.0728158521797,3929.5904803054236,0.0
513296.95196600363,3640566.251970998,-32500.0,-3991.6520680741828,-293.12057899890908,46.754283672726451,-2041.6891665868836,-163.62565967342204,-779.89480713293074,2609.9330306683769,-2700.836311746406,1342.7189894835224,-1342.7189894835224,2700.836311746406,5147.5521067850905,0.0
518296.95196600363,3640566.251970998,-32500.0,-4422.2679523664501,-363.80541775422677,54.620839090277279,-2375.0779742955706,-210.17780595014278,-948.08814526236552,2959.4077765729253,-3018.6239695303975,1485.3944694358961,-1485.3944694358961,3018.6239695303975,5831.9392463816812,0.0
523296.95196600363,3640566.251970998,-32500.0,-4901.018952192846,-452.24721136810655,60.793626745216265,-2772.0456702469887,-271.08271409401766,-1158.0901953411226,3367.745941432735,-3377.8604665753201,1641.0523590169987,-1641.0523590169987,3377.8604665753201,6629.037674321763,0.0
528296.95196600363,3640566.251970998,-32500.0,-5430.0565170047621,-563.12098100384515,63.236110394300368,-3245.5146364636348,-351.17183814009258,-1421.2033772410578,3846.3553155432751,-3782.518473958839,1808.4076697581963,-1808.4076697581963,3782.518473958839,7559.5463126690302,0.0
533296.95196600363,3640566.251970998,-32500.0,-6009.3705924219066,-702.3001500619913,58.600122994681527,-3810.8135873788801,-457.02061187578835,-1751.8174548767554,4408.9924426584839,-4235.7139733291688,1984.3541601821723,-1984.3541601821723,4235.7139733291688,8647.8610175490066,0.0
538296.95196600363,3640566.251970998,-32500.0,-6635.1950869576813,-877.0802877935422,41.463725404665951,-4485.8911836814259,-597.60449139909838,-2168.1663806510696,5072.229402083216,-4738.6847080847401,2162.8438478214589,-2162.8438478214589,4738.6847080847401,9922.5074349302868,0.0
543296.95196600363,3640566.251970998,-32500.0,-7297.4918861610104,-1096.3477376870894,3.1359496889711065,-5291.368022289219,-785.2021818353976,-2693.2203835904343,5855.9900334636104,-5289.0582099896164,2333.1444678580697,-2333.1444678580697,5289.0582099896164,11416.466147555482,0.0
548296.95196600363,3640566.251970998,-32500.0,-7975.9458987490298,-1370.5509742210554,-70.209497116167753,-6250.2407963299784,-1036.6283845786097,-3355.7491198600155,6784.134117792566,-5877.9069222906055,2477.1247518777054,-2477.1247518777054,5877.9069222906055,13167.246623666982,0.0
553296.95196600363,3640566.251970998,-32500.0,-8633.4812511110449,-1711.1496378253776,-200.42426253891423,-7386.8257311039197,-1374.8822813257739,-4191.66055335085,7884.9818078321159,-6484.6771308843563,2565.0110550497811,-2565.0110550497811,6484.6771308843563,15216.39512049495,0.0
558296.95196600363,3640566.251970998,-32500.0,-9205.567139970366,-2128.7952334061138,-421.78122918193861,-8723.9298196554846,-1831.2227537534525,-5245.8367597382567,9191.3896617053615,-7068.3074557694363,2548.7604640179338,-2548.7604640179338,7068.3074557694363,17607.646859817145,0.0
563296.95196600363,3640566.251970998,-32500.0,-9582.4976202099533,-2628.5705526134593,-787.40902292399778,-10275.687261073414,-2447.3194377450118,-6574.6710240868024,10739.187897950942,-7551.5511376980949,2351.895116658362,-2351.895116658362,7551.5511376980949,20381.658805694187,0.0
568296.95196600363,3640566.251970998,-32500.0,-9581.0510034397757,-3198.6963664512496,-1377.9326498249,-12029.759844229045,-3275.8031816238386,-8248.3474912661004,12560.704649802428,-7793.8452165661001,1854.8586610325983,-1854.8586610325983,7793.8452165661001,23562.001724218317,0.0
573296.95196600363,3640566.251970998,-32500.0,-8904.9425654930801,-3785.8426099353305,-2310.6828262403501,-13905.192239186452,-4373.4341180469701,-10346.136476454443,14665.591991470634,-7548.198706587681,877.64988690794871,-877.64988690794871,7548.198706587681,27120.225160638343,0.0
578296.95196600363,3640566.251970998,-32500.0,-7111.1987344100189,-4247.4380474124782,-3742.1405768741411,-15663.221172384816,-5770.4096727856049,-12918.866197517227,16993.77952581401,-6408.1258776680825,-828.07413466976777,828.07413466976777,6408.1258776680825,30897.742465008938,0.0
583296.95196600363,3640566.251970998,-32500.0,-3654.1617038263716,-4281.1860417570697,-5842.9909563248839,-16759.343237876306,-7379.0695163704031,-15848.773535355838,19321.127091220951,-3794.2671562021924,-3538.1952749572347,3538.1952749572347,3794.2671562021924,34464.068650815112,0.0
588296.95196600363,3640566.251970998,-32500.0,1825.1697715462994,-3391.1910311587972,-8707.9129727963991,-16229.244002749483,-8795.5636189580091,-18492.551238318993,21124.467003816135,866.64588999836496,-7388.9252344893193,7388.9252344893193,-866.64588999836496,36966.184726283296,0.0
593296.95196600363,3640566.251970998,-32500.0,8820.1233101163525,-1098.0945510777117,-12186.31416202061,-12992.395937081346,-9059.7788222393046,-19142.03801598449,21540.149314584833,7540.1735379885577,-12047.158415107879,12047.158415107879,-7540.1735379885577,37309.928386768792,0.0
598296.95196600363,3640566.251970998,-32500.0,15384.419305145404,2356.4031059383642,-15793.727830737245,-7120.8817324315178,-6865.2791994292402,-15085.403042445139,20011.031760847858,14740.105923477831,-16529.278111294818,16529.278111294818,-14740.105923477831,35505.904868856655,0.0
603296.95196600363,3640566.251970998,-32500.0,19218.544879361718,5364.399669765914,-19055.937573174015,-1300.2466665077043,-2003.3327326583876,-4835.6487761485969,20032.082055740259,19859.708700504238,-19889.343094021406,19889.343094021406,-19859.708700504238,35018.862462878511,0.0
608296.95196600363,3640566.251970998,-32500.0,20247.840601441036,6142.4510063902662,-21976.483725813705,624.14919470121652,2984.4969434549985,8388.0523371170748,22160.818594820015,21675.754061999156,-22299.049457941102,22299.049457941102,-21675.754061999156,39545.620012946325,0.0
613296.95196600363,3640566.251970998,-32500.0,20536.277608951044,5119.0980818042653,-24366.714584966987,-2166.7186882703199,4401.3221053035695,17165.105635423122,23610.006337716299,21719.619232943951,-24265.936514959598,24265.936514959598,-21719.619232943951,45023.129762268698,0.0
618296.95196600363,3640566.251970998,-32500.0,21487.781575971821,4481.9154074741809,-24981.155986616035,-5993.1485012304584,1267.8917571435568,15358.175849388694,25424.729021350387,22032.715721496286,-25106.860632192089,25106.860632192089,-22032.715721496286,45661.10808251745,0.0
623296.95196600363,3640566.251970998,-32500.0,21910.225739400426,5524.3310968336564,-22775.549993533707,-5490.9842820829226,-3801.1633003141123,4398.1267937514322,24076.129080681763,22487.726786537427,-23512.421811199918,23512.421811199918,-22487.726786537427,41788.807005053444,0.0
628296.95196600363,3640566.251970998,-32500.0,18943.896173901423,7468.237897246072,-18416.947750593834,238.32401652390814,-7430.236313465186,-7012.1018740267164,21812.951507824775,20932.652692167474,-19097.94619359808,19097.94619359808,-20932.652692167474,37854.033646935837,0.0
633296.95196600363,3640566.251970998,-32500.0,12523.475723705786,8807.2962197216311,-13576.885860319248,6816.4399212692124,-8501.3010151178696,-12789.789586797018,20413.962736705587,16709.176404752714,-13235.341119912733,13235.341119912733,-16709.176404752714,35358.42494478212,0.0
638296.95196600363,3640566.251970998,-32500.0,5454.2874002916169,8989.4689091753462,-9454.1401638781153,10832.908094419214,-7888.5032951394305,-13530.631812712485,18858.230489896305,11477.942010712664,-7808.6252340430847,7808.6252340430847,-11477.942010712664,32875.9163663535,0.0
643296.95196600363,3640566.251970998,-32500.0,-109.66048538283115,8343.0455168669523,-6396.0876193441709,12101.583827131881,-6676.3427422033928,-12000.696179966179,16814.868740600683,6881.3413914622006,-3760.8702281822252,3760.8702281822252,-6881.3413914622006,29800.145010688884,0.0
648296.95196600363,3640566.251970998,-32500.0,-3706.576029413483,7342.9834412814525,-4278.4407981213917,11727.006816229334,-5441.7384345139808,-9975.8569490520422,14640.007665050967,3493.7390506225647,-1103.9737259185633,1103.9737259185633,-3493.7390506225647,26442.571117601801,0.0
653296.95196600363,3640566.251970998,-32500.0,-5729.0228953822061,6291.1818823301264,-2856.9879050909826,10648.203430025513,-4376.1716427827268,-8116.3206389486459,12606.317025679537,1213.8108585074401,506.41860605046077,-506.41860605046077,-1213.8108585074401,23176.419701633069,0.0
658296.95196600363,3640566.251970998,-32500.0,-6700.6344393239206,5322.7484309945758,-1914.3730209303972,9373.998820334933,-3506.4566822016445,-6562.9344256180966,10818.195158555853,-245.80191112168677,1420.7512507306183,-1420.7512507306183,245.80191112168677,20193.17758596754,0.0
663296.95196600363,3640566.251970998,-32500.0,-7025.1601414181941,4480.3601252143635,-1291.207266218448,8127.2234880413544,-2810.0041814692449,-5297.9905827991261,9286.2692702945023,-1145.4157453967446,1896.5042838041986,-1896.5042838041986,1145.4157453967446,17550.565726802095,0.0
668296.95196600363,3640566.251970998,-32500.0,-6967.492634672748,3766.3882694405233,-878.76885860009668,6991.1376714305861,-2255.883829496287,-4274.7250116780124,7985.961161798411,-1673.673612064438,2102.8687238856674,-2102.8687238856674,1673.673612064438,15244.019535902198,0.0
673296.95196600363,3640566.251970998,-32500.0,-6692.4255756527682,3168.5756060106319,-604.97257883999521,5989.3111343805076,-1815.9620757497628,-3449.4373858647455,6884.7972410932425,-1958.0014911447081,2146.8782970223442,-2146.8782970223442,1958.0014911447081,13246.162867068329,0.0
678296.95196600363,3640566.251970998,-32500.0,-6301.3579152363955,2670.8333477304536,-422.5046975251841,5121.1600467221488,-1466.8550229869707,-2785.6823194930184,5952.0139665563001,-2083.1150592743784,2095.6384713626035,-2095.6384713626035,2083.1150592743784,11523.3082586251,0.0
683296.95196600363,3640566.251970998,-32500.0,-5856.725808237461,2257.3479967152439,-300.37578060702629,4376.6192418424362,-1189.6329254613786,-2253.2160300285782,5160.9221567044451,-2105.4957188088661,1991.1918660313383,-1991.1918660313383,2105.4957188088661,10041.557353644059,0.0
688296.95196600363,3640566.251970998,-32500.0,-5396.828931861618,1913.9726024860749,-218.2577470979966,3742.2557868091317,-969.14179312826514,-1826.8451972169021,4488.944123651876,-2063.0230947443238,1859.814330348004,-1859.814330348004,2063.0230947443238,8769.0355467104164,0.0
693296.95196600363,3640566.251970998,-32500.0,-4944.748704371098,1628.563603669091,-162.77340397993595,3203.9732088721248,-793.34259103461898,-1485.6830828783914,3917.0983207682034,-1981.167769650697,1717.775986548181,-1717.775986548181,1981.167769650697,7676.7457289062304,0.0
698296.95196600363,3640566.251970998,-32500.0,-4513.8455130166194,1390.9194305659189,-125.08465254776898,2748.2837156894752,-652.73098748706025,-1212.5959604164389,3429.4534153411578,-1877.0142169439187,1574.9547828667505,-1574.9547828667505,1877.0142169439187,6738.8730237823193,0.0
703296.95196600363,3640566.251970998,-32500.0,-4111.2298919083141,1192.5729351341249,-99.327232338598208,2362.8890683772565,-539.83844347658032,-993.68809119140974,3012.64104579574,-1761.9220305901604,1437.1310229687169,-1437.1310229687169,1761.9220305901604,5932.7781930426991,0.0
708296.95196600363,3640566.251970998,-32500.0,-3740.0468726042714,1026.5550777915807,-81.593520619729475,2036.9253353636823,-448.81763856186768,-817.81043640413873,2655.470858718224,-1643.3401765367864,1307.4770426171451,-1307.4770426171451,1643.3401765367864,5238.8771028919919,0.0
713296.95196600363,3640566.251970998,-32500.0,-3400.9501356886544,887.15434338435045,-69.268990473554396,1760.9837972611933,-375.09713247035745,-676.08522916702475,2348.5785442098882,-1526.0375300772525,1187.5141830738899,-1187.5141830738899,1526.0375300772525,4640.3686109863602,0.0
718296.95196600363,3640566.251970998,-32500.0,-3093.0886729497147,769.70352638513862,-60.597925336854587,1527.0344965427555,-315.10445654648402,-561.48300516114625,2084.1374099689697,-1412.9587212659235,1077.7403881500468,-1077.7403881500468,1412.9587212659235,4122.9434509163448,0.0
513296.95196600363,3645566.251970998,-32500.0,-4004.6919520808019,49.13318333304256,81.583720354240697,-2047.5788471594024,-7.7629182616147681,-781.73686686628639,2608.7833006135138,-2490.9108639338356,1409.983537548989,-1409.983537548989,2490.9108639338356,5147.8505998327755,0.0
518296.95196600363,3645566.251970998,-32500.0,-4446.86297332707,39.603885648547077,100.24338510644074,-2386.3822053952508,-19.473387906210043,-951.77361024055585,2961.643623783566,-2777.9888382185804,1571.1377108606471,-1571.1377108606471,2777.9888382185804,5838.6287737061439,0.0
523296.95196600363,3645566.251970998,-32500.0,-4942.0044809128176,25.154109212400034,120.87668861621835,-2791.4857663966959,-36.424727089721507,-1164.6865568580263,3375.0788061491407,-3101.8933076364556,1750.9936074167344,-1750.9936074167344,3101.8933076364556,6645.2871622664534,0.0
528296.95196600363,3645566.251970998,-32500.0,-5494.1892905801969,4.032220063820013,142.81301133623037,-3277.1295209131808,-60.794125786484251,-1432.3651684693605,3861.2695318393039,-3466.1769324208394,1950.2345993746308,-1950.2345993746308,3466.1769324208394,7589.9649846730135,0.0
533296.95196600363,3645566.251970998,-32500.0,-6106.1118932887748,-26.079347275095859,164.61903161880275,-3860.6327974780629,-95.689901985543528,-1770.1218400860037,4435.1254923596725,-3873.7318292830714,2168.458499015137,-2168.458499015137,3873.7318292830714,8699.1962857113467,0.0
538296.95196600363,3645566.251970998,-32500.0,-6777.8202239463972,-68.217393255107822,183.5675031963905,-4562.985240538409,-145.57121900236993,-2197.6599438693702,5114.9692428267581,-4325.9776980541637,2403.344198418451,-2403.344198418451,4325.9776980541637,10004.7265035323,0.0
543296.95196600363,3645566.251970998,-32500.0,-7504.6463081265565,-126.29823945301769,194.76926009379579,-5409.5111900910642,-216.8684826764966,-2740.3312399482029,5923.4311494291069,-4821.4775100225843,2649.3007823531589,-2649.3007823531589,4821.4775100225843,11544.46361043031,0.0
548296.95196600363,3645566.251970998,-32500.0,-8273.7768583170982,-205.23458452097742,189.76066582313609,-6430.5815040457355,-318.90761154507948,-3430.8587955228954,6888.638166902233,-5353.551010855027,2895.2640596367482,-2895.2640596367482,5353.551010855027,13363.596423618643,0.0
553296.95196600363,3645566.251970998,-32500.0,-9058.3950353900655,-310.86617939913714,154.21594491124671,-7662.2246413635266,-465.28938444746473,-4311.9225213951604,8045.7696777760102,-5906.0487314419461,3121.0539869075001,-3121.0539869075001,5906.0487314419461,15515.871001746102,0.0
558296.95196600363,3645566.251970998,-32500.0,-9807.306359053402,-449.33754020039436,64.264461700433188,-9146.0123976804098,-675.92538007223811,-5440.4515971117526,9438.8851862578322,-6445.6216959054318,3291.2496357279315,-3291.2496357279315,6445.6216959054318,18064.733081436512,0.0
563296.95196600363,3645566.251970998,-32500.0,-10426.093327776511,-624.98519686840484,-119.37072266396954,-10926.03442308798,-979.87472283199179,-6895.1152872335742,11122.231149944026,-6907.2170815645513,3344.7791035708924,-3344.7791035708924,6907.2170815645513,21082.943180274284,0.0
568296.95196600363,3645566.251970998,-32500.0,-10743.159447358561,-834.47366098949385,-460.4856449640659,-13036.279996607014,-1418.5783418938913,-8788.4744783031747,13158.035088148887,-7166.9125840210372,3177.4521008773709,-3177.4521008773709,7166.9125840210372,24645.784767180689,0.0
573296.95196600363,3645566.251970998,-32500.0,-10453.166808954802,-1052.1615928520309,-1060.79800314813,-15460.875423869422,-2046.7125300287375,-11280.424476141428,15602.192717001006,-6993.8536997007923,2614.7007461389635,-2614.7007461389635,6993.8536997007923,28804.081157905995,0.0
578296.95196600363,3645566.251970998,-32500.0,-9043.3876427860996,-1197.6323889885007,-2076.9852304907431,-18030.050209195622,-2920.1939789326716,-14566.852693628414,18457.986586102103,-5978.9098067563209,1377.8504405586755,-1377.8504405586755,5978.9098067563209,33505.996616604607,0.0
583296.95196600363,3645566.251970998,-32500.0,-5769.5413975984757,-1077.510462005685,-3733.3881615867786,-20203.970614020764,-4041.9518026913906,-18749.874975136554,21563.88606035526,-3478.2859377059463,-927.00555564225624,927.00555564225624,3478.2859377059463,38420.846206620467,0.0
588296.95196600363,3645566.251970998,-32500.0,97.290693080712927,-329.84219570922505,-6302.0808376529849,-20792.216763893899,-5211.6086948709099,-23379.807007875464,24391.300842204102,1264.2534688094386,-4705.3836004387194,4705.3836004387194,-1264.2534688094386,42669.019426917686,0.0
593296.95196600363,3645566.251970998,-32500.0,8404.7087859689873,1468.2369078052709,-9991.9729396496314,-18084.79821809056,-5781.6968308108017,-26534.081407844373,25847.182987119697,8479.64226453025,-10013.785088636139,10013.785088636139,-8479.64226453025,44769.745911686521,0.0
598296.95196600363,3645566.251970998,-32500.0,16966.66951691018,4229.0262673182688,-14717.251607705368,-11463.609047801527,-4715.8833458751642,-24414.616163889383,24521.618519222378,16723.257013572515,-16064.637976659838,16064.637976659838,-16723.257013572515,43815.247628974925,0.0
603296.95196600363,3645566.251970998,-32500.0,22503.706873942825,6655.5083969820844,-19901.5532148973,-4007.5871200656261,-1862.7589250151641,-14461.309039142952,22577.92423152861,22957.592945704986,-21473.972756322924,21473.972756322924,-22957.592945704986,42291.685030915491,0.0
608296.95196600363,3645566.251970998,-32500.0,24526.690419770082,7310.7323121553327,-24478.16579270293,-750.85474323855669,417.98660948655902,-1288.6059067590727,25584.101789988774,25687.558423683247,-25449.154615548807,25449.154615548807,-25687.558423683247,44332.679594641668,0.0
613296.95196600363,3645566.251970998,-32500.0,25323.539392019524,6967.459780791135,-26873.549927319913,-1984.6957213565283,-561.69131874197672,5208.1592312252415,27112.062526600104,26499.548730595438,-27516.498253033824,27516.498253033824,-26499.548730595438,47303.280939079908,0.0
618296.95196600363,3645566.251970998,-32500.0,25617.447356874214,7359.5965160358101,-25620.962917354285,-2777.2188944626232,-3819.3490371256344,-27.277471686992758,27070.423532600755,26659.792496677826,-26650.888107830655,26650.888107830655,-26659.792496677826,46887.351866247154,0.0
623296.95196600363,3645566.251970998,-32500.0,23669.067875490211,8388.1759746022344,-21011.847324799135,1346.0414392907305,-6317.8054171270214,-12077.501003395113,25403.712749387872,25080.711957670279,-22493.529655370123,22493.529655370123,-25080.711957670279,44869.543390223516,0.0
628296.95196600363,3645566.251970998,-32500.0,17585.384599609231,8885.9025531627158,-15163.425494145491,9102.8896479600953,-6820.025515572539,-21022.016704368336,25004.416358324568,20285.078889435565,-16093.671208851578,16093.671208851578,-20285.078889435565,43859.701104393622,0.0
633296.95196600363,3645566.251970998,-32500.0,8898.6726765951098,8442.4110905068774,-10027.270996869496,15392.348368848086,-6055.0808417713151,-22759.564463443126,24465.964556147017,13400.523709014979,-9446.3487431875001,9446.3487431875001,-13400.523709014979,42377.604956166891,0.0
638296.95196600363,3645566.251970998,-32500.0,982.6975241918135,7427.7620390642123,-6298.3550680675871,17826.651662295335,-4960.1249191924671,-19968.282348862598,22376.275049282391,6938.3588978959242,-4155.3754413264642,4155.3754413264642,-6938.3588978959242,39142.101259546893,0.0
643296.95196600363,3645566.251970998,-32500.0,-4431.3000602197972,6277.7744866565454,-3837.1963305824434,17333.451794284254,-3967.2937625645536,-16037.348207172734,19523.166487179893,2237.730398528076,-651.95876259223985,651.95876259223985,-2237.730398528076,34766.992673326495,0.0
648296.95196600363,3645566.251970998,-32500.0,-7450.1042217153436,5220.337039340644,-2283.5016882138134,15510.090074961221,-3168.7540962451599,-12535.597816607044,16646.726204105405,-698.96409428407446,1389.6532233140836,-1389.6532233140836,698.96409428407446,30205.929836952902,0.0
653296.95196600363,3645566.251970998,-32500.0,-8812.0439717151949,4324.4402407451644,-1323.6480671927375,13367.736223899403,-2542.5080131807795,-9784.6366640412998,14084.357591378941,-2358.7313747456747,2455.6222255979455,-2455.6222255979455,2358.7313747456747,25997.878285272967,0.0
658296.95196600363,3645566.251970998,-32500.0,-9185.3155831230724,3588.1571180252458,-739.00369123709788,11342.58030084341,-2049.5563711186496,-7682.0022189076071,11915.218095319142,-3210.1047475293262,2930.9510655521754,-2930.9510655521754,3210.1047475293262,22317.968639864313,0.0
663296.95196600363,3645566.251970998,-32500.0,-9012.9122897930283,2988.1352998518259,-388.05514043416684,9568.5925132772063,-1658.2982253228681,-6067.1055893016328,10110.904204438753,-3577.505612278876,3065.955772590411,-3065.955772590411,3577.505612278876,19166.88239543841,0.0
668296.95196600363,3645566.251970998,-32500.0,-8557.0208149124774,2499.0207915886244,-181.51581339528212,8059.4073086889975,-1345.9367283634067,-4813.575601292483,8614.4567919873316,-3661.8043174124368,3011.6008584355022,-3011.6008584355022,3661.8043174124368,16487.610872134635,0.0
673296.95196600363,3645566.251970998,-32500.0,-7967.1950104870548,2099.0409328850387,-63.564021343378158,6790.2679356867111,-1095.7950557576569,-3832.7937739227959,7370.23830891538,-3583.5083299857001,2856.8012137250757,-2856.8012137250757,3583.5083299857001,14213.631116090208,0.0
678296.95196600363,3645566.251970998,-32500.0,-7328.2702397803896,1770.6917531037941,0.54789848960292176,5728.1387975026519,-895.15660428915749,-3061.9325436181348,6331.64691172519,-3415.0732782658424,2653.7012889661164,-2653.7012889661164,3415.0732782658424,12283.756986053304,0.0
683296.95196600363,3645566.251970998,-32500.0,-6688.2825745348,1500.1136556465358,32.371355199685503,4841.1616419572938,-734.01706495436122,-2454.548344915866,5461.241113249891,-3200.5551051537695,2432.7773662225845,-2432.7773662225845,3200.5551051537695,10645.005232865919,0.0
688296.95196600363,3645566.251970998,-32500.0,-6073.9234382995674,1276.3162206745521,45.215320334256603,4101.080334587562,-604.39116524934343,-1975.1117376794127,4729.07206337363,-2966.9058423460119,2211.5870019540989,-2211.5870019540989,2966.9058423460119,9252.1518590291525,0.0
693296.95196600363,3645566.251970998,-32500.0,-5499.197053705554,1090.537535802097,47.25018996238164,3483.5631931934831,-499.88621818892705,-1595.9504466053106,4111.0335665791226,-2730.5117369568684,1999.8897813484505,-1999.8897813484505,2730.5117369568684,8066.7448406793264,0.0
698296.95196600363,3645566.251970998,-32500.0,-4970.4370953751431,935.75494916262573,43.448633956893659,2967.9440244957918,-415.3953429680912,-1295.3786903082716,3587.567206965794,-2501.0918253868986,1802.7064342720512,-1802.7064342720512,2501.0918253868986,7056.1624514301066,0.0
703296.95196600363,3645566.251970998,-32500.0,-4489.354146790738,806.31881857386099,36.798632869533996,2536.8378598283175,-346.85445979869672,-1056.4054145373682,3142.7141209927768,-2284.1194493675703,1622.1946734902415,-1622.1946734902415,2284.1194493675703,6192.8312327858057,0.0
708296.95196600363,3645566.251970998,-32500.0,-4054.9190638589398,697.66952347132724,29.060313988118644,2175.7216825351393,-291.03948338192589,-865.74483345218459,2763.391295345958,-2082.3577876348295,1458.8075899240821,-1458.8075899240821,2082.3577876348295,5453.5156363021906,0.0
713296.95196600363,3645566.251970998,-32500.0,-3664.5656848802587,606.1191281029935,21.238300020659679,1872.5367665457759,-245.39848554035146,-713.03254233546272,2438.8434696964136,-1896.8628046026045,1312.0212372586486,-1312.0212372586486,1896.8628046026045,4818.7042404534186,0.0
718296.95196600363,3645566.251970998,-32500.0,-3314.9497905123499,528.67823669832319,13.875949209688581,1617.315883060249,-207.91334359400594,-590.19476678466322,2160.2079850825066,-1727.6386347029541,1180.7870988623515,-1180.7870988623515,1727.6386347029541,4272.0550082307118,0.0
513296.95196600363,3650566.251970998,-32500.0,-3907.0894464241528,391.8074358373816,66.309665417862021,-2006.1580445988245,148.37879438351376,-767.81933509258499,2570.7193138794241,-2200.2021379816806,1403.2806997000841,-1403.2806997000841,2200.2021379816806,5076.4104012201215,0.0
518296.95196600363,3650566.251970998,-32500.0,-4335.5548797282436,444.92805825769545,83.338233274231058,-2337.157787095332,172.18666732249525,-934.4642887245418,2918.1674407840587,-2436.9815571696017,1565.4535437914376,-1565.4535437914376,2436.9815571696017,5756.277009030895,0.0
523296.95196600363,3650566.251970998,-32500.0,-4815.0492425952643,506.8638524916002,102.40079868664189,-2732.8697784590468,200.32256392350726,-1143.0645939361802,3325.326586553439,-2700.3191519784423,1747.215990276165,-1747.215990276165,2700.3191519784423,6550.1783997185348,0.0
528296.95196600363,3650566.251970998,-32500.0,-5349.5092532820536,579.27585697899224,123.01164496273491,-3207.2481595787931,233.54484325731261,-1405.2496146774088,3804.251661269996,-2991.4713009225052,1949.7132877695531,-1949.7132877695531,2991.4713009225052,7479.9905873150256,0.0
533296.95196600363,3650566.251970998,-32500.0,-5941.5996748527359,664.1663561119434,144.05210388889037,-3777.3295457397917,272.67263417865701,-1736.0082502585592,4369.7447280976248,-3310.5307667454763,2173.2350665351432,-2173.2350665351432,3310.5307667454763,8572.0154749276044,0.0
538296.95196600363,3650566.251970998,-32500.0,-6591.5423247315239,763.9619957473933,163.31911957498178,-4463.8856720229878,318.52666911910916,-2154.6572996173563,5040.0826606708642,-3655.5375695204561,2416.4990693570139,-2416.4990693570139,3655.5375695204561,9857.8737898814634,0.0
543296.95196600363,3650566.251970998,-32500.0,-7295.2071271522018,881.63570603831886,176.78490727844067,-5292.2196070401596,371.81184081105124,-2686.1266520947711,5838.0031891506405,-4021.0374976900189,2675.4787677518957,-2675.4787677518957,4021.0374976900189,11375.615015869671,0.0
548296.95196600363,3650566.251970998,-32500.0,-8040.9328197694185,1020.8981295864759,177.3901792592946,-6293.1462764753542,432.90202509877332,-3362.7817147050237,6792.0779098032954,-4395.6949479008381,2941.4688339189397,-2941.4688339189397,4395.6949479008381,13171.156194230916,0.0
553296.95196600363,3650566.251970998,-32500.0,-8804.0225088922925,1186.5335197309321,153.08319871657514,-7504.1277509664815,501.47690684124893,-4227.2873074594381,7938.6307667690544,-4758.1859356763198,3197.8307635848555,-3197.8307635848555,4758.1859356763198,15300.188538689352,0.0
558296.95196600363,3650566.251970998,-32500.0,-9536.7760837668357,1385.0287691475646,83.644244285898552,-8970.1530030572667,575.95246891383351,-5337.6174933514894,9324.2752484152388,-5069.8319946934507,3414.3782301734054,-3414.3782301734054,5069.8319946934507,17830.556973917981,0.0
563296.95196600363,3650566.251970998,-32500.0,-10149.791480009104,1625.8156305936607,-64.451930136485032,-10742.467514682696,652.69678987872373,-6776.2971988799054,11008.555557789576,-5260.9254791308376,3537.4540777679745,-3537.4540777679745,5260.9254791308376,20844.217323059544,0.0
568296.95196600363,3650566.251970998,-32500.0,-10476.839334050201,1923.771392511052,-346.34351326898394,-12868.633537864227,725.25696518586597,-8666.5945118745221,13064.09879033827,-5205.2343895496506,3472.2966841743146,-3472.2966841743146,5205.2343895496506,24434.629602053596,0.0
573296.95196600363,3650566.251970998,-32500.0,-10212.952159746033,2304.1596613287024,-852.16177541539253,-15355.309976995208,784.63011118426004,-11194.423887004346,15565.945405106917,-4674.9980592024467,3052.9462281046904,-3052.9462281046904,4674.9980592024467,28686.339195084434,0.0
578296.95196600363,3650566.251970998,-32500.0,-8825.3912370795097,2811.5513442528772,-1727.9941129993294,-18060.885027243163,823.93654190687437,-14611.336678258232,18549.347317223481,-3274.6202892121269,1997.8985504817806,-1997.8985504817806,3274.6202892121269,33604.361981456721,0.0
583296.95196600363,3650566.251970998,-32500.0,-5498.4946437705485,3521.7003032762759,-3205.1180673399094,-20452.383686977628,855.97900923319287,-19116.026322184614,21897.420991543753,-391.73961776004239,-128.62887962507193,128.62887962507193,391.73961776004239,38938.824944046341,0.0
588296.95196600363,3650566.251970998,-32500.0,645.67921712670045,4539.2554969066614,-5623.9512765824948,-21245.241573789015,956.39358680825228,-24355.340899862797,25121.973518381456,4668.6478919531237,-3860.4845144266092,3860.4845144266092,-4668.6478919531237,43889.082598997891,0.0
593296.95196600363,3650566.251970998,-32500.0,9592.5767807032771,5914.8335454929147,-9386.1148504427492,-18437.602304383367,1313.2234016198456,-28302.400223081248,27119.826196968315,12021.42001109066,-9482.7674501098263,9482.7674501098263,-12021.42001109066,46978.589869720941,0.0
598296.95196600363,3650566.251970998,-32500.0,18949.136526102324,7385.0689172273433,-14662.840994052927,-11126.519034774916,2097.8461000181992,-26601.796897576798,26427.910266917541,20034.463460024224,-16346.644792582545,16346.644792582545,-20034.463460024224,47136.127326429589,0.0
603296.95196600363,3650566.251970998,-32500.0,24813.594371076233,8200.7363739673146,-20730.991570881644,-2841.3868748694081,2835.1376236679316,-16410.897843076527,25019.659037360096,25609.54646534795,-22691.578037772255,22691.578037772255,-25609.54646534795,46328.245420666004,0.0
608296.95196600363,3650566.251970998,-32500.0,26613.457294453226,7981.5876750706802,-25524.750084483167,653.25583364361842,2098.2460999223831,-4013.9507598578634,27363.613155141073,27671.706266236026,-26846.802825980194,26846.802825980194,-27671.706266236026,47593.886217495259,0.0
613296.95196600363,3650566.251970998,-32500.0,26982.30034754788,7712.1970716530786,-26714.951972945611,-5.0557512030849772,-373.35040842576609,-657.80365810077785,27936.892963104176,27992.977325454562,-27875.673724110948,27875.673724110948,-27992.977325454562,48394.470929416464,0.0
618296.95196600363,3650566.251970998,-32500.0,26228.954917897692,8007.0954953620094,-23783.280431323255,956.31440162222975,-2188.038637121686,-8725.067725324272,26422.327330117092,27055.330228293315,-25433.625201396717,25433.625201396717,-27055.330228293315,46736.767779622183,0.0
623296.95196600363,3650566.251970998,-32500.0,22600.544698961552,7771.0824795719072,-18391.815658167874,6602.9817726327501,-1762.4135934774745,-20556.780181867947,24239.038314378726,23414.151759296838,-20274.235331122101,20274.235331122101,-23414.151759296838,45772.188756482501,0.0
628296.95196600363,3650566.251970998,-32500.0,15167.084137313357,6366.404429728027,-12729.185655032496,14403.441086485511,-379.34671729436673,-27257.848738691042,26310.753973856128,16560.267864115554,-13764.985512971416,13764.985512971416,-16560.267864115554,46249.127534577005,0.0
633296.95196600363,3650566.251970998,-32500.0,6010.3630347367189,4563.5965056152809,-8110.2390473771638,19748.908442435706,459.60583621328288,-26798.394247203054,26103.298198972654,8601.0105463916752,-7488.3787063782302,7488.3787063782302,-8601.0105463916752,45229.389305351746,0.0
638296.95196600363,3650566.251970998,-32500.0,-1760.2701458216459,3136.4793430748482,-4850.4184400441873,21105.260277461242,583.90989897947361,-22542.966863137641,23810.688738593475,2063.2526705887158,-2636.250264816098,2636.250264816098,-2063.2526705887158,41762.175218383913,0.0
643296.95196600363,3650566.251970998,-32500.0,-6800.6567888101963,2231.7329196620503,-2738.515665807909,19743.759937797742,384.9321755216256,-17726.386534692847,20682.559085068271,-2163.0285464629651,511.45419684423132,-511.45419684423132,2163.0285464629651,36947.110852410871,0.0
648296.95196600363,3650566.251970998,-32500.0,-9419.7598085613517,1696.8945298532901,-1439.1557968514135,17285.480139142957,145.13735616885148,-13679.954461819752,17559.195935162577,-4447.3656702675617,2288.6282340227322,-2288.6282340227322,4447.3656702675617,31951.576550003858,0.0
653296.95196600363,3650566.251970998,-32500.0,-10425.390723402827,1370.3898493786664,-668.18895458463805,14687.194353780736,-35.422092682773027,-10579.150236322223,14797.047590121932,-5465.7862935994344,3157.9767572647452,-3157.9767572647452,5465.7862935994344,27377.099811441836,0.0
658296.95196600363,3650566.251970998,-32500.0,-10500.435678011268,1152.6595087097855,-226.54234453890152,12332.889282370867,-146.57066516349514,-8243.3126791867253,12472.379203848168,-5756.0529180339227,3484.4151733129629,-3484.4151733129629,5756.0529180339227,23405.316541147469,0.0
663296.95196600363,3650566.251970998,-32500.0,-10084.546406837349,992.60785900465396,14.853759242875777,10318.794278304682,-204.54759819658403,-6468.8896557444477,10548.700200165786,-5656.0052327000776,3504.9616876675304,-3504.9616876675304,5656.0052327000776,20026.701410438145,0.0
668296.95196600363,3650566.251970998,-32500.0,-9431.8466230821123,865.66770024501125,136.8736731700983,8632.6232004366393,-227.51252090121639,-5104.283674354564,8960.9176256686042,-5359.05375117321,3361.7698369381878,-3361.7698369381878,5359.05375117321,17171.166159224711,0.0
673296.95196600363,3650566.251970998,-32500.0,-8683.5081802501427,760.04172615095877,189.3072127463773,7231.8014862053597,-229.31137655355391,-4045.1608945557136,7646.6354181120651,-4972.5176138225706,3137.5881751832276,-3137.5881751832276,4972.5176138225706,14760.539250064687,0.0
678296.95196600363,3650566.251970998,-32500.0,-7916.9673937140415,669.78926009294423,202.42464193704723,6070.8755051353146,-219.24214629641162,-3218.4776907078717,6554.012649265891,-4555.5812344968144,2880.0414424679616,-2880.0414424679616,4555.5812344968144,12724.311185882458,0.0
683296.95196600363,3650566.251970998,-32500.0,-7174.1027641013161,591.62988694850992,194.39879795400211,5109.2025051308956,-203.17620115508836,-2570.9592347876942,5641.6591318191313,-4140.7033328233638,2616.2043799205039,-2616.2043799205039,4140.7033328233638,11002.329095523732,0.0
688296.95196600363,3650566.251970998,-32500.0,-6476.6168861949363,523.51261054364602,175.97114815376406,4312.2371923182163,-184.67186750594544,-2062.4256756143695,4876.6849565976499,-3745.2351410715924,2361.0436517912108,-2361.0436517912108,3745.2351410715924,9543.9453180572709,0.0
693296.95196600363,3650566.251970998,-32500.0,-5834.5157932041766,463.97991990693748,153.35477193293028,3651.0943012493585,-165.80043570871115,-1661.9966600115843,4232.7918387039163,-3377.7987014441533,2122.3315165080321,-2122.3315165080321,3377.7987014441533,8306.6103533931964,0.0
698296.95196600363,3650566.251970998,-32500.0,-5250.9596152838758,411.88671895262144,130.02806782930176,3101.7896322782299,-147.70432100127789,-1345.7555356500159,3688.7909205458159,-3041.9110026995959,1903.5636111765127,-1903.5636111765127,3041.9110026995959,7254.6185821622457,0.0
703296.95196600363,3650566.251970998,-32500.0,-4725.133587428797,366.27481743845254,107.83594839452491,2644.4943942657392,-130.95842885420362,-1095.1439569091267,3227.4946197554891,-2738.110982241808,1705.7194658197791,-1705.7194658197791,2738.110982241808,6358.0471696946315,0.0
708296.95196600363,3650566.251970998,-32500.0,-4254.019861294164,326.31688397220785,87.662866115115563,2262.884677060817,-115.79945140763395,-895.77172722571322,2834.9014378359466,-2465.2565689909916,1528.346486671483,-1528.346486671483,2465.2565689909916,5591.8878178647055,0.0
713296.95196600363,3650566.251970998,-32500.0,-3833.4701389848888,291.28880614819019,69.840512199487449,1943.5577371170418,-102.26885097520456,-736.4872060084549,2499.554878092255,-2221.3058031298074,1370.2170605902425,-1370.2170605902425,2221.3058031298074,4935.2634326748139,0.0
718296.95196600363,3650566.251970998,-32500.0,-3458.8859026624623,260.55543164288395,54.393782070346603,1675.5402941864859,-90.301109184809221,-608.6527776537331,2212.0579460422487,-2003.8072009707214,1229.7363666375852,-1229.7363666375852,2003.8072009707214,4370.7817352701395,0.0
513296.95196600363,3655566.251970998,-32500.0,-3702.0060865815972,713.26068264717753,2.2723052502249805,-1918.6699906240353,296.05721220293873,-738.53568691052271,2498.0254151149452,-1845.2763626672163,1322.3019893465284,-1322.3019893465284,1845.2763626672163,4935.5213979143882,0.0
518296.95196600363,3655566.251970998,-32500.0,-4092.0754192544073,824.0604977050084,5.4345236167969091,-2228.9282832495214,353.04415754045925,-896.66514390726547,2831.8164702180802,-2016.8355230618783,1467.6601205053337,-1467.6601205053337,2016.8355230618783,5587.711580217574,0.0
523296.95196600363,3655566.251970998,-32500.0,-4524.5054921169331,956.04412079651422,7.0563886456999185,-2598.0452275848638,423.17897449838659,-1093.8683052969041,3221.9820116352653,-2200.5597924827907,1628.4141192670716,-1628.4141192670716,2200.5597924827907,6347.2040548641353,0.0
528296.95196600363,3655566.251970998,-32500.0,-5000.9898309965274,1113.8601707300149,5.5955196007310866,-3038.0687784256725,509.88606137131194,-1340.6683060462003,3679.5686607505563,-2394.0919163130288,1804.5038642422664,-1804.5038642422664,2394.0919163130288,7233.9290117771106,0.0
533296.95196600363,3655566.251970998,-32500.0,-5521.3136264270906,1303.2620686071791,-1.4702809281462612,-3563.4274678197676,617.53733402817841,-1650.4749396201646,4218.0196695741315,-2592.9306913636201,1994.6278631896066,-1994.6278631896066,2592.9306913636201,8271.591057448557,0.0
538296.95196600363,3655566.251970998,-32500.0,-6081.9960007112622,1531.3780859565147,-18.217304518664967,-4191.2921070511447,751.71125251957403,-2040.3291723883456,4853.7612328311297,-2789.2739276978923,2195.3942528605717,-2195.3942528605717,2789.2739276978923,9488.3119755147636,0.0
543296.95196600363,3655566.251970998,-32500.0,-6674.14406210774,1807.0495661510597,-51.185486188777183,-4941.9418956371128,919.51986853055018,-2531.8436015999723,5606.9806497067975,-2970.2477716721814,2399.9678926566703,-2399.9678926566703,2970.2477716721814,10917.378481737993,0.0
548296.95196600363,3655566.251970998,-32500.0,-7279.9872170658928,2141.2492166407292,-110.81953273569644,-5839.0961552774979,1130.0272881837809,-3152.4780744428267,6502.6894385024016,-3115.1377949436264,2595.8919473216929,-2595.8919473216929,3115.1377949436264,12598.148801214946,0.0
553296.95196600363,3655566.251970998,-32500.0,-7867.0704079380994,2547.5850659286316,-213.75459133960655,-6910.0550898281317,1394.8123245358142,-3937.5026781126471,7572.1805165736178,-3190.9087358790312,2761.5113829531401,-2761.5113829531401,3190.9087358790312,14577.180110455232,0.0
558296.95196600363,3655566.251970998,-32500.0,-8378.0915421965256,3042.8310210621403,-386.44530565368439,-8185.0288966892622,1728.7826506339927,-4933.4419135915405,8854.879115707261,-3144.679169508609,2859.9484514826659,-2859.9484514826659,3144.679169508609,16909.471421063878,0.0
563296.95196600363,3655566.251970998,-32500.0,-8712.5194454263619,3647.1966503067156,-670.92376931715251,-9693.4783790902093,2151.4364040310297,-6204.44221814502,10400.015372524511,-2890.7469422068789,2828.7236737898356,-2828.7236737898356,2890.7469422068789,19658.878520587972,0.0
568296.95196600363,3655566.251970998,-32500.0,-8693.4222016198491,4383.3370023407888,-1133.8976462748603,-11450.738269027759,2688.7744693220993,-7842.9448861327555,12265.604509935505,-2288.4421896485783,2561.8163629497076,-2561.8163629497076,2288.4421896485783,22893.846203796093,0.0
573296.95196600363,3655566.251970998,-32500.0,-8012.0305822651562,5271.1852548435827,-1880.8729933164432,-13416.991645876937,3375.4025575780929,-9980.9082435291402,14507.093795527469,-1107.678016205246,1880.0977944794622,-1880.0977944794622,1107.678016205246,26666.875999382992,0.0
578296.95196600363,3655566.251970998,-32500.0,-6156.0466977089018,6311.4866680734322,-3076.7506051958617,-15390.0962476806,4252.9637365201133,-12773.413250601701,17137.625863630528,1009.6673017096844,490.31369297106113,-490.31369297106113,-1009.6673017096844,30951.273262091327,0.0
583296.95196600363,3655566.251970998,-32500.0,-2393.1295238400576,7444.9877407152344,-4969.850990474989,-16782.391533472241,5349.7213282169187,-16252.615165139547,20029.597244315999,4538.556933970709,-2042.58018288884,2042.58018288884,-4538.556933970709,35497.899664413468,0.0
588296.95196600363,3655566.251970998,-32500.0,3945.1854094427645,8478.4177105809049,-7895.232558666703,-16339.74270643696,6601.2300030081942,-19821.579190753935,22743.815078889675,9845.088312572494,-6210.5892225839671,6210.5892225839671,-9845.088312572494,39635.6803779814,0.0
593296.95196600363,3655566.251970998,-32500.0,12477.257552682577,9026.8790526895227,-12168.894512580166,-12365.887159944385,7659.6991858379097,-21267.345385730601,24439.00960371254,16507.715837308591,-12159.976242025918,12159.976242025918,-16507.715837308591,42351.724056983119,0.0
598296.95196600363,3655566.251970998,-32500.0,20494.537223253865,8678.8571186654808,-17689.155804632963,-4733.9396151031815,7694.9767914306467,-16626.99399880119,24718.630860632875,22537.644998784974,-18951.310973794632,18951.310973794632,-22537.644998784974,43467.24720486407,0.0
603296.95196600363,3655566.251970998,-32500.0,24427.863804384626,7564.9327138143526,-23243.331010228165,2211.8906116343305,5786.7525349806274,-4743.73427286471,25857.394821583886,25515.090999039781,-24479.758676199501,24479.758676199501,-25515.090999039781,44941.08955365506,0.0
608296.95196600363,3655566.251970998,-32500.0,24778.2407542291,6631.688770300746,-26511.202008503245,3282.7235288755619,2356.1417303560706,6097.6381505654635,26858.220885186736,25855.09535413031,-27103.363694199092,27103.363694199092,-25855.09535413031,46929.469155677885,0.0
613296.95196600363,3655566.251970998,-32500.0,24642.299951518053,6564.8649997472512,-25955.839297847113,1017.2527052511704,-207.69679189036401,5633.5575125037212,26162.959362805486,25600.714576558319,-26656.382629261454,26656.382629261454,-25600.714576558319,45740.826054982819,0.0
618296.95196600363,3655566.251970998,-32500.0,23745.249224267314,6597.3983861421084,-22431.338471011219,1615.0766340290725,286.41598054377403,-4919.3953194851629,24057.755445719511,24266.296135364588,-23758.46775809845,23758.46775809845,-24266.296135364588,42058.912751167984,0.0
623296.95196600363,3655566.251970998,-32500.0,20194.286380047306,5301.4028396029589,-17798.32972924567,6734.0444138396397,3178.4036891070919,-16870.787648790596,21383.475085054495,20144.856632957897,-19298.519283052337,19298.519283052337,-20144.856632957897,40739.696755006851,0.0
628296.95196600363,3655566.251970998,-32500.0,13470.532846122585,2696.9925079377867,-13190.691330281603,13519.462714501718,5753.5831016186112,-23481.344913336528,23881.274386870347,13180.80734039508,-13934.389994299381,13934.389994299381,-13180.80734039508,41958.788416757037,0.0
633296.95196600363,3655566.251970998,-32500.0,5335.0587586140391,169.70274277372468,-9132.0010319252069,18272.77971991615,6488.9685420158421,-23836.510489863489,24247.849582942486,5508.4222524857232,-8491.761007595187,8491.761007595187,-5508.4222524857232,42027.840846972431,0.0
638296.95196600363,3655566.251970998,-32500.0,-1725.8762490073134,-1362.2706540658467,-5922.1008658293777,19722.149859321547,5795.1562334218188,-20710.854029267022,22565.190600379279,-643.37979936962483,-3926.0644290865298,3926.0644290865298,643.37979936962483,39643.169497091585,0.0
643296.95196600363,3655566.251970998,-32500.0,-6504.469949449609,-1932.3040099017906,-3620.7144660159206,18763.426083004528,4588.6841414816608,-16760.669827484442,19933.719776593371,-4527.6796789508226,-690.40565642611091,690.40565642611091,4527.6796789508226,35688.233245594231,0.0
648296.95196600363,3655566.251970998,-32500.0,-9130.4688614742336,-1932.6795995148459,-2089.0933126379618,16698.62624152124,3426.34559024804,-13224.147360199935,17149.178588037827,-6515.8845504755282,1318.1574402408901,-1318.1574402408901,6515.8845504755282,31274.941081208257,0.0
653296.95196600363,3655566.251970998,-32500.0,-10235.68422282318,-1690.0808722882748,-1121.7437015763335,14379.63754078796,2493.257042683204,-10385.464469917004,14594.587383017049,-7265.1914776592112,2427.3892899843499,-2427.3892899843499,7265.1914776592112,27055.340946495624,0.0
658296.95196600363,3655566.251970998,-32500.0,-10414.218562892107,-1384.6161670929953,-534.50959270890939,12196.7774775091,1797.010735712365,-8174.8916531823925,12388.897838074696,-7307.6384929116703,2952.651185381616,-2952.651185381616,7307.6384929116703,23285.676009898863,0.0
663296.95196600363,3655566.251970998,-32500.0,-10077.096417170793,-1094.862100813541,-191.09465462925823,10279.516308190734,1292.2738298557003,-6457.4381256205079,10530.35773298473,-6982.9298418202716,3123.6747673945965,-3123.6747673945965,6982.9298418202716,20016.554632377658,0.0
668296.95196600363,3655566.251970998,-32500.0,-9476.108784564356,-847.45153555588479,0.64628954670542704,8644.5652985411707,929.90692795386462,-5117.1785055373011,8976.7208861937288,-6486.9221647601871,3089.8980906592451,-3089.8980906592451,6486.9221647601871,17217.284218894292,0.0
673296.95196600363,3655566.251970998,-32500.0,-8758.0876777730246,-646.42087389409346,100.19812360125313,7268.6799024011934,670.17269419994602,-4067.1062225390538,7679.2257990723056,-5927.5380226664638,2943.9482907190741,-2943.9482907190741,5927.5380226664638,14833.15801379645,0.0
678296.95196600363,3655566.251970998,-32500.0,-8006.9431931951594,-487.31540352544272,144.99051034864482,6118.0579136944489,483.69755802829769,-3242.4228223611221,6593.8126099999581,-5362.7632367004244,2742.023038898134,-2742.023038898134,5362.7632367004244,12807.062117256557,0.0
683296.95196600363,3655566.251970998,-32500.0,-7269.7626486853287,-363.28263267506344,158.18849416720778,5158.7892323330207,349.43377599362816,-2593.7829775148584,5683.457696994481,-4822.7512610564499,2517.7221804385445,-2517.7221804385445,4822.7512610564499,11086.381251756984,0.0
688296.95196600363,3655566.251970998,-32500.0,-6571.9569527869171,-267.49099113641728,153.93500919343671,4360.1457001638682,252.44491333388825,-2082.8899565174129,4917.7119269469376,-4322.0761775889778,2290.7271554855906,-2290.7271554855906,4322.0761775889778,9624.6982668560559,0.0
693296.95196600363,3655566.251970998,-32500.0,-5926.024406592579,-193.96864757753966,140.74056896805965,3695.3819015502395,182.14769866438365,-1679.761413721506,4271.6429995179487,-3866.5326084942481,2072.1461910317166,-2072.1461910317166,3866.5326084942481,8381.8407362092348,0.0
698296.95196600363,3655566.251970998,-32500.0,-5336.7478016390951,-137.79380404672136,123.63138707515773,3141.6989313137515,131.03222392559303,-1360.8965625088433,3724.8284941901175,-3456.9965484531058,1867.8190505474731,-1867.8190505474731,3456.9965484531058,7323.4394139736223,0.0
703296.95196600363,3655566.251970998,-32500.0,-4804.333530177747,-95.033821160461201,105.49554535247468,2679.9043307340689,93.754712149782165,-1107.9113942581396,3260.5023938204295,-3091.6522681602082,1680.3680981069556,-1680.3680981069556,3091.6522681602082,6420.3024122522811,0.0
708296.95196600363,3655566.251970998,-32500.0,-4326.3953094447843,-62.601429054176009,87.921747377749952,2294.0026378632224,66.500033517083864,-906.47234613897808,2864.8939057898233,-2767.327361101834,1510.4971240985651,-1510.4971240985651,2767.327361101834,5647.8147783778559,0.0
713296.95196600363,3655566.251970998,-32500.0,-3899.1625510490207,-38.098629346802873,71.71819072731607,1970.745452284322,46.534125576670043,-745.42783601369399,2526.6684581528916,-2480.2625432600753,1357.7958238554695,-1357.7958238554695,2480.2625432600753,4985.2979628028015,0.0
513296.95196600363,3660566.251970998,-32500.0,-3400.7386564957819,993.56663558140519,-103.92737235739099,-1789.568643511446,427.17335191541565,-695.28455510528249,2395.7861231495385,-1447.8424399445266,1173.527805715642,-1173.527805715642,1447.8424399445266,4731.3526515226067,0.0
518296.95196600363,3660566.251970998,-32500.0,-3731.1563774029974,1151.1899681189618,-124.73663293839451,-2067.7244088521275,512.23058160196376,-840.34557937938428,2709.0205545756057,-1545.7734942210902,1286.3177478976747,-1286.3177478976747,1545.7734942210902,5341.0562186609613,0.0
523296.95196600363,3660566.251970998,-32500.0,-4089.7642201456806,1338.9553772366999,-153.49016109273629,-2395.2662136694776,617.40671569819699,-1019.9030896279703,3073.255067098075,-1639.6480539858471,1406.0091842204602,-1406.0091842204602,1639.6480539858471,6047.1782232033866,0.0
528296.95196600363,3660566.251970998,-32500.0,-4474.4084680961851,1563.2542806729884,-193.67778273109124,-2781.019686600961,748.02278976136199,-1242.6667292842124,3497.8436256578971,-1723.1127511810203,1530.0071344996361,-1530.0071344996361,1723.1127511810203,6866.3462955504156,0.0
533296.95196600363,3660566.251970998,-32500.0,-4879.8843300585067,1831.8266082386258,-250.4188963945017,-3234.9471155017472,910.86991061789172,-1519.4323135012767,3993.9129459986962,-1786.6480766699133,1653.6400321615606,-1653.6400321615606,1786.6480766699133,7817.7975271411788,0.0
538296.95196600363,3660566.251970998,-32500.0,-5296.2296076042376,2153.9710631747748,-331.26480633889855,-3767.9638252997725,1114.5904056051018,-1863.4316519140793,4574.6751475390929,-1816.1813322131775,1769.0193762055746,-1769.0193762055746,1816.1813322131775,8923.5430053664059,0.0
543296.95196600363,3660566.251970998,-32500.0,-5706.1419041952176,2540.7198074634093,-447.41512736461044,-4391.4802773705233,1370.130872030302,-2290.6500917884041,5255.7910254337876,-1791.0814655406436,1863.2965752296457,-1863.2965752296457,1791.0814655406436,10208.403288624961,0.0
548296.95196600363,3660566.251970998,-32500.0,-6081.0112466523124,3004.8923709132951,-615.56603013245592,-5116.4667607142965,1691.2628491838625,-2820.0848773357543,6055.79542001755,-1681.2250884693526,1915.976874154102,-1915.976874154102,1681.2250884693526,11699.840113102795,0.0
553296.95196600363,3660566.251970998,-32500.0,-6374.6605190733326,3560.8385428083106,-860.72129850898762,-5951.6064859322232,2095.1543252335227,-3473.9585059946012,6996.5559956936549,-1442.616922288415,1894.72140331024,-1894.72140331024,1442.616922288415,13427.430540253234,0.0
558296.95196600363,3660566.251970998,-32500.0,-6513.1972146781136,4223.4177950133608,-1220.4477182160895,-6899.5091308946521,2602.9306201266527,-4277.9864261753492,8103.5817336589171,-1010.7561554662495,1748.697774623676,-1748.697774623676,1010.7561554662495,15421.613064825131,0.0
563296.95196600363,3660566.251970998,-32500.0,-6378.3240866212682,5005.1176945891539,-1751.2153231388099,-7948.3436499727923,3239.9746765565387,-5261.6744127545935,9405.4324647860485,-290.66970938325903,1397.9978941141389,-1397.9978941141389,290.66970938325903,17710.578758753032,0.0
568296.95196600363,3660566.251970998,-32500.0,-5780.7802939832573,5908.6917357899601,-2537.4510617447154,-9052.3040871566209,4034.939315217478,-6457.1032481059965,10929.913708038872,856.88197032382027,717.25779581002394,-717.25779581002394,-856.88197032382027,20312.136348296921,0.0
573296.95196600363,3660566.251970998,-32500.0,-4424.137760845073,6909.5698777152948,-3703.0540015097554,-10086.370325637508,5013.6528849624192,-7887.5802888894668,12691.309266850265,2629.0355874410366,-486.88535699911336,486.88535699911336,-2629.0355874410366,23213.229860725511,0.0
578296.95196600363,3660566.251970998,-32500.0,-1879.8807132648938,7917.8473645130625,-5421.1875484598595,-10751.515378519754,6175.6638747263005,-9514.2564511812143,14658.12870850632,5273.5282299698038,-2495.5034069015537,2495.5034069015537,-5273.5282299698038,26326.175612366715,0.0
583296.95196600363,3660566.251970998,-32500.0,2338.8140794504893,8711.663500868628,-7905.5924512897263,-10423.606327338095,7421.8734475362662,-11055.568340808219,16694.686745875821,8996.6091624955334,-5653.4662174191089,5653.4662174191089,-8996.6091624955334,29428.326706061249,0.0
588296.95196600363,3660566.251970998,-32500.0,8392.6278915302446,8875.3328323182104,-11337.047209138163,-8084.3720864439174,8382.0455799228384,-11551.024141907055,18527.421520699441,13665.13978515382,-10192.987710218636,10192.987710218636,-13665.13978515382,32197.662028934163,0.0
593296.95196600363,3660566.251970998,-32500.0,15244.022194727992,7919.4458820899436,-15644.637127465747,-2891.8121743244751,8172.0265463178366,-8821.4476205153114,20024.816166748547,18291.064974327503,-15766.810315935563,15766.810315935563,-18291.064974327503,34691.391863303565,0.0
598296.95196600363,3660566.251970998,-32500.0,20120.217217670797,5895.4088759560673,-20144.309100437131,3887.1390157405149,5551.4963861725901,-271.42723764208131,22045.746005408728,21019.680745055208,-20935.055937699479,20935.055937699479,-21019.680745055208,38184.365404931086,0.0
603296.95196600363,3660566.251970998,-32500.0,20832.911951991337,4123.7198582771161,-23450.589560760243,7500.9859610702952,427.24569151445269,12644.763635189498,24703.871171155159,21041.484724387381,-23799.851517578441,23799.851517578441,-21041.484724387381,43426.162447653704,0.0
608296.95196600363,3660566.251970998,-32500.0,19577.638568592964,4131.3184283097698,-24324.276816672274,4645.3208938313064,-4376.8909542636884,20983.110162755249,25098.814798090752,20458.342546215936,-24020.378467199407,24020.378467199407,-20458.342546215936,46523.846978352005,0.0
613296.95196600363,3660566.251970998,-32500.0,19593.560101646854,5321.5763821219725,-22852.25345095247,-266.41614196394676,-5233.8922257598369,17298.166506464491,22355.860317623039,20922.09458604145,-22813.090620504445,22813.090620504445,-20922.09458604145,43322.481612609226,0.0
618296.95196600363,3660566.251970998,-32500.0,19785.828589029305,5640.3518188832195,-20252.182248455876,-1146.1978927830394,-1718.3895130051278,5209.2229483214214,20904.752267060088,20666.471403328229,-20929.918118778711,20929.918118778711,-20666.471403328229,36607.950659886774,0.0
623296.95196600363,3660566.251970998,-32500.0,17730.65191670999,3932.1334364007957,-17432.331961278782,2695.102808528773,3534.3129338966255,-7064.2787364000515,18653.478563340115,17617.398935158275,-18351.116307907239,18351.116307907239,-17617.398935158275,32939.492038581993,0.0
628296.95196600363,3660566.251970998,-32500.0,12851.5051358336,816.96262641453336,-14431.690626393913,8385.3515986073398,7525.9640523016515,-14635.482043522905,19213.117389374471,11832.366198828766,-14844.295666479657,14844.295666479657,-11832.366198828766,33657.680192122571,0.0
633296.95196600363,3660566.251970998,-32500.0,6435.1500252088999,-2150.8277894155676,-11237.243756557331,12946.909495120526,9023.5034745975699,-17036.681809644622,20061.850237570896,5139.3926520108098,-10662.705596555181,10662.705596555181,-5139.3926520108098,34777.195955517171,0.0
638296.95196600363,3660566.251970998,-32500.0,373.49843514482859,-3977.8217420002547,-8191.8892045819694,15134.39704233454,8580.3184703186016,-16150.589118814809,19370.080958667844,-545.00412595184571,-6585.7106411321474,6585.7106411321474,545.00412595184571,34064.06954126287,0.0
643296.95196600363,3660566.251970998,-32500.0,-4174.5709098700709,-4630.5174330996742,-5651.8314328349779,15282.941388324094,7251.9681909764686,-13938.260258548193,17682.66858649984,-4393.5003252470297,-3260.8471182468193,3260.8471182468193,4393.5003252470297,31715.792769175408,0.0
648296.95196600363,3660566.251970998,-32500.0,-7029.6294227471317,-4518.6549144848123,-3742.1587612812414,14243.68880561398,5770.3588364058814,-11530.023601938758,15626.599869245238,-6536.1415514704222,-885.00174312612216,885.00174312612216,6536.1415514704222,28559.583108511943,0.0
653296.95196600363,3660566.251970998,-32500.0,-8527.2101779166278,-4041.2471974097211,-2402.0949056717432,12707.622538998028,4458.5087983720287,-9366.9529948728632,13580.552251378062,-7459.9153939544904,655.76068385504777,-655.76068385504777,7459.9153939544904,25227.894824538274,0.0
658296.95196600363,3660566.251970998,-32500.0,-9097.7450667553476,-3449.591380815908,-1501.7231928268257,11071.874539858713,3400.1596488941568,-7552.0277403188857,11713.815382477798,-7629.2468808275635,1574.1904818039302,-1574.1904818039302,7629.2468808275635,22056.49573746341,0.0
663296.95196600363,3660566.251970998,-32500.0,-9090.7162064017248,-2869.7597226883013,-913.47123723390769,9522.9929291845874,2580.8526825124018,-6068.5052465744493,10077.75723065716,-7374.7318570546067,2067.7664736945771,-2067.7664736945771,7374.7318570546067,19184.33950639829,0.0
668296.95196600363,3660566.251970998,-32500.0,-8747.5110534650212,-2353.4676459923626,-536.79898956060333,8133.3505127262479,1958.1398899139688,-4869.7230498795543,8670.4341828125598,-6904.1706370074708,2285.8795642868781,-2285.8795642868781,6904.1706370074708,16648.938966522837,0.0
673296.95196600363,3660566.251970998,-32500.0,-8223.7247902495419,-1915.0756688979998,-299.8284291048198,6921.0693638334451,1488.4503096012302,-3907.3238844699413,7470.1700409609584,-6340.5772506953826,2332.0935909870905,-2332.0935909870905,6340.5772506953826,14441.929847955973,0.0
678296.95196600363,3660566.251970998,-32500.0,-7616.4786906319114,-1552.2548762066951,-153.61437543172894,5880.2937482560965,1135.0100673784148,-3138.1215448197695,6450.2360408959676,-5754.2012715376595,2275.2831959125378,-2275.2831959125378,5754.2012715376595,12536.165587489053,0.0
683296.95196600363,3660566.251970998,-32500.0,-6985.1192369356168,-1256.2695384688316,-65.67631594089174,4995.3864367825927,868.91977777596981,-2525.172785782107,5584.5655036696799,-5183.7217676919417,2160.2232970458217,-2160.2232970458217,5183.7217676919417,10898.203014418037,0.0
688296.95196600363,3660566.251970998,-32500.0,-6364.9319225856452,-1016.7430213122244,-14.768170182904161,4247.4893596008787,668.16134534609012,-2037.5277017612689,4849.6722035904331,-4649.1509448105198,2015.5229491899538,-2015.5229491899538,4649.1509448105198,9493.9663466771472,0.0
693296.95196600363,3660566.251970998,-32500.0,-5775.9218367520543,-823.71885728130053,12.886097944465513,3617.6093931360492,516.20570724523373,-1649.686676206391,4225.1120829734155,-4159.5359137031246,1859.1187945796848,-1859.1187945796848,4159.5359137031246,8291.3429247110998,0.0
698296.95196600363,3660566.251970998,-32500.0,-5228.4229626535252,-668.44000914220555,26.162345382638463,3088.0535739673451,400.73457406223798,-1340.9473266385621,3693.3992311274123,-3717.5612631081767,1701.9643948317382,-1701.9643948317382,3717.5612631081767,7261.3006120650825,0.0
703296.95196600363,3660566.251970998,-32500.0,-4726.7148500435396,-543.5391621015292,30.746266987190626,2643.0359194809134,312.59775550325605,-1094.7079979258658,3239.7319588055552,-3322.3225350628481,1550.4820015040277,-1550.4820015040277,3322.3225350628481,6378.2561743473525,0.0
708296.95196600363,3660566.251970998,-32500.0,-4271.3680784690978,-442.97223877078909,30.255662996255118,2268.8459967134054,245.00375262608401,-897.78166300185228,2851.6623891917834,-2971.0025056287845,1408.1830205709716,-1408.1830205709716,2971.0025056287845,5620.0438518644451,0.0
713296.95196600363,3660566.251970998,-32500.0,-3860.7719372928623,-361.85516631321968,26.972013114384485,1953.7900799839804,192.9076062873487,-739.76551227351865,2518.7695442333711,-2659.8839694631588,1276.7369761418452,-1276.7369761418452,2659.8839694631588,4967.6860638202297,0.0
513296.95196600363,3665566.251970998,-32500.0,-3021.4739758162336,1216.7739656821323,-241.31910020403555,-1626.0557091936244,535.12725272177818,-640.33089465287821,2270.769418045084,-1032.2802619623826,969.39941168462519,-969.39941168462519,1032.2802619623826,4473.4805965200667,0.0
518296.95196600363,3665566.251970998,-32500.0,-3276.7493698678818,1406.0103569209266,-292.52956195502861,-1863.3978392207409,641.024102390537,-768.726058185037,2558.3118164464422,-1055.484854648887,1038.0333848921641,-1038.0333848921641,1055.484854648887,5029.0497652075346,0.0
523296.95196600363,3665566.251970998,-32500.0,-3542.6786070391036,1629.5773296010054,-359.48076532160002,-2138.1637327125231,771.38406565193031,-925.80348723909992,2890.1574683453955,-1059.1408119272485,1102.4005714482389,-1102.4005714482389,1059.1408119272485,5667.2437791299244,0.0
528296.95196600363,3665566.251970998,-32500.0,-3812.5653953013775,1893.8961811531126,-447.8564638991175,-2455.1901657400795,932.33750973738677,-1117.9992410127684,3273.6170710208926,-1033.5389065447773,1156.7698360638763,-1156.7698360638763,1033.5389065447773,6400.6004662294054,0.0
533296.95196600363,3665566.251970998,-32500.0,-4075.4539707346034,2206.2905567017501,-565.59432916606568,-2818.9710306346201,1131.5015809024667,-1352.8575389900914,3717.0487619127666,-965.2016534613997,1192.4197876716864,-1192.4197876716864,965.2016534613997,7242.8964687341049,0.0
538296.95196600363,3665566.251970998,-32500.0,-4314.1520049780183,2574.8318277829007,-723.83270984693888,-3232.8686359006892,1378.2204279813202,-1638.9178933854644,4229.8748416616309,-835.53520635840562,1196.2615348723339,-1196.2615348723339,835.53520635840562,8208.7999039051301,0.0
543296.95196600363,3665566.251970998,-32500.0,-4502.3960458738384,3007.8997872333066,-938.26023549893011,-3697.7775737569918,1683.7250746988934,-1985.3194145708662,4822.512678856664,-619.0419947925659,1148.8461510119391,-1148.8461510119391,619.0419947925659,9313.1834841867003,0.0
548296.95196600363,3665566.251970998,-32500.0,-4600.7814447980018,3513.2111088758002,-1231.0219877609031,-4209.9057090627202,2061.0755756175226,-2400.9219580063359,5506.1660226141366,-280.98638654387821,1021.4898630769616,-1021.4898630769616,280.98638654387821,10569.940206053774,0.0
553296.95196600363,3665566.251970998,-32500.0,-4550.8911977955549,4095.8524869019452,-1633.3598530143686,-4757.0636311143335,2524.6103053909005,-2892.6278611540192,6292.3691293094716,225.57474315210072,772.14597297744501,-772.14597297744501,-225.57474315210072,11990.068753594769,0.0
558296.95196600363,3665566.251970998,-32500.0,-4266.8764775245372,4754.4316198510696,-2189.1166044411284,-5312.2814662694564,3088.3357692745508,-3462.3479760374971,7192.0549225258437,963.30770237515151,339.58076151097941,-339.58076151097941,-963.30770237515151,13578.698459286503,0.0
563296.95196600363,3665566.251970998,-32500.0,-3623.8702020885444,5473.6341915061457,-2958.9389259399054,-5822.3377213524345,3762.0037105552351,-4101.3381801429114,8213.6199506533776,2013.8836806548172,-364.41946366460593,364.41946366460593,-2013.8836806548172,15330.573108349716,0.0
568296.95196600363,3665566.251970998,-32500.0,-2444.4411959391846,6210.0245107884293,-4023.9835964434342,-6186.4827714865714,4541.8962492470491,-4778.3273352994784,9358.9232148436477,3477.9138796819698,-1463.8691984581267,1463.8691984581267,-3477.9138796819698,17223.614363067732,0.0
573296.95196600363,3665566.251970998,-32500.0,-492.01414038721009,6866.2214260633518,-5484.9414413220211,-6218.0147648676621,5389.1168297519625,-5411.0917674431294,10615.997544014741,5461.7976897679609,-3122.8863118935651,3122.8863118935651,-5461.7976897679609,19212.493441288549,0.0
578296.95196600363,3665566.251970998,-32500.0,2496.4614296314485,7250.2957911055391,-7444.7823547476337,-5585.7600510163147,6179.4041822182817,-5795.4178468743512,11951.625986869351,8026.5936269157919,-5526.4479544955593,5526.4479544955593,-8026.5936269157919,21236.987026365685,0.0
583296.95196600363,3665566.251970998,-32500.0,6657.2212346264678,7037.0603312875119,-9949.6460217670556,-3772.3134760961921,6598.2784208871371,-5445.2685215782094,13331.921715241398,11053.25246016259,-8789.6463278223109,8789.6463278223109,-11053.25246016259,23305.308259715141,0.0
588296.95196600363,3665566.251970998,-32500.0,11609.018479729495,5819.7207576490891,-12852.54105209459,-221.70657025793756,5979.0795863657031,-3338.1399840981253,14878.073768716575,14001.613967639038,-12720.611115681706,12720.611115681706,-14001.613967639038,25790.651850591643,0.0
593296.95196600363,3665566.251970998,-32500.0,15926.170740076317,3464.8187609580223,-15621.763360574412,4943.3788679762711,3261.1525653738772,2117.5647628096449,17238.955736820601,15771.906471939441,-16463.981128313611,16463.981128313611,-15771.906471939441,29858.800928061453,0.0
598296.95196600363,3665566.251970998,-32500.0,17431.622336679789,853.97890436899047,-17354.762972645436,9610.0139122738728,-2331.3558823361363,11841.040460349248,21138.91799615552,15380.843659878548,-18528.753052374799,18528.753052374799,-15380.843659878548,36639.073080406277,0.0
603296.95196600363,3665566.251970998,-32500.0,15614.853346537802,20.297702442420118,-17445.132769813845,9862.374532063588,-9486.2953870211823,23021.232662641058,25417.481435255308,13714.479211583766,-18076.008720378511,18076.008720378511,-13714.479211583766,44209.069936856802,0.0
608296.95196600363,3665566.251970998,-32500.0,13536.412422516789,2039.6330394135528,-16447.541193008852,4452.0251350758481,-14117.794359632755,28558.935507958144,27066.525109836526,13522.495262939394,-16424.32895609858,16424.32895609858,-13522.495262939394,47381.711182815292,0.0
613296.95196600363,3665566.251970998,-32500.0,13947.799920910289,4990.321148787546,-15551.588041440686,-1970.7586296511563,-12958.324954419049,24057.084732958465,24313.787590490349,15525.652322011065,-15582.017232079757,15582.017232079757,-15525.652322011065,43136.358044728549,0.0
618296.95196600363,3665566.251970998,-32500.0,15402.820108448508,6091.3064562691907,-15217.271093437806,-4277.717838028022,-7060.8850813409945,13008.136530578726,19307.471620180066,17087.189442435516,-15704.714566229812,15704.714566229812,-17087.189442435516,34435.098551180912,0.0
623296.95196600363,3665566.251970998,-32500.0,15198.363979328846,4515.8515241781524,-14964.44964013579,-1970.699335856214,24.321942340238493,1745.3547187923468,15877.536492487639,15862.265328165082,-15621.566792726175,15621.566792726175,-15862.265328165082,27528.706106773072,0.0
628296.95196600363,3665566.251970998,-32500.0,12435.697630985373,1301.9236971659022,-14069.429478414824,2530.796781454379,5439.2883021207199,-6081.7151802897852,14878.738350667154,11810.729276040103,-14385.351770927264,14385.351770927264,-11810.729276040103,25839.259755188457,0.0
633296.95196600363,3665566.251970998,-32500.0,7920.7187044842331,-1968.8547992737938,-12283.366236908238,6793.0244040517282,8191.8988902448327,-9961.438042700298,15452.359058536091,6424.6530491262019,-11911.380044799738,11911.380044799738,-6424.6530491262019,26796.833693599856,0.0
638296.95196600363,3665566.251970998,-32500.0,3061.2112568872444,-4263.3584447217527,-9951.4329563966494,9581.6070684829665,8741.6389639765184,-10970.86130243894,15486.503820845297,1344.4575978327262,-8813.8171500641965,8813.8171500641965,-1344.4575978327262,27254.955787905747,0.0
643296.95196600363,3665566.251970998,-32500.0,-1074.4880006964963,-5377.167754672374,-7593.2914553431101,10790.173067360163,8030.5077861387326,-10413.965833478318,14710.646636573048,-2509.4774682855123,-5811.4569292230944,5811.4569292230944,2509.4774682855123,26425.951144178813,0.0
648296.95196600363,3665566.251970998,-32500.0,-4067.8118272353581,-5588.1741499103,-5555.0651578868938,10844.821682762489,6826.0901371381742,-9208.4623829377924,13456.152839633787,-4980.7327334093479,-3329.7532992690399,3329.7532992690399,4980.7327334093479,24643.311944777681,0.0
653296.95196600363,3665566.251970998,-32500.0,-5964.5227112881566,-5267.773925829777,-3954.6875882427262,10227.093564378405,5564.183429289179,-7846.6289234202222,12026.70993071942,-6316.5126866473784,-1480.5446157974638,1480.5446157974638,6316.5126866473784,22389.13912179193,0.0
658296.95196600363,3665566.251970998,-32500.0,-6998.394967192693,-4701.5732637669571,-2768.8626614283698,9290.0260029513538,4434.0463490622005,-6549.0199622580894,10606.133801218859,-6856.8379423833467,-199.29209990921527,199.29209990921527,6856.8379423833467,20010.013974680976,0.0
663296.95196600363,3665566.251970998,-32500.0,-7421.8209274030369,-4063.7956557007701,-1920.0142433608426,8248.5479042359166,3491.7063253004512,-5398.8775696383018,9284.9038653893804,-6892.0866874414678,636.85711462161998,-636.85711462161998,6892.0866874414678,17705.007921371791,0.0
668296.95196600363,3665566.251970998,-32500.0,-7441.8271250205144,-3445.8310428516766,-1324.631910971849,7220.2976643898155,2734.0801117066244,-4417.2561498003561,8098.4796469904331,-6630.9169414673797,1148.9080188623234,-1148.9080188623234,6630.9169414673797,15572.769431391005,0.0
673296.95196600363,3665566.251970998,-32500.0,-7210.209162654086,-2888.6780316695385,-912.00496047917545,6263.9764848326286,2136.7503996328969,-3598.2873437588514,7053.8607660207999,-6211.2877724173159,1435.3898292432582,-1435.3898292432582,6211.2877724173159,13653.110544889209,0.0
678296.95196600363,3665566.251970998,-32500.0,-6832.2492583023959,-2405.8248957500068,-628.06037459055062,5404.7004239177768,1670.7220663118298,-2925.0547595404182,6144.5414919414216,-5720.1513875296878,1569.968166395292,-1569.968166395292,5720.1513875296878,11953.553147609155,0.0
683296.95196600363,3665566.251970998,-32500.0,-6378.5698218701664,-1996.9568243983169,-433.51683452213388,4649.0423843615627,1309.0321950487271,-2377.0341314998905,5358.2731045444689,-5210.3325929367729,1605.2909216402845,-1605.2909216402845,5210.3325929367729,10464.778641089035,0.0
688296.95196600363,3665566.251970998,-32500.0,-5895.2562123033695,-1655.539634342558,-300.61634053041394,3993.7008444624566,1028.8613341797775,-1933.731607871279,4680.9488479044967,-4712.6039699192097,1577.9661759062406,-1577.9661759062406,4712.6039699192097,9169.3734608268333,0.0
693296.95196600363,3665566.251970998,-32500.0,-5411.4648293470218,-1372.8121307549143,-210.04104066034358,3430.504236035722,811.77727862248037,-1576.4265994309817,4098.5205473372926,-4243.7755528459165,1512.9505110705202,-1512.9505110705202,4243.7755528459165,8046.7715889360843,0.0
698296.95196600363,3665566.251970998,-32500.0,-4944.867400309894,-1139.7813740126189,-148.45860509887621,2949.2922580139857,643.27294976737971,-1288.8766875791175,3597.9058422920921,-3811.9709347601056,1426.9657664225113,-1426.9657664225113,3811.9709347601056,7076.0058569428038,0.0
703296.95196600363,3665566.251970998,-32500.0,-4505.4648418547386,-948.14199470337121,-106.70814719623394,2539.5423816005509,512.10330495719109,-1057.4483460742399,3167.3695882632665,-3420.028810220987,1331.0142148246634,-1331.0142148246634,3420.028810220987,6237.1779039009825,0.0
708296.95196600363,3665566.251970998,-32500.0,-4098.222949248141,-790.62751458041851,-78.507122621931003,2191.2406524582466,409.62826811966846,-870.94794444122181,2796.6237028113192,-3067.6751281665665,1232.1766796364691,-1232.1766796364691,3067.6751281665665,5512.1646578547607,0.0
713296.95196600363,3665566.251970998,-32500.0,-3724.8782971507753,-661.07756541759329,-59.550379862303906,1895.3017639745399,329.24148534477376,-720.3210200730656,2476.7828941917028,-2752.9002301029664,1134.8744440831042,-1134.8744440831042,2752.9002301029664,4884.8830431051447,0.0
513296.95196600363,3670566.251970998,-32500.0,-2587.1383292382134,1372.5318020656698,-396.12444639157945,-1437.2763905821059,615.44643558846474,-576.56423749646467,2129.2755526288538,-622.8704250962179,726.62522236110942,-726.62522236110942,622.8704250962179,4174.0745229052436,0.0
518296.95196600363,3670566.251970998,-32500.0,-2758.9228247544761,1575.968289577567,-479.66063704123258,-1628.4189309184051,733.75061699425419,-685.90373002048307,2387.9017550800445,-577.1875373524831,744.98843431565092,-744.98843431565092,577.1875373524831,4667.8617103805846,0.0
523296.95196600363,3670566.251970998,-32500.0,-2923.02048501429,1812.7466681751496,-586.43480639297741,-1843.9179905784906,877.91157669108554,-817.44335698321891,2683.6321416453334,-499.44588172630438,747.30303364667884,-747.30303364667884,499.44588172630438,5229.1170037949869,0.0
528296.95196600363,3670566.251970998,-32500.0,-3068.5322275026183,2087.6156795917041,-723.8578188684171,-2084.5071526955198,1053.7176215990144,-975.18462599440716,3021.7450618264097,-378.02202632065502,724.97394037672393,-724.97394037672393,378.02202632065502,5866.1975825712498,0.0
533296.95196600363,3670566.251970998,-32500.0,-3179.4832296066406,2405.1919395493246,-901.86398651782702,-2349.204492185238,1267.9729124632829,-1163.2550827858558,3407.9355472015895,-197.63582263989628,665.83082077396057,-665.83082077396057,197.63582263989628,6587.4821660187781,0.0
538296.95196600363,3670566.251970998,-32500.0,-3232.8715624668603,2769.2472647046916,-1133.75602397951,-2634.0617463315521,1528.3786947401281,-1385.3781923709023,3848.1332699428576,61.590255282595365,552.77363048613324,-552.77363048613324,-61.590255282595365,7400.6942342822331,0.0
543296.95196600363,3670566.251970998,-32500.0,-3196.0852418797576,3181.4279581130031,-1437.2713520558468,-2930.2320418385625,1843.0865783358929,-1643.8714214540016,4348.1860466460612,425.14175582497444,361.98139820392385,-361.98139820392385,-425.14175582497444,8311.8514325500273,0.0
548296.95196600363,3670566.251970998,-32500.0,-3023.5756036026046,3639.0300916143478,-1835.8395041778824,-3221.0152702597038,2219.6134458564043,-1937.8688807237268,4913.3663555684052,925.00798454995015,60.627937428014036,-60.627937428014036,-925.00798454995015,9323.7563645599494,0.0
553296.95196600363,3670566.251970998,-32500.0,-2652.7817337162892,4131.2229649512947,-2359.8569284799714,-3477.3594941432616,2662.554206238528,-2260.2835659219791,5547.6801666916854,1600.0257055675108,-395.8356480678633,395.8356480678633,-1600.0257055675108,10434.058113711599,0.0
558296.95196600363,3670566.251970998,-32500.0,-1999.6847157735615,4632.749514902891,-3047.4443790405903,-3650.9948557122616,3169.0434793600366,-2592.6776233740716,6253.0344934485138,2494.6721445096482,-1066.4167392387735,1066.4167392387735,-2494.6721445096482,11633.272587121861,0.0
563296.95196600363,3670566.251970998,-32500.0,-955.55717027614617,5093.6679689658695,-3943.3034474904457,-3663.9581249126531,3719.9733419925692,-2896.4356008939862,7028.605175384524,3654.0683409736139,-2025.9480532457537,2025.9480532457537,-3654.0683409736139,12904.244152479241,0.0
568296.95196600363,3670566.251970998,-32500.0,610.15342685652377,5423.5141523105813,-5092.409884579085,-3393.1494782080445,4263.1460525072007,-3096.8187403720067,7871.7688300247319,5110.2983188971402,-3361.2035614069709,3361.2035614069709,-5110.2983188971402,14227.746754582806,0.0
573296.95196600363,3670566.251970998,-32500.0,2827.5047951513725,5470.0951214624283,-6521.5411659425699,-2650.912097161186,4681.4105841178371,-3052.6438701827801,8785.4636937732412,6850.2830729072029,-5152.1218137539527,5152.1218137539527,-6850.2830729072029,15607.743927430471,0.0
578296.95196600363,3670566.251970998,-32500.0,5754.5549632687789,5002.6476839531542,-8195.9680120455487,-1174.9533665892955,4735.8841186749178,-2499.301939869581,9807.5296105694088,8750.1700428795921,-7417.7664909752748,7417.7664909752748,-8750.1700428795921,17149.472809590556,0.0
583296.95196600363,3670566.251970998,-32500.0,9210.811421013188,3738.9095586122075,-9936.9915801498792,1319.9805141425743,3982.668485914648,-959.28384556329422,11099.486814410786,10470.430165262416,-9996.7857098779605,9996.7857098779605,-10470.430165262416,19237.581484604791,0.0
588296.95196600363,3670566.251970998,-32500.0,12513.154923342261,1513.8824497257788,-11315.08056214413,4901.5536806786704,1719.5186789350814,2318.2847483650239,13107.037543206232,11377.986974526983,-12361.748190389662,12361.748190389662,-11377.986974526983,22729.185117228077,0.0
593296.95196600363,3670566.251970998,-32500.0,14361.511339135159,-1299.0885794911119,-11648.532976970664,8861.4239786707622,-2813.6336663121542,8118.7010167465951,16449.706753697825,10752.374382342141,-13533.93024634263,13533.93024634263,-10752.374382342141,28592.067332229268,0.0
598296.95196600363,3670566.251970998,-32500.0,13548.10162394731,-3331.1425383538722,-10404.785135356824,11183.671902306924,-9603.5983983415881,16259.67230049009,20991.509541575833,8621.6702865945099,-12566.94762002997,12566.94762002997,-8621.6702865945099,36486.212945039108,0.0
603296.95196600363,3670566.251970998,-32500.0,10675.562376026903,-2725.2884574679679,-8046.6322922840609,9422.5034217194279,-16640.368658664895,24157.242950344003,25128.022882317131,6693.06560325594,-9801.480386781941,9801.480386781941,-6693.06560325594,43635.087297831757,0.0
608296.95196600363,3670566.251970998,-32500.0,8560.4741796768867,808.70866608023857,-6246.8011970616153,3586.669682456336,-20248.925974627949,27431.838875107263,26587.945374138017,7297.1428545132567,-7382.3444230454206,7382.3444230454206,-7297.1428545132567,46102.374559901182,0.0
613296.95196600363,3670566.251970998,-32500.0,9161.9250460501189,4916.1708508432312,-6411.9636015501301,-2710.7491888313157,-18175.636422992146,23842.202003183702,24305.469786458929,10422.105524363466,-7258.6377575253282,7258.6377575253282,-10422.105524363466,42098.66395662717,0.0
618296.95196600363,3670566.251970998,-32500.0,11245.832997359237,6851.0290913836971,-8264.5640098784879,-5766.5447220441893,-11764.467220131277,15604.048947124818,19474.143788483369,13420.645887593633,-9110.7505147622505,9110.7505147622505,-13420.645887593633,33770.655026451859,0.0
623296.95196600363,3670566.251970998,-32500.0,12401.119430226337,5866.4769884658936,-10412.433409198657,-4933.2523623095512,-4246.0897097512852,6718.6249833189213,14733.585222409994,13977.689027025857,-11186.145875902259,11186.145875902259,-13977.689027025857,25562.794757638949,0.0
628296.95196600363,3670566.251970998,-32500.0,11467.746247033581,2989.0489772880637,-11643.675686345749,-1797.5184524236597,1857.8319553753911,-196.88714853194421,12212.708349159471,11771.999059740627,-12091.912696500023,12091.912696500023,-11771.999059740627,21153.399485237838,0.0
633296.95196600363,3670566.251970998,-32500.0,8745.7477300041737,-297.42308568865377,-11536.228153641267,1790.1162871654053,5597.967154069288,-4457.4179893103774,11834.571095716798,7875.6116612544629,-11456.713047842359,11456.713047842359,-7875.6116612544629,20537.440961913639,0.0
638296.95196600363,3670566.251970998,-32500.0,5196.4985433444235,-2948.8364830363789,-10357.827630243488,4682.6671252151064,7198.1994754395728,-6496.4557464005156,11976.440951233872,3639.501579007906,-9686.6573959513407,9686.6573959513407,-3639.501579007906,21073.620212799353,0.0
643296.95196600363,3670566.251970998,-32500.0,1724.8182556252198,-4590.9403228739075,-8646.2225790541306,6507.1913823331561,7355.0189456446378,-7064.3068457248146,11756.576296085947,-2.0406521368199719,-7440.4556509050944,7440.4556509050944,2.0406521368199719,21123.554672224014,0.0
648296.95196600363,3670566.251970998,-32500.0,-1143.0696156237886,-5315.9885889205889,-6861.9118979320128,7363.5897254084293,6741.2899940740335,-6807.1677105432154,11129.281928015982,-2676.917121002658,-5243.6510756912594,5243.6510756912594,2676.917121002658,20400.407297896083,0.0
653296.95196600363,3670566.251970998,-32500.0,-3243.6811002189365,-5393.3532192170151,-5268.1655996016689,7518.3978436591879,5820.7138397433491,-6157.1997708276085,10251.624481055682,-4401.3235144374812,-3374.1636770508567,3374.1636770508567,4401.3235144374812,19109.541574977371,0.0
658296.95196600363,3670566.251970998,-32500.0,-4629.490485585362,-5087.7158592486612,-3962.1329169262281,7232.7571849661481,4854.3380953690867,-5366.6600469824607,9270.3859856535273,-5360.902676220614,-1914.6683147910821,1914.6683147910821,5360.902676220614,17514.777283446234,0.0
663296.95196600363,3670566.251970998,-32500.0,-5438.3540371362033,-4594.3848149549658,-2944.9071483639882,6704.7422730165854,3965.9068876204019,-4570.4558219327928,8283.3276656409525,-5770.5688457651249,-840.94569673193791,840.94569673193791,5770.5688457651249,15817.001651540324,0.0
668296.95196600363,3670566.251970998,-32500.0,-5819.0738339936088,-4037.2703939535991,-2176.3910365347838,6067.4076954221055,3201.2276707717506,-3834.634582547309,7346.1212634902695,-5814.2386955056345,-87.022179639806382,87.022179639806382,5814.2386955056345,14144.291969242111,0.0
673296.95196600363,3670566.251970998,-32500.0,-5900.3433060125335,-3486.814628670179,-1606.1894899690644,5403.5918196069852,2566.8505662530411,-3186.5712425740267,6486.1842169330157,-5630.2764102680412,419.72189850324185,-419.72189850324185,5630.2764102680412,12569.29469212054,0.0
678296.95196600363,3670566.251970998,-32500.0,-5782.8164386481876,-2978.6585454832712,-1187.4838979813442,4761.4721441097208,2051.8590409617473,-2632.5810118664299,5713.7964773961703,-5315.7272923047185,743.64898985465061,-743.64898985465061,5315.7272923047185,11127.764049308384,0.0
683296.95196600363,3670566.251970998,-32500.0,-5540.8576408453864,-2527.5989733848842,-881.66252583224673,4166.6061339276712,1639.1414442909338,-2168.105704649061,5029.4534251827454,-4935.5816158832477,936.52557726093846,-936.52557726093846,4935.5816158832477,9832.4813326747699,0.0
688296.95196600363,3670566.251970998,-32500.0,-5227.3352049023779,-2136.7621370864254,-658.74213509548042,3630.3661357162555,1310.8216317845004,-1783.605269980631,4428.4179560262583,-4531.7337502151731,1037.8227030722078,-1037.8227030722078,4531.7337502151731,8682.684490857695,0.0
693296.95196600363,3670566.251970998,-32500.0,-4878.6703057987097,-1803.2247825540837,-496.2066835832772,3155.5809419195966,1050.6152453949435,-1467.889108018335,3903.4417937189946,-4130.1129439187325,1076.6536919738328,-1076.6536919738328,4130.1129439187325,7670.1434491412165,0.0
698296.95196600363,3670566.251970998,-32500.0,-4519.1941308661244,-1521.3068058054228,-377.47435785951569,2740.2162808714802,844.64537586457084,-1209.9079708916775,3446.3669823846194,-3745.9280163576473,1074.0065274211697,-1074.0065274211697,3745.9280163576473,6782.9815027277136,0.0
703296.95196600363,3670566.251970998,-32500.0,-4164.5906109262896,-1284.4124253023328,-290.47046722530524,2379.7083062953939,681.52100809480055,-999.62003520636233,3049.0314714518468,-3387.3580501072856,1044.7493388731889,-1044.7493388731889,3387.3580501072856,6007.9915719627825,0.0
708296.95196600363,3670566.251970998,-32500.0,-3824.4915365116117,-1086.0044100458954,-226.45710949248979,2068.3988899278152,552.09979730288762,-828.32308141678084,2703.7516874871117,-3058.082688150369,999.25675519178526,-999.25675519178526,3058.082688150369,5331.9828485064691,0.0
713296.95196600363,3670566.251970998,-32500.0,-3504.385178609014,-920.07521352001027,-179.12941866787008,1800.3880625505642,449.14514826277616,-688.69755812442622,2403.555614758056,-2758.9907971161765,944.6643921283403,-944.6643921283403,2758.9907971161765,4742.5248531251718,0.0
513296.95196600363,3675566.251970998,-32500.0,-2122.7526571517087,1456.8200211937638,-553.66045565831757,-1233.3207295096033,666.09095291685412,-507.19661768250683,1976.8606512997137,-241.22852057407516,463.97167303084012,-463.97167303084012,241.22852057407516,3846.8637266592182,0.0
518296.95196600363,3675566.251970998,-32500.0,-2210.0805664983482,1657.1583950999454,-666.95398157289878,-1376.3951429962754,788.17975199558725,-596.38765722703897,2205.3076269663648,-138.05256841860751,431.74639326377144,-431.74639326377144,138.05256841860751,4275.5942986961818,0.0
523296.95196600363,3675566.251970998,-32500.0,-2273.0119670896761,1885.2208035331994,-809.15742611883718,-1531.0320063184461,934.71709373562942,-701.21146728773454,2463.8923906070527,5.2045671688492519,373.07731099532703,-373.07731099532703,-5.2045671688492519,4756.8873449416024,0.0
528296.95196600363,3675566.251970998,-32500.0,-2297.6424735701607,2142.8239175654612,-988.39486568540644,-1694.3390150964976,1110.177090442902,-823.35933221125458,2756.1777146683526,200.27139377668402,277.5163324968571,-277.5163324968571,-200.27139377668402,5295.5032847895718,0.0
533296.95196600363,3675566.251970998,-32500.0,-2264.8686250167434,2430.3401213705929,-1215.0409941570158,-1860.7151457612056,1319.2455418298246,-963.81303051180305,3085.7553706893677,461.68254567124148,131.05658497328403,-131.05658497328403,-461.68254567124148,5895.4785962339938,0.0
538296.95196600363,3675566.251970998,-32500.0,-2148.83518123055,2745.4484051123595,-1502.1777793124547,-2020.4068894016675,1566.2519220576833,-1122.0259493109515,3456.0356734623556,807.02839465975023,-84.8608923157052,84.8608923157052,-807.02839465975023,6559.4616612727796,0.0
543296.95196600363,3675566.251970998,-32500.0,-1915.1625254006146,3081.1473926568679,-1865.9478110871087,-2157.4394913968426,1854.0361172188468,-1294.5530948361072,3869.97725565669,1256.8318130084037,-394.41860763420846,394.41860763420846,-1256.8318130084037,7287.8959962656936,0.0
548296.95196600363,3675566.251970998,-32500.0,-1519.1705779522438,3422.6664660873189,-2325.5390533540012,-2246.7160728072536,2181.8279591688233,-1472.824109224237,4329.819632927467,1833.6165862566427,-828.34401107085932,828.34401107085932,-1833.6165862566427,8078.2427993044093,0.0
553296.95196600363,3675566.251970998,-32500.0,-904.66538799708019,3742.7981966117127,-2902.2414961798554,-2250.0696326747029,2541.436790623738,-1639.604004963044,4837.0288403080212,2559.3724177055074,-1424.1309763534737,1424.1309763534737,-2559.3724177055074,8924.8589465604655,0.0
558296.95196600363,3675566.251970998,-32500.0,-4.5969676613215782,3995.1314688511434,-3616.4539326797603,-2111.135083576673,2910.5892945624159,-1763.4450571232799,5393.0137176684448,3450.0013697996933,-2224.353330311355,2224.353330311355,-3450.0013697996933,9821.1425060237525,0.0
563296.95196600363,3675566.251970998,-32500.0,1253.5327808452003,4104.9721127227976,-4480.4981059422389,-1749.3159526888123,3241.5520709967832,-1790.0214304463882,6001.9962986492019,4504.3210808127642,-3270.5504916900659,3270.5504916900659,-4504.3210808127642,10767.831031697437,0.0
568296.95196600363,3675566.251970998,-32500.0,2931.5400679745062,3959.2023588721199,-5483.4482674643423,-1054.5580843635166,3442.2791304065186,-1628.5571860781924,6679.2643188944339,5683.8602115772364,-4587.7538857357295,4587.7538857357295,-5683.8602115772364,11795.903335520879,0.0
573296.95196600363,3675566.251970998,-32500.0,5042.6074967596714,3401.0449772706875,-6562.3068374559853,110.92737205396213,3347.0514469209957,-1130.9648751374282,7471.6273898671698,6879.1631182861338,-6151.1066049400551,6151.1066049400551,-6879.1631182861338,13018.822897883809,0.0
578296.95196600363,3675566.251970998,-32500.0,7475.9444160378725,2247.6773589827612,-7554.619227410697,1886.4489818387699,2677.4903111908857,-63.463116736412985,8500.4452621557102,7863.6069272736131,-7823.7858594560821,7823.7858594560821,-7863.6069272736131,14723.384717611912,0.0
583296.95196600363,3675566.251970998,-32500.0,9879.8703742178659,370.90481456375932,-8141.0605667280961,4323.1924282166547,1013.7582709435148,1914.7915276479994,10022.902723241463,8260.57878883173,-9266.722294541627,9266.722294541627,-8260.57878883173,17442.021216919835,0.0
588296.95196600363,3675566.251970998,-32500.0,11566.897773819339,-2103.4674354783515,-7833.3245515791477,7179.0934059925394,-2151.039270469023,5204.0465964124669,12412.977090954711,7612.9874829736236,-9876.114727194572,9876.114727194572,-7612.9874829736236,21798.774183360645,0.0
593296.95196600363,3675566.251970998,-32500.0,11660.74712732783,-4496.3214272191117,-6147.4170200251647,9629.0484745963113,-7120.787879093954,10007.672305863918,15839.312622519137,5711.8892275235685,-8927.7085441050167,8927.7085441050167,-5711.8892275235685,27952.61064126356,0.0
598296.95196600363,3675566.251970998,-32500.0,9770.3373225515879,-5487.4481059990803,-3099.3240881833567,10229.892341302391,-13374.036582651792,15772.658356894013,19778.930977925666,3187.7918802691211,-6158.2293013247845,6158.2293013247845,-3187.7918802691211,34925.446277050272,0.0
603296.95196600363,3675566.251970998,-32500.0,6885.8185605140688,-3836.28841543831,245.19582870042098,7751.8016891704992,-19035.798950477627,20728.21618458398,22963.788972609771,1719.3150360068164,-2549.2124432973656,2549.2124432973656,-1719.3150360068164,40486.288077907469,0.0
608296.95196600363,3675566.251970998,-32500.0,5109.2447194344886,215.04477674071461,2065.950079419968,2659.6902132196783,-21523.471821016334,22542.852191028764,23984.567063053033,2871.9312020719944,-172.02011211450008,172.02011211450008,-2871.9312020719944,42159.079952759166,0.0
613296.95196600363,3675566.251970998,-32500.0,5695.0596028874652,4589.2317764261761,1217.2630008227509,-2652.1694782832224,-19488.650235878522,20156.357814814019,22255.100819569918,6317.3268958399667,-516.93488409849215,516.93488409849215,-6317.3268958399667,38956.927216422722,0.0
618296.95196600363,3675566.251970998,-32500.0,7796.005508107999,7037.3919518244766,-1770.9604190884074,-5770.1480388286454,-13949.79546718074,14715.150520784537,18486.816566295201,9921.4635640977394,-3154.4305469605979,3154.4305469605979,-9921.4635640977394,32215.609441535125,0.0
623296.95196600363,3675566.251970998,-32500.0,9591.0876727389714,6808.9778345464592,-5330.0654119555702,-5995.1692797616961,-7251.0361577712565,8427.8408704648682,14236.251948968711,11696.097953997843,-6400.6522578127551,6400.6522578127551,-11696.097953997843,24724.122765122029,0.0
628296.95196600363,3675566.251970998,-32500.0,9907.6201914879166,4616.5390701698379,-8081.5668826653682,-4143.4555054200137,-1388.7596400512759,3004.0791183972988,11071.553973741571,11067.242000517532,-8770.0557195896818,8770.0557195896818,-11067.242000517532,19191.367034364968,0.0
633296.95196600363,3675566.251970998,-32500.0,8642.1426167819227,1678.361313278612,-9428.9261344269071,-1459.9726293935189,2705.241671870207,-855.31579046617833,9688.7018372180391,8639.9009240568685,-9656.3634201434197,9656.3634201434197,-8639.9009240568685,16790.957864527314,0.0
638296.95196600363,3675566.251970998,-32500.0,6341.6213006839607,-1026.9441002289605,-9468.6145304541787,1104.6648991510251,4994.5805494624956,-3181.0673808064262,9409.9750106593201,5423.9811209637237,-9207.6646745429716,9207.6646745429716,-5423.9811209637237,16484.884098117229,0.0
643296.95196600363,3675566.251970998,-32500.0,3688.1490059322027,-3011.4962729714016,-8634.00420725404,3075.9339676224013,5892.2948012181669,-4321.9580791978178,9305.7043656311889,2265.9314858623979,-7918.7206699876842,7918.7206699876842,-2265.9314858623979,16644.649631841323,0.0
648296.95196600363,3675566.251970998,-32500.0,1196.7015125996509,-4194.971440874574,-7383.8525782553534,4348.0064526440892,5900.2881849046662,-4671.009509547971,9019.6663126305248,-355.65245296548892,-6291.2287590503092,6291.2287590503092,355.65245296548892,16482.013464113475,0.0
653296.95196600363,3675566.251970998,-32500.0,-860.68031509728621,-4713.961534936815,-6051.255407479518,5010.4420728264076,5429.1521883783507,-4547.8259513353269,8528.0726132536965,-2285.6640719204001,-4676.477302292933,4676.477302292933,2285.6640719204001,15868.323044317065,0.0
658296.95196600363,3675566.251970998,-32500.0,-2404.4679410394892,-4767.3457377370241,-4823.1715774546092,5217.3532168569864,4754.832373176032,-4175.7747218609693,7899.7380477553097,-3563.4866519196312,-3260.3766646017048,3260.3766646017048,3563.4866519196312,14912.201763969089,0.0
663296.95196600363,3675566.251970998,-32500.0,-3467.0708959550498,-4535.0820884288541,-3777.6713424682052,5118.5433596498215,4039.2932877964249,-3697.3815577886753,7207.7829132182933,-4310.5852239405185,-2109.0774653798653,2109.0774653798653,4310.5852239405185,13759.542828838774,0.0
668296.95196600363,3675566.251970998,-32500.0,-4129.1055239130546,-4151.6571867450284,-2928.6497777504665,4834.1092003523408,3366.3399609275039,-3197.3032508478914,6506.8772266336473,-4663.0324545578042,-1220.3767096766076,1220.3767096766076,4663.0324545578042,12530.048034654785,0.0
673296.95196600363,3675566.251970998,-32500.0,-4481.4925278836599,-3706.7827572429255,-2258.939674378797,4450.9778830432751,2772.2516644978664,-2721.9191253057961,5832.094037188429,-4740.7932944234635,-560.88277356188701,560.88277356188701,4740.7932944234635,11306.43888706637,0.0
678296.95196600363,3675566.251970998,-32500.0,-4607.2054306301316,-3255.2829377789003,-1740.0615949319833,4027.8131753535822,2266.8819666172785,-2293.5657148581236,5203.2932820888764,-4638.3818894067308,-87.751180593319077,87.751180593319077,4638.3818894067308,10139.85227472473,0.0
683296.95196600363,3675566.251970998,-32500.0,-4574.6531918761602,-2827.7553099762845,-1342.3327121413238,3601.8391219436435,1846.6990663615929,-1920.2046126759253,4629.8622516707583,-4425.4806023749752,240.49525686975812,-240.49525686975812,4425.4806023749752,9058.321711215076,0.0
688296.95196600363,3675566.251970998,-32500.0,-4436.9212684109734,-2439.1626224108832,-1039.2492707949166,3195.0746624937897,1502.2974158605125,-1601.7216975922088,4114.4758948017234,-4151.148791389387,459.55182657912906,-459.55182657912906,4151.148791389387,8074.2922408012437,0.0
693296.95196600363,3675566.251970998,-32500.0,-4233.5196655991795,-2094.9537181583783,-808.8627087194684,2819.268508604594,1222.4648437829123,-1333.8789275665879,3655.7691945424444,-3848.64658346123,598.23997778024091,-598.23997778024091,3848.64658346123,7190.3056787155238,0.0
698296.95196600363,3675566.251970998,-32500.0,-3992.9088106405047,-1795.1318435668843,-633.749367610116,2479.5286886723384,996.22627589605338,-1110.6896226683646,3250.1352141395882,-3539.7073087441722,678.93478379776843,-678.93478379776843,3539.7073087441722,6402.9984186022702,0.0
703296.95196600363,3675566.251970998,-32500.0,-3734.99959495958,-1536.8294194190337,-500.42289080946261,2176.8628495597281,813.74954618654556,-925.76851290533784,2892.8854941419586,-3237.9335064488196,718.55637684596263,-718.55637684596263,3237.9335064488196,5705.7766233121238,0.0
708296.95196600363,3675566.251970998,-32500.0,-3473.3100115079556,-1315.8733011545191,-398.60527822036113,1909.8923055701832,666.64428746807937,-773.04196218564641,2578.9731717855029,-2951.3435824037033,729.65997866673342,-729.65997866673342,2951.3435824037033,5090.5409429096435,0.0
513296.95196600363,3680566.251970998,-32500.0,-1652.7774189040101,1471.7349089109489,-700.20418896834155,-1024.2060895134507,687.41217239026582,-435.45131605899621,1819.1535851344868,95.634628993458477,199.9765499953038,-199.9765499953038,-95.634628993458477,3506.0373776312476,0.0
518296.95196600363,3680566.251970998,-32500.0,-1661.2549595394319,1653.8238945165986,-836.95941590432471,-1120.5932115635269,805.39149876652084,-504.62923788955374,2018.0074081464754,241.37525753062658,122.02769921667044,-122.02769921667044,-241.37525753062658,3870.7104042687224,0.0
523296.95196600363,3680566.251970998,-32500.0,-1632.1122943439764,1854.6584195527907,-1005.4404899453268,-1217.1646109409646,944.14045451560935,-583.29536135118542,2240.8626015187951,430.17645603705193,10.145772111510354,-10.145772111510354,-430.17645603705193,4274.7417153639117,0.0
528296.95196600363,3680566.251970998,-32500.0,-1550.1164195589399,2072.5586032747369,-1213.2389219831903,-1308.2910682532422,1106.191218740993,-671.17526924788876,2490.0913400202844,672.16947125180172,-146.5522404698998,146.5522404698998,-672.16947125180172,4720.410955197327,0.0
533296.95196600363,3680566.251970998,-32500.0,-1395.4533762104454,2303.1856989873854,-1469.3994155633975,-1385.1525644046394,1293.3708145130063,-766.6892774461578,2768.0115752596134,978.92342354352343,-361.84610370161602,361.84610370161602,-978.92342354352343,5209.1906364630386,0.0
538296.95196600363,3680566.251970998,-32500.0,-1142.8637960611845,2537.977500846232,-1784.2968499258016,-1434.3889377934179,1505.8372690811636,-866.00736217195549,3076.8233432604243,1362.9254313598078,-652.78240874154858,652.78240874154858,-1362.9254313598078,5741.4904526008304,0.0
543296.95196600363,3680566.251970998,-32500.0,-761.02717847883662,2761.8784143523962,-2169.0588211674299,-1436.3327677716316,1740.4155195312849,-961.58313322249683,3418.650313076866,1836.3370533265634,-1039.7035578993491,1039.7035578993491,-1836.3370533265634,6316.6919978406022,0.0
548296.95196600363,3680566.251970998,-32500.0,-212.67439853615772,2950.1657747156032,-2634.0954005057961,-1362.8177921245856,1987.8136143213328,-1039.9375668782211,3795.8872400660025,2408.4972889234082,-1545.473756739402,1545.473756739402,-2408.4972889234082,6934.0429622870997,0.0
553296.95196600363,3680566.251970998,-32500.0,543.66106514565217,3064.2627376480095,-3185.972399959071,-1174.7101631801754,2228.0989109012835,-1078.3985611205546,4212.2854168293779,3081.3580036178405,-2193.0463433447244,2193.0463433447244,-3081.3580036178405,7595.6421650445955,0.0
558296.95196600363,3680566.251970998,-32500.0,1548.5999607958665,3046.7787459358888,-3821.3672034256647,-819.67575333244554,2423.5765215191846,-1040.451353987595,4675.643731681319,3841.6924322624109,-2999.8633857286441,2999.8633857286441,-3841.6924322624109,8313.9623632398034,0.0
563296.95196600363,3680566.251970998,-32500.0,2830.7570989282117,2816.9951827212285,-4516.200349650424,-231.51679630096626,2508.0488901564804,-869.36108274286278,5203.6797751385229,4648.6834837055703,-3966.603500330782,3966.603500330782,-4648.6834837055703,9128.0973285611981,0.0
568296.95196600363,3680566.251970998,-32500.0,4385.1302307243732,2270.3764740773436,-5207.5956875559486,665.79845753574409,2371.7662521318093,-479.98118990830727,5835.4468644434382,5416.0151236139181,-5056.7059973112837,5056.7059973112837,-5416.0151236139181,10133.584532777611,0.0
573296.95196600363,3680566.251970998,-32500.0,6136.0201810222834,1290.6096884331353,-5767.4052015643474,1942.7052991153698,1843.4291049539002,250.19529438108938,6650.1049434101305,5990.6563968081773,-6163.1309577553038,6163.1309577553038,-5990.6563968081773,11523.324928949376,0.0
578296.95196600363,3680566.251970998,-32500.0,7884.0216649339263,-209.19587141218031,-5972.2895449561702,3624.6957748702989,677.42424925948603,1485.6918756703246,7788.2521097000536,6140.1546457766372,-7064.0621736037037,7064.0621736037037,-6140.1546457766372,13608.89391586793,0.0
583296.95196600363,3680566.251970998,-32500.0,9257.1970465854683,-2192.955225121234,-5493.6932251059789,5612.4563778206411,-1428.7662626483054,3417.5207335010477,9448.7614139227207,5581.592462587646,-7388.9525772235838,7388.9525772235838,-5581.592462587646,16751.132363795638,0.0
588296.95196600363,3680566.251970998,-32500.0,9735.4798567425587,-4349.6307169609718,-3965.4783991186155,7560.8478157406389,-4734.550804464453,6191.8174024957407,11795.078428487368,4112.4302253884634,-6659.9347244137753,6659.9347244137753,-4112.4302253884634,21147.748450374496,0.0
593296.95196600363,3680566.251970998,-32500.0,8869.6175039747704,-5962.7579847861298,-1209.5192588528889,8789.4149839230467,-9212.9142039559429,9738.3829612367845,14737.361616353879,1884.4591914214038,-4517.1112182023426,4517.1112182023426,-1884.4591914214038,26535.983441068576,0.0
598296.95196600363,3680566.251970998,-32500.0,6733.8269829455348,-6036.6146020169699,2392.5821917172893,8424.7684382174793,-14207.793717891323,13528.737916113687,17761.39615620835,-312.52688986995497,-1157.7662463969855,1157.7662463969855,312.52688986995497,31974.241459112032,0.0
603296.95196600363,3680566.251970998,-32500.0,4274.5964980887329,-3906.5525376160281,5687.9965992983598,5953.5565591896448,-18313.243152068611,16500.968967847242,20014.084698083647,-1187.7674352259055,2324.4635667595549,-2324.4635667595549,1187.7674352259055,35950.573250887392,0.0
608296.95196600363,3680566.251970998,-32500.0,2908.305571756915,-20.637721332019847,7195.1381642086189,1884.8897129419533,-19922.115121748811,17484.916551772756,20671.083060645902,183.00317596269997,4315.1481978625779,-4315.1481978625779,-183.00317596269997,37009.441342864571,0.0
613296.95196600363,3680566.251970998,-32500.0,3399.7370045503735,4042.4892365520273,6117.1213112855658,-2294.3102362303416,-18277.47489925045,15986.361824642188,19417.224093770463,3415.7325323904088,3799.3278914351276,-3799.3278914351276,-3415.7325323904088,34621.086164542561,0.0
618296.95196600363,3680566.251970998,-32500.0,5220.6626776662315,6621.783118051535,2940.3662523852854,-5083.9082161518945,-14018.015268757166,12554.01948646595,16665.460656975665,6973.7969926163732,1131.4138047020442,-1131.4138047020442,-6973.7969926163732,29568.509611618385,0.0
623296.95196600363,3680566.251970998,-32500.0,7122.190075275922,7019.8053071549239,-1012.0698849070595,-5874.5304892175955,-8649.2143569072741,8333.1895059298422,13334.987635255717,9317.247674046841,-2371.7459969104029,2371.7459969104029,-9317.247674046841,23521.763134041797,0.0
628296.95196600363,3680566.251970998,-32500.0,8105.5836939569272,5605.550642145352,-4472.8560302945352,-4991.7878476908127,-3602.5269983956068,4360.4477021791881,10426.611331297214,9779.1737140231162,-5402.1969013671824,5402.1969013671824,-9779.1737140231162,18250.760429044389,0.0
633296.95196600363,3680566.251970998,-32500.0,7850.9977562889808,3252.988368216033,-6755.8665338868896,-3183.222891618595,296.92281211038232,1211.2786677946224,8605.6510392453874,8581.7306830918351,-7252.5786814605235,7252.5786814605235,-8581.7306830918351,14928.827538982405,0.0
638296.95196600363,3680566.251970998,-32500.0,6581.3723136718963,787.39690594043384,-7770.3620870725326,-1150.8703886570938,2839.8981221148019,-968.56262994308008,7823.0290683560343,6388.7072910602928,-7841.137260919435,7841.137260919435,-6388.7072910602928,13588.513184214009,0.0
643296.95196600363,3680566.251970998,-32500.0,4744.848823170385,-1273.9485366659708,-7782.1940286820554,651.58588607751278,4200.5617339969822,-2287.1949808217851,7536.5508915128976,3881.8430153003446,-7457.6278293762662,7457.6278293762662,-3881.8430153003446,13317.7480217597,0.0
648296.95196600363,3680566.251970998,-32500.0,2768.4341485717946,-2731.4383743933895,-7164.343629532068,2022.5338422598436,4698.468309028849,-2948.9406137885976,7326.8139130756217,1544.1113047093404,-6498.1146054595092,6498.1146054595092,-1544.1113047093404,13245.378255649586,0.0
653296.95196600363,3680566.251970998,-32500.0,946.67761367068999,-3599.1408586524954,-6243.687121445334,2933.8776515785707,4647.852945962155,-3160.6456808810117,7033.9336099526481,-375.82159407356085,-5303.5284547825149,5303.5284547825149,375.82159407356085,12981.920778664893,0.0
658296.95196600363,3680566.251970998,-32500.0,-568.5345205047895,-3991.688070293068,-5246.5555553846107,3447.2138664892241,4294.0512978228735,-3091.8766830259656,6638.5299499673056,-1807.5853506526284,-4103.8710943926935,4103.8710943926935,1807.5853506526284,12458.494679453526,0.0
663296.95196600363,3680566.251970998,-32500.0,-1732.1555477500256,-4046.8074177002686,-4303.4284314486104,3654.8884906269823,3804.0198574153333,-2866.4695983097035,6169.7983959122748,-2784.499181842129,-3025.2627225154397,3025.2627225154397,2784.499181842129,11730.207301637232,0.0
668296.95196600363,3680566.251970998,-32500.0,-2562.8435964658574,-3886.4641805873248,-3475.1438639086632,3647.7755756126426,3280.0954576231579,-2567.8667037455543,5664.6888463764526,-3385.0290176057065,-2119.4788994636551,2119.4788994636551,3385.0290176057065,10878.300625185067,0.0
673296.95196600363,3680566.251970998,-32500.0,-3109.2695233977074,-3603.9898620792283,-2779.6687845115516,3501.7007154402136,2778.856930277831,-2248.4831244589668,5153.9090928870446,-3697.1790877370768,-1393.5580505432981,1393.5580505432981,3697.1790877370768,9974.1648289403911,0.0
678296.95196600363,3680566.251970998,-32500.0,-3428.8203757204342,-3264.43476707215,-2212.0606071757757,3274.2432056312919,2327.4565603795913,-1938.7946157899,4659.0021734107313,-3800.9021944795418,-831.67730095311572,831.67730095311572,3800.9021944795418,9070.3058700611109,0.0
683296.95196600363,3680566.251970998,-32500.0,-3576.1744499282067,-2909.9052809121667,-1757.1385141408266,3006.3162752224266,1935.5151772946122,-1654.6905836106694,4193.3195548212161,-3761.619317470705,-408.89255424590033,408.89255424590033,3761.619317470705,8201.2718317096278,0.0
688296.95196600363,3680566.251970998,-32500.0,-3598.2894446396476,-2565.7206179193513,-1396.6521412839377,2725.4010314708917,1602.993765242657,-1402.8891540262093,3763.9810973702811,-3629.5324521465654,-98.765950304913758,98.765950304913758,3629.5324521465654,7387.4542519624492,0.0
693296.95196600363,3680566.251970998,-32500.0,-3533.0436074389677,-2245.7244569743148,-1112.9072326974558,2448.9273143806727,1325.0690333608741,-1184.681725681414,3373.7671583487522,-3441.4634790727241,122.93201934123181,-122.93201934123181,3441.4634790727241,6639.0888984689518,0.0
698296.95196600363,3680566.251970998,-32500.0,-3409.7081121600381,-1956.3232744148647,-890.32490574927795,2187.1868757240154,1094.9838552752847,-998.39256416139131,3022.6308109417164,-3223.463891287382,276.79423139146456,-276.79423139146456,3223.463891287382,5959.5836260421966,0.0
703296.95196600363,3680566.251970998,-32500.0,-3250.1743445300044,-1699.3421097368853,-715.89602885705369,1945.6109811496212,905.61341928417232,-840.91793535585055,2708.8037145570183,-2993.3652128722497,379.54379034393719,-379.54379034393719,2993.3652128722497,5348.0146629397377,0.0
708296.95196600363,3680566.251970998,-32500.0,-3070.37378197527,-1473.9472477339316,-579.09703425789041,1726.4540460327835,750.25587539967239,-708.64474645382484,2429.57081491803,-2762.9553663693041,444.36338915144165,-444.36338915144165,2762.9553663693041,4800.9006511851676,0.0
518296.95196600363,3685566.251970998,-32500.0,-1139.1132099327053,1576.7404251982282,-975.94866108705151,-872.70991131237406,789.20612693614612,-414.62293698998764,1833.2147763672206,548.43319097086055,-163.94010131156233,163.94010131156233,-548.43319097086055,3470.5958426058378,0.0
523296.95196600363,3685566.251970998,-32500.0,-1033.0235961274832,1737.0254274920517,-1158.7125762644598,-917.40951660643009,912.17543273930221,-469.09726881784422,2023.7661666602817,761.8173501455592,-316.58084370325673,316.58084370325673,-761.8173501455592,3804.9408245509039,0.0
528296.95196600363,3685566.251970998,-32500.0,-865.76517725595977,1900.3153036590174,-1378.6979498340622,-945.79848466230953,1051.0842684242402,-525.94342170055529,2235.2295931481085,1023.8400115525848,-516.81838635646784,516.81838635646784,-1023.8400115525848,4169.4625635338334,0.0
533296.95196600363,3685566.251970998,-32500.0,-619.10479351510844,2058.109870480378,-1642.141221516335,-947.40495838113986,1204.7687094949829,-581.75984671547883,2469.541899246105,1341.7010881937517,-776.28856895352601,776.28856895352601,-1341.7010881937517,4565.1707012534771,0.0
538296.95196600363,3685566.251970998,-32500.0,-271.33955677823758,2196.864522196096,-1954.8737868512796,-907.54040908161903,1369.3325976571346,-630.58805356848075,2728.9753081844165,1721.349445665739,-1108.043379477082,1108.043379477082,-1721.349445665739,4993.3240534581855,0.0
543296.95196600363,3685566.251970998,-32500.0,202.14940544878252,2295.9406832703958,-2320.8924977596098,-806.10910334657603,1536.2444576741461,-662.57435705773639,3016.6082081964346,2165.46118421447,-1525.5363926857076,1525.5363926857076,-2165.46118421447,5456.6803981240791,0.0
548296.95196600363,3685566.251970998,-32500.0,827.13328857980537,2325.1157285467939,-2739.7526189004548,-616.43956773208345,1689.420981023273,-662.09493176570754,3337.343298017443,2670.1047590250473,-2040.3835403882078,2040.3835403882078,-2670.1047590250473,5962.3385551184183,0.0
553296.95196600363,3685566.251970998,-32500.0,1626.6320055715591,2241.9606198163415,-3202.0860151045194,-304.54431968295376,1800.9151781624071,-605.24288562355025,3699.918801831227,3219.5574656785511,-2658.0404022684788,2658.0404022684788,-3219.5574656785511,6527.4787761679636,0.0
558296.95196600363,3685566.251970998,-32500.0,2613.4900386076347,1989.9890159171218,-3682.3311251360647,170.34095782706197,1824.8594962135414,-456.67443297430515,4120.5469504166867,3778.800344620342,-3370.1620054688119,3370.1620054688119,-3778.800344620342,7189.6885239182966,0.0
563296.95196600363,3685566.251970998,-32500.0,3777.6516699108506,1499.6658941595099,-4127.7653210809322,852.31386399425423,1689.6376516632745,-166.07161339848278,4628.7723667064074,4283.7513884699347,-4142.1510387405506,4142.1510387405506,-4283.7513884699347,8022.6386193991648,0.0
568296.95196600363,3685566.251970998,-32500.0,5066.5456870468506,696.47489474585802,-4443.7584387873712,1779.5812824850118,1289.3356450608815,334.90224917515286,5275.2674062075585,4630.9963234255338,-4894.8437462244092,4894.8437462244092,-4630.9963234255338,9153.036969042927,0.0
573296.95196600363,3685566.251970998,-32500.0,6359.2597575782911,-476.72051246832046,-4478.1715193136715,2964.9628125650365,478.25323207895445,1132.8941013922902,6138.5737594111015,4672.8780030287826,-5481.9256027703987,5481.9256027703987,-4672.8780030287826,10764.07986171505,0.0
578296.95196600363,3685566.251970998,-32500.0,7442.5716935267146,-2013.501111862307,-4015.2597264774404,4360.8553480511055,-922.0314210515354,2325.2876222266718,7322.6066834215744,4231.6116336594841,-5672.3705840924686,5672.3705840924686,-4231.6116336594841,13061.381358987113,0.0
583296.95196600363,3685566.251970998,-32500.0,8012.9715815259142,-3769.2246260149045,-2802.8192459342258,5807.7815668254234,-3084.5331966269569,3994.9383795256686,8928.8350055958981,3155.9623750821283,-5162.9648398462341,5162.9648398462341,-3155.9623750821283,16187.121224490378,0.0
588296.95196600363,3685566.251970998,-32500.0,7749.7335092524272,-5378.7804475790026,-649.15876959214995,6984.2959156356583,-6082.9776941672299,6153.8359299583426,10980.345037032912,1443.1129078695626,-3665.2348879141832,3665.2348879141832,-1443.1129078695626,20095.456383052104,0.0
593296.95196600363,3685566.251970998,-32500.0,6499.5244549492645,-6243.9521588537427,2389.5211551742586,7414.9531803695627,-9736.176267380939,8652.6327385818513,13311.336711831573,-595.26587478346323,-1103.9216912087566,1103.9216912087566,595.26587478346323,24426.667336573541,0.0
598296.95196600363,3685566.251970998,-32500.0,4522.0836738809812,-5715.5664469389312,5801.4005684276126,6623.0308744643316,-13460.028294916307,11097.502175956795,15521.322085990338,-2252.7424710161836,2127.8631015394171,-2127.8631015394171,2252.7424710161836,28453.0232951787,0.0
603296.95196600363,3685566.251970998,-32500.0,2571.6571965030794,-3506.8805014267896,8605.7708409932311,4443.6312425151418,-16303.256397877152,12881.141169543893,17066.913299568387,-2647.0893521422881,5086.5275004037831,-5086.5275004037831,2647.0893521422881,31209.102923548275,0.0
608296.95196600363,3685566.251970998,-32500.0,1562.5006428872935,-79.340030635919931,9739.9591549740871,1296.3374375912072,-17313.512217759311,13416.36122116299,17473.448793441803,-1271.4199402265454,6632.9958500771027,-6632.9958500771027,1271.4199402265454,31855.672304322463,0.0
613296.95196600363,3685566.251970998,-32500.0,1954.2854861320711,3442.8851914604516,8687.5060820643703,-1906.0320440219243,-16073.253431760506,12467.43163130042,16572.066402092685,1536.1434470733248,6110.5549551347367,-6110.5549551347367,-1536.1434470733248,30109.514222891648,0.0
618296.95196600363,3685566.251970998,-32500.0,3426.5895412896161,5892.056001149489,5811.8085618228815,-4239.474770769757,-12957.499179964665,10297.306176555063,14602.519823841507,4722.3547071381727,3767.0329150353136,-3767.0329150353136,-4722.3547071381727,26424.73497708686,0.0
623296.95196600363,3685566.251970998,-32500.0,5160.6741406705823,6679.3790884823575,2091.0179422282272,-5234.4925468400561,-8882.754786784737,7496.3060014125349,12108.989736531132,7165.8263932621248,532.91068910264039,-532.91068910264039,-7165.8263932621248,21789.896779983472,0.0
628296.95196600363,3685566.251970998,-32500.0,6389.223132382137,5933.7173177208351,-1449.7670225198788,-4970.319729230524,-4811.9591753101349,4671.7341266200474,9722.1308425879961,8240.5042240728217,-2565.9250499162481,2565.9250499162481,-8240.5042240728217,17324.556193247558,0.0
633296.95196600363,3685566.251970998,-32500.0,6733.2648646634798,4217.5541414803938,-4145.2718696558377,-3858.1443078820266,-1403.4519575460213,2239.6444275184663,7931.8947946732897,7930.6374844330367,-4851.5141292714052,4851.5141292714052,-7930.6374844330367,13913.278715644066,0.0
638296.95196600363,3685566.251970998,-32500.0,6210.894187094209,2162.1023851935925,-5776.347560382017,-2371.9227631167423,1069.4800381972391,383.75613208916343,6879.7417882765312,6614.8158341743365,-6099.9728665480507,6099.9728665480507,-6614.8158341743365,11921.898576750335,0.0
643296.95196600363,3685566.251970998,-32500.0,5073.1382966154688,240.98629385051868,-6447.061897659506,-882.85090680174108,2624.6627028269236,-886.76869091883134,6358.710455095149,4786.1845461685298,-6420.5922797793864,6420.5922797793864,-4786.1845461685298,11079.496624116338,0.0
648296.95196600363,3685566.251970998,-32500.0,3630.6225242188566,-1291.4783812948428,-6410.9088429766662,389.5298072845132,3432.2529197378594,-1657.96826505175,6075.0767918835509,2864.0890755477185,-6076.4910240706422,6076.4910240706422,-2864.0890755477185,10793.332404382785,0.0
653296.95196600363,3685566.251970998,-32500.0,2145.1409734460708,-2361.6508311647526,-5938.6986312612407,1356.3915878590753,3704.7055576645871,-2048.9111033926615,5836.3651533900993,1121.9645340589864,-5346.8024531248011,5346.8024531248011,-1121.9645340589864,10604.744196149026,0.0
658296.95196600363,3685566.251970998,-32500.0,790.00393349427418,-3006.2134755149291,-5250.7946792680059,2015.0660818858389,3634.4083374097872,-2174.9958490545564,5562.9190841694835,-306.30581976363646,-4455.8446722646513,4455.8446722646513,306.30581976363646,10309.787060386265,0.0
663296.95196600363,3685566.251970998,-32500.0,-345.78921205047027,-3310.5440643313182,-4498.790788325311,2407.6092154232247,3369.7522213418201,-2131.5711335452197,5240.0339731207569,-1387.2290984015594,-3554.3312124301669,3554.3312124301669,1387.2290984015594,9866.8448116281252,0.0
668296.95196600363,3685566.251970998,-32500.0,-1235.3639606125382,-3368.9160297502981,-3773.2976996212701,2591.8933242369512,3013.5761147221178,-1989.9909206589573,4879.6935498183038,-2145.7960368917607,-2728.216314210656,2728.216314210656,2145.7960368917607,9302.8392411687437,0.0
673296.95196600363,3685566.251970998,-32500.0,-1889.9733104594939,-3264.4859001109144,-3120.3633092330042,2625.0827092898403,2631.1950679444881,-1799.8201544451322,4500.6121624549087,-2633.5565873637097,-2016.6548410334126,2016.6548410334126,2633.5565873637097,8662.924183367395,0.0
678296.95196600363,3685566.251970998,-32500.0,-2340.0783281029276,-3062.3443115866976,-2557.3724789264802,2556.0282078758164,2260.5775897776866,-1593.2767124236623,4119.8938125624827,-2908.612969718451,-1429.2965363626313,1429.2965363626313,2908.612969718451,7989.4641114898341,0.0
683296.95196600363,3685566.251970998,-32500.0,-2622.8013465353265,-2809.5170816984146,-2085.1917962696612,2423.016938859465,1921.3513684037832,-1389.8719315266621,3750.4338344967746,-3025.0336290125347,-959.4344419274621,959.4344419274621,3025.0336290125347,7315.3447998221391,0.0
688296.95196600363,3685566.251970998,-32500.0,-2774.686150349115,-2537.8735344467359,-1696.3099217177141,2254.26710087435,1621.6515794099612,-1200.3757339093061,3400.7850879734019,-3028.4089387156164,-592.74167545616888,592.74167545616888,3028.4089387156164,6663.3683599220249,0.0
693296.95196600363,3685566.251970998,-32500.0,-2828.143981141603,-2267.7269845094179,-1379.800381303771,2069.5538469157063,1362.8828274558823,-1029.8649569524162,3075.8993062244231,-2954.8858695419535,-312.50810501038177,312.50810501038177,2954.8858695419535,6047.8298525514692,0.0
698296.95196600363,3685566.251970998,-32500.0,-2810.1610099196928,-2011.118078900515,-1124.095090692836,1882.0816798164103,1142.8236442116629,-879.90414412496989,2778.0359839289877,-2831.901541876985,-102.47241788939004,102.47241788939004,2831.901541876985,5476.5672926393127,0.0
703296.95196600363,3685566.251970998,-32500.0,-2742.2638584672682,-1774.4527209320026,-918.38459502501689,1700.2057766134442,957.55178734362426,-750.03028064558794,2507.5832326039877,-2679.5873049532938,51.848881049876809,-51.848881049876809,2679.5873049532938,4952.8576990446181,0.0
708296.95196600363,3685566.251970998,-32500.0,-2641.0847451989257,-1560.4613975114144,-753.20707118957932,1528.8422283358216,802.57207342342815,-638.71503333698547,2263.6990242039224,-2512.2828497966639,162.70455177472854,-162.70455177472854,2512.2828497966639,4476.9295612935693,0.0
518296.95196600363,3690566.251970998,-32500.0,-664.05963400732298,1440.9601370661828,-1075.0182884359058,-642.04704814435445,745.3464758987385,-329.62755062500042,1657.2578110779623,778.28706677118612,-411.1166303825969,411.1166303825969,-778.28706677118612,3090.3988879055332,0.0
523296.95196600363,3690566.251970998,-32500.0,-499.41888080609272,1553.2173081186847,-1259.2876548360662,-643.2380963869615,847.16088183469492,-362.85571525419061,1820.336841419625,996.92945547476779,-589.75271457790518,589.75271457790518,-996.92945547476779,3366.2416105946231,0.0
528296.95196600363,3690566.251970998,-32500.0,-271.4132029526599,1654.9878637262345,-1474.8889879970804,-620.81675632704287,956.97879516699481,-393.13183565536633,2000.8999219927221,1255.3496271742597,-813.85850431167216,813.85850431167216,-1255.3496271742597,3665.6928443255256,0.0
533296.95196600363,3690566.251970998,-32500.0,34.917768193273503,1734.8548272797675,-1724.3873914730525,-564.07529775661362,1071.0096874128417,-415.97925130099827,2201.2540707975563,1555.946956322701,-1091.5872997666768,1091.5872997666768,-1555.946956322701,3991.2515838474478,0.0
538296.95196600363,3690566.251970998,-32500.0,435.84497500715901,1776.3549105034829,-2008.2714073270856,-458.8926225792286,1182.0908449918338,-424.40266978987046,2424.6750205558087,1898.1410315928067,-1430.5539682078686,1430.5539682078686,-1898.1410315928067,4347.5578728849096,0.0
543296.95196600363,3690566.251970998,-32500.0,947.50207422238418,1756.531406307246,-2322.9793387001873,-287.19225006848228,1277.8470850844342,-407.81140002444818,2676.2159342200639,2276.0656477658372,-1836.0542062429399,1836.0542062429399,-2276.0656477658372,4743.7033199437055,0.0
548296.95196600363,3690566.251970998,-32500.0,1583.0911523970208,1644.5818136716773,-2657.7684485752093,-26.765508812732648,1338.1051865911761,-350.63982400998771,2964.0777899753989,2675.2222054100994,-2307.9700519471307,2307.9700519471307,-2675.2222054100994,5197.2298141791616,0.0
553296.95196600363,3690566.251970998,-32500.0,2348.0527728001434,1401.1997164531881,-2990.001525195958,348.04058002937859,1331.4560274933954,-230.71392582714236,3301.7442924946581,3067.9612100197983,-2835.751887112132,2835.751887112132,-3067.9612100197983,5740.3021564042801,0.0
558296.95196600363,3690566.251970998,-32500.0,3232.4324074397132,979.81127967906423,-3278.5259947481945,863.9176734853927,1211.074821068376,-17.573995454954638,3710.903200466676,3408.0306802030209,-3390.8494163287869,3390.8494163287869,-3408.0306802030209,6427.5751862972165,0.0
563296.95196600363,3690566.251970998,-32500.0,4199.9493926804689,331.85276441770884,-3455.3566953112149,1543.1391477513801,910.46693091659461,328.71846461255922,4224.6127841642501,3625.3470893510648,-3916.3474607280814,3916.3474607280814,-3625.3470893510648,7342.7342771077947,0.0
568296.95196600363,3690566.251970998,-32500.0,5174.4600469925708,-580.57329983138197,-3417.3535507602592,2393.2345021039255,340.98728855339715,857.19561692521427,4889.090777360846,3624.0061588275094,-4314.9197728873569,4314.9197728873569,-3624.0061588275094,8596.9546370087373,0.0
573296.95196600363,3690566.251970998,-32500.0,6027.5503814975891,-1760.5625056693198,-3022.7753985701465,3389.9525074855787,-604.85885689053703,1622.0015898883978,5761.22510567467,3289.6778633812669,-4439.5000571344772,4439.5000571344772,-3289.6778633812669,10311.025303284201,0.0
578296.95196600363,3690566.251970998,-32500.0,6576.9002487987564,-3138.4474298433133,-2102.962672658326,4453.3394738935331,-2037.1827979529262,2671.5470214962575,6897.9043884881012,2516.2774279767614,-4097.1956225499071,4097.1956225499071,-2516.2774279767614,12577.379256750708,0.0
583296.95196600363,3690566.251970998,-32500.0,6612.9635033389159,-4526.1495009437676,-505.18258237811295,5422.463335755745,-4029.846368384367,4026.6612288689867,8331.0949543899296,1262.4498416498823,-3084.799575698084,3084.799575698084,-1262.4498416498823,15405.638084704766,0.0
588296.95196600363,3690566.251970998,-32500.0,5974.0574614936859,-5589.5515036603201,1819.0649908563018,6046.2083029483947,-6552.7674101754101,5645.6054404633651,10021.04350022096,-363.31008252036321,-1275.9667981125315,1275.9667981125315,363.31008252036321,18660.722715011252,0.0
593296.95196600363,3690566.251970998,-32500.0,4669.4167638553281,-5889.7035247679332,4691.0802397525676,6021.5614113908459,-9388.5406110291333,7383.4575707880285,11804.823410447236,-2025.1593470560429,1242.5095347509882,-1242.5095347509882,2025.1593470560429,22013.296072772802,0.0
598296.95196600363,3690566.251970998,-32500.0,2991.2242554007216,-5042.1644777366773,7615.5958626345337,5106.7568581047581,-12085.271482311786,8972.7452001741094,13394.973703700285,-3174.8664259409798,4049.9826363530374,-4049.9826363530374,3174.8664259409798,24943.358936559685,0.0
603296.95196600363,3690566.251970998,-32500.0,1494.1511576133216,-2966.3244740262735,9844.1754716251253,3285.1038651107542,-14026.576338436322,10066.663677072909,14450.480052074119,-3243.493688532717,6418.3245137121539,-6418.3245137121539,3243.493688532717,26844.695661796653,0.0
608296.95196600363,3690566.251970998,-32500.0,761.49426548186773,-60.830104070853793,10655.790530974195,870.56201910755362,-14653.161629297805,10361.148259544038,14696.145831985637,-1966.7560214338664,7577.7860849297958,-7577.7860849297958,1966.7560214338664,27230.475712454579,0.0
613296.95196600363,3690566.251970998,-32500.0,1070.5997816288425,2891.7392641038878,9724.9690951433131,-1568.6324929978944,-13733.128838259465,9739.1801536308722,14040.883273137819,385.60904848921791,7110.5800431351363,-7110.5800431351363,-385.60904848921791,25947.756600350214,0.0
618296.95196600363,3690566.251970998,-32500.0,2225.3248475889259,5084.8069624160471,7303.6977095474485,-3456.5287112853734,-11485.407092699454,8332.8216447163486,12627.325588903941,3101.6345216298009,5180.154339602781,-5180.154339602781,-3101.6345216298009,23264.297282509629,0.0
623296.95196600363,3690566.251970998,-32500.0,3696.1419277418586,6052.6815733108606,4073.3704041624978,-4453.0743641079644,-8461.3034060647187,6455.0848673919709,10782.718711264217,5389.0200019604172,2414.9449980214422,-2414.9449980214422,-5389.0200019604172,19770.906862735883,0.0
628296.95196600363,3690566.251970998,-32500.0,4925.8932524375095,5793.0230929231484,804.99011577176043,-4535.3818581234036,-5288.9404376001921,4461.0064094418894,8905.9878858374832,6723.8529224679714,-430.96055052113888,430.96055052113888,-6723.8529224679714,16173.660597061255,0.0
633296.95196600363,3690566.251970998,-32500.0,5563.6033127334622,4638.7368474695631,-1926.2444406510699,-3914.4329858136025,-2457.905904866423,2632.6233630341503,7336.8608959980029,6976.6524638140809,-2780.269607858897,2780.269607858897,-6976.6524638140809,13091.285993972186,0.0
638296.95196600363,3690566.251970998,-32500.0,5523.8504265133579,3037.7124775678171,-3847.6206696270674,-2890.9947706409303,-232.94035653618909,1132.4644737324727,6237.9340738145893,6328.1602426556155,-4354.8900267554463,4354.8900267554463,-6328.1602426556155,10902.954726744321,0.0
643296.95196600363,3690566.251970998,-32500.0,4918.2810172667187,1380.8314037813793,-4946.0343538325988,-1740.9207289187145,1323.2725051603295,13.370108984140931,5569.0928637398247,5103.2936847354376,-5140.1122720926669,5140.1122720926669,-5103.2936847354376,9645.9801011164345,0.0
648296.95196600363,3690566.251970998,-32500.0,3948.3582299936343,-75.061900614651464,-5362.7006717595523,-659.81441606293015,2278.9399017604587,-746.60345749628334,5179.2394939481619,3629.4670002180405,-5279.5175430467771,5279.5175430467771,-3629.4670002180405,9051.3583284739761,0.0
653296.95196600363,3690566.251970998,-32500.0,2818.8887176660373,-1208.6972509618188,-5293.6926719064913,244.16086687395386,2761.6296647664894,-1207.8752430122759,4917.6277259502012,2159.0581230539901,-4972.9313934473785,4972.9313934473785,-2159.0581230539901,8763.7229740559833,0.0
658296.95196600363,3690566.251970998,-32500.0,1691.133256318383,-1998.9558505343032,-4925.2138446540475,932.27928386533165,2907.9225662675426,-1442.3211684217629,4687.8875858750571,848.86713448328442,-4409.200090641687,4409.200090641687,-848.86713448328442,8533.7864933489254,0.0
663296.95196600363,3690566.251970998,-32500.0,669.38670967534983,-2482.7762154014144,-4404.0648362547008,1410.521638083012,2836.5626862609515,-1517.2862961234221,4446.6410450048661,-227.14980174163065,-3735.372696846101,3735.372696846101,227.14980174163065,8247.847027105292,0.0
668296.95196600363,3690566.251970998,-32500.0,-192.92131630200552,-2721.6095039098859,-3831.9805938443765,1708.074839232452,2638.9328509085644,-1488.3302498196078,4183.1442238235077,-1053.1972052268939,-3050.9310035291046,3050.9310035291046,1053.1972052268939,7878.6230048253947,0.0
673296.95196600363,3690566.251970998,-32500.0,-879.63416694223747,-2780.1826973044444,-3271.9084677540468,1862.3339645317203,2379.4332135873997,-1397.5254908911509,3901.8513007005822,-1647.7031949230459,-2414.6604317247493,2414.6604317247493,1647.7031949230459,7438.4452528829379,0.0
678296.95196600363,3690566.251970998,-32500.0,-1398.0095248993223,-2715.646447486884,-2758.0459721446236,1910.0785785244334,2100.1674596539192,-1274.66579686367,3612.1766234402207,-2045.2233685181495,-1855.5070980968953,1855.5070980968953,2045.2233685181495,6952.2789260914069,0.0
683296.95196600363,3690566.251970998,-32500.0,-1767.6935670474843,-2573.6128780941526,-2305.380784723377,1883.1907252066344,1826.6191913063924,-1139.6149737758999,3323.5778402581573,-2284.7771841364179,-1382.8676136550275,1382.8676136550275,2284.7771841364179,6445.1985823721179,0.0
688296.95196600363,3690566.251970998,-32500.0,-2013.1602901279132,-2388.0320503885432,-1917.1721284098489,1807.2388613032649,1572.7626789519234,-1004.8117328112634,3043.6680939651619,-2403.3501061119227,-994.61868303814583,994.61868303814583,2403.3501061119227,5937.7071732462255,0.0
693296.95196600363,3690566.251970998,-32500.0,-2159.1106937051732,-2182.794640419173,-1590.1838106717523,1701.6125905610345,1345.0641550623411,-877.45543642327709,2777.7965311220632,-2432.8937049120946,-682.68659850918903,682.68659850918903,2432.8937049120946,5444.7200260072023,0.0
698296.95196600363,3690566.251970998,-32500.0,-2228.0325668662254,-1973.8606650829213,-1318.0684631956485,1580.369923688045,1145.3743479001193,-761.23136233791718,2529.2699189467312,-2399.4413995562836,-436.58829306964913,436.58829306964913,2399.4413995562836,4976.0964875386089,0.0
703296.95196600363,3690566.251970998,-32500.0,-2239.1614436651207,-1771.297298446701,-1093.4012880178138,1453.2939914480753,972.89412353521584,-657.57887900427841,2299.7746062889246,-2323.345163329981,-245.49840555462811,245.49840555462811,2323.345163329981,4537.6532502685004,0.0
518296.95196600363,3695566.251970998,-32500.0,-249.51670713658478,1263.430448564219,-1130.277683218806,-435.13731274973924,680.52204465845057,-252.02587870045005,1495.0856825572082,932.85143778634745,-610.28760800058046,610.28760800058046,-932.85143778634745,2742.2016538271941,0.0
523296.95196600363,3695566.251970998,-32500.0,-45.408184665294698,1325.6923791040774,-1304.2696573959643,-402.13788185637213,758.42569204524364,-267.48989313097087,1636.2263927401016,1140.8595030203471,-800.05649521412499,800.05649521412499,-1140.8595030203471,2972.816250183253,0.0
528296.95196600363,3695566.251970998,-32500.0,219.13072167741433,1366.1414078612349,-1501.0512166411977,-341.58516747990279,836.79791374046249,-276.22274851457502,1793.2816457002632,1377.4064924619713,-1029.2577255585986,1029.2577255585986,-1377.4064924619713,3225.2230051437286,0.0
533296.95196600363,3695566.251970998,-32500.0,554.89384026268874,1371.9658510223946,-1719.3514833758707,-243.60605999371671,909.89029546590393,-273.3200936885936,1969.3751213859898,1640.4998640066067,-1301.9751316680406,1301.9751316680406,-1640.4998640066067,3504.7356707864274,0.0
538296.95196600363,3695566.251970998,-32500.0,972.06804179799644,1325.9909613175712,-1954.5438561438511,-95.92981369882547,968.39436947816,-251.63117625519149,2169.1510705111468,1924.1304528298172,-1620.0947483686484,1620.0947483686484,-1924.1304528298172,3820.5930072241067,0.0
543296.95196600363,3695566.251970998,-32500.0,1478.3038760086968,1205.9983806164225,-2196.5189847294282,116.09264717234321,997.88652710432802,-200.98768852375824,2399.6654995701888,2216.1367388757049,-1981.16612601571,1981.16612601571,-2216.1367388757049,4188.5923099037218,0.0
548296.95196600363,3695566.251970998,-32500.0,2075.5998631162297,984.57283583449043,-2426.6607266638539,408.9229379464557,976.84794795243238,-107.32511382371257,2671.610775631611,2495.4728261596824,-2375.1479300858996,2375.1479300858996,-2495.4728261596824,4634.6429672731319,0.0
553296.95196600363,3695566.251970998,-32500.0,2755.6561860555844,630.16544283166786,-2613.8295316832973,799.27161923504411,874.36715116918867,48.173914422077011,3000.7653637375834,2729.0983327912604,-2779.7768873377377,2779.7768873377377,-2729.0983327912604,5198.5992633340111,0.0
558296.95196600363,3695566.251970998,-32500.0,3493.5535158983753,110.4997778808373,-2709.5742896537704,1300.8861633130405,647.91551957724994,289.62836637783971,3409.2560024254949,2869.1932214171252,-3154.5516662569585,3154.5516662569585,-2869.1932214171252,5936.5395937200628,0.0
563296.95196600363,3695566.251970998,-32500.0,4240.2332431151053,-600.05269874118346,-2643.545155739298,1918.8783667134569,242.12861743336859,646.16024413930757,3925.7954930592596,2852.2885622006684,-3434.0300574819471,3434.0300574819471,-2852.2885622006684,6918.4763334789932,0.0
568296.95196600363,3695566.251970998,-32500.0,4915.6289881329667,-1507.2433703162105,-2321.5274937684298,2640.8529116504246,-409.58036047289045,1149.8514137237553,4583.7240709799544,2603.260115890218,-3522.6360433400132,3522.6360433400132,-2603.260115890218,8218.571734278139,0.0
573296.95196600363,3695566.251970998,-32500.0,5406.7208099326108,-2576.7235103791581,-1630.8017659251054,3424.8259004480278,-1377.5398473256171,1830.6520314990116,5415.7186487088175,2048.6699294828577,-3295.748446845555,3295.748446845555,-2048.6699294828577,9896.8674204325343,0.0
578296.95196600363,3695566.251970998,-32500.0,5577.9645208978427,-3708.8570349450711,-460.07418423720299,4185.9939651666173,-2718.4200877934536,2706.7229320916272,6444.0585079554085,1144.41149807383,-2615.1247353344665,2615.1247353344665,-1144.41149807383,11973.687530930876,0.0
583296.95196600363,3695566.251970998,-32500.0,5303.3943847497585,-4717.8156186414608,1258.4091079746156,4788.4977794822516,-4444.5871704797628,3769.3072740076004,7663.7342307983336,-80.912806492000527,-1368.389768981508,1368.389768981508,80.912806492000527,14399.149985718657,0.0
588296.95196600363,3695566.251970998,-32500.0,4524.937451343405,-5334.8876765524292,3483.966036193327,5053.7410375483469,-6482.2502156075452,4963.8024137520079,9015.5823887804381,-1477.0660531748983,463.27666436578852,-463.27666436578852,1477.0660531748983,17023.388275683956,0.0
593296.95196600363,3695566.251970998,-32500.0,3323.4270737831703,-5262.397135872161,5999.1079633897925,4799.0953986653749,-8633.0025276176075,6174.226827031398,10363.922490923234,-2747.933796350168,2725.1222169643011,-2725.1222169643011,2747.933796350168,19581.039700312158,0.0
598296.95196600363,3695566.251970998,-32500.0,1959.444750186899,-4289.7196929419024,8385.3256405970569,3910.7134112357121,-10569.268467972322,7224.9807017905096,11508.703177302748,-3497.1042238778741,5044.662925452627,-5044.662925452627,3497.1042238778741,21711.668253658216,0.0
603296.95196600363,3695566.251970998,-32500.0,826.28823449189258,-2434.414808075604,10099.992838261267,2426.0337459741436,-11896.527492207277,7914.1991282484005,12234.933233628102,-3367.7959533233106,6888.6923830464339,-6888.6923830464339,3367.7959533233106,23033.172398324739,0.0
608296.95196600363,3695566.251970998,-32500.0,297.44796027495835,-16.062275565061562,10663.786290565853,571.58273021143589,-12282.736293835696,8077.5729801322013,12380.044966437248,-2229.2684977468857,7744.3501926292683,-7744.3501926292683,2229.2684977468857,23257.636047739405,0.0
613296.95196600363,3695566.251970998,-32500.0,542.25369892221238,2421.6646771815495,9872.9582363732188,-1290.71974354944,-11596.837776903601,7654.4904960219974,11894.401441924863,-288.56125547683041,7345.685115905223,-7345.685115905223,288.56125547683041,22301.008280700018,0.0
618296.95196600363,3695566.251970998,-32500.0,1437.5689126544241,4321.955933556771,7898.7502220001279,-2794.4747303337094,-9969.5595915761533,6715.7450431664492,10866.095958363017,1971.114143317792,5799.4152355380975,-5799.4152355380975,-1971.114143317792,20325.951045283251,0.0
623296.95196600363,3695566.251970998,-32500.0,2639.6638219160509,5329.8592040261992,5205.5550223185965,-3699.9684886784612,-7736.0007480101094,5434.5753823428086,9497.0880294203289,3995.7124954639871,3523.9888266068424,-3523.9888266068424,-3995.7124954639871,17693.289967657685,0.0
628296.95196600363,3695566.251970998,-32500.0,3755.0324354476265,5385.0196122291381,2351.8672927487514,-3951.8820387176775,-5302.4929929523278,4021.8194862204932,8042.9342513231268,5373.3092530562808,1055.8752144290288,-1055.8752144290288,-5373.3092530562808,14852.983319028344,0.0
633296.95196600363,3695566.251970998,-32500.0,4493.1296876176202,4670.6456037682665,-198.9237427716206,-3651.1228982015946,-3018.8358845559205,2663.4880695173028,6735.1435993515588,5938.6152576158911,-1146.4847886751959,1146.4847886751959,-5938.6152576158911,12229.27529450068,0.0
638296.95196600363,3695566.251970998,-32500.0,4731.0814373462435,3487.9630074976667,-2175.0453220421791,-2980.866450028338,-1109.2130078545347,1485.6761517416196,5711.3776367765313,5752.3384747862965,-2809.0824474567312,2809.0824474567312,-5752.3384747862965,10132.101198206999,0.0
643296.95196600363,3695566.251970998,-32500.0,4495.1849054301119,2137.1677836573385,-3496.2529434134485,-2133.9897064380057,334.19738460664729,548.95825051179952,4995.8710687020621,5011.0044707334891,-3849.0251824807042,3849.0251824807042,-5011.0044707334891,8694.7695160584899,0.0
648296.95196600363,3695566.251970998,-32500.0,3901.6538050334375,846.78039268816826,-4218.4444056182474,-1267.1293812382562,1319.6743163497879,-138.66750775294196,4530.495196924322,3950.7664194530903,-4321.5815745001537,4321.5815745001537,-3950.7664194530903,7851.4309529655202,0.0
653296.95196600363,3695566.251970998,-32500.0,3096.0040745086585,-246.88188354110014,-4466.6574786221645,-483.78814332824891,1913.7258578392543,-602.53849495902011,4223.9383363196703,2780.830238867512,-4352.7668923457759,4352.7668923457759,-2780.830238867512,7400.9652131098401,0.0
658296.95196600363,3695566.251970998,-32500.0,2211.1495319529881,-1087.9288266978467,-4382.17704240279,162.59309789539566,2205.1817943891947,-883.78544579910977,3994.6673711574977,1653.0896709688006,-4085.0749635554685,4085.0749635554685,-1653.0896709688006,7131.8453417856808,0.0
663296.95196600363,3695566.251970998,-32500.0,1347.3291666685716,-1676.258713942615,-4091.2171007406369,656.30814310527239,2281.6432820609798,-1026.8054851991869,3790.1459203818827,658.77337762788807,-3645.0137916682306,3645.0137916682306,-658.77337762788807,6902.3111247432289,0.0
668296.95196600363,3695566.251970998,-32500.0,568.33843956228009,-2043.031980953127,-3691.9425005743451,1005.4806336468408,2217.4894697605828,-1071.9717179909637,3584.9371887295829,-160.64817385942433,-3129.621189389904,3129.621189389904,160.64817385942433,6645.2329219322837,0.0
673296.95196600363,3695566.251970998,-32500.0,-93.275745429736588,-2232.0699225397525,-3253.1890714013934,1230.5076011265417,2070.0245935218968,-1052.4111208033794,3371.1907737141119,-798.22235187665444,-2605.2422917232643,2605.2422917232643,798.22235187665444,6341.7717541598204,0.0
678296.95196600363,3695566.251970998,-32500.0,-627.81650897266331,-2288.1445034899593,-2818.879801483361,1356.0180846845803,1880.2385723256546,-993.38287855027784,3150.046060865408,-1267.5347993925977,-2112.3238145213058,2112.3238145213058,1267.5347993925977,5996.8725415927056,0.0
683296.95196600363,3695566.251970998,-32500.0,-1040.2137622565997,-2250.8844626344771,-2414.1849874043287,1406.0586273009408,1675.5999271220089,-913.04355173769954,2926.1319576390379,-1592.1538018932954,-1672.0440288890043,1672.0440288890043,1592.1538018932954,5624.2375420896187,0.0
688296.95196600363,3695566.251970998,-32500.0,-1343.4433671663821,-2152.4517628062904,-2051.3393953138598,1401.6774983362425,1473.3187108196241,-823.76609039249388,2704.6453327946729,-1798.6682872917061,-1292.5493990096409,1292.5493990096409,1798.6682872917061,5238.7315269454857,0.0
693296.95196600363,3695566.251970998,-32500.0,-1553.8956414093186,-2017.3931392126653,-1734.3036951775084,1360.0623385865599,1283.3087685864793,-733.53061514378248,2490.0508205205556,-1912.6416419215302,-973.9231725758209,973.9231725758209,1912.6416419215302,4853.1561293138493,0.0
698296.95196600363,3695566.251970998,-32500.0,-1688.4444629804113,-1863.5417249923594,-1462.1488090101589,1294.5621017482154,1110.5657751543954,-647.15354915428281,2285.6621321498387,-1956.6104444576504,-711.75767327566473,711.75767327566473,1956.6104444576504,4477.2717466051472,0.0
523296.95196600363,3700566.251970998,-32500.0,323.61102337618331,1075.7054339896972,-1296.4611351996666,-197.83180924247782,655.12624938635008,-184.63705552571975,1474.7341357816592,1204.89452516402,-945.42798845684206,945.42798845684206,-1204.89452516402,2633.6213415591606,0.0
528296.95196600363,3700566.251970998,-32500.0,603.25099814867576,1060.4250303242591,-1463.5576986536696,-111.21584852721261,702.66743259901034,-176.85919906832748,1615.2129000444932,1407.4038762266255,-1163.9256596431364,1163.9256596431364,-1407.4038762266255,2856.5305461553926,0.0
533296.95196600363,3700566.251970998,-32500.0,943.19167541768468,1002.2916367716182,-1638.9030547750826,12.452853275310806,737.28728211487874,-155.13868136701493,1775.4446689793745,1621.2025910102723,-1413.4042014426593,1413.4042014426593,-1621.2025910102723,3111.6809198977421,0.0
538296.95196600363,3700566.251970998,-32500.0,1347.8977111428262,885.27414461116177,-1813.7302305601738,182.94399406190846,748.68260059621025,-112.78313947662265,1961.2189440244313,1836.5235361560863,-1690.6575497988651,1690.6575497988651,-1836.5235361560863,3412.3985340874401,0.0
543296.95196600363,3700566.251970998,-32500.0,1817.798825939489,690.12495567690485,-1973.2495641628955,411.0082161149553,722.01783224919473,-40.760383980612204,2180.8049641627067,2037.5942360653664,-1987.0438047208957,1987.0438047208957,-2037.5942360653664,3778.8797555549158,0.0
548296.95196600363,3700566.251970998,-32500.0,2346.4211290974677,395.19383879885646,-2094.1827854647822,707.38686915025619,636.62529412004346,72.763292114487726,2445.6721272688683,2200.8236940746056,-2285.6191253512143,2285.6191253512143,-2200.8236940746056,4240.0079656022535,0.0
553296.95196600363,3700566.251970998,-32500.0,2916.6262251428839,-21.379729421203965,-2141.9420611223882,1080.9134502437112,464.78929620711426,242.70939034946102,2770.9746718907518,2293.2610623419091,-2557.5607633617606,2557.5607633617606,-2293.2610623419091,4833.977001854003,0.0
558296.95196600363,3700566.251970998,-32500.0,3496.2517504989733,-577.26730212596226,-2068.0134767381624,1535.3176625711646,171.09531722051585,486.93036800273319,3175.3742496463492,2272.1828872862925,-2758.2992761830783,2758.2992761830783,-2272.1828872862925,5606.3833964534651,0.0
563296.95196600363,3700566.251970998,-32500.0,4034.099554419895,-1278.4245206982641,-1808.7934760207793,2064.3971701329156,-286.77714835883239,825.18603799803486,3679.6820634098722,2087.2901667920796,-2824.4959878417576,2824.4959878417576,-2087.2901667920796,6604.7123096049791,0.0
568296.95196600363,3700566.251970998,-32500.0,4458.301000440727,-2107.8567113952572,-1288.1610980461041,2645.5527284595996,-954.42922467543167,1276.6681944461068,4303.9024280134909,1687.6821908249874,-2674.1636108715538,2674.1636108715538,-1687.6821908249874,7868.9462146987853,0.0
573296.95196600363,3700566.251970998,-32500.0,4680.4753441954754,-3011.3968073578194,-427.22230550422387,3232.5211427689405,-1872.4592639951479,1855.4141968325573,5062.4889204816754,1036.043591218865,-2213.683607279942,2213.683607279942,-1036.043591218865,9418.6734564824419,0.0
578296.95196600363,3700566.251970998,-32500.0,4610.1119052959784,-3884.096650698501,834.88195556081564,3749.7220447497725,-3061.839788153578,2563.1731734113705,5957.4993689327557,131.31640001021879,-1356.4632829569837,1356.4632829569837,-131.31640001021879,11237.397840207197,0.0
583296.95196600363,3700566.251970998,-32500.0,4182.5165514774371,-4565.3449238973571,2507.2556048440197,4092.81022650369,-4502.9308399135971,3380.132258976812,6968.0095401455155,-962.99246376356928,-56.597436032431858,56.597436032431858,962.99246376356928,13255.779292175514,0.0
588296.95196600363,3700566.251970998,-32500.0,3397.9458974418808,-4855.0393207277166,4505.632119212486,4141.6683134071673,-6112.3117790126507,4255.6963474716504,8034.9797265702355,-2095.6241577426417,1645.6125798699309,-1645.6125798699309,2095.6241577426417,15338.45239158963,0.0
593296.95196600363,3700566.251970998,-32500.0,2358.0916308960891,-4561.7375800147938,6619.9917213626923,3790.4846169941388,-7728.1580330525967,5104.0471635676176,9052.7318784529216,-3029.230935173091,3582.3409426811022,-3582.3409426811022,3029.230935173091,17283.113895611808,0.0
598296.95196600363,3700566.251970998,-32500.0,1273.9452177289602,-3579.7909320398544,8519.6938535686768,2991.5922863761643,-9119.9885101484215,5810.9138608604908,9883.2099716104258,-3487.5331656360286,5450.9756701642655,-5450.9756701642655,3487.5331656360286,18842.170184362854,0.0
603296.95196600363,3700566.251970998,-32500.0,420.21419799376997,-1966.360552241965,9820.1235306644285,1796.2155101724138,-10034.537179176903,6255.8446538850967,10388.987647688677,-3249.7028719002628,6870.0747612948162,-6870.0747612948162,3249.7028719002628,19771.52452993565,0.0
608296.95196600363,3700566.251970998,-32500.0,38.529139421046793,31.027069215071922,10203.539582766007,365.81856397344416,-10270.90590845529,6346.2912267559359,10471.74772770766,-2256.3502518850319,7497.7804874810909,-7497.7804874810909,2256.3502518850319,19896.625709279877,0.0
613296.95196600363,3700566.251970998,-32500.0,233.78805448581519,2031.9210107185081,9541.9471934709472,-1063.5601770184489,-9753.5052458391601,6049.6578325059727,10104.235435056849,-664.14962655839099,7163.2805441993396,-7163.2805441993396,664.14962655839099,19170.375840858927,0.0
618296.95196600363,3700566.251970998,-32500.0,926.3572222360649,3648.9411622440971,7952.2006648780743,-2253.6479205867367,-8563.0044600146939,5406.3870801433904,9343.1574526349814,1195.0109091619561,5937.1161052476291,-5937.1161052476291,-1195.0109091619561,17695.010399018869,0.0
623296.95196600363,3700566.251970998,-32500.0,1890.4529903515563,4616.4385993600026,5750.0818099137186,-3036.9218796530522,-6907.282928418218,4516.642283322617,8317.0312350510267,2933.3270318179921,4098.5145189645264,-4098.5145189645264,-2933.3270318179921,15696.890164631854,0.0
628296.95196600363,3700566.251970998,-32500.0,2851.1411942301243,4856.1099521109827,3333.5925113154776,-3354.8330655340665,-5050.396020136247,3508.4451381588851,7192.5392129680058,4237.384378593043,2024.0957363492569,-2024.0957363492569,-4237.384378593043,13467.639613866575,0.0
633296.95196600363,3700566.251970998,-32500.0,3581.4935931246746,4460.7913446958528,1060.9531683786608,-3250.8510144552583,-3237.4349354960641,2503.5329401425183,6127.1493884117353,4945.7436868005507,63.723261221502071,-63.723261221502071,-4945.7436868005507,11297.836514219671,0.0
638296.95196600363,3700566.251970998,-32500.0,3956.6630484381217,3625.4705615722105,-825.52363363888162,-2833.3862455216549,-1645.313821225051,1594.0049450469951,5226.9541251142455,5054.3899761198136,-1541.1731425554124,1541.1731425554124,-5054.3899761198136,9422.8608499633847,0.0
643296.95196600363,3700566.251970998,-32500.0,3957.4501565807673,2569.6272334277983,-2216.9973841975002,-2232.1468131176989,-367.93559358207972,833.85158029877527,4534.4559698579342,4671.6577819788508,-2680.1726446666112,2680.1726446666112,-4671.6577819788508,7984.7789761020103,0.0
648296.95196600363,3700566.251970998,-32500.0,3641.1920272608904,1481.1543143038527,-3113.7877372240946,-1564.7657100371107,572.77420059206895,242.25388732675754,4039.3160757686946,3957.5197800475853,-3352.306441893581,3352.306441893581,-3957.5197800475853,7009.5587654692999,0.0
653296.95196600363,3700566.251970998,-32500.0,3103.0669614746339,490.50921051488882,-3584.2855705269931,-919.37228050026613,1203.9774071001714,-187.06616137877253,3697.0241306212392,3073.0531104661463,-3625.6480493635677,3625.6480493635677,-3073.0531104661463,6414.7952891194536,0.0
658296.95196600363,3700566.251970998,-32500.0,2443.6698053226992,-330.91135044193027,-3726.1310272826295,-350.81751554339769,1578.4658088070953,-475.36360434739191,3452.1818380040759,2150.3303520825134,-3598.0398005780548,3598.0398005780548,-2150.3303520825134,6062.1557453855849,0.0
663296.95196600363,3700566.251970998,-32500.0,1748.9626172264896,-959.01938409144861,-3638.6030008683952,114.78109290605042,1756.560696643925,-650.13183324517661,3257.8040286447376,1281.4102794896128,-3368.7670491228409,3368.7670491228409,-1281.4102794896128,5823.3524514386709,0.0
668296.95196600363,3700566.251970998,-32500.0,1081.8901041880547,-1401.2163002329971,-3407.3440304513069,472.16403689701144,1794.8306248659262,-739.12125827146406,3083.1977716338661,520.09171952883571,-3022.7819863510031,3022.7819863510031,-520.09171952883571,5614.0580722950253,0.0
673296.95196600363,3700566.251970998,-32500.0,482.0340858169659,-1682.0940986176277,-3098.6434312381161,729.0187064338553,1740.6102974605467,-766.96849524544893,2912.5418719263753,-110.1525142891669,-2624.8247177850794,2624.8247177850794,110.1525142891669,5392.6693374961978,0.0
678296.95196600363,3700566.251970998,-32500.0,-30.523954105552018,-1832.8902667021478,-2759.5908594968182,899.61449368340311,1630.4728892147468,-753.78644943638074,2740.0468721022944,-606.76368805970674,-2219.6851166322858,2219.6851166322858,606.76368805970674,5145.7543178604037,0.0
683296.95196600363,3700566.251970998,-32500.0,-449.9621635459514,-1884.8559076024133,-2421.0669063382579,1000.3934521807358,1490.9427743891213,-715.00272449430793,2565.4420518459447,-979.76670288493779,-1835.4407938783952,1835.4407938783952,979.76670288493779,4874.6502770524248,0.0
688296.95196600363,3700566.251970998,-32500.0,-779.73838963956882,-1865.7390409900352,-2101.5695574202255,1047.2941243327493,1340.1902260864322,-661.8575056389908,2390.8903089610835,-1245.470729745382,-1487.5616480242888,1487.5616480242888,1245.470729745382,4586.7966106628701,0.0
693296.95196600363,3700566.251970998,-32500.0,-1028.5871429907379,-1798.3916050828402,-1810.8197470449677,1054.374740345698,1189.9522526903997,-602.16583243709522,2219.217836901315,-1422.2326559882849,-1182.7550820826723,1182.7550820826723,1422.2326559882849,4291.0369491652818,0.0
698296.95196600363,3700566.251970998,-32500.0,-1207.6423939730594,-1700.6381055597715,-1552.7063054141304,1033.2931954496773,1047.2857319215025,-541.10733682209582,2053.0371014653851,-1527.9065787746638,-922.08451825738098,922.08451825738098,1527.9065787746638,3995.4163579927467,0.0
528296.95196600363,3705566.251970998,-32500.0,886.72974817821137,759.42608449780414,-1373.3842525033979,71.233655193163202,564.87347652355277,-95.174454828817773,1466.4419828529603,1365.6843186300569,-1225.5290944179449,1225.5290944179449,-1365.6843186300569,2560.4078759444837,0.0
533296.95196600363,3705566.251970998,-32500.0,1211.8607441535721,650.74592558038285,-1499.7311666479561,207.62315283536248,565.93832522418325,-60.773034562686121,1617.0246186710735,1525.8021691213596,-1439.4870422196666,1439.4870422196666,-1525.8021691213596,2807.4998538388354,0.0
538296.95196600363,3705566.251970998,-32500.0,1584.3879947345174,481.76206225241538,-1610.2188008817907,385.41946301132526,538.28216622137393,-5.7442533900301642,1794.9044604778401,1672.1812056439144,-1664.2551825106966,1664.2551825106966,-1672.1812056439144,3108.9158033039507,0.0
543296.95196600363,3705566.251970998,-32500.0,1999.3992893062789,237.41743765635101,-1687.4914034537744,611.67528300523963,467.89511838267879,77.476428990863766,2008.443924546777,1787.8952471008281,-1887.0537824417941,1887.0537824417941,-1787.8952471008281,3485.5917080908325,0.0
548296.95196600363,3705566.251970998,-32500.0,2445.0310599290342,-97.351693736998968,-1706.6974575450438,892.22688001830409,336.38816493229388,198.30287364558413,2268.2226111413866,1849.975279107184,-2087.2547897834907,2087.2547897834907,-1849.975279107184,3963.9552481661212,0.0
553296.95196600363,3705566.251970998,-32500.0,2899.8575710191062,-534.93622692715144,-1633.9482089584299,1229.8534256871856,120.6217921723153,367.92839748573164,2586.7982787849196,1829.1976525671985,-2234.0793663071258,2234.0793663071258,-1829.1976525671985,4574.5516245626732,0.0
558296.95196600363,3705566.251970998,-32500.0,3330.458166905878,-1080.6394913866607,-1425.6023902621969,1621.5646025680148,-206.90652988744196,598.81780051109956,2977.8170433990408,1691.3154306238946,-2284.7741825503585,2284.7741825503585,-1691.3154306238946,5348.861136733417,0.0
563296.95196600363,3705566.251970998,-32500.0,3690.170725698119,-1726.2149793480255,-1029.5361771463272,2055.00184318942,-676.24349465712521,903.48036822172537,3454.2858132090741,1400.8310664840667,-2184.423730317626,2184.423730317626,-1400.8310664840667,6314.2206696035382,0.0
568296.95196600363,3705566.251970998,-32500.0,3920.6956178035366,-2441.6176363542813,-390.11053345967429,2504.3060173015188,-1315.8546482355478,1292.2081121564422,4025.9595766319389,928.56515780354948,-1869.2456156193984,1869.2456156193984,-928.56515780354948,7486.9655021540957,0.0
573296.95196600363,3705566.251970998,-32500.0,3958.7456035367654,-3166.4581660991926,541.1515723908426,2926.4640624807039,-2145.3255914520059,1769.539102563876,4695.9153254746325,263.86510103571288,-1275.7488209548742,1275.7488209548742,-263.86510103571288,8863.9702365764988,0.0
578296.95196600363,3705566.251970998,-32500.0,3749.7531897051526,-3804.6325192955401,1787.7699690732588,3260.088905510217,-3164.5785831755584,2329.5152651779604,5456.1563563790778,-569.26273327122317,-357.84435639041811,357.84435639041811,569.26273327122317,10413.158435676229,0.0
583296.95196600363,3705566.251970998,-32500.0,3268.7591457683579,-4227.806592782219,3324.4408132316244,3429.4663255174264,-4340.7944885258157,2950.4535683815457,6281.0982794892116,-1496.0055900627651,888.20192431594319,-888.20192431594319,1496.0055900627651,12064.6755712841,0.0
588296.95196600363,3705566.251970998,-32500.0,2544.2325747535142,-4294.2099574293661,5053.0640250301922,3356.7007104661884,-5596.8351083026228,3590.944427047601,7119.0462887014037,-2382.8454305188288,2396.0875001752038,-2396.0875001752038,2382.8454305188288,13706.222801202119,0.0
593296.95196600363,3705566.251970998,-32500.0,1674.4711706589455,-3885.7338430160735,6790.8189509295726,2982.6541400148844,-6807.8468470587559,4189.7552322468164,7890.0659254314442,-3049.1014765586906,4011.1544715096297,-4011.1544715096297,3049.1014765586906,15187.507900444096,0.0
598296.95196600363,3705566.251970998,-32500.0,822.36773345383619,-2956.7230433691511,8285.4770988133005,2292.4613525401928,-7813.6038220878254,4672.4047658469772,8498.6590626107954,-3305.8664343707514,5498.1013742627456,-5498.1013742627456,3305.8664343707514,16338.22278604862,0.0
603296.95196600363,3705566.251970998,-32500.0,179.02143051801238,-1574.9808962259676,9266.5125814899529,1335.3657469005027,-8449.9391759748105,4965.3027685240695,8855.4561698601992,-3017.3624616780976,6586.3418333256777,-6586.3418333256777,3017.3624616780976,16999.747377469568,0.0
608296.95196600363,3705566.251970998,-32500.0,-97.230586090829277,70.713418747782953,9522.0989724004685,226.26663849790995,-8592.7388500810812,5014.451888464002,8899.5657302935742,-2161.4026323867347,7046.3078932693825,-7046.3078932693825,2161.4026323867347,17063.5258469453,0.0
613296.95196600363,3705566.251970998,-32500.0,59.566440647953343,1711.21532468752,8971.2002487388727,-877.55855378630258,-8197.5453500473304,4801.7852908923251,8616.0286829671895,-856.13177494140837,6766.9307183445599,-6766.9307183445599,856.13177494140837,16502.705503294699,0.0
618296.95196600363,3705566.251970998,-32500.0,596.42605968833607,3073.9704759783863,7694.6921501250281,-1817.9249257876495,-7315.8307568669243,4351.6483775560582,8042.8154456870579,667.1445740755471,5795.8336866738073,-5795.8336866738073,-667.1445740755471,15383.695409900838,0.0
623296.95196600363,3705566.251970998,-32500.0,1362.7860444707196,3961.5513907315276,5908.9038119043153,-2477.6740777588257,-6079.5880156420026,3724.1968080654851,7264.2910772328441,2135.1361035102809,4321.2418780200742,-4321.2418780200742,-2135.1361035102809,13852.459789222927,0.0
628296.95196600363,3705566.251970998,-32500.0,2166.7873394285266,4296.7078586988537,3896.3201471416533,-2805.3709476887325,-4662.2882188253434,2998.9361982460705,6391.3897540118833,3313.136913507351,2607.0041676509309,-2607.0041676509309,-3313.136913507351,12101.683136720099,0.0
633296.95196600363,3705566.251970998,-32500.0,2836.5825404078037,4120.5849718869868,1927.6621115482362,-2815.7836795020921,-3234.4586746617792,2255.6990078678486,5531.8125329977693,4059.7689875224851,914.48430246360294,-914.48430246360294,-4059.7689875224851,10331.714697474903,0.0
638296.95196600363,3705566.251970998,-32500.0,3261.000236760904,3555.7585388971697,205.87622180371235,-2571.5882602058991,-1930.4462200299838,1559.8305371473998,4764.3443286801985,4340.6465516018816,-556.32690348838969,556.32690348838969,-4340.6465516018816,8716.6392271927507,0.0
643296.95196600363,3705566.251970998,-32500.0,3400.697458583074,2757.3843235371437,-1155.6799207690233,-2157.8320077006665,-833.59464678289089,954.80220745744759,4131.7508274114516,4208.0227648683449,-1691.9245299646739,1691.9245299646739,-4208.0227648683449,7379.7980024476165,0.0
648296.95196600363,3705566.251970998,-32500.0,3276.0677495888199,1872.1512978201868,-2126.0003649712917,-1659.3360170142114,22.1709478955954,461.80177458371645,3644.4699570830139,3764.49746746238,-2460.3733567550189,2460.3733567550189,-3764.49746746238,6377.7810054606698,0.0
653296.95196600363,3705566.251970998,-32500.0,2944.3403793452308,1014.0917031976041,-2733.3740415933103,-1146.1992330377147,641.00558405860488,83.836644244766674,3286.8187865535538,3127.5244860049238,-2889.2880185705958,2889.2880185705958,-3127.5244860049238,5695.342643392325,0.0
658296.95196600363,3705566.251970998,-32500.0,2476.6952736717158,256.85421540489375,-3039.0876768863986,-667.82715483577999,1050.8219202189507,-188.38400894563449,3027.2556284783377,2404.0660547954449,-3039.6420522150256,3039.6420522150256,-2404.0660547954449,5260.7121177191602,0.0
663296.95196600363,3705566.251970998,-32500.0,1941.3485916546244,-362.75913898861694,-3115.6517519343315,-253.26493646213839,1290.5173101461951,-370.78767058899871,2831.020513802082,1677.4375347152522,-2983.6832521851907,2983.6832521851907,-1677.4375347152522,4980.9908094568846,0.0
668296.95196600363,3705566.251970998,-32500.0,1394.0567425414636,-835.88360546959962,-3032.3670184513298,85.029742253430342,1400.7474173684254,-481.53111653204394,2669.5585770349885,1003.9942986310028,-2790.1558192377734,2790.1558192377734,-1003.9942986310028,4776.2940468973993,0.0
673296.95196600363,3705566.251970998,-32500.0,874.80199113983474,-1171.7092873221409,-2847.7854440817759,346.30529213878611,1418.4135255239939,-538.10516918661267,2523.9392997200139,415.8822811382297,-2516.5647306341966,2516.5647306341966,-415.8822811382297,4594.3959592806914,0.0
678296.95196600363,3705566.251970998,-32500.0,408.49823525235348,-1389.0584899468213,-2607.2197161636032,536.96674350525325,1374.1216670343117,-555.76641374439612,2383.8588030111287,-73.522021526618801,-2206.6633554881791,2206.6633554881791,73.522021526618801,4408.456900970381,0.0
683296.95196600363,3705566.251970998,-32500.0,7.7072422157422134,-1510.2836089395787,-2343.2893186958945,667.00378716392572,1291.6235106152762,-546.93501878133134,2245.0147328434991,-463.76113358209386,-1891.1029138654644,1891.1029138654644,463.76113358209386,4208.7143634430759,0.0
688296.95196600363,3705566.251970998,-32500.0,-324.05987508572565,-1557.41494091146,-2077.9154843518186,747.52014063223555,1188.3711719896876,-521.19803601568253,2106.6034641933647,-762.23865488986803,-1589.5893998384963,1589.5893998384963,762.23865488986803,3994.8444509173642,0.0
693296.95196600363,3705566.251970998,-32500.0,-589.27436154805321,-1550.0851612797101,-1824.736508541878,789.21936061687802,1076.564077151183,-485.632597868331,1969.5268252020878,-980.38523009494088,-1313.4649184892248,1313.4649184892248,980.38523009494088,3770.8113269587652,0.0
528296.95196600363,3710566.251970998,-32500.0,1080.7533733262362,478.86220065588805,-1243.6591330710285,209.52598589375717,431.36770156164118,-30.198116166615709,1344.2753056810507,1272.5812858514107,-1225.7720436872576,1225.7720436872576,-1272.5812858514107,2330.807133917674,0.0
533296.95196600363,3710566.251970998,-32500.0,1378.3771751461588,333.9482425656301,-1319.9778865709734,348.61776816916023,405.0441067315241,11.799753435499232,1488.9558622560576,1380.292320458821,-1397.6302635321849,1397.6302635321849,-1380.292320458821,2579.2425829502909,0.0
538296.95196600363,3710566.251970998,-32500.0,1707.248993065785,131.68158715994124,-1368.3095555559323,522.50174990983123,347.32380551861206,73.18674223632101,1661.6913042333149,1463.376986317774,-1565.6323690770387,1565.6323690770387,-1463.376986317774,2887.3017742997622,0.0
543296.95196600363,3710566.251970998,-32500.0,2059.0749718361244,-138.48179992130406,-1370.6408785101275,735.1129200853735,245.79813999453157,160.00556043697847,1869.9879042885827,1505.6248373731082,-1714.8881231990949,1714.8881231990949,-1505.6248373731082,3273.5457537167263,0.0
548296.95196600363,3710566.251970998,-32500.0,2419.3537591632903,-485.3547174319495,-1302.9812741869184,988.52367309596343,85.057095228431621,279.40324393241332,2122.523969696686,1486.7375728178067,-1823.8367322985441,1823.8367322985441,-1486.7375728178067,3758.9230407156952,0.0
553296.95196600363,3710566.251970998,-32500.0,2765.8602734421179,-913.36005145242223,-1134.9090504199364,1281.3791920012777,-153.12256225134803,439.37812148335001,2428.5779686779006,1383.0334017322596,-1863.1144350051134,1863.1144350051134,-1383.0334017322596,4364.8903215949076,0.0
558296.95196600363,3710566.251970998,-32500.0,3067.7392546698406,-1418.7039171124263,-830.21026236544776,1606.8355099382393,-488.83947758694558,648.16121594634183,2796.997372025422,1169.5503908185663,-1795.3035798085677,1795.3035798085677,-1169.5503908185663,5110.5568053966072,0.0
563296.95196600363,3710566.251970998,-32500.0,3286.052502357159,-1984.4697112153945,-349.4990966267145,1950.1500322236116,-941.93947288660092,913.07177532427488,3234.6802159612917,824.21829111052966,-1576.5102368033272,1576.5102368033272,-824.21829111052966,6008.872152384859,0.0
568296.95196600363,3710566.251970998,-32500.0,3376.9111822760897,-2575.2788984659596,344.11114805859415,2286.3693804327754,-1528.2384188004294,1238.7108804870131,3744.6294165149548,334.62127115722649,-1161.0071010475594,1161.0071010475594,-334.62127115722649,7061.8849940916989,0.0
573296.95196600363,3710566.251970998,-32500.0,3298.3475656005476,-3133.071503843194,1275.3889276116179,2578.985676945626,-2253.8306463043891,1624.47300280021,4323.6969393935606,-292.74916557193933,-510.15872692842686,510.15872692842686,292.74916557193933,8255.2534155042467,0.0
578296.95196600363,3710566.251970998,-32500.0,3021.4462226070732,-3576.6732161522395,2443.4324392649737,2780.8860633858485,-3107.7855177999559,2061.6101302855741,4959.8741334245306,-1022.18978352519,393.91720266699735,-393.91720266699735,1022.18978352519,9552.6611485339618,0.0
583296.95196600363,3710566.251970998,-32500.0,2544.5587255735754,-3808.5881934178551,3806.2124076344721,2839.1226423515159,-4054.5915456524381,2530.4923907989105,5628.2275532814938,-1780.8928328384497,1531.464883325277,-1531.464883325277,1780.8928328384497,10891.590184201154,0.0
588296.95196600363,3710566.251970998,-32500.0,1906.6658806786495,-3731.8312560219433,5268.2042234613336,2704.5165706497346,-5029.0943649792916,2999.1845675665818,6286.0354862615877,-2458.9105719008935,2829.6716759742835,-2829.6716759742835,2458.9105719008935,12182.745473153433,0.0
593296.95196600363,3710566.251970998,-32500.0,1193.1458555440915,-3276.4294946236714,6678.7955010717506,2345.4393968513327,-5937.7368866959032,3424.7464767943457,6873.5317893306565,-2922.6830082907709,4156.6745981303511,-4156.6745981303511,2922.6830082907709,13315.742593217834,0.0
598296.95196600363,3710566.251970998,-32500.0,526.69845579121022,-2429.405286235567,7849.0013888411786,1762.3935119043674,-6669.4474195228158,3758.3534763472185,7324.1799892185945,-3044.2772026141411,5333.6418315952069,-5333.6418315952069,3044.2772026141411,14172.694409734815,0.0
603296.95196600363,3710566.251970998,-32500.0,40.495580749652326,-1256.1176888629575,8588.5213879058429,997.48527315537956,-7116.5176515842795,3954.1213609564902,7578.8454052533343,-2740.6265385476026,6168.729162470162,-6168.729162470162,2740.6265385476026,14648.697341053521,0.0
608296.95196600363,3710566.251970998,-32500.0,-160.31102226988526,100.28969231446918,8754.7977308247446,132.7355393334966,-7200.7173422598617,3979.6381724352091,7598.9867445226446,-2008.3060958283945,6506.1592924353881,-6506.1592924353881,2008.3060958283945,14674.613012883408,0.0
613296.95196600363,3710566.251970998,-32500.0,-33.663112513310487,1447.1361056018786,8296.0575506980476,-725.08142308346078,-6895.4450956165128,3824.6537890718823,7376.5111415721885,-936.53000990302871,6272.7418621971792,-6272.7418621971792,936.53000990302871,14234.93873378223,0.0
618296.95196600363,3710566.251970998,-32500.0,384.28358634915043,2590.2773962832475,7269.244004887647,-1468.9856883976236,-6234.5408307099442,3504.4185314761148,6937.7418241882506,311.08260049003957,5501.3769041944706,-5501.3769041944706,-311.08260049003957,13374.108657385494,0.0
623296.95196600363,3710566.251970998,-32500.0,991.52444575913694,3383.0561754218074,5824.3032005554878,-2016.5973534145139,-5303.7336175005703,3056.194717861822,6339.7005456318575,1540.0994351717879,4320.6712195547661,-4320.6712195547661,-1540.0994351717879,12188.703457317737,0.0
628296.95196600363,3710566.251970998,-32500.0,1653.6188360587028,3756.8961971190834,4162.2888714177234,-2326.0108759812765,-4218.5191434221861,2530.3738968506318,5657.7448233260984,2575.819067974187,2916.2256130073897,-2916.2256130073897,-2575.819067974187,10808.521352024334,0.0
633296.95196600363,3710566.251970998,-32500.0,2242.4623105210421,3724.7344621259158,2485.5379139245606,-2398.3877062030406,-3097.5727789532393,1979.6456500434583,4966.2263107267199,3301.0243394758741,1481.3316897231248,-1481.3316897231248,-3301.0243394758741,9373.0808827676192,0.0
638296.95196600363,3710566.251970998,-32500.0,2665.3740896950812,3361.6426478215199,957.92614304511289,-2269.0798265013182,-2040.8311301630731,1449.7597028367063,4322.7951083490998,3670.3465293282279,175.85363911074796,-175.85363911074796,-3670.3465293282279,8010.029169540393,0.0
643296.95196600363,3710566.251970998,-32500.0,2877.2869768468036,2774.7619504569448,-315.33303357935921,-1992.9003353855198,-1117.3345353125098,973.9936839875744,3764.5049135386644,3702.5983823215702,-896.00103747841877,896.00103747841877,-3702.5983823215702,6818.8732143940288,0.0
648296.95196600363,3710566.251970998,-32500.0,2877.4152428304328,2074.6830373671401,-1288.7354141893602,-1629.4139176589372,-363.08168750418633,571.62923227588419,3308.910079490538,3460.0326191635272,-1688.4487200943645,1688.4487200943645,-3460.0326191635272,5860.0846169520473,0.0
653296.95196600363,3710566.251970998,-32500.0,2696.6447742845326,1355.5434931885713,-1964.8267398126206,-1232.0272876240949,214.0238440168217,249.46147813498044,2955.5624974207221,3024.6867160562556,-2203.484145467803,2203.484145467803,-3024.6867160562556,5149.1877371551609,0.0
658296.95196600363,3710566.251970998,-32500.0,2382.4133411480893,685.56360240257584,-2377.5161894073167,-842.07620929519373,625.92298670399975,4.919828988854599,2689.813361004286,2478.9148700151941,-2474.5569402946262,2474.5569402946262,-2478.9148700151941,4658.8959100237325,0.0
663296.95196600363,3710566.251970998,-32500.0,1985.7730164754616,106.03776349581982,-2576.1769242809723,-487.25046267462903,895.92443228450622,-170.45373078551464,2489.5058701310941,1893.0443079449374,-2550.6393663857821,2550.6393663857821,-1893.0443079449374,4333.3722887297708,0.0
668296.95196600363,3710566.251970998,-32500.0,1552.6769407217375,-364.5578058318971,-2613.5357344379709,-182.88931176330183,1051.7759438165256,-287.96988432160526,2332.1292293794104,1319.9058715056144,-2483.9432909742336,2483.9432909742336,-1319.9058715056144,4110.2960047470542,0.0
673296.95196600363,3710566.251970998,-32500.0,1119.5426551979149,-724.40272707104202,-2538.0621124850641,65.328312463966057,1120.899521907188,-359.5524284110902,2199.5778448997139,794.41059838938531,-2322.1598591926759,2322.1598591926759,-794.41059838938531,3938.5502645130941,0.0
678296.95196600363,3710566.251970998,-32500.0,712.09662482542842,-982.20290342534497,-2390.2075784706044,258.39836710804843,1127.6532452960164,-396.32299619700262,2079.6679511332795,336.02530099532044,-2104.6372764297289,2104.6372764297289,-336.02530099532044,3784.6417109794993,0.0
683296.95196600363,3710566.251970998,-32500.0,346.25949629889152,-1152.1594886373293,-2201.3595063284993,401.34493651446445,1092.1435914975145,-407.86651920873521,1965.4472607934154,-47.58842211647459,-1861.3605953318634,1861.3605953318634,47.58842211647459,3630.6781008024441,0.0
688296.95196600363,3710566.251970998,-32500.0,30.008256550050149,-1250.3645353137952,-1994.4129985205921,501.17843659641193,1030.0606242327628,-401.98243562051408,1853.6973882439165,-356.90105610818023,-1613.6053164084888,1613.6053164084888,356.90105610818023,3469.4689500130303,0.0
533296.95196600363,3715566.251970998,-32500.0,1462.1840253919286,61.112647362095686,-1116.7758566092436,443.71662792697748,260.46027327583312,65.366513264407303,1384.8389202511039,1206.7807995391149,-1305.9644074419507,1305.9644074419507,-1206.7807995391149,2409.3926984757572,0.0
538296.95196600363,3715566.251970998,-32500.0,1742.5655743950069,-158.04806524815831,-1109.3591443597493,606.31906322716054,181.4013358220744,128.43284027738218,1552.7014174343735,1235.8107129399409,-1418.5073773046847,1418.5073773046847,-1235.8107129399409,2722.5060820889507,0.0
543296.95196600363,3715566.251970998,-32500.0,2030.4246487940547,-435.04763299418426,-1048.2210117014954,798.43013215349765,60.092453937465898,213.58081435139684,1754.2013784579851,1219.2216225324355,-1500.3317678427484,1500.3317678427484,-1219.2216225324355,3110.7341417597154,0.0
548296.95196600363,3715566.251970998,-32500.0,2310.720425598262,-773.45248713450633,-911.83364797517231,1019.5079401875597,-115.7533952585932,326.01743368008266,1995.8202975315085,1140.3964975611912,-1530.9364996472837,1530.9364996472837,-1140.3964975611912,3589.0333137512362,0.0
553296.95196600363,3715566.251970998,-32500.0,2562.6993599631087,-1171.7242079982514,-674.675850191329,1265.7190670132579,-359.77210317466358,471.20063228927148,2283.7695479529129,981.61438368197616,-1484.4084763409542,1484.4084763409542,-981.61438368197616,4171.0015671827832,0.0
558296.95196600363,3715566.251970998,-32500.0,2760.0158195210543,-1620.2345846021008,-308.65626088881049,1528.5052476283372,-685.81719737016158,654.24695436884065,2623.0820484989185,726.41728970242275,-1330.1852851849976,1330.1852851849976,-726.41728970242275,4866.6824032776976,0.0
563296.95196600363,3715566.251970998,-32500.0,2872.2199987954032,-2097.9109571067097,213.78115695576898,1793.1301428554953,-1105.945093432435,878.98798771917814,3016.4488511623717,363.45572860580933,-1035.4744431364729,1035.4744431364729,-363.45572860580933,5679.8210759930971,0.0
568296.95196600363,3715566.251970998,-32500.0,2868.2679314034549,-2569.2319365570502,914.32450364165413,2037.6076601821339,-1627.3349622523551,1146.6413931814743,3462.8860569496555,-108.12998330155955,-570.0283614930795,570.0283614930795,108.12998330155955,6604.6182627509979,0.0
573296.95196600363,3715566.251970998,-32500.0,2722.5003833594938,-2982.8586087208923,1801.0411270902246,2232.6465775367806,-2248.1868038687994,1454.166014528922,3956.3372723646053,-672.31802244764856,86.293009500462858,-86.293009500462858,672.31802244764856,7622.2399045561633,0.0
578296.95196600363,3715566.251970998,-32500.0,2422.8693490148362,-3273.6897568901936,2858.8500932975298,2343.4106806143432,-2953.0810808541305,1792.5446189869951,4484.0263567644379,-1290.2676058801642,933.52636047425335,-933.52636047425335,1290.2676058801642,8697.7075288295655,0.0
583296.95196600363,3715566.251970998,-32500.0,1979.9704452835781,-3370.1769971411104,4040.2440562790807,2333.8130570556214,-3708.9284461306706,2145.4650171895173,5023.7885437441437,-1897.4059767907595,1940.9494808662128,-1940.9494808662128,1897.4059767907595,9778.2376476445297,0.0
588296.95196600363,3715566.251970998,-32500.0,1433.9003936821691,-3207.7730391139262,5259.8685065307382,2173.5202162341398,-4463.2941337623652,2489.0705220617715,5541.2557502042673,-2406.794390793606,3039.3263630939573,-3039.3263630939573,2406.794390793606,10794.41273583305,0.0
593296.95196600363,3715566.251970998,-32500.0,854.88451929968687,-2747.0604450434098,6397.4655253505534,1846.7419915188539,-5147.1355576600845,2793.4783622233881,5991.8586545668368,-2721.3669956042918,4120.8887768301274,-4120.8887768301274,2721.3669956042918,11665.459332872042,0.0
598296.95196600363,3715566.251970998,-32500.0,334.21239860295185,-1991.8441191808051,7312.6192743978736,1360.469956144781,-5683.2985512934811,3026.4484831141776,6328.828823318484,-2754.8693844051477,5051.2591363903675,-5051.2591363903675,2754.8693844051477,12309.077569620591,0.0
603296.95196600363,3715566.251970998,-32500.0,-34.854634685945712,-999.93435904525677,7870.902786092015,748.84720000298114,-6000.2211377136591,3158.8744205516437,6512.4090456604827,-2456.8155503059447,5693.924761103628,-5693.924761103628,2456.8155503059447,12654.720153148701,0.0
608296.95196600363,3715566.251970998,-32500.0,-181.56183104270841,120.19099854976041,7975.3286629757495,70.747299525508993,-6047.6834636508293,3170.851984248673,6517.7421828186507,-1832.6879527788133,5941.9601790180104,-5941.9601790180104,1832.6879527788133,12657.41077541192,0.0
613296.95196600363,3715566.251970998,-32500.0,-78.737915932999002,1228.9524820084882,7592.5269948210953,-600.14881774933951,-5809.536219886555,3056.462302616022,6340.6132111338229,-950.10811672100635,5746.4945762514963,-5746.4945762514963,950.10811672100635,12308.146733224157,0.0
618296.95196600363,3715566.251970998,-32500.0,248.40389936041618,2186.3446490658976,6763.2792522438413,-1190.2862649135789,-5308.6002976640784,2825.5469389669888,5999.8133640738524,73.533172280191138,5130.7567868733549,-5130.7567868733549,-73.533172280191138,11637.433813023956,0.0
623296.95196600363,3715566.251970998,-32500.0,729.67502823854363,2883.0703138267259,5592.9033155761845,-1641.2931605318174,-4601.7247760049904,2501.7694921168104,5534.917270479642,1098.4315120125545,4183.9028273586027,-4183.9028273586027,-1098.4315120125545,10710.678503308214,0.0
628296.95196600363,3715566.251970998,-32500.0,1270.2036407638523,3261.3001277024186,4225.414224902669,-1920.2258529366418,-3766.8864794957517,2117.6448359230071,4998.1434175584118,1994.5927908232693,3037.4512413363768,-3037.4512413363768,-1994.5927908232693,9616.9328677300855,0.0
633296.95196600363,3715566.251970998,-32500.0,1775.144106201833,3319.4106424141241,2811.4365224020326,-2022.354157610966,-2887.0309999477186,1708.239601895081,4441.3995504992072,2667.6526970722921,1833.8937578652735,-1833.8937578652735,-2667.6526970722921,8454.4523686816174,0.0
638296.95196600363,3715566.251970998,-32500.0,2169.9853288645295,3102.087144575411,1480.4978873832019,-1966.968877657142,-2035.7388802801825,1305.4275075465105,3906.6855415579817,3071.2939957268809,698.41393231105189,-698.41393231105189,-3071.2939957268809,7316.7741128736579,0.0
643296.95196600363,3715566.251970998,-32500.0,2411.2812082635842,2682.0591112390184,324.36245764777237,-1788.9470395769706,-1268.04933638446,934.00207260979084,3424.1532178756588,3205.6596662059387,-278.96675443010145,278.96675443010145,-3205.6596662059387,6281.7025643140714,0.0
648296.95196600363,3715566.251970998,-32500.0,2487.3751042650765,2140.7271592495699,-607.38260248080769,-1529.3888115813083,-617.26968977416254,610.05963942708729,3012.2378875933146,3106.0123365306445,-1048.9884525764464,1048.9884525764464,-3106.0123365306445,5403.7298643566974,0.0
653296.95196600363,3715566.251970998,-32500.0,2412.0318040304628,1552.9027142237492,-1302.3378973759634,-1227.8463661717183,-96.625252308693717,341.32039587426607,2677.4665085124566,2827.5519886547854,-1599.0053258404032,1599.0053258404032,-2827.5519886547854,4709.3895819126228,0.0
658296.95196600363,3715566.251970998,-32500.0,2214.9647743676774,977.8153126740948,-1775.3286701885645,-917.33779141472064,296.2646861742088,128.68178256604912,2415.4825495038331,2431.3075455134749,-1943.4535528179304,1943.4535528179304,-2431.3075455134749,4195.9920960922336,0.0
663296.95196600363,3715566.251970998,-32500.0,1932.5649144583883,456.01668468502851,-2057.4435352950172,-622.16291529679222,574.02394999881744,-31.733389284723902,2214.1106236523574,1973.822126539882,-2113.0106290283306,2113.0106290283306,-1973.822126539882,3835.9734932064202,0.0
668296.95196600363,3715566.251970998,-32500.0,1600.7446288115327,10.502900477980287,-2186.6330504760431,-357.87024245979336,754.61399626315313,-146.58462561045752,2057.7436872026728,1501.2977135291817,-2145.1533610540514,2145.1533610540514,-1501.2977135291817,3587.8216937996503,0.0
673296.95196600363,3715566.251970998,-32500.0,1250.4851689762399,-349.88941611447927,-2200.962422885515,-132.51539756285763,857.56204398701027,-223.69157200760114,1931.4120106800196,1047.5304435272578,-2077.3287350957094,2077.3287350957094,-1047.5304435272578,3409.3739250103995,0.0
678296.95196600363,3715566.251970998,-32500.0,905.80529470685906,-626.38015597388744,-2134.5475194332348,51.539344764315729,901.4646083711757,-270.88641247826939,1823.2356818591343,634.43207380992692,-1942.8350887034658,1942.8350887034658,-634.43207380992692,3267.0676755922013,0.0
683296.95196600363,3715566.251970998,-32500.0,583.49197750039218,-826.43245863190418,-2015.6670166162919,195.80298771557923,902.60727921309388,-295.31412284040454,1725.1013605449507,273.95311666470673,-1768.9275507159632,1768.9275507159632,-273.95311666470673,3138.7670854031235,0.0
538296.95196600363,3720566.251970998,-32500.0,1714.1268740373409,-387.30451894265246,-850.38525230770972,648.62394971962294,42.568329692862719,164.50748290106071,1460.2243624407806,1008.2809009783864,-1243.3751878517928,1243.3751878517928,-1008.2809009783864,2592.607688694211,0.0
543296.95196600363,3720566.251970998,-32500.0,1942.1040753002903,-657.05244799729405,-738.95428465093767,817.13658401278087,-89.084960795130868,244.63361646434504,1652.5514168194929,947.68140411045488,-1267.3009030877588,1267.3009030877588,-947.68140411045488,2973.3081346248432,0.0
548296.95196600363,3720566.251970998,-32500.0,2151.9959022325152,-973.26168216274641,-552.23940717330402,1004.908638365664,-269.10910857083815,347.03103756621289,1879.7866802037811,828.12160817703329,-1234.8216583800129,1234.8216583800129,-828.12160817703329,3431.9433575281323,0.0
553296.95196600363,3720566.251970998,-32500.0,2325.7381503433971,-1330.4148155639994,-270.01863336003652,1206.8848754601581,-507.2228968312466,475.24835954802984,2145.6721085116792,637.38443756292236,-1124.3930867796084,1124.3930867796084,-637.38443756292236,3976.228561315223,0.0
558296.95196600363,3720566.251970998,-32500.0,2442.0956182704881,-1715.7667158902325,128.17031162097902,1414.2099230754764,-812.38217224265247,632.23036970768885,2452.5179082670643,365.98648760670682,-912.44247540421316,912.44247540421316,-365.98648760670682,4610.1409212096878,0.0
563296.95196600363,3720566.251970998,-32500.0,2478.4835816568761,-2107.2848276610912,660.00114369834364,1613.458179973268,-1191.073968915653,819.59689138633053,2800.371590207606,10.360070329561665,-575.98460631695957,575.98460631695957,-10.360070329561665,5331.9591750148975,0.0
568296.95196600363,3720566.251970998,-32500.0,2414.2175918888579,-2472.2945258217783,1335.859675344374,1786.3194650362229,-1644.9851176874649,1036.7189923498245,3186.1597542007253,-423.20514905698315,-96.87585694635618,96.87585694635618,423.20514905698315,6132.0781258094639,0.0
573296.95196600363,3720566.251970998,-32500.0,2235.234928315931,-2767.760777421689,2153.0451265599859,1910.1553578381584,-2168.2104195852635,1279.682488821084,3602.8718053518869,-914.48718060354406,532.30343561670873,-532.30343561670873,914.48718060354406,6990.8717532005458,0.0
578296.95196600363,3720566.251970998,-32500.0,1939.7940849964066,-2943.2893334543705,3089.4816660161405,1959.8638696704647,-2744.4648907884184,1540.3372856952567,4038.5303052729469,-1426.3298055961679,1301.3818068895405,-1301.3818068895405,1426.3298055961679,7877.1134220777894,0.0
583296.95196600363,3720566.251970998,-32500.0,1543.8816120932183,-2947.6862495829737,4098.5846049763832,1911.3253071525237,-3345.1139226569039,1805.7420272584181,4474.2713825128703,-1904.4331037540935,2176.2899150298085,-2176.2899150298085,1904.4331037540935,8747.6579783632624,0.0
588296.95196600363,3720566.251970998,-32500.0,1084.2895184462016,-2739.0525278130203,5107.6784393026437,1746.2841556814842,-3929.1110272578344,2058.3869719962727,4882.7490418592361,-2281.7356879476447,3095.764361954738,-3095.764361954738,2281.7356879476447,9549.1802295328835,0.0
593296.95196600363,3720566.251970998,-32500.0,617.05494903358306,-2296.8629115365657,6022.4602066318575,1457.852792609046,-4445.8764994283229,2277.5229347806148,5230.6737214232089,-2488.3709136612415,3973.8405507117122,-3973.8405507117122,2488.3709136612415,10222.536529294921,0.0
598296.95196600363,3720566.251970998,-32500.0,209.74086232475568,-1632.7409670291095,6738.8911300511973,1055.1247433061353,-4841.5665625764641,2441.6919887033182,5484.8885702664065,-2466.2900313983855,4710.0208337644426,-4710.0208337644426,2466.2900313983855,10709.731974348349,0.0
603296.95196600363,3720566.251970998,-32500.0,-71.904675765758242,-795.64656781547694,7161.4151920043096,565.05328608466994,-5068.0450657987303,2532.1530789983117,5618.2874407661538,-2185.1396697805035,5206.593485811547,-5206.593485811547,2185.1396697805035,10962.586775170532,0.0
608296.95196600363,3720566.251970998,-32500.0,-179.66721845594631,132.01806890344673,7223.3103139227569,30.182519642243037,-5092.5381144188505,2536.4507913350776,5614.5821694117776,-1654.1126427948927,5389.3078721075144,-5389.3078721075144,1654.1126427948927,10951.295146771268,0.0
613296.95196600363,3720566.251970998,-32500.0,-95.783649379456236,1047.9870770705927,6902.8997559164618,-497.89936412185801,-4905.1261165186243,2451.1221043548626,5471.7540075962215,-924.71987997580754,5225.1176258260857,-5225.1176258260857,924.71987997580754,10670.64384284357,0.0
618296.95196600363,3720566.251970998,-32500.0,161.83054786183698,1850.0905517651113,6229.8549782911014,-967.86099757795751,-4521.5321425300281,2282.6655970512224,5203.5453901543233,-82.305240174702249,4730.7460793938117,-4730.7460793938117,82.305240174702249,10142.046713146747,0.0
623296.95196600363,3720566.251970998,-32500.0,544.15864890611078,2456.4391225273266,5279.1457079419633,-1337.9785254429405,-3980.1647749399826,2046.4208908249868,4838.0838142136363,771.5066078330733,3968.8955295301744,-3968.8955295301744,-771.5066078330733,9410.7213334937915,0.0
628296.95196600363,3720566.251970998,-32500.0,983.67457082211422,2819.5751323637401,4154.7811221651564,-1582.8043722232305,-3334.3961975499406,1763.7027730881027,4412.256114372728,1539.6946562268049,3033.5974497477473,-3033.5974497477473,-1539.6946562268049,8538.8068864384368,0.0
633296.95196600363,3720566.251970998,-32500.0,1410.2577881307382,2930.9994613432364,2968.9306525048314,-1695.5476241663891,-2642.5792660068087,1458.0640384153487,3962.7451287330618,2147.4930676281551,2029.999705798064,-2029.999705798064,-2147.4930676281551,7596.3034777880875,0.0
638296.95196600363,3720566.251970998,-32500.0,1765.2231094288259,2816.3161349333045,1822.7465761370852,-1686.1910521124234,-1958.6740836374486,1151.7088116662646,3520.1706194665003,2552.2861700267754,1055.0174100354993,-1055.0174100354993,-2552.2861700267754,6651.9803982071089,0.0
643296.95196600363,3720566.251970998,-32500.0,2009.9467802684339,2524.2268440750481,793.38110424853653,-1576.6808736543701,-1325.599323723643,862.84143758744278,3108.3279854618254,2744.6666237664135,183.68621324893093,-183.68621324893093,-2744.6666237664135,5765.8412776325868,0.0
648296.95196600363,3720566.251970998,-32500.0,2128.1682728183955,2113.6500431429181,-71.294990746230667,-1395.0387178285644,-772.12330952904199,604.29324369450592,2743.9941170617617,2742.5629412724584,-536.89866364448858,536.89866364448858,-2742.5629412724584,4983.7333807143941,0.0
653296.95196600363,3720566.251970998,-32500.0,2123.1937893344671,1642.5069975480751,-751.33294564313042,-1170.0045285150441,-312.94942460409311,383.35774313444631,2436.2010492443706,2581.780911726185,-1086.864103988547,1086.864103988547,-2581.780911726185,4333.9081343261787,0.0
658296.95196600363,3720566.251970998,-32500.0,2012.2410763097989,1160.0870306104596,-1249.1445417109401,-927.15424297614402,49.036468390916582,202.4935536670929,2186.1725475769535,2306.1721126806606,-1468.3996008769134,1468.3996008769134,-2306.1721126806606,3825.3107265714871,0.0
663296.95196600363,3720566.251970998,-32500.0,1820.1094923716751,703.32128548375988,-1582.2955834356517,-686.75126130021283,319.51135008698935,60.484787496031039,1988.5342549352354,1959.5895748942926,-1698.7353373865135,1698.7353373865135,-1959.5895748942926,3448.3054185414617,0.0
668296.95196600363,3720566.251970998,-32500.0,1573.6979461949109,296.24920763766141,-1776.6019719436383,-463.10326620608021,509.39222694378299,-46.298495904579767,1833.6706966701054,1580.5496778880618,-1803.2799998360645,1803.2799998360645,-1580.5496778880618,3179.0800672121786,0.0
673296.95196600363,3720566.251970998,-32500.0,1298.0866540220472,-48.45325556515391,-1860.6077752525368,-264.96609959199066,632.0193820604743,-122.77740259670651,1710.5202903406109,1199.5448910157629,-1810.0760185302397,1810.0760185302397,-1199.5448910157629,2987.3298341741788,0.0
678296.95196600363,3720566.251970998,-32500.0,1014.2748229079042,-326.96159442164617,-1861.7948106212757,-96.521954159112894,701.08434329935244,-174.29392569528352,1608.8984623752342,838.43225140822904,-1745.9776634745508,1745.9776634745508,-838.43225140822904,2844.1667684381982,0.0
543296.95196600363,3725566.251970998,-32500.0,1816.964848793343,-813.3485809772535,-455.14229925856625,804.33940400027507,-204.2837682015838,258.83330622241766,1559.3518534637824,702.22818711378693,-1033.4828789400212,1033.4828789400212,-702.22818711378693,2846.1714508388432,0.0
548296.95196600363,3725566.251970998,-32500.0,1967.676659627077,-1099.3736959202122,-234.88132379534099,960.46228545899703,-380.62647332297189,349.86404477506255,1769.7361934474548,558.0121387607727,-953.16556658993898,953.16556658993898,-558.0121387607727,3276.1583826766287,0.0
553296.95196600363,3725566.251970998,-32500.0,2079.3001264891504,-1410.6274282990205,72.219202754244805,1122.8730577487595,-605.22711194885426,460.88209824003962,2011.4852537233767,353.10911641550751,-798.57766746081961,798.57766746081961,-353.10911641550751,3774.9695766232853,0.0
558296.95196600363,3725566.251970998,-32500.0,2135.4934821451643,-1733.25050521754,480.09475019674204,1283.2512257738288,-883.41228305045104,593.38849283580055,2285.1098382187561,83.303882593232288,-552.47033748038746,552.47033748038746,-83.303882593232288,4342.7593726050618,0.0
563296.95196600363,3725566.251970998,-32500.0,2120.2898985869501,-2046.2475357547942,998.76082926019308,1430.0455134957901,-1217.9106109970887,747.68456592172163,2589.1428854539286,-249.78945896041085,-199.82787398059003,199.82787398059003,249.78945896041085,4974.8218345185915,0.0
568296.95196600363,3725566.251970998,-32500.0,2020.8132664192838,-2321.1811279913081,1630.7792629612502,1548.5720079649325,-1607.1798442991471,922.2567410405652,2919.6252896702895,-636.02994014444221,268.65376920154199,-268.65376920154199,636.02994014444221,5660.1617466145062,0.0
573296.95196600363,3725566.251970998,-32500.0,1830.7745176450187,-2523.2695377028385,2367.1591975663255,1621.784774827129,-2043.5935634169348,1113.1502838143529,3269.6591364941269,-1054.3630349657979,852.25769890265155,-852.25769890265155,1054.3630349657979,6380.2558503088476,0.0
578296.95196600363,3725566.251970998,-32500.0,1554.2257603452335,-2614.4810346204945,3183.4385984646533,1631.9328869952756,-2511.86037553403,1313.4756922325244,3628.6857082545707,-1471.6315209447548,1535.7656533033487,-1535.7656533033487,1471.6315209447548,7108.3756155405563,0.0
583296.95196600363,3725566.251970998,-32500.0,1208.5979735638261,-2558.912631358116,4037.1527071530177,1563.1605567074271,-2988.2217356524943,1513.240671200788,3980.9516971895823,-1843.6552442639281,2285.9898989488997,-2285.9898989488997,1843.6552442639281,7809.9137176326603,0.0
588296.95196600363,3725566.251970998,-32500.0,825.71368536419038,-2330.0869014346486,4868.1911882743998,1404.8175310638433,-3441.0605801703009,1699.7160207602876,4304.7499433216935,-2119.4951603798518,3050.9016045306416,-3050.9016045306416,2119.4951603798518,8444.1408802881888,0.0
593296.95196600363,3725566.251970998,-32500.0,449.52124839426722,-1918.8650511231547,5603.3504187606468,1154.8657218244628,-3833.4158600741152,1858.4797502870497,4575.1482130563745,-2249.1208602289403,3762.8794863762873,-3762.8794863762873,2249.1208602289403,8967.6135609697667,0.0
598296.95196600363,3725566.251970998,-32500.0,129.97537209154936,-1339.7888724699758,6165.4972314789884,822.43656278420326,-4127.4807141881265,1975.1313951404461,4768.4642146209226,-2193.4913629008015,4346.8163398480838,-4346.8163398480838,2193.4913629008015,9339.0708777279306,0.0
603296.95196600363,3725566.251970998,-32500.0,-86.218497350724817,-633.34960257802413,6486.2087193247653,428.51607984413806,-4290.4916947133306,2037.4422163726658,4865.9929329088127,-1934.6926251114583,4732.2795271458972,-4732.2795271458972,1934.6926251114583,9525.1435195577669,0.0
608296.95196600363,3725566.251970998,-32500.0,-165.80730949200114,137.60116308436884,6519.0814029409548,4.0772225541780642,-4300.740298185322,2037.4914152710489,4856.9159427831892,-1482.9515903154033,4867.1198290569946,-4867.1198290569946,1482.9515903154033,9505.7566264686666,0.0
613296.95196600363,3725566.251970998,-32500.0,-97.053960113594584,897.32415721406403,6249.9451388777543,-414.28036449143656,-4152.0784751585252,1973.2339464480863,4740.4457523925894,-877.72991897790553,4728.7250830271114,-4728.7250830271114,877.72991897790553,9277.9360680728096,0.0
618296.95196600363,3725566.251970998,-32500.0,107.10127617869225,1570.4131905077211,5700.6979858506729,-790.24363302305335,-3855.5381365376184,1849.0413268778211,4526.8305613653974,-181.83867794492608,4329.3425028460115,-4329.3425028460115,181.83867794492608,8857.0051307931826,0.0
623296.95196600363,3725566.251970998,-32500.0,411.94507787164832,2095.1158560391682,4925.4029753551258,-1093.7131226507822,-3437.5085733991218,1675.0338088723615,4236.4963132006151,530.05207726979052,3713.6818809731717,-3713.6818809731717,-530.05207726979052,8274.8020905525373,0.0
628296.95196600363,3725566.251970998,-32500.0,768.96353514449515,2433.0521660539425,3999.8598413060245,-1305.189540357007,-2935.0049080876202,1465.3862655299176,3895.99755013002,1185.1673931039995,2949.6241245338442,-2949.6241245338442,-1185.1673931039995,7575.3663345031127,0.0
633296.95196600363,3725566.251970998,-32500.0,1126.2167817294255,2573.0439927102466,3007.8540417673207,-1417.6406977402353,-2389.3968001129288,1236.0689679593995,3531.589498786012,1724.7456520437627,2115.0373906656141,-2115.0373906656141,-1724.7456520437627,6809.137766896798,0.0
638296.95196600363,3725566.251970998,-32500.0,1438.0040267732256,2528.9043140218055,2027.8983603940437,-1435.7424853868988,-1840.254940603334,1002.5941548112565,3165.6674497143667,2111.6144846553066,1284.5363157537372,-1284.5363157537372,-2111.6144846553066,6026.9526444486764,0.0
643296.95196600363,3725566.251970998,-32500.0,1671.4878054371343,2332.8427499615664,1123.4214645864658,-1373.143277576984,-1320.6266911671207,778.22946340463545,2816.7107931954283,2332.1934911606972,519.321096595369,-519.321096595369,-2332.1934911606972,5274.8384042840935,0.0
648296.95196600363,3725566.251970998,-32500.0,1809.362208281593,2026.994774053449,337.76170578592252,-1248.7863644794982,-854.40561209188843,572.93544535890351,2499.0315704255886,2393.7002193753169,-138.32393494727353,138.32393494727353,-2393.7002193753169,4590.1400172296417,0.0
653296.95196600363,3725566.251970998,-32500.0,1848.9827930679151,1655.3939549525883,-306.28683083986476,-1083.2866774220581,-455.76091001001453,393.0422951837968,2221.9430568903063,2318.4088281573295,-665.94613088174606,665.94613088174606,-2318.4088281573295,3998.9595011468118,0.0
658296.95196600363,3725566.251970998,-32500.0,1799.1643503866958,1257.8850062925255,-803.64478888889073,-896.04509940852563,-130.13160465212394,241.5144083174203,1989.3217168364215,2136.9907570761898,-1058.4301644602501,1058.4301644602501,-2136.9907570761898,3514.6750182330793,0.0
663296.95196600363,3725566.251970998,-32500.0,1676.0254581277004,866.5256981795427,-1162.4142031194162,-703.398540245807,123.88023028769349,118.58022473594929,1799.9598809344711,1882.5179487978714,-1323.659078178491,1323.659078178491,-1882.5179487978714,3137.6119669775521,0.0
668296.95196600363,3725566.251970998,-32500.0,1498.9858125518729,504.27174576379963,-1399.0201424808463,-517.77423551549077,312.33748719831186,22.505012585036834,1648.7087444891586,1585.9954299180602,-1477.7389504871487,1477.7389504871487,-1585.9954299180602,2856.4643342122235,0.0
548296.95196600363,3730566.251970998,-32500.0,1774.9918310901651,-1166.7211998155972,35.878203968216098,898.1094914778198,-456.94232563448514,340.40873789790407,1663.4849793473475,331.97102181940517,-696.58839983167741,696.58839983167741,-331.97102181940517,3117.2981522335567,0.0
553296.95196600363,3730566.251970998,-32500.0,1838.9940545833538,-1431.8299207752148,351.99140852579836,1026.5159845506687,-663.66489743046441,435.15383073369259,1880.6300264584402,125.71062332043985,-514.35643540934143,514.35643540934143,-125.71062332043985,3567.5480893624522,0.0
558296.95196600363,3730566.251970998,-32500.0,1852.1802098752,-1696.1685789109499,753.33571207981424,1148.3931040131579,-912.44336902208283,545.72990872230798,2122.0977725067432,-131.04694722800551,-252.26922852952234,252.26922852952234,131.04694722800551,4069.856054943356,0.0
563296.95196600363,3730566.251970998,-32500.0,1803.8055075007478,-1940.8534308950941,1244.3423533673663,1254.1765596137386,-1203.6146748744493,671.71241303221007,2385.6659191287613,-433.5558984844572,98.597016598818158,-98.597016598818158,433.5558984844572,4618.1107530457766,0.0
568296.95196600363,3730566.251970998,-32500.0,1686.5813714768287,-2142.0509091030635,1822.5288116062984,1332.3982955061847,-1533.9356440945185,811.27020570000798,2667.2084640991948,-770.08190270537341,541.45766137306975,-541.45766137306975,770.08190270537341,5201.3003452557477,0.0
573296.95196600363,3730566.251970998,-32500.0,1499.1450813642359,-2272.3735867224291,2475.7367843343636,1370.4635939332588,-1895.4559242462956,960.80336232434797,2960.4629238213847,-1120.6560162184069,1070.8062741630511,-1070.8062741630511,1120.6560162184069,5802.8526811403535,0.0
578296.95196600363,3730566.251970998,-32500.0,1248.4230054666953,-2303.6638547456218,3179.8395107716565,1356.0018208479644,-2274.6855146270282,1114.7101931286741,3256.4018852594404,-1456.9170849450747,1669.6312477341717,-1669.6312477341717,1456.9170849450747,6400.4617660481035,0.0
583296.95196600363,3730566.251970998,-32500.0,951.19639532234646,-2211.1806166358933,3897.7512092705674,1278.7564074085758,-2652.4079097710592,1265.3998648772617,3541.9147774432818,-1743.6727725923095,2307.7054618453967,-2307.7054618453967,1743.6727725923095,6966.6711930575584,0.0
588296.95196600363,3730566.251970998,-32500.0,634.06711767775266,-1978.7495894315036,4580.6367994711718,1132.7920672425234,-3004.4900934598995,1403.6597201301654,3799.7486643118318,-1942.5937220970893,2941.9271526721359,-2941.9271526721359,1942.5937220970893,7470.4296915086534,0.0
593296.95196600363,3730566.251970998,-32500.0,331.17285471628941,-1603.888128712762,5171.965008421842,918.58695079364236,-3303.9098132698919,1519.4345620338552,4011.2013682112838,-2017.9398070942796,3519.5112339109382,-3519.5112339109382,2017.9398070942796,7879.6791889370943,0.0
598296.95196600363,3730566.251970998,-32500.0,79.513261009509179,-1101.4871283762116,5614.3941576272618,644.4295016366699,-3523.9350987584676,1602.9774113783108,4159.2558681892278,-1943.46698156413,3984.2240149994059,-3984.2240149994059,1943.46698156413,8164.7842901760014,0.0
603296.95196600363,3730566.251970998,-32500.0,-87.463217231820195,-504.59447229619735,5858.5473461740812,326.55302886607132,-3642.0132564203768,1646.2104298806642,4230.8673318172878,-1708.9347688472981,4284.9076016066156,-4284.9076016066156,1708.9347688472981,8302.3348030432498,0.0
608296.95196600363,3730566.251970998,-32500.0,-146.55811619189174,138.60384344278481,5871.8133425088117,-12.31683034535317,-3643.5693637982868,1644.0238893916928,4218.7634712922618,-1324.288110127985,4384.5330512241489,-4384.5330512241489,1324.288110127985,8278.6153801444761,0.0
613296.95196600363,3730566.251970998,-32500.0,-89.941921631748841,771.43809214097814,5644.8876419414555,-345.8952604410224,-3524.7695908096398,1595.2033453326574,4122.826592781098,-819.94148924457613,4267.4561911645251,-4267.4561911645251,819.94148924457613,8091.9865661404101,0.0
618296.95196600363,3730566.251970998,-32500.0,72.901771510652949,1337.6558571185578,5194.1401692695863,-648.16773936607206,-3293.4774621763345,1502.7363636794246,3950.8169888983707,-242.65298495018351,3942.7814756854627,-3942.7814756854627,242.65298495018351,7753.599234206662,0.0
623296.95196600363,3730566.251970998,-32500.0,317.06297838491804,1790.3600597824823,4559.0419298980396,-897.21702627752779,-2968.1035598997396,1373.4053787350736,3717.8610931879521,352.13654525029278,3442.8082006388527,-3442.8082006388527,-352.13654525029278,7286.2432912008953,0.0
628296.95196600363,3730566.251970998,-32500.0,607.34857272533793,2098.7425189304295,3795.3505810572169,-1078.1413363503029,-2574.6407103830138,1216.7623392783869,3443.4419106646965,909.50236664040165,2817.0229069069082,-2817.0229069069082,-909.50236664040165,6721.5757602471404,0.0
633296.95196600363,3730566.251970998,-32500.0,905.13093642659464,2251.1510718505556,2965.9465685706082,-1184.4626891078151,-2142.6667573495952,1043.7427254334132,3146.605998408847,1383.4109383937175,2123.3914099857111,-2123.3914099857111,-1383.4109383937175,6096.349931381601,0.0
638296.95196600363,3730566.251970998,-32500.0,1175.0186323459418,2254.2353435393043,2131.6319329567077,-1217.898799084141,-1701.2700929617413,865.23348156788711,2843.7999488391129,1742.4034285856101,1419.2562133230917,-1419.2562133230917,-1742.4034285856101,5448.3890863583929,0.0
643296.95196600363,3730566.251970998,-32500.0,1389.819686463584,2129.0188338644157,1343.8438117129963,-1186.8148765691049,-1275.7289541395653,690.87734029827925,2549.2511423213141,1971.7504134143121,753.88132237737614,-753.88132237737614,-1971.7504134143121,4812.9725773613591,0.0
648296.95196600363,3730566.251970998,-32500.0,1533.0424682921309,1905.3629514483412,640.34819501024401,-1103.9333962901969,-885.42521250493201,528.28621826450171,2274.7606614094334,2072.332735040879,163.84151233373473,-163.84151233373473,-2072.332735040879,4220.031068426445,0.0
653296.95196600363,3730566.251970998,-32500.0,1598.990909758297,1616.3133150349586,44.000087951767149,-983.9104432811356,-543.07151776898763,382.70331012836118,2028.9225915370739,2057.2484048019714,-328.53736639237047,328.53736639237047,-2057.2484048019714,3692.2163297024099,0.0
658296.95196600363,3730566.251970998,-32500.0,1591.0755418962094,1293.4315800072741,-436.04138019349256,-841.25246066543434,-255.0367943157591,257.05583364793375,1816.5988898277778,1947.4004821844046,-714.22548949561508,714.22548949561508,-1947.4004821844046,3243.7234525153126,0.0
663296.95196600363,3730566.251970998,-32500.0,1519.1786441603001,963.65377235652625,-801.59368784665412,-688.82891727430763,-22.391196044749279,152.2768979317718,1638.9005500442345,1767.161816869612,-994.94568635297287,994.94568635297287,-1767.161816869612,2879.7539053474943,0.0
553296.95196600363,3735566.251970998,-32500.0,1614.0053306750169,-1410.6083980324349,573.43565358460876,926.53536711302252,-691.57987742601165,403.16341337820603,1753.5886499346666,-50.947789070330799,-273.57482375843279,273.57482375843279,50.947789070330799,3356.8821421951056,0.0
558296.95196600363,3735566.251970998,-32500.0,1597.6967194037734,-1623.1352251783512,957.33705325833398,1017.5747005530712,-910.94597389798491,494.69472712420236,1965.0739590989197,-288.01783447093464,-8.7776499572305795,8.7776499572305795,288.01783447093464,3797.3546453826093,0.0
563296.95196600363,3735566.251970998,-32500.0,1529.6130983594551,-1810.308712567127,1412.3595964584501,1091.9337901423373,-1161.7426183009595,596.9745319455036,2192.3152488536639,-556.77457606538871,328.49153733148546,-328.49153733148546,556.77457606538871,4269.8661320273532,0.0
568296.95196600363,3735566.251970998,-32500.0,1406.2890263447682,-1952.6852556466056,1933.0402545829393,1140.8268408221811,-1440.002057522207,708.1662231572318,2431.4231670494655,-845.31818696628829,737.49359324605416,-737.49359324605416,845.31818696628829,4764.1152264513312,0.0
573296.95196600363,3735566.251970998,-32500.0,1229.2883590093606,-2029.1129749041854,2506.0921534095264,1155.0790530705601,-1738.2009280918039,825.17353824456723,2676.9703301414293,-1135.7109904111862,1210.2302604874899,-1210.2302604874899,1135.7109904111862,5265.7440789351458,0.0
578296.95196600363,3735566.251970998,-32500.0,1006.6221636663773,-2019.0612726921083,3109.1740413171533,1126.1744670498704,-2044.8729254676073,943.54977108105061,2921.3090379633936,-1404.3508985669005,1729.8091060166803,-1729.8091060166803,1404.3508985669005,5756.4280075120569,0.0
583296.95196600363,3735566.251970998,-32500.0,753.44187179027927,-1905.7747492767903,3710.7563529749045,1047.5976717576807,-2344.7191729235647,1057.5834364841228,3153.4585091443419,-1623.5896727675427,2269.7688861858437,-2269.7688861858437,1623.5896727675427,6214.5158788585395,0.0
588296.95196600363,3735566.251970998,-32500.0,491.53092634447427,-1679.8511318293499,4271.5996821306871,916.28921809525445,-2619.4045396805868,1160.614849637474,3359.7038438375448,-1764.7462417560555,2794.9485094817092,-2794.9485094817092,1764.7462417560555,6616.3213009842011,0.0
593296.95196600363,3735566.251970998,-32500.0,247.28024514506023,-1342.532015491671,4748.1300000612528,733.92255626958035,-2849.1230720516787,1245.6010617304842,3526.0257291419562,-1802.3065358459503,3264.2918824279309,-3264.2918824279309,1802.3065358459503,6938.0553038482249,0.0
598296.95196600363,3735566.251970998,-32500.0,48.189195660347863,-907.80049714576398,5097.546931144203,507.6494081681077,-3014.8332462399139,1305.8875182553156,3640.1367670244417,-1718.6488086143675,3635.5528288813412,-3635.5528288813412,1718.6488086143675,7158.2356316374453,0.0
603296.95196600363,3735566.251970998,-32500.0,-81.58753627473321,-402.44017543941112,5283.9337164628741,249.99895872343217,-3100.8431768104924,1336.0762726419398,3692.8507280264062,-1508.2458513805893,3871.2792992843551,-3871.2792992843551,1508.2458513805893,7260.2439102787584,0.0
608296.95196600363,3735566.251970998,-32500.0,-125.6886322214271,136.39355444005827,5284.1438194845587,-22.220241173801842,-3097.2454109930745,1332.8279869105747,3679.2238413071304,-1180.1718202228783,3944.9025796534988,-3944.9025796534988,1180.1718202228783,7234.5909059509049,0.0
613296.95196600363,3735566.251970998,-32500.0,-78.847624215213727,665.88565481397109,5092.0528631249954,-289.91439995731355,-3001.6411869479257,1295.4197668609834,3599.4783235031414,-758.01545999947643,3845.4871896506756,-3845.4871896506756,758.01545999947643,7080.4332091486003,0.0
618296.95196600363,3735566.251970998,-32500.0,51.893701258047379,1143.6444424121596,4720.0425252432378,-534.22558760351808,-2819.7157373047639,1225.9229252943776,3459.5587719774294,-276.95807413057628,3579.8923211033248,-3579.8923211033248,276.95807413057628,6806.0094185359703,0.0
623296.95196600363,3735566.251970998,-32500.0,248.43663746154979,1533.7925581015666,4197.2665367167674,-739.04562198488384,-2564.4930219313324,1128.9477835765592,3270.8649113923543,221.42111760522971,3171.7389933614459,-3171.7389933614459,-221.42111760522971,6427.8741600835792,0.0
628296.95196600363,3735566.251970998,-32500.0,485.00185785402431,1811.6766205066629,3565.1258282112663,-892.97973337120595,-2254.4454869753336,1011.0128418850783,3047.9774198166297,695.38627640562493,2657.4599613076484,-2657.4599613076484,-695.38627640562493,5969.0870736857323,0.0
633296.95196600363,3735566.251970998,-32500.0,732.70873804123755,1966.2569152968285,2871.080792815605,-990.38896853622464,-1910.9041909944583,879.67941452725915,2804.9131428389246,1108.8822158065711,2080.4696497474929,-2080.4696497474929,-1108.8822158065711,5456.7143608815359,0.0
638296.95196600363,3735566.251970998,-32500.0,964.20057627709878,1999.9256274907839,2162.2325867103382,-1031.4002125822242,-1555.3387545655835,742.63288845945385,2553.8006241329449,1435.7549386018727,1484.868797154917,-1484.868797154917,-1435.7549386018727,4919.0975582091105,0.0
643296.95196600363,3735566.251970998,-32500.0,1157.3153510191712,1926.1857655968854,1479.9595220254719,-1021.0372830723178,-1207.0322957014243,606.88330064297338,2305.5402773400824,1661.7249798724768,910.01296039568865,-910.01296039568865,-1661.7249798724768,4383.3292707015125,0.0
648296.95196600363,3735566.251970998,-32500.0,1297.2259526115611,1766.0439819514868,856.39171400699445,-967.79503743898169,-881.48067882324995,478.19514627624767,2069.6749886347029,1784.1398571801146,386.8074024681631,-386.8074024681631,-1784.1398571801146,3873.2066520132498,0.0
653296.95196600363,3735566.251970998,-32500.0,1376.9647283507029,1544.0712737093831,312.93903048221733,-882.02951623768945,-589.63011536818465,360.79204703508532,1853.7113844241935,1810.0336307821744,-63.980962229308147,63.980962229308147,-1810.0336307821744,3407.772186320452,0.0
658296.95196600363,3735566.251970998,-32500.0,1396.6325071666881,1284.9085039804897,-139.40286733806113,-774.47981260961888,-337.86626542557224,257.31499131551243,1662.6117679904503,1753.2562802792925,-431.61325384630004,431.61325384630004,-1753.2562802792925,3000.3840483638874,0.0
563296.95196600363,3740566.251970998,-32500.0,1295.2159195996335,-1668.1924686031316,1517.8182235121535,946.01702535380241,-1102.5787442551489,526.54754281424493,2010.7212356522011,-633.35517302514575,500.25621723276424,-500.25621723276424,633.35517302514575,3935.9868961080592,0.0
568296.95196600363,3740566.251970998,-32500.0,1173.21198600906,-1764.6010801254936,1981.4150376348268,973.94634422993352,-1335.8451789163357,615.0006531067969,2213.5534214880659,-877.85506945472036,871.81951820879715,-871.81951820879715,877.85506945472036,4353.9123273097948,0.0
573296.95196600363,3740566.251970998,-32500.0,1010.6414057941274,-1801.399096910631,2480.2741838069314,972.51968442507996,-1581.2306493395902,706.59045937635017,2419.3686549436575,-1116.3298560154647,1289.4376082708047,-1289.4376082708047,1116.3298560154647,4772.0521314561656,0.0
578296.95196600363,3740566.251970998,-32500.0,815.56624278393951,-1763.8130140673704,2994.4875390522434,935.94133441049485,-1829.215051921446,797.84003063967259,2621.6197685050843,-1329.4947240302386,1737.3643672430208,-1737.3643672430208,1329.4947240302386,5175.4987164286249,0.0
583296.95196600363,3740566.251970998,-32500.0,601.16168217732707,-1640.7148670480312,3497.7102268487374,860.16688844708017,-2067.7357822515178,884.47402437534345,2811.0241434128188,-1495.821654896959,2193.0041267270562,-2193.0041267270562,1495.821654896959,5547.2265368207254,0.0
588296.95196600363,3740566.251970998,-32500.0,385.04217816850422,-1427.0816250434802,3958.6176713622312,743.85622615476314,-2282.8854742071694,961.67305370035126,2976.7339214961394,-1593.9130366327859,2627.9422138422447,-2627.9422138422447,1593.9130366327859,5869.1278245552048,0.0
593296.95196600363,3740566.251970998,-32500.0,187.57680212513716,-1126.0918614028196,4343.6139551145534,589.14770310835434,-2460.0920683221016,1024.4766792922585,3108.270159210173,-1605.5502633531364,3010.2750248803582,-3010.2750248803582,1605.5502633531364,6123.4428128008558,0.0
598296.95196600363,3740566.251970998,-32500.0,29.297957565080726,-750.28670757718623,4620.5959272588188,402.04044728354114,-2585.6875662371754,1068.3014816889297,3196.7182847129588,-1518.9298064288046,3308.1231548395922,-3308.1231548395922,1518.9298064288046,6294.4587665563895,0.0
603296.95196600363,3740566.251970998,-32500.0,-72.204480550269551,-321.30380209509457,4763.2299549382824,192.20981373073059,-2648.6412146199186,1089.5004389561864,3235.5477821047257,-1331.3947312544185,3493.8498356487371,-3493.8498356487371,1331.3947312544185,6370.2495725686776,0.0
608296.95196600363,3740566.251970998,-32500.0,-105.27143779616239,132.03228067408986,4754.9324569937935,-27.811613406451592,-2642.1405460908904,1085.864684122748,3221.3595398464636,-1050.9409070148663,3548.2008740419674,-3548.2008740419674,1050.9409070148663,6344.1753415025833,0.0
613296.95196600363,3740566.251970998,-32500.0,-66.335031790484308,577.07319634642465,4591.6739684980257,-244.00295762741493,-2564.6857133410845,1056.9651863374736,3154.5247446212475,-695.98049775888535,3463.4592736468257,-3463.4592736468257,695.98049775888535,6215.8667840626877,0.0
618296.95196600363,3740566.251970998,-32500.0,39.313288509364774,981.56489638847302,4282.9192495991983,-442.5418181353831,-2420.4390263632799,1004.2565256678805,3039.6308916471144,-293.24991126140571,3244.8540465831702,-3244.8540465831702,293.24991126140571,5991.4924761285674,0.0
623296.95196600363,3740566.251970998,-32500.0,198.368473875294,1317.8556033594393,3850.4393356752939,-611.48032426129998,-2218.7339679686143,930.91454482466304,2885.4017464468393,125.76495665374273,2909.8603192373203,-2909.8603192373203,-125.76495665374273,5683.2412549247547,0.0
628296.95196600363,3740566.251970998,-32500.0,391.76457935821185,1566.2249051346801,3325.2592950682088,-742.08301294766932,-1972.8486052766407,841.44142889642046,2702.9778733917624,529.12376238710976,2485.5596849045082,-2485.5596849045082,-529.12376238710976,5308.117714119242,0.0
633296.95196600363,3740566.251970998,-32500.0,597.77558217340004,1716.7175590548968,2743.4257257781105,-829.59096129552927,-1698.3014235495889,741.11631286856857,2502.8427120624833,888.53630161091019,2004.6846202176796,-2004.6846202176796,-888.53630161091019,4886.2568743374777,0.0
638296.95196600363,3740566.251970998,-32500.0,795.242816609035,1769.2760313025633,2141.5027622655675,-873.32773513710913,-1411.0211722327485,635.40125733362913,2293.9752976258051,1182.4844411915192,1501.2354257698985,-1501.2354257698985,-1182.4844411915192,4439.0553863886535,0.0
643296.95196600363,3740566.251970998,-32500.0,966.2730978728805,1732.3835132536831,1552.6323429745232,-876.21782806972692,-1125.7147437320959,529.40333593059904,2084.697557030529,1397.9024257979841,1006.5278864651004,-1006.5278864651004,-1397.9024257979841,3987.3884921668396,0.0
648296.95196600363,3740566.251970998,-32500.0,1097.9853732046515,1620.7185257723984,1003.7339319175412,-843.89924587044641,-854.66488495561271,427.46792885303535,1882.6369352467,1530.3525920174875,546.29115378616507,-546.29115378616507,-1530.3525920174875,3550.1154022710994,0.0
573296.95196600363,3745566.251970998,-32500.0,833.83026870359083,-1593.1030695203513,2415.5226828952323,818.88394451729607,-1430.3623598810407,604.1664936119098,2186.840184628039,-1074.8191739780332,1323.8385937936546,-1323.8385937936546,1074.8191739780332,4322.1763209500559,0.0
578296.95196600363,3745566.251970998,-32500.0,664.46004514189372,-1538.0435083983489,2852.7730641102075,779.0361957659843,-1631.0905120371694,674.71836635573356,2354.7441729174716,-1243.0151275389894,1708.4108478912253,-1708.4108478912253,1243.0151275389894,4654.5853890296066,0.0
583296.95196600363,3745566.251970998,-32500.0,483.49168591822109,-1412.4400935711064,3273.5278621307239,708.27761980618425,-1821.3526208585545,740.83040765258011,2509.7872007360852,-1368.1769813236892,2092.4204304353029,-2092.4204304353029,1368.1769813236892,4957.2622950133073,0.0
588296.95196600363,3745566.251970998,-32500.0,305.06222366544046,-1214.0485064895374,3652.8659158662767,606.26747830711588,-1990.594942383698,799.00546278575462,2643.4900820172634,-1434.3605986900616,2453.0290964681781,-2453.0290964681781,1434.3605986900616,5216.3177868434441,0.0
593296.95196600363,3745566.251970998,-32500.0,144.90082838148581,-946.91620052315682,3964.8391926464778,475.2196280222858,-2128.0462157006555,845.72827439837647,2748.0451932489032,-1428.5478558020591,2765.4235299961151,-2765.4235299961151,1428.5478558020591,5418.4097864217001,0.0
598296.95196600363,3745566.251970998,-32500.0,18.419357088170653,-621.99401176288188,4185.2379911150738,320.08452593707023,-2223.8192669521136,877.8140107114483,2816.9489284892675,-1342.8683218555598,3005.4243944291866,-3005.4243944291866,1342.8683218555598,5551.9459113261901,0.0
603296.95196600363,3745566.251970998,-32500.0,-61.466301402312915,-256.74964819356131,4294.6033999584242,148.35057438407435,-2270.0832287495427,892.77236600896322,2845.5131364096223,-1176.3861828556958,3152.4763541698921,-3152.4763541698921,1176.3861828556958,5608.2798567093114,0.0
608296.95196600363,3745566.251970998,-32500.0,-86.365734181811447,126.31416243464781,4280.9480503746499,-30.562191839941026,-2262.1035471650139,889.12564189478701,2831.3729955708964,-936.00501152364723,3192.4926402424508,-3192.4926402424508,936.00501152364723,5582.7181107428232,0.0
613296.95196600363,3745566.251970998,-32500.0,-53.84780602255168,502.08208709418153,4141.6312719911903,-206.2523677839653,-2198.9474119771608,866.62152845858839,2774.9403231455253,-636.18833151316085,3119.9798445126316,-3119.9798445126316,636.18833151316085,5475.1700613878193,0.0
618296.95196600363,3745566.251970998,-32500.0,32.067534783230322,845.7884828390429,3883.958522665253,-368.48146227069054,-2083.6971448670097,826.2936320814199,2679.7675483543139,-297.44688138397851,2938.9665802165828,-2938.9665802165828,297.44688138397851,5290.3098719672735,0.0
623296.95196600363,3745566.251970998,-32500.0,161.49011691734162,1135.9636675254269,3524.3582084968107,-508.30782042704516,-1923.1236751264321,770.35772194606216,2552.6135629147034,56.15530261222807,2662.5235442990006,-2662.5235442990006,-56.15530261222807,5037.2259243655089,0.0
628296.95196600363,3745566.251970998,-32500.0,320.1860171135811,1356.8111066045135,3086.2876528405477,-619.0088253400769,-1726.8742977231702,701.95885468838901,2402.1740618623126,399.99719132970245,2310.9690892911694,-2310.9690892911694,-399.99719132970245,4728.5997634778751,0.0
633296.95196600363,3745566.251970998,-32500.0,491.70299351501359,1499.6048080959886,2597.3070031742991,-696.63928452106802,-1506.3384946759534,624.81898680504594,2236.4447921770743,711.81255151315986,1909.154824664711,-1909.154824664711,-711.81255151315986,4379.5579851370067,0.0
638296.95196600363,3745566.251970998,-32500.0,659.63922222948588,1562.9497747722814,2085.8923613994275,-740.16543585676777,-1273.4030252053253,542.84795450191734,2062.0943234609413,973.99963348776191,1483.3874584976143,-1483.3874584976143,-973.99963348776191,4006.3759853430038,0.0
593296.95196600363,3750566.251970998,-32500.0,114.2466533008304,-798.48000911502288,3614.7395633531578,385.19012718272,-1844.881223845973,700.94826399950375,2436.8360843583473,-1270.7845278601885,2534.2870602471662,-2534.2870602471662,1270.7845278601885,4807.547195000835,0.0
598296.95196600363,3750566.251970998,-32500.0,12.642652142604669,-517.27108517641079,3790.7822413714298,256.15155030300798,-1918.3402858172412,724.60151073728832,2490.7569310252115,-1188.3985609548154,2728.5407763962194,-2728.5407763962194,1188.3985609548154,4912.3295447155824,0.0
603296.95196600363,3750566.251970998,-32500.0,-50.616434355551128,-205.27902950979825,3874.7517572559491,114.88759029669005,-1952.4472500380202,735.19852264026758,2511.693195169446,-1040.9436722741616,2845.5275505741647,-2845.5275505741647,1040.9436722741616,4954.1471775972523,0.0
608296.95196600363,3750566.251970998,-32500.0,-69.435981410791314,119.81710283671215,3857.9112290305457,-31.464761303384268,-1943.8792752550219,731.74043707449903,2497.9797316624195,-834.30814440986592,2874.8481568224752,-2874.8481568224752,834.30814440986592,4929.6531532142144,0.0
613296.95196600363,3750566.251970998,-32500.0,-42.152005143985505,438.53455524859243,3738.5432410113121,-175.11398643286947,-1892.0618831473596,714.08101018349589,2450.0099156590959,-579.92525337367056,2812.5592602853076,-2812.5592602853076,579.92525337367056,4838.9136439794111,0.0
618296.95196600363,3750566.251970998,-32500.0,28.150246896915156,731.69174785638575,3522.3395503526349,-308.40016286848618,-1799.3032618339651,682.96357887552517,2370.535692120839,-293.67090953741854,2661.7962689274655,-2661.7962689274655,293.67090953741854,4685.5122190552202,0.0
598296.95196600363,3550566.251970998,-37500.0,204.52615038072904,1075.4055592398804,2622.2520571764594,536.75089521779159,1648.3531642754651,750.25964970059272,2116.7532561603825,246.52551743743038,1977.7489333583533,-1977.7489333583533,-246.52551743743038,4160.3833930027968,0.0
603296.95196600363,3550566.251970998,-37500.0,81.886877307264996,876.30207703989333,2944.2742336388192,428.30118867822335,1809.5381534462124,813.56643227071015,2232.1305482777284,-34.239427951902371,2234.1807218033391,-2234.1807218033391,34.239427951902371,4394.4957325613586,0.0
608296.95196600363,3550566.251970998,-37500.0,-13.426673066371885,628.116507010845,3200.7072093269699,297.02149011897473,1937.7689326961627,864.02730673370115,2326.768395113023,-315.52260456414297,2427.8364359231459,-2427.8364359231459,315.52260456414297,4581.8587035593819,0.0
613296.95196600363,3550566.251970998,-37500.0,-71.847888590657718,343.95152876488766,3376.3493425335487,149.01216153398065,2026.0459387191288,899.05460311591673,2394.759605905544,-579.26241308463534,2545.7457253997063,-2545.7457253997063,579.26241308463534,4713.9114100941169,0.0
618296.95196600363,3550566.251970998,-37500.0,-87.287015563987737,40.355023949492086,3461.3361379539811,-8.1221797438067238,2069.7880917476964,916.93682995659333,2431.8912005819702,-808.50126275510854,2580.4075438508248,-2580.4075438508248,808.50126275510854,4784.8439426562018,0.0
623296.95196600363,3550566.251970998,-37500.0,-57.974853691457319,-264.39652385676402,3452.2613346650055,-166.00765354058532,2067.3241187188792,917.01433588099087,2436.1346771354138,-989.29931442893235,2530.7113945808323,-2530.7113945808323,989.29931442893235,4792.0558120113819,0.0
628296.95196600363,3550566.251970998,-37500.0,13.333964303180792,-552.2786931879856,3352.4745388886417,-316.34852397918866,2020.0346332721911,899.73442938146593,2407.6001895866852,-1112.2362694390733,2402.0089395922068,-2402.0089395922068,1112.2362694390733,4736.310166430897,0.0
633296.95196600363,3550566.251970998,-37500.0,119.83415424483695,-807.4206761054046,3171.4979776008918,-451.74666115375607,1932.1167326185873,866.57454222457488,2348.3098348984322,-1173.2391629179979,2205.3189797421892,-2205.3189797421892,1173.2391629179979,4621.5481667917293,0.0
638296.95196600363,3550566.251970998,-37500.0,251.70934933742504,-1017.6151002700491,2923.7022043823981,-566.36515904587668,1810.0286878954287,819.8532394456164,2261.8923293549515,-1173.6301741956327,1955.8396801357367,-1955.8396801357367,1173.6301741956327,4454.4133611870266,0.0
643296.95196600363,3550566.251970998,-37500.0,397.51368874000235,-1175.2139033338092,2626.502251772306,-656.34129441876939,1661.7178445104289,762.46201997575281,2153.2249799764759,-1119.4470690870853,1671.0599629090671,-1671.0599629090671,1119.4470690870853,4243.5557103114243,0.0
648296.95196600363,3550566.251970998,-37500.0,545.62403573340043,-1277.3386218883197,2298.4078925197609,-719.91482831246822,1495.7710310419484,697.5658537022772,2028.045971347867,-1020.2339804283633,1368.814482799844,-1368.814482799844,1020.2339804283633,3998.8277377051363,0.0
583296.95196600363,3555566.251970998,-37500.0,733.50064776411341,1467.3287173819203,1446.6687378665933,806.96201263112641,1146.8279350937614,593.41025326525732,1877.0860290989685,1101.2238108787333,977.86376311274671,-977.86376311274671,-1101.2238108787333,3603.6798893134264,0.0
588296.95196600363,3555566.251970998,-37500.0,580.760446514725,1460.2298914069333,1909.713095293481,786.06023570426805,1395.637732542579,696.82798690834124,2045.1432957881602,896.57999959312679,1369.0634642752286,-1369.0634642752286,-896.57999959312679,3964.7495107026357,0.0
593296.95196600363,3555566.251970998,-37500.0,414.73539077538373,1381.7134203140231,2370.312478125215,729.54683025485406,1640.084830622734,797.72337766949317,2209.9467025532449,637.03202746572219,1755.1497076453159,-1755.1497076453159,-637.03202746572219,4314.5967860185101,0.0
598296.95196600363,3555566.251970998,-37500.0,249.89519321165852,1228.6526282924533,2803.7149919918807,636.44536860854794,1868.0470301452087,891.38770131831734,2365.0814410570097,335.14833426303755,2112.7123617991083,-2112.7123617991083,-335.14833426303755,4637.6719396513536,0.0
603296.95196600363,3555566.251970998,-37500.0,102.10847962977677,1004.278061326581,3184.0925109724462,508.71065528285186,2067.037051010408,973.00594851529991,2503.317500099703,8.8117478215572191,2417.7718459866796,-2417.7718459866796,-8.8117478215572191,4918.6385570857374,0.0
608296.95196600363,3555566.251970998,-37500.0,-13.331960509702499,718.62956713394465,3487.2602751623567,351.39495456188479,2225.4461475713433,1038.1165082612683,2616.6120523076847,-320.33056988940916,2648.4923519678068,-2648.4923519678068,320.33056988940916,5143.5930837024607,0.0
613296.95196600363,3555566.251970998,-37500.0,-83.840236730573807,388.01482902499458,3693.5223081165968,172.38350856237975,2333.8315856744084,1083.0841136484589,2697.4527649760921,-629.19920544552383,2787.9319576076914,-2787.9319576076914,629.19920544552383,5301.2647789473085,0.0
618296.95196600363,3555566.251970998,-37500.0,-101.41061337262632,33.448276009761386,3790.131275821569,-18.30826248443509,2386.0261616149178,1105.507378225416,2740.4776153655607,-896.03946937810281,2826.311498131789,-2826.311498131789,896.03946937810281,5384.0228327276254,0.0
623296.95196600363,3555566.251970998,-37500.0,-63.829434112276928,-321.71799108385693,3772.8834027779576,-209.58545173090738,2379.865721926401,1104.4895480751138,2743.154471469913,-1103.103043268035,2762.337037911615,-2762.337037911615,1103.103043268035,5388.5432489356926,0.0
628296.95196600363,3555566.251970998,-37500.0,25.046220939742774,-654.55236077965333,3646.5141169330777,-390.49536647437293,2317.3859556580887,1080.7179130074135,2705.7719853307358,-1238.7322780947225,2603.2842573321614,-2603.2842573321614,1238.7322780947225,5316.0135982497241,0.0
633296.95196600363,3555566.251970998,-37500.0,155.99768079771192,-945.17849138757674,3423.8364436103429,-551.40511797835779,2204.4638967818255,1036.3436463481878,2631.1574575259178,-1298.4616555313505,2363.8395759452374,-2363.8395759452374,1298.4616555313505,5171.8626913982398,0.0
638296.95196600363,3555566.251970998,-37500.0,315.96398412579373,-1178.8045587973463,3123.8089887216561,-684.92852273239077,2049.9727716193061,974.68171541903052,2524.2384791159757,-1284.971375792901,2063.9476184806967,-2063.9476184806967,1284.971375792901,4965.0389956702847,0.0
643296.95196600363,3555566.251970998,-37500.0,490.01789660609154,-1346.8415251559279,2768.9933448967622,-786.46902500492013,1864.6536325944512,899.80499354150106,2391.5339268905068,-1207.0162047556578,1726.1552730670428,-1726.1552730670428,1207.0162047556578,4707.0273207149494,0.0
648296.95196600363,3555566.251970998,-37500.0,663.38237747265646,-1447.0195888924709,2382.8523605056776,-854.32940753090293,1659.8853674529566,816.09170360857456,2240.5487602079556,-1077.6317914286426,1372.9341471721439,-1372.9341471721439,1077.6317914286426,4410.6926484743599,0.0
653296.95196600363,3555566.251970998,-37500.0,823.12248772803991,-1482.6449661522317,1987.3822775145238,-889.44017219917896,1446.5791886651848,727.8107954381785,2078.9870420194907,-912.05178292554331,1024.4512332885613,-1024.4512332885613,912.05178292554331,4089.1743104938505,0.0
658296.95196600363,3555566.251970998,-37500.0,959.28141091708608,-1461.2762891880398,1601.3677435966363,-894.81668747788342,1234.3280391656865,638.79256874156044,1913.6864573163298,-725.72997391483295,697.04768811525059,-697.04768811525059,725.72997391483295,3754.9357490266175,0.0
573296.95196600363,3560566.251970998,-37500.0,1112.7410358261425,1395.561119751839,446.41706256551527,853.7741786294439,678.11824344482488,432.90511792024796,1693.3686567655295,1516.6232767800543,106.77401034038257,-106.77401034038257,-1516.6232767800543,3140.4251559434906,0.0
578296.95196600363,3560566.251970998,-37500.0,1015.0866212825969,1540.572666975301,899.85180229898128,910.95934508754692,945.57604856086334,552.29776057084428,1873.9363345862871,1449.0172635176114,488.96769325226131,-488.96769325226131,-1449.0172635176114,3530.7362695690567,0.0
583296.95196600363,3560566.251970998,-37500.0,874.79177083832587,1627.8695047414067,1402.6339229135322,936.04670683466929,1235.1930027982603,679.82407185175248,2066.3586660214983,1305.5116068815921,915.50275736905382,-915.50275736905382,-1305.5116068815921,3946.5269363059283,0.0
588296.95196600363,3560566.251970998,-37500.0,700.4304370278129,1641.4650176711118,1935.4227776656792,921.72562675343295,1536.4138657329186,811.03911318939799,2264.4428014842274,1085.2772874889795,1367.5299650474478,-1367.5299650474478,-1085.2772874889795,4372.0131288702651,0.0
593296.95196600363,3560566.251970998,-37500.0,505.78848975568582,1569.3363984770403,2472.3176705574233,862.75868910606914,1835.6302819340244,940.33885201847352,2460.808280841582,794.84134746710197,1820.0550523896227,-1820.0550523896227,-794.84134746710197,4788.699043150239,0.0
598296.95196600363,3560566.251970998,-37500.0,308.92232117101366,1405.8431002585476,2982.5070277697764,757.06226574182085,2117.0338627247529,1061.3053883036175,2647.0970823638891,448.7226729140632,2243.7314925162818,-2243.7314925162818,-448.7226729140632,5176.5516533027103,0.0
603296.95196600363,3560566.251970998,-37500.0,130.23926709153343,1153.6311107170834,3433.0901966715483,606.53351705817715,2363.9985371504026,1167.2482304116668,2813.7761405622014,68.85205726659683,2607.7884853735804,-2607.7884853735804,-68.85205726659683,5515.5086824593754,0.0
608296.95196600363,3560566.251970998,-37500.0,-10.201869481402056,824.48872726978834,3792.770708588037,417.39266953878337,2560.842769661142,1251.8828062370162,2950.3596035313121,-317.38424045841361,2883.7478441724143,-2883.7478441724143,317.38424045841361,5787.18642554297,0.0
613296.95196600363,3560566.251970998,-37500.0,-95.708303791948495,438.7789175061011,4035.8440205679758,199.88436569843097,2694.7089179321042,1310.0484547484011,3047.1521938475348,-680.30591494645091,3049.3093580064287,-3049.3093580064287,680.30591494645091,5976.5984992567155,0.0
618296.95196600363,3560566.251970998,-37500.0,-115.65990919707289,23.35917734003052,4145.7120687550705,-32.695562731766579,2757.2150770683393,1338.3400044034531,3097.2650534596614,-991.79735968617638,3091.6189711120023,-3091.6189711120023,991.79735968617638,6073.6250536288408,0.0
623296.95196600363,3560566.251970998,-37500.0,-67.272052296543237,-391.71635922344001,4117.1635067667885,-265.51676423054096,2745.5358751844856,1335.5251194937416,3097.5258331322134,-1229.1016037176744,3009.1793413053756,-3009.1793413053756,1229.1016037176744,6073.9732289195199,0.0
628296.95196600363,3560566.251970998,-37500.0,44.017577645840063,-777.08368681701836,3956.9198930122366,-484.00008631090884,2662.6904056865023,1302.6671537134168,3048.5266346554718,-1377.751259920924,2811.9584411546866,-2811.9584411546866,1377.751259920924,5979.4762691817868,0.0
633296.95196600363,3560566.251970998,-37500.0,205.62388772352665,-1107.7498710861535,3682.3266254908131,-675.52561568667227,2516.9722287511254,1242.925140492687,2954.2449971927299,-1433.0309057020438,2519.6647550231464,-2519.6647550231464,1433.0309057020438,5797.6589425678558,0.0
638296.95196600363,3560566.251970998,-37500.0,400.05893433349956,-1365.8425653678962,3318.5482757617142,-830.74230901331339,2320.677726592568,1161.0868430505946,2821.4314682004688,-1399.7557174187082,2158.6307628611034,-2158.6307628611034,1399.7557174187082,5540.6951818279358,0.0
643296.95196600363,3560566.251970998,-37500.0,607.78274505770946,-1541.9739613415395,2894.9050303419262,-944.26946415414284,2088.4047673628829,1062.9294037094917,2658.8286439665321,-1290.5625279878145,1758.0117696684956,-1758.0117696684956,1290.5625279878145,5223.9257015055564,0.0
648296.95196600363,3560566.251970998,-37500.0,810.01379799305039,-1635.1461790198146,2441.1484549439315,-1014.7433351708924,1835.2834812439471,954.54157917604937,2476.2460229817348,-1123.2495787900546,1346.1124261728871,-1346.1124261728871,1123.2495787900546,4864.2329132712557,0.0
653296.95196600363,3560566.251970998,-37500.0,990.96519960777675,-1651.4600508417786,1984.3243045001832,-1044.3076718808629,1575.4360839517988,841.71827692426064,2283.3513993236611,-917.81795004092362,947.46827110657739,-947.46827110657739,917.81795004092362,4478.5026234006837,0.0
658296.95196600363,3560566.251970998,-37500.0,1139.2044172793981,-1602.0949861982172,1546.6287426619829,-1037.7424266630694,1320.8655143469173,729.50595564102366,2088.3156107602799,-693.80403741303496,581.0318120974365,-581.0318120974365,693.80403741303496,4082.3619042647974,0.0
663296.95196600363,3560566.251970998,-37500.0,1248.095234090905,-1501.0704135878555,1144.3702167830793,-1001.453290076665,1080.8460046177761,621.93303621248231,1897.178518518961,-468.29124099328533,259.50403235112049,-259.50403235112049,468.29124099328533,3689.3003111446778,0.0
668296.95196600363,3560566.251970998,-37500.0,1315.4795232468637,-1363.2050220458332,787.90432819217051,-942.51220296106908,861.77506125416278,521.91689642539609,1714.2238330952844,-254.74713897198961,-10.384510278931273,10.384510278931273,254.74713897198961,3310.1893593380287,0.0
568296.95196600363,3565566.251970998,-37500.0,1331.6629891658849,1243.9181301389021,-173.32106056192529,847.49981335045902,383.56618643415578,335.99629762251936,1661.590557118471,1693.2068257173901,-439.21730277270046,439.21730277270046,-1693.2068257173901,2999.3333365007811,0.0
573296.95196600363,3565566.251970998,-37500.0,1293.2154220226071,1477.0887749134167,246.80035058745582,956.43837140005087,657.07359982947332,467.29724243891417,1844.7568210844611,1728.3446895120992,-91.815725159267799,91.815725159267799,-1728.3446895120992,3390.8415000952486,0.0
578296.95196600363,3565566.251970998,-37500.0,1197.4393967021695,1669.3093569971556,746.18599642628919,1039.0369434458855,970.63136313903101,614.86424791195248,2050.5415188579841,1682.716198862541,328.69555560888807,-328.69555560888807,-1682.716198862541,3834.7209344851876,0.0
583296.95196600363,3565566.251970998,-37500.0,1046.3853984894399,1797.8736897230267,1312.4251847851663,1084.0297628361893,1316.2734284271078,774.96866826816358,2273.923517620241,1545.4132839760218,810.02484028132267,-810.02484028132267,-1545.4132839760218,4317.0348696912451,0.0
588296.95196600363,3565566.251970998,-37500.0,848.99043223074545,1841.1109928927892,1923.7345335203718,1081.0000851241603,1681.3096264451274,941.96540613140485,2507.5714049919611,1312.6325048715069,1330.7849106837396,-1330.7849106837396,-1312.6325048715069,4818.6049558725908,0.0
593296.95196600363,3565566.251970998,-37500.0,621.4305471753089,1781.6994841826634,2549.1526534068767,1021.9723976973294,2048.5548697267945,1108.421020242788,2742.2453776131488,990.03909617954628,1860.8786479522689,-1860.8786479522689,-990.03909617954628,5316.0947134975004,0.0
598296.95196600363,3565566.251970998,-37500.0,386.1655863384521,1610.1712979369204,3150.3867156059919,903.05098629203837,2397.359366832326,1265.557184679996,2967.0498923497576,594.06679166588731,2363.5599643826395,-2363.5599643826395,-594.06679166588731,5783.5861778425578,0.0
603296.95196600363,3565566.251970998,-37500.0,169.50592262798111,1327.8512906123503,3685.4175137572743,725.75543548525889,2705.4674111076038,1404.0131311182295,3169.313764745968,151.52288479075787,2799.2231863237562,-2799.2231863237562,-151.52288479075787,6194.6441306047464,0.0
608296.95196600363,3565566.251970998,-37500.0,-2.0790394659664457,948.40222726699551,4113.5269951476766,497.68228286182693,2951.5284594508284,1514.854596119839,3335.1702057830362,-302.83449865336752,3130.5097736436815,-3130.5097736436815,302.83449865336752,6524.7393450710078,0.0
613296.95196600363,3565566.251970998,-37500.0,-106.26643808173711,497.31567319975369,4400.9286541179481,232.20325574643525,3117.8692328448633,1590.6775786017647,3451.9222109042175,-730.5953083042682,3327.8411356142174,-3327.8411356142174,730.5953083042682,6753.7410524022407,0.0
618296.95196600363,3565566.251970998,-37500.0,-128.83444292631216,9.1390301126570375,4525.8319625509785,-52.885900876475432,3192.9757522176033,1626.5953754030902,3510.6123086349949,-1095.1437115808747,3374.1706951853821,-3374.1706951853821,1095.1437115808747,6868.0737310184304,0.0
623296.95196600363,3565566.251970998,-37500.0,-66.261937602544137,-477.16026471989073,4481.7575206372212,-337.57968246272708,3173.1343896416192,1620.8988426563371,3507.2488587969046,-1367.0920684403291,3267.7912164843638,-3267.7912164843638,1367.0920684403291,6862.1442624059864,0.0
628296.95196600363,3565566.251970998,-37500.0,73.728560342849221,-923.73310204892198,4278.2819696680936,-602.30625128920951,3062.8458970027978,1575.2419835942874,3442.9169578120636,-1528.4446166632388,3022.4622237067824,-3022.4622237067824,1528.4446166632388,6738.7580835078888,0.0
633296.95196600363,3565566.251970998,-37500.0,273.81883923122268,-1299.0476139533046,3939.0566633191474,-830.43744579692373,2873.9288785441995,1494.316084297707,3323.2669411881743,-1574.5519048233559,2664.8329207576103,-2664.8329207576103,1574.5519048233559,6508.4578762112542,0.0
638296.95196600363,3565566.251970998,-37500.0,510.44968122416674,-1581.6234431249809,3497.6441000922368,-1010.1473713332687,2623.5470037690975,1385.0947474781171,3157.5996468860353,-1513.538673211197,2229.84590748969,-2229.84590748969,1513.538673211197,6187.9227171607554,0.0
643296.95196600363,3565566.251970998,-37500.0,757.96810404773021,-1761.6545769528661,2992.259947098697,-1135.3084765058854,2331.6606853664803,1255.8375261658534,2957.6966641480349,-1363.5953497323494,1755.2994354483662,-1755.2994354483662,1363.5953497323494,5797.803862126385,0.0
648296.95196600363,3565566.251970998,-37500.0,992.55432240763378,-1840.4762453422566,2460.5839539949711,-1205.3758219097811,2018.4369720563654,1115.0511602781576,2736.3776032159913,-1148.9996426936941,1276.7690220739169,-1276.7690220739169,1148.9996426936941,5360.3546489360833,0.0
653296.95196600363,3565566.251970998,-37500.0,1195.1479868802276,-1828.3860222716839,1935.6456937659832,-1224.4684655771828,1702.1167492048589,970.60865181050826,2505.7479476123585,-895.92000669880861,823.83505204406936,-823.83505204406936,895.92000669880861,4897.3038829836551,0.0
658296.95196600363,3565566.251970998,-37500.0,1352.9987734125639,-1741.5864216547814,1443.2732592231944,-1199.9811978927466,1397.5931805627492,829.13092317214853,2275.5900517134646,-628.85209513759105,418.01786257610621,-418.01786257610621,628.85209513759105,4428.1952781408381,0.0
663296.95196600363,3565566.251970998,-37500.0,1459.8826753772671,-1599.0255995362409,1001.1537999200118,-1141.0821210179911,1115.7612275955632,695.66660549592996,2052.9332966720376,-368.186031398625,72.357848083163219,-72.357848083163219,368.186031398625,3969.3215515947122,0.0
668296.95196600363,3565566.251970998,-37500.0,1515.3080064691583,-1419.7107347834963,619.20625289749387,-1057.3753758922483,863.52975828042952,573.63959248975038,1842.6401142075197,-129.01355844501657,-207.75122389516676,207.75122389516676,129.01355844501657,3533.2452131017722,0.0
673296.95196600363,3565566.251970998,-37500.0,1523.1473296618544,-1220.7894634135537,300.79995059534338,-957.88772749169595,644.29218813972625,464.99179845046626,1647.9656901400185,79.007953775534332,-422.99740144258146,422.99740144258146,-79.007953775534332,3128.7948656949302,0.0
678296.95196600363,3565566.251970998,-37500.0,1490.0999973603341,-1016.4476697046126,44.358489343033369,-850.42620238358631,458.64140851402789,370.44039122801354,1470.832445391987,251.05975866143925,-578.33427921624502,578.33427921624502,-251.05975866143925,2761.3937371967495,0.0
558296.95196600363,3570566.251970998,-37500.0,1369.0532877697215,648.92900513604309,-1043.2296401520075,596.45136285303613,-160.95510220654231,92.443429431476432,1496.8457228189832,1519.9845746620344,-1156.5887538923666,1156.5887538923666,-1519.9845746620344,2603.3836383657213,0.0
563296.95196600363,3570566.251970998,-37500.0,1468.3265112982265,945.49965030512578,-797.89184820933565,757.8119927646469,38.58654041894826,201.29169094852512,1636.5675251309654,1722.5345596480138,-977.12439105077874,977.12439105077874,-1722.5345596480138,2877.3178301250482,0.0
568296.95196600363,3570566.251970998,-37500.0,1515.5872364168915,1249.2347471811149,-457.18789803596172,916.71048114404641,293.22329102811392,334.9676351842615,1806.7311656267625,1875.7747162521878,-709.24998021233807,709.24998021233807,-1875.7747162521878,3227.5972109274899,0.0
573296.95196600363,3570566.251970998,-37500.0,1499.332611999592,1539.4617279839247,-14.600559509268592,1061.4776380515495,604.7233716099048,493.70435950068065,2008.9753233804918,1957.3934839058763,-346.55880424191105,346.55880424191105,-1957.3934839058763,3656.218058718639,0.0
578296.95196600363,3570566.251970998,-37500.0,1412.3384036079105,1790.3434780410128,528.76378519098216,1178.1234404141865,970.42832414466841,675.74028094212304,2241.7930485427155,1946.0654070529954,109.74788628263229,-109.74788628263229,-1946.0654070529954,4156.6270849118846,0.0
583296.95196600363,3570566.251970998,-37500.0,1254.2025358014062,1972.7478283639668,1161.4373996132401,1251.4073810911896,1381.9498684617404,876.80957195536155,2500.1588897899396,1824.8936301455165,648.19606780140657,-648.19606780140657,-1824.8936301455165,4713.6654007345387,0.0
588296.95196600363,3570566.251970998,-37500.0,1033.4884572846133,2057.511112117917,1859.6130921951089,1266.5630866660579,1824.3192916702064,1089.8388507167433,2775.6301123099101,1585.3510590059316,1245.2191815998874,-1245.2191815998874,-1585.3510590059316,5304.3500593292574,0.0
593296.95196600363,3570566.251970998,-37500.0,768.75327003056861,2019.914541241902,2586.7349559696272,1211.5618770898707,2275.9782808034133,1305.0028285759101,3056.7491766629382,1230.9707930120198,1864.9991453741754,-1864.9991453741754,-1230.9707930120198,5899.3026142758763,0.0
598296.95196600363,3570566.251970998,-37500.0,487.75887875844791,1844.7277523053046,3295.3862822383817,1079.5851147857732,2709.943046045692,1510.2637925902261,3329.3044993244721,779.75642214411721,2461.6693418808181,-2461.6693418808181,-779.75642214411721,6464.8605985222921,0.0
603296.95196600363,3570566.251970998,-37500.0,224.46930511466815,1530.7402895905975,3931.8238304440506,871.18392382981369,3096.2811270502189,1692.4403198060184,3576.3276558683556,264.27276615845335,2984.1522528905962,-2984.1522528905962,-264.27276615845335,6965.9442816616256,0.0
608296.95196600363,3570566.251970998,-37500.0,14.00873961616397,1093.4598053427837,4442.8149741982907,595.5063278137568,3405.6991102461284,1838.7149404930426,3779.2409340031249,-271.26848506368583,3383.1765680992348,-3383.1765680992348,271.26848506368583,7369.5191749503747,0.0
613296.95196600363,3570566.251970998,-37500.0,-113.52244217334351,564.84600179510323,4783.630496209923,270.07294396509991,3613.6620624787647,1938.3444559390744,3921.1663607612109,-776.85491257859985,3619.2053094838197,-3619.2053094838197,776.85491257859985,7648.2409982972777,0.0
618296.95196600363,3570566.251970998,-37500.0,-138.89222568445061,-10.375615897231258,4925.4276100847565,-81.097572430873711,3704.1792994613988,1984.2289727661218,3990.3015200095192,-1204.4274946485305,3669.4289941188235,-3669.4289941188235,1204.4274946485305,7783.681678991863,0.0
623296.95196600363,3570566.251970998,-37500.0,-57.625204579834225,-581.29543765642018,4860.1252917359261,-430.75999003818475,3672.3302507676526,1973.9718514052549,3981.586204072561,-1515.7569777205713,3531.941679337629,-3531.941679337629,1515.7569777205713,7768.4730280924659,0.0
628296.95196600363,3570566.251970998,-37500.0,119.22396316082197,-1098.8061236584033,4601.4409823578544,-752.40999159163187,3524.8760695720111,1910.1682875313525,3896.9023329496513,-1688.4335977956948,3225.8939646026952,-3225.8939646026952,1688.4335977956948,7606.9107294012183,0.0
633296.95196600363,3570566.251970998,-37500.0,367.63038845430799,-1523.0238467108804,4181.8418690034578,-1024.0200911668485,3278.81901411341,1799.8609822222854,3744.3424298047375,-1718.477473624549,2787.5824547427683,-2787.5824547427683,1718.477473624549,7313.9101754642388,0.0
638296.95196600363,3570566.251970998,-37500.0,655.67172826608498,-1828.37522037605,3646.3135747896727,-1230.6947414314704,2958.31214232713,1653.3074153996361,3536.8203927620693,-1619.1184811471339,2263.6079945577781,-2263.6079945577781,1619.1184811471339,6912.5373965303525,0.0
643296.95196600363,3570566.251970998,-37500.0,949.61011206343153,-2005.4224042502656,3044.7351890826089,-1365.7751849135554,2590.7840112121053,1482.3980372094979,3290.2760976036725,-1416.4773602295111,1703.0247821162532,-1703.0247821162532,1416.4773602295111,6430.7715495630937,0.0
648296.95196600363,3570566.251970998,-37500.0,1219.381766397187,-2059.4995548796574,2424.6726328845457,-1430.3778171665847,2203.1496432596582,1299.0640767503414,3021.4804188990479,-1143.6066794436065,1150.3432862016116,-1150.3432862016116,1143.6066794436065,5898.067258305261,0.0
653296.95196600363,3570566.251970998,-37500.0,1442.3601578061828,-2007.1013586688809,1826.0396979459631,-1431.7729024028054,1818.8657308232332,1113.9930837090637,2745.5843841381966,-834.54894253217867,640.73172563979688,-640.73172563979688,834.54894253217867,5342.3898039384276,0.0
658296.95196600363,3570566.251970998,-37500.0,1604.9721651478408,-1871.2959234429202,1278.2139821672904,-1381.1858194770368,1456.1692236204999,935.80469668807541,2474.2972726388443,-519.64715775724517,197.85083768700258,-197.85083768700258,519.64715775724517,4788.0533196070628,0.0
663296.95196600363,3570566.251970998,-37500.0,1702.402148124487,-1677.3279300073557,799.47763590688089,-1291.5854750108922,1127.4985700588022,770.70912011290136,2215.7348395703739,-222.7012859670939,-165.97956295522931,165.97956295522931,222.7012859670939,4254.4918908060508,0.0
668296.95196600363,3570566.251970998,-37500.0,1737.0035758666761,-1449.1710924196923,398.17036682875164,-1175.8542024156493,839.84144521281655,622.56312057944024,1975.244130061348,40.054087121769896,-448.02361789459002,448.02361789459002,-40.054087121769896,3755.8744440664482,0.0
673296.95196600363,3570566.251970998,-37500.0,1716.1212930250708,-1207.3243041275221,74.791080052521039,-1045.522724925605,595.6522563639503,493.18863403620537,1756.0681271059862,259.56850063208435,-652.61200587810629,652.61200587810629,-259.56850063208435,3301.3553121955551,0.0
678296.95196600363,3570566.251970998,-37500.0,1649.90189091363,-967.78458267602673,-175.62071403353605,-910.07760153599179,394.00466192377303,382.81986583372935,1559.730714685933,432.74698514856709,-788.54280331813857,788.54280331813857,-432.74698514856709,2895.7221032153302,0.0
683296.95196600363,3570566.251970998,-37500.0,1549.4540711574743,-741.92813683118118,-361.28675649757417,-776.74017269484875,231.7290995636414,290.57183172265604,1386.3606568713644,560.88218782758213,-866.83356097794695,866.83356097794695,-560.88218782758213,2540.2284161444131,0.0
553296.95196600363,3575566.251970998,-37500.0,1284.8818597469233,210.47007134333938,-1485.5896020739449,391.00533561551998,-475.38552723952728,-58.996002992008876,1528.212535575617,1277.6435549165637,-1501.5313689094653,1501.5313689094653,-1277.6435549165637,2651.0124919721202,0.0
558296.95196600363,3575566.251970998,-37500.0,1472.0459733069406,514.51182043929373,-1357.3284647504624,574.50746116335233,-327.17768086489497,34.784228674499985,1643.4511669664848,1566.5027591134135,-1436.9038671031271,1436.9038671031271,-1566.5027591134135,2847.8077192353535,0.0
563296.95196600363,3575566.251970998,-37500.0,1620.5651436399778,854.07380936899517,-1135.5032786198356,771.59070539692357,-118.45070232460775,158.2602816292835,1787.6215584662868,1833.5388152505398,-1286.5934834270138,1286.5934834270138,-1833.5388152505398,3117.7734003438568,0.0
568296.95196600363,3575566.251970998,-37500.0,1712.4311372109585,1213.8135953141041,-803.23736608636409,972.2271262775173,158.82905396621572,314.55977760266626,1967.4534628048139,2053.5535732427738,-1033.8069383896236,1033.8069383896236,-2053.5535732427738,3478.1372167205132,0.0
573296.95196600363,3575566.251970998,-37500.0,1730.774502502908,1570.4812042547703,-348.29111225859208,1162.3241949584974,509.40731301089033,505.12657660908746,2187.3617909766981,2197.8867745681791,-666.40593724665382,666.40593724665382,-2197.8867745681791,3937.923041802504,0.0
578296.95196600363,3575566.251970998,-37500.0,1663.0217923409332,1893.0893182087511,233.09393198055992,1324.0324877928547,932.67215720748368,728.82408657978931,2447.9106563617852,2237.3701114663563,-180.77703664602336,180.77703664602336,-2237.3701114663563,4494.6371775219841,0.0
583296.95196600363,3575566.251970998,-37500.0,1504.581629728287,2144.7491860414184,932.10210868128831,1436.9244413239601,1420.561287622932,981.06445737540764,2744.8598510114871,2146.7678075452677,414.11918319145684,-414.11918319145684,-2146.7678075452677,5133.2432292514013,0.0
588296.95196600363,3575566.251970998,-37500.0,1262.3253992168773,2286.5754651652314,1723.9125060206677,1480.2035389377916,1955.9340859761821,1253.1735901859097,3068.9490703371694,1910.3052873209263,1093.4800622420839,-1093.4800622420839,-1910.3052873209263,5826.894098884738,0.0
593296.95196600363,3575566.251970998,-37500.0,956.79236020556368,2283.6194532275094,2566.1546640669935,1435.8764254471635,2512.0368986994463,1532.2534259946917,3406.1867322946659,1527.313501232341,1815.4301832616184,-1815.4301832616184,-1527.313501232341,6538.8104428047991,0.0
598296.95196600363,3575566.251970998,-37500.0,621.93691765272706,2112.0773107824552,3400.5112228635426,1292.4698394220304,3053.6741248291187,1801.784762289215,3738.057163447731,1016.467890841711,2523.0701293090092,-2523.0701293090092,-1016.467890841711,7225.1674541474404,0.0
603296.95196600363,3575566.251970998,-37500.0,301.57658476869085,1766.2378158901504,4158.2536054897027,1048.5107551113233,3540.4363801520258,2043.0988955180435,4041.6758664689278,416.90476713483395,3150.4984181275736,-3150.4984181275736,-416.90476713483395,7839.0911646287623,0.0
608296.95196600363,3575566.251970998,-37500.0,42.547405448497663,1263.1037341237577,4769.4980287948047,714.75287985659531,3931.8234311240062,2237.6338001720505,4291.8393425650656,-215.09649693891515,3632.422929082767,-3632.422929082767,215.09649693891515,8335.6473127098052,0.0
613296.95196600363,3575566.251970998,-37500.0,-114.22685820670898,642.7478750696572,5174.623725918048,314.21770300459707,4193.4294705178982,2369.6183214452831,4465.7790724530287,-814.0395197026628,3915.5993128750924,-3915.5993128750924,814.0395197026628,8677.261452116536,0.0
618296.95196600363,3575566.251970998,-37500.0,-142.47502634389642,-36.564801432612867,5335.1355679665166,-120.40218392247762,4302.7863851013472,2428.599311838499,4547.7127773156099,-1316.3476587791329,3969.2268411631239,-3969.2268411631239,1316.3476587791329,8838.5920870354748,0.0
623296.95196600363,3575566.251970998,-37500.0,-36.480991626729875,-707.80639781887317,5240.9368235081938,-551.63024698164907,4253.3219459118709,2411.1767295741743,4531.1660866035209,-1671.920690048991,3791.2546769530027,-3791.2546769530027,1671.920690048991,8809.8214997638534,0.0
628296.95196600363,3575566.251970998,-37500.0,187.79771098327279,-1306.850295647017,4911.7878278985154,-943.25124551576619,4055.2795946104229,2321.4628325339431,4419.2973115505338,-1852.8634515213812,3408.560819742032,-3408.560819742032,1852.8634515213812,8597.5470991564089,0.0
633296.95196600363,3575566.251970998,-37500.0,496.7584230802936,-1783.1768128796223,4392.546117282307,-1265.9453126573389,3733.3587277039151,2170.1515340295477,4223.7938461050126,-1856.9598797077037,2870.931889549192,-2870.931889549192,1856.9598797077037,8223.0855148131886,0.0
638296.95196600363,3575566.251970998,-37500.0,846.92166715548035,-2106.8182530926483,3743.7700386552942,-1501.1072180234526,3321.8283228904788,1972.4863484009788,3962.739998925394,-1705.2797102753827,2240.7852931275643,-2240.7852931275643,1705.2797102753827,7718.658202059225,0.0
643296.95196600363,3575566.251970998,-37500.0,1193.9135859065027,-2270.1823929445095,3030.555417298619,-1642.11579946338,2858.5441731566684,1745.7012855732571,3657.8057002290416,-1435.246323465022,1581.7412622372701,-1581.7412622372701,1435.246323465022,7122.4243112144559,0.0
648296.95196600363,3575566.251970998,-37500.0,1500.1211563438912,-2285.1680909358497,2312.5679777064538,-1693.1758503852252,2379.4034431566743,1506.5730440402476,3330.9657649921919,-1091.6965511765868,949.03283855194184,-949.03283855194184,1091.6965511765868,6473.4893895905334,0.0
653296.95196600363,3575566.251970998,-37500.0,1739.3870416985549,-2177.2638799039996,1637.2601377507908,-1666.4978254060811,1914.3226333493014,1269.556424230994,3001.16116569834,-718.51862827093532,383.58120838448599,-383.58120838448599,718.51862827093532,5807.7672831641357,0.0
658296.95196600363,3575566.251970998,-37500.0,1898.3853614261923,-1978.7468161921825,1036.9178484666418,-1578.8461576492004,1485.1868106948089,1045.7323746627808,2682.3305259226408,-352.63597064137315,-89.898612651617498,89.898612651617498,352.63597064137315,5155.2432132853955,0.0
663296.95196600363,3575566.251970998,-37500.0,1975.3166375254398,-1722.6783019735287,528.97682323177446,-1448.3248413496292,1105.5731897380474,842.52115802806384,2383.6422629748331,-20.931191381766553,-461.57327001422334,461.57327001422334,20.931191381766553,4538.6550454310736,0.0
668296.95196600363,3575566.251970998,-37500.0,1977.0498241473329,-1438.6463583423158,118.47721012050737,-1291.9418797436276,781.73663473392469,663.9768476757323,2110.6547169185837,260.22339668121924,-733.26190996427499,733.26190996427499,-260.22339668121924,3973.3863796689061,0.0
673296.95196600363,3575566.251970998,-37500.0,1915.8047452034182,-1150.4400560117654,-198.55524544799482,-1124.1187457914521,514.24397521134551,511.41471764583173,1866.1915589376986,483.66337696432186,-914.58138334330931,914.58138334330931,-483.66337696432186,3468.1767347562959,0.0
678296.95196600363,3575566.251970998,-37500.0,1806.1541337668632,-875.3479566839161,-431.72834069262376,-956.05110677007087,299.75325721876595,384.15424595407154,1650.9266555780919,649.25772764037833,-1019.3757826688645,1019.3757826688645,-649.25772764037833,3026.26706695454,0.0
683296.95196600363,3575566.251970998,-37500.0,1662.7429849781133,-624.56615936572757,-593.44479945327157,-795.69806592917462,132.61214818439893,280.2262800311953,1463.9033019844089,761.57278315705355,-1062.906583460091,1062.906583460091,-761.57278315705355,2646.683075244222,0.0
688296.95196600363,3575566.251970998,-37500.0,1498.8130819640944,-404.20583571417609,-696.81343830426067,-648.15344136176611,6.1185383748925304,196.96042846198026,1303.0370292629464,827.81316468967088,-1059.9300523065326,1059.9300523065326,-827.81316468967088,2325.4638181412897,0.0
548296.95196600363,3580566.251970998,-37500.0,1042.8629698297461,-277.23126885408908,-1787.7645981203204,116.92123110220422,-757.47766643778652,-219.79720250210337,1604.9627291640281,872.44924922106043,-1695.6940195229201,1695.6940195229201,-872.44924922106043,2832.9389234630016,0.0
553296.95196600363,3580566.251970998,-37500.0,1304.469335449407,-6.8823710592205689,-1784.3615265108099,301.10322079870343,-676.11810404324501,-151.69139320910443,1700.8528015962797,1213.7861815025415,-1751.5945342109301,1751.5945342109301,-1213.7861815025415,2967.6564128105606,0.0
558296.95196600363,3580566.251970998,-37500.0,1551.1451965867193,321.91570144933195,-1703.7236441443281,514.66177232179109,-536.85364961757807,-52.196828859610989,1816.8524198937957,1566.9520792726023,-1739.292648112252,1739.292648112252,-1566.9520792726023,3149.0258367905717,0.0
563296.95196600363,3580566.251970998,-37500.0,1762.3596198505245,703.12250422480474,-1521.9636309556022,751.82363943408325,-326.11977732737114,84.850063091467263,1962.5506529495242,1909.7305517440286,-1634.9772420954228,1634.9772420954228,-1909.7305517440286,3404.2996839086336,0.0
568296.95196600363,3580566.251970998,-37500.0,1914.6650980412658,1122.1530788640509,-1215.2945489245569,1001.8562434827064,-31.350003683303019,264.83380556062644,2148.1639244317084,2212.4629250295593,-1414.8620083912854,1414.8620083912854,-2212.4629250295593,3761.1785624638651,0.0
573296.95196600363,3580566.251970998,-37500.0,1984.2671686555821,1553.988222871219,-763.71674346570728,1248.2687669036045,356.74928649410361,491.26426944460377,2382.2792900164732,2439.2394656106085,-1058.966619612268,1058.966619612268,-2439.2394656106085,4240.1295245001947,0.0
578296.95196600363,3580566.251970998,-37500.0,1951.0363169383259,1962.4684068666265,-156.06316116984257,1468.7416098484982,841.26833560260707,764.42377248606442,2669.2520909340374,2551.08046050148,-556.25276242173959,556.25276242173959,-2551.08046050148,4847.2937397042433,0.0
583296.95196600363,3580566.251970998,-37500.0,1803.6736668200963,2301.7091904356557,604.10212299782017,1636.2464882914212,1415.8435636774454,1079.9253264460492,3007.1315609291069,2511.4318876734196,89.4556408367514,-89.4556408367514,-2511.4318876734196,5570.8112451156967,0.0
588296.95196600363,3580566.251970998,-37500.0,1545.1527003616575,2520.4899592679635,1492.8809134004996,1721.7464830087026,2061.7609164148498,1427.4948336587879,3386.6812836763484,2293.7299134885529,854.00067143273293,-854.00067143273293,-2293.7299134885529,6380.8182481014419,0.0
593296.95196600363,3580566.251970998,-37500.0,1196.8869116162746,2569.9075681781273,2462.5278061548493,1698.5479803524897,2746.3924930786875,1790.4065931806149,3791.2729854948775,1889.852478847951,1689.7395380075907,-1689.7395380075907,-1889.852478847951,7231.8334698307617,0.0
598296.95196600363,3580566.251970998,-37500.0,799.6967922278543,2413.5448726484005,3442.1027515173096,1547.8376798515169,3424.0453076405338,2146.0255062375745,4196.8640763620269,1317.2896720242675,2526.8070521234345,-2526.8070521234345,-1317.2896720242675,8066.760381682705,0.0
603296.95196600363,3580566.251970998,-37500.0,409.92850478708874,2038.0674242199184,4343.9264280566413,1264.2781755660067,4040.0351606739127,2467.7845517203855,4572.3910062464947,622.25556111634364,3280.3220450788012,-3280.3220450788012,-622.25556111634364,8822.5572509475423,0.0
608296.95196600363,3580566.251970998,-37500.0,90.272945545660605,1461.0275868632391,5075.989008945583,859.99166483918236,4537.9651283865614,2728.5521025399003,4883.2530669376183,-123.7009066701462,3863.4494102632543,-3863.4494102632543,123.7009066701462,9437.4845770034062,0.0
613296.95196600363,3580566.251970998,-37500.0,-103.18524978504402,732.56005231137124,5558.3114598243401,365.25670176632178,4869.0774065371215,2904.8828271754824,5098.2623716679609,-834.367042604777,4203.9710544310274,-4203.9710544310274,834.367042604777,9859.2477130046573,0.0
618296.95196600363,3580566.251970998,-37500.0,-134.18449178594736,-70.976800830354421,5739.1020650755218,-175.04521584024971,5001.4150330577459,2981.1647767012241,5195.9756765154771,-1424.9745179151362,4259.9185938757146,-4259.9185938757146,1424.9745179151362,10052.514594138191,0.0
623296.95196600363,3580566.251970998,-37500.0,4.6095860376612077,-860.64574801194601,5605.7416411081576,-708.8238964698287,4926.1251445635417,2952.5114914838505,5168.012931277357,-1829.378792749905,4029.2271422359545,-4029.2271422359545,1829.378792749905,10004.037792996893,0.0
628296.95196600363,3580566.251970998,-37500.0,289.95768486788182,-1552.1863846295719,5186.8629507836431,-1186.136913174051,4658.8737758927409,2825.5127291394324,5019.5732712228364,-2012.9490768097585,3549.9394855425899,-3549.9394855425899,2012.9490768097585,9724.004953975782,0.0
633296.95196600363,3580566.251970998,-37500.0,674.47912398411574,-2081.6369907099192,4544.8400788305535,-1567.8147617439763,4235.9275996396091,2616.6193966620972,4767.7131805534755,-1977.1638926786272,2890.8196744507723,-2890.8196744507723,1977.1638926786272,9243.258831830799,0.0
638296.95196600363,3580566.251970998,-37500.0,1098.6969290014272,-2414.7822899518401,3761.4315352919002,-1830.9648906634782,3706.2811641078715,2348.7162932131641,4437.9721726580274,-1755.0761666758926,2135.7170273526076,-2135.7170273526076,1755.0761666758926,8607.241845864788,0.0
643296.95196600363,3580566.251970998,-37500.0,1504.3918187887675,-2548.4979971908097,2921.3945584361122,-1970.2391959227314,3122.3591737433558,2046.9460334401983,4059.9784450567204,-1400.1528272185853,1366.8801279452298,-1366.8801279452298,1400.1528272185853,7868.3476698428394,0.0
648296.95196600363,3580566.251970998,-37500.0,1845.1892530285495,-2505.1197164345695,2098.7636010239321,-1995.2994035624099,2531.8713149850287,1734.9110526114648,3662.5587444888179,-972.84099603526931,651.91946105131376,-651.91946105131376,972.84099603526931,7078.5645106706925,0.0
653296.95196600363,3580566.251970998,-37500.0,2092.1212119685429,-2322.9445808338646,1348.5718018232783,-1925.9821875867749,1972.4634960713208,1432.018471236644,3269.3077378070607,-528.95197331059364,36.883063620158737,-36.883063620158737,528.95197331059364,6283.7931074889184,0.0
658296.95196600363,3580566.251970998,-37500.0,2234.1087767785625,-2046.2866273555153,704.41617860078384,-1786.9254238018902,1469.5804532363534,1152.2236706817989,2896.5702021566117,-112.24545964772463,-454.61429042049167,454.61429042049167,112.24545964772463,5520.4762121589383,0.0
663296.95196600363,3580566.251970998,-37500.0,2274.8274831849972,-1717.514056331562,180.50030514581732,-1602.9948166283234,1036.9580882480946,903.98509293436098,2554.273516124817,248.4056211572896,-817.96880772286329,817.96880772286329,-248.4056211572896,4814.4168588440962,0.0
668296.95196600363,3580566.251970998,-37500.0,2227.9136005324276,-1372.1007339253733,-223.86324629161791,-1396.1809721481377,678.7396557198831,691.03392667968819,2247.6197792890334,538.2680287357,-1062.1267046771941,1062.1267046771941,-538.2680287357,4181.2833665800472,0.0
673296.95196600363,3580566.251970998,-37500.0,2112.1261477780758,-1036.541150835739,-519.12170882743271,-1184.0085312537747,392.20464740882983,513.51668848212921,1978.3311883215961,753.94135215193762,-1203.9575008990078,1203.9575008990078,-753.94135215193762,3628.0896498901284,0.0
678296.95196600363,3580566.251970998,-37500.0,1947.4384746619955,-728.38708734316299,-720.90931101352419,-979.15761252717004,170.40339172882457,369.18332269555123,1745.5590515832532,899.85789250866651,-1263.5812437700208,1263.5812437700208,-899.85789250866651,3155.0974113836778,0.0
683296.95196600363,3580566.251970998,-37500.0,1752.3973908830619,-457.51687637586105,-846.58126719043617,-789.86591035316712,4.3074662022007306,254.41616218319334,1546.6798752368109,985.01129854682574,-1261.0698499286177,1261.0698499286177,-985.01129854682574,2757.7349023045244,0.0
688296.95196600363,3580566.251970998,-37500.0,1542.6741169401641,-227.90318061469816,-912.92909369758195,-620.72248585806221,-115.6430609640601,165.01684087766154,1378.0117041615943,1020.3679936200589,-1214.4720530153281,1214.4720530153281,-1020.3679936200589,2428.3277812775955,0.0
693296.95196600363,3580566.251970998,-37500.0,1330.5334973746715,-39.390458382766951,-934.89785266371882,-473.57007552348546,-198.55420186436919,96.746222975996716,1235.4140609978169,1017.0725209805921,-1138.8848970030588,1138.8848970030588,-1017.0725209805921,2157.5638708196934,0.0
543296.95196600363,3585566.251970998,-37500.0,647.14563565908873,-753.83781429379485,-1921.8272173888802,-203.456475951773,-978.01009641046983,-375.9692214571084,1717.2026915569838,340.53027936928265,-1713.3531984775041,1713.3531984775041,-340.53027936928265,3117.1365781287309,0.0
548296.95196600363,3585566.251970998,-37500.0,952.75404561523885,-553.89546756852417,-2030.5122835640668,-43.030944634067829,-969.66310583161567,-341.84225561712833,1808.5863181057766,688.18856869636318,-1874.1625181670111,1874.1625181670111,-688.18856869636318,3234.258367637487,0.0
553296.95196600363,3585566.251970998,-37500.0,1272.4999969469952,-283.89735272044288,-2089.2372916454783,158.54062362522538,-914.14477121127175,-278.67643294006001,1908.7073144055321,1079.6705333635559,-1995.3333227133198,1995.3333227133198,-1079.6705333635559,3364.0687813234936,0.0
558296.95196600363,3585566.251970998,-37500.0,1588.7198766825934,60.741997616314897,-2072.670009802745,401.46882863423349,-794.73548028094524,-177.92948231492522,2025.332697418512,1501.2420797452828,-2051.7972992490331,2051.7972992490331,-1501.2420797452828,3528.1507401575668,0.0
563296.95196600363,3585566.251970998,-37500.0,1877.4379219153655,478.01750334212028,-1951.0978595012011,681.48410475100513,-592.91274621784783,-30.500859937601309,2169.7336899157231,1929.882362733068,-2013.8613967828892,2013.8613967828892,-1929.882362733068,3758.550952066636,0.0
568296.95196600363,3585566.251970998,-37500.0,2109.2077814601398,955.98183366105695,-1692.6017807965741,988.04131634489204,-290.04214045780111,172.32115684437508,2355.9049416490125,2332.0877991692942,-1849.4547179589483,1849.4547179589483,-2332.0877991692942,4094.4310606991812,0.0
573296.95196600363,3585566.251970998,-37500.0,2251.7116202138877,1469.4609436912897,-1267.1692558521293,1302.7170559315887,129.8076590584723,437.39234857757987,2598.1005223824523,2664.2571047501947,-1528.3849519727714,1528.3849519727714,-2664.2571047501947,4572.7032830627904,0.0
578296.95196600363,3585566.251970998,-37500.0,2274.562893428229,1977.8596256043691,-653.00301721251014,1598.3836593576266,675.87009450855123,767.73502188960015,2906.9523154683648,2875.6694326355455,-1028.8315343557422,1028.8315343557422,-2875.6694326355455,5215.4110770788284,0.0
583296.95196600363,3585566.251970998,-37500.0,2156.2653141582464,2425.4896948514265,155.31337752330782,1839.9259017126305,1345.8076309176461,1160.2288014115154,3285.4713518640292,2914.8952452722415,-345.65433892895885,345.65433892895885,-2914.8952452722415,6020.0874983248468,0.0
588296.95196600363,3585566.251970998,-37500.0,1892.3974166758044,2745.9768709662976,1138.1138977050623,1987.2798826870637,2120.8185826350687,1603.4007672823739,3726.359905066096,2739.7872047119172,500.93574235222854,-500.93574235222854,-2739.7872047119172,6956.8026122688461,0.0
593296.95196600363,3585566.251970998,-37500.0,1502.9221412525442,2871.734260432539,2243.8986130035191,2001.2109410863077,2962.1838582372675,2075.9947484318564,4210.8152026768621,2329.828656329275,1458.9864799056159,-1458.9864799056159,-2329.828656329275,7970.6670571580107,0.0
598296.95196600363,3585566.251970998,-37500.0,1035.5845084401547,2748.0494732914208,3387.8583153226732,1851.4537393797709,3811.1217054927943,2547.1581626009511,4707.8815658245312,1697.8910861120498,2444.1116140825648,-2444.1116140825648,-1697.8910861120498,8987.5095767981893,0.0
603296.95196600363,3585566.251970998,-37500.0,562.32854574987437,2349.0895084559065,4458.7606755044444,1525.6528175106325,4593.5918262848718,2978.9498123101275,5175.1519981219644,897.00554215775605,3347.5028579377349,-3347.5028579377349,-897.00554215775605,9922.0367190301367,0.0
608296.95196600363,3585566.251970998,-37500.0,167.24788338828102,1690.9363261659857,5335.3339132627416,1036.4290478664327,5230.5511904531795,3331.3436221206171,5564.5703199281197,17.73644804084779,4053.4491542745213,-4053.4491542745213,-17.73644804084779,10688.528702800973,0.0
613296.95196600363,3585566.251970998,-37500.0,-72.217218152415398,835.97892493798815,5909.7198148720418,423.54253319537696,5652.1733213590496,3569.0187457678012,5832.7510468801393,-825.96905999694309,4463.3838365871088,-4463.3838365871088,825.96905999694309,11213.227128646233,0.0
618296.95196600363,3585566.251970998,-37500.0,-105.48554026506717,-115.17487247643642,6111.7071534410343,-250.86844885910045,5812.4061042210287,3668.2784478664826,5950.0381807898848,-1520.2239373932957,4519.6182499458937,-4519.6182499458937,1520.2239373932957,11446.106612504307,0.0
623296.95196600363,3585566.251970998,-37500.0,76.892758951039028,-1043.6082237011606,5925.5643474599383,-913.60213293276456,5699.223256510626,3621.997470671236,5905.4384239940009,-1977.0677451501767,4220.3510475858729,-4220.3510475858729,1977.0677451501767,11369.053245096875,0.0
628296.95196600363,3585566.251970998,-37500.0,440.76173237473353,-1837.9761495650046,5393.0292717787552,-1495.1327363534942,5336.839279873443,3440.8777580612764,5707.4322907088954,-2153.7736742020861,3619.8811913073132,-3619.8811913073132,2153.7736742020861,10997.934711372864,0.0
633296.95196600363,3585566.251970998,-37500.0,918.78742714758562,-2417.5542901076751,4601.308274086532,-1943.0204315278643,4779.0916881218027,3150.5883769614861,5381.1959257677972,-2058.835122125367,2813.7676566700056,-2813.7676566700056,2058.835122125367,10377.961517711718,0.0
638296.95196600363,3585566.251970998,-37500.0,1429.3734399045072,-2744.9853266085929,3660.9121417166884,-2229.8416635152098,4096.5450789424913,2785.862303309209,4963.1440021521639,-1743.5503341050623,1914.7833373165961,-1914.7833373165961,1743.5503341050623,9573.8826622911874,0.0
643296.95196600363,3585566.251970998,-37500.0,1896.6047524948347,-2826.0726632116762,2681.5442384759667,-2353.9692958733954,3361.907698470749,2383.5859519426285,4494.0120258238949,-1283.9739603468608,1028.5006936250327,-1028.5006936250327,1283.9739603468608,8658.0525791313266,0.0
648296.95196600363,3585566.251970998,-37500.0,2264.6630714213693,-2699.3089758165652,1753.4814270696313,-2334.3978640988526,2638.1241550044256,1976.9000492799614,4011.6177411817316,-760.78890267815609,235.89254019406854,-235.89254019406854,760.78890267815609,7699.5557814555223,0.0
653296.95196600363,3585566.251970998,-37500.0,2503.7624337958896,-2420.7872606226128,938.1174625153817,-2202.5262170189717,1971.5378900312633,1591.5107057424584,3545.070304655469,-243.50022515320276,-413.97596645664044,413.97596645664044,243.50022515320276,6756.4834129816591,0.0
658296.95196600363,3585566.251970998,-37500.0,2608.4925197088482,-2049.9872504555701,267.26403367391896,-1993.9272379423542,1390.2551374505645,1244.4187652949465,3112.9670121044069,218.06918377418907,-902.35795094260379,902.35795094260379,-218.06918377418907,5872.0906339867834,0.0
663296.95196600363,3585566.251970998,-37500.0,2591.5656635508585,-1639.6705531175394,-251.73911507393302,-1742.0451785938421,906.25355488203388,944.50531459473007,2725.2286096837242,595.38563994792776,-1233.8654222778541,1233.8654222778541,-595.38563994792776,5074.2196044969469,0.0
668296.95196600363,3585566.251970998,-37500.0,2476.2205690986302,-1230.6950437378255,-628.49457875572739,-1474.5108490997645,519.38467143151831,694.18178676831951,2385.6575483859624,878.17844785710986,-1427.8142452288125,1427.8142452288125,-878.17844785710986,4376.9686410364066,0.0
673296.95196600363,3585566.251970998,-37500.0,2289.5226217509703,-850.85454660941457,-882.18923455648633,-1211.7740793252258,221.69677544730609,491.36249576088068,2093.8018939002995,1069.355931352063,-1510.4345918451461,1510.4345918451461,-1069.355931352063,3783.4360261754582,0.0
678296.95196600363,3585566.251970998,-37500.0,2057.5920148355308,-516.26070084850835,-1035.7684888594431,-967.34667275082813,1.1502524862333348,331.28316768102155,1846.3479689875564,1179.7946559633106,-1509.1328389789137,1509.1328389789137,-1179.7946559633106,3288.7359114753208,0.0
683296.95196600363,3585566.251970998,-37500.0,1802.8544262157156,-233.88467677845355,-1112.0154449410986,-748.91490597552468,-155.64484227766701,207.93357224157978,1638.2901822676845,1224.0576630865794,-1448.9603849544815,1448.9603849544815,-1224.0576630865794,2882.8206392603793,0.0
688296.95196600363,3585566.251970998,-37500.0,1542.9159906615091,-4.2912025944319394,-1131.3248487119461,-559.75148401775107,-261.66718457131969,115.0541109629479,1463.8979932984457,1217.3839327253713,-1350.8957204054645,1350.8957204054645,-1217.3839327253713,2552.9074844338747,0.0
693296.95196600363,3585566.251970998,-37500.0,1290.5249224639999,175.96505004379557,-1110.732920414162,-400.07525483675079,-328.5148739741237,46.748595846828735,1317.444381612916,1173.8636472186083,-1231.3786214321997,1231.3786214321997,-1173.8636472186083,2285.4384506997849,0.0
698296.95196600363,3585566.251970998,-37500.0,1054.136720961558,312.4852869687673,-1063.7555488711598,-268.18730202135703,-365.99816116696621,-2.1960436462549939,1193.6836815923189,1105.531219937453,-1102.5827316401751,1102.5827316401751,-1105.531219937453,2067.5313763549993,0.0
538296.95196600363,3590566.251970998,-37500.0,129.35528249443607,-1158.808034731396,-1887.9026461656297,-539.15191688692482,-1116.6947388556564,-513.63835272358426,1842.6277367648217,-258.3373054871771,-1558.6285179502743,1558.6285179502743,258.3373054871771,3439.0798665976986,0.0
543296.95196600363,3590566.251970998,-37500.0,437.36122022083862,-1052.5326386572438,-2078.5293831959043,-424.80959131201047,-1176.5895372965481,-517.73304791863393,1946.3803277341881,47.465277695689224,-1790.729363678839,1790.729363678839,-47.465277695689224,3585.659095000492,0.0
548296.95196600363,3590566.251970998,-37500.0,786.66033616727589,-878.50848042711891,-2250.5628644271342,-264.59787836855418,-1205.9986575112159,-499.11153996524342,2051.0739908512596,419.62784698938708,-2015.6389685417346,2015.6389685417346,-419.62784698938708,3723.0933056849235,0.0
553296.95196600363,3590566.251970998,-37500.0,1167.1830158473902,-623.53780746270297,-2382.9657473443194,-52.261970080788075,-1188.3728326030439,-448.22495502258289,2159.7468480479315,855.8202239872337,-2213.0611719498675,2213.0611719498675,-855.8202239872337,3858.6840559536777,0.0
558296.95196600363,3590566.251970998,-37500.0,1561.269180523916,-277.20568523262108,-2447.5853359088942,215.78638127917912,-1103.0137377370911,-353.5869146893445,2279.0556901644818,1345.5227778490525,-2355.2190291972292,2355.2190291972292,-1345.5227778490525,4010.1554924226234,0.0
563296.95196600363,3590566.251970998,-37500.0,1942.4193084174444,164.64045479668371,-2409.1467347086982,538.27961784512888,-925.56717852379927,-202.21340663337915,2420.6347926295448,1866.9466452250392,-2406.8092286193323,2406.8092286193323,-1866.9466452250392,4209.945806928301,0.0
568296.95196600363,3590566.251970998,-37500.0,2275.2479374869868,695.33275498236958,-2226.8639598994532,906.41104998139599,-629.64779932548697,19.332376589087392,2601.5878453313335,2384.3589899274425,-2326.6680918509078,2326.6680918509078,-2384.3589899274425,4506.2575622014429,0.0
573296.95196600363,3590566.251970998,-37500.0,2517.607483344575,1292.256230357506,-1858.5627595142005,1301.0361646758993,-190.07462546827986,323.08671337888558,2842.8089389462834,2846.9568171852784,-2072.0761929275182,2072.0761929275182,-2846.9568171852784,4955.7481577711233,0.0
578296.95196600363,3590566.251970998,-37500.0,2625.847024613056,1912.3601004090144,-1268.071078864233,1690.5183767705544,411.94643305517934,716.91187707749418,3164.2801622087609,3190.8597779766774,-1606.4503049101545,1606.4503049101545,-3190.8597779766774,5606.0159349897158,0.0
583296.95196600363,3590566.251970998,-37500.0,2563.7002919614215,2490.3393896608573,-435.98503451668955,2030.4008471958025,1181.8053244273403,1200.9279272209315,3578.3385051665609,3345.8969977800593,-910.44673533763535,910.44673533763535,-3345.8969977800593,6475.3623383290687,0.0
588296.95196600363,3590566.251970998,-37500.0,2314.0865201141778,2942.0797122213462,627.45115759065811,2266.3145969978068,2103.5828241482827,1763.6739585366881,4083.5350712081399,3248.1670637164962,4.9749497485624943,-4.9749497485624943,-3248.1670637164962,7541.2581373911116,0.0
593296.95196600363,3590566.251970998,-37500.0,1891.2335175332896,3175.6489052805841,1870.5590117249881,2341.2652167347478,3133.3244238726083,2379.0342440038457,4660.7070538275311,2857.5349060994245,1087.006361074104,-1087.006361074104,-2857.5349060994245,8740.7341918573111,0.0
598296.95196600363,3590566.251970998,-37500.0,1348.5294961993618,3110.2646590593636,3194.6141505085316,2207.3287220189718,4196.5628454711959,3005.391716297137,5270.6722876522945,2176.3299139716692,2236.2901265902719,-2236.2901265902719,-2176.3299139716692,9978.2799723065855,0.0
603296.95196600363,3590566.251970998,-37500.0,776.66557685782971,2700.1519445106464,4459.958478468724,1839.8157274651167,5193.3034242661442,3588.4897557397667,5855.3161920171715,1262.5550409427981,3314.6379376048026,-3314.6379376048026,-1262.5550409427981,11137.982691953239,0.0
608296.95196600363,3590566.251970998,-37500.0,288.41329809902265,1956.0579104737367,5507.0201428784894,1249.7036863738779,6012.1790951977428,4068.7414493197225,6347.137784885027,229.8279015382966,4167.9495070505418,-4167.9495070505418,-229.8279015382966,12099.559906980352,0.0
613296.95196600363,3590566.251970998,-37500.0,-8.5966294001426764,954.83377304721432,6189.8248065334328,488.90290022886313,6552.1398589379141,4392.15305386828,6684.8018786445837,-770.87770717337435,4661.0516815775754,-4661.0516815775754,770.87770717337435,12757.473724626643,0.0
618296.95196600363,3590566.251970998,-37500.0,-43.064487803520635,-170.37603450361183,6412.6063980010013,-355.84047476774253,6745.9257432182985,4522.1029128289683,6826.5134959082288,-1585.473761411803,4714.0393819866104,-4714.0393819866104,1585.473761411803,13039.73601778153,0.0
623296.95196600363,3590566.251970998,-37500.0,197.22660497184759,-1259.4131496258747,6155.8904265923466,-1180.463316194528,6577.0506585532648,4448.0142210848326,6757.614470176326,-2096.1997295195906,4325.9181820657004,-4325.9181820657004,2096.1997295195906,12921.203000393816,0.0
628296.95196600363,3590566.251970998,-37500.0,661.60382875347739,-2164.4469178332629,5480.8528976122852,-1887.2399893729876,6083.3807172973684,4187.5458333128654,6491.9110802843761,-2250.9577984340435,3574.806585121953,-3574.806585121953,2250.9577984340435,12426.870662096126,0.0
633296.95196600363,3590566.251970998,-37500.0,1253.6794018975452,-2784.3478246833074,4509.89842615218,-2405.9869103137848,5345.7334824437394,3781.394911692008,6067.0381063043305,-2070.8816617149705,2594.137504027678,-2594.137504027678,2070.8816617149705,11623.949826186323,0.0
638296.95196600363,3590566.251970998,-37500.0,1861.434522720172,-3081.5821596361329,3392.1405347659247,-2705.4214897397051,4466.3989515997537,3282.8898568644204,5535.4508166585993,-1634.8874809180963,1535.3198926338421,-1535.3198926338421,1634.8874809180963,10605.672390386404,0.0
643296.95196600363,3590566.251970998,-37500.0,2387.0529933347402,-3078.2213354471901,2267.9679688586675,-2792.2596070243958,3546.0807475823653,2746.3832199258477,4953.4354689094016,-1050.3880215960687,532.08568485944784,-532.08568485944784,1050.3880215960687,9472.4145400111665,0.0
648296.95196600363,3590566.251970998,-37500.0,2765.9669335820454,-2837.072380048427,1244.4301296192118,-2701.0323887316026,2666.6946141146427,2218.1154079684038,4370.4290397414279,-423.37227145534052,-321.96106186927329,321.96106186927329,423.37227145534052,8315.5929878318857,0.0
653296.95196600363,3590566.251970998,-37500.0,2971.776333233081,-2438.1487685740499,385.81446265349899,-2480.2963129650298,1883.3064321652644,1731.3663887554083,3821.6561968621418,162.3291796498911,-979.36715437884368,979.36715437884368,-162.3291796498911,7207.4967784848832,0.0
658296.95196600363,3590566.251970998,-37500.0,3010.1882226895473,-1959.0013362100472,-283.11418354205097,-2180.3062591068287,1224.2889660280744,1305.7126123246128,3327.0916257889262,653.50697545240428,-1432.2705840897393,1432.2705840897393,-653.50697545240428,6197.470410544579,0.0
663296.95196600363,3590566.251970998,-37500.0,2907.7705268934574,-1462.7948789007471,-766.96327607817784,-1844.7796323082437,696.52074762772156,949.02117009890492,2895.0581918788653,1026.1207052261116,-1699.8583172945896,1699.8583172945896,-1026.1207052261116,5312.8947661951643,0.0
668296.95196600363,3590566.251970998,-37500.0,2700.5859296095828,-993.93945296102197,-1088.0333621980187,-1507.0599072659579,292.35489675893177,660.64328971529301,2526.1959247994496,1278.4396032362051,-1815.4813171586748,1815.4813171586748,-1278.4396032362051,4562.9251396807704,0.0
673296.95196600363,3590566.251970998,-37500.0,2425.5084744563492,-578.96881294173568,-1276.4361796162862,-1189.6218348681423,-3.9010889833624622,434.64822012597023,2216.297860324823,1422.8027601146823,-1816.5639709294483,1816.5639709294483,-1422.8027601146823,3943.2378755426039,0.0
678296.95196600363,3590566.251970998,-37500.0,2114.9503785481775,-230.06802643596282,-1363.2416709350182,-905.51041264364164,-211.04793506509085,262.4734412008732,1958.3895618140582,1478.4466287826328,-1738.1754745730784,1738.1754745730784,-1478.4466287826328,3440.7099683681136,0.0
683296.95196600363,3590566.251970998,-37500.0,1794.5135729689409,50.695986823954293,-1376.5303370243957,-660.55059249373437,-347.77153159832795,134.80184149368401,1744.3512392459736,1466.3530907577701,-1609.7973715746821,1609.7973715746821,-1466.3530907577701,3037.5434732371627,0.0
688296.95196600363,3590566.251970998,-37500.0,1482.6443342085722,267.55240890328122,-1339.6452540023636,-455.58290478986032,-430.85880448735043,42.72484809198415,1566.1108258398249,1406.1161576152042,-1454.3375954426385,1454.3375954426385,-1406.1161576152042,2714.618762339599,0.0
693296.95196600363,3590566.251970998,-37500.0,1191.4086600646663,428.06353030139678,-1270.8535067142664,-288.35274688538527,-474.43861672978585,-21.647008232886201,1416.3991994012831,1314.3946268722971,-1288.4642786383124,1288.4642786383124,-1314.3946268722971,2453.9378629172029,0.0
698296.95196600363,3590566.251970998,-37500.0,927.73553430240293,541.06860661227029,-1183.7734939161883,-154.93604915733695,-489.86173368006274,-64.950313514364211,1289.1140456368673,1204.4287603467342,-1123.5614291921265,1123.5614291921265,-1204.4287603467342,2240.0904540656338,0.0
533296.95196600363,3595566.251970998,-37500.0,-456.86050663161404,-1444.9681713239586,-1712.9741539756205,-856.57128719858088,-1166.0993698686318,-621.61420221694652,1956.5000848557456,-853.3705614857297,-1264.2500844559906,1264.2500844559906,853.3705614857297,3733.9417897951848,0.0
538296.95196600363,3595566.251970998,-37500.0,-189.60633530198771,-1437.0738585692598,-1946.0947522813663,-803.74713466558046,-1279.8474558537789,-663.27890824526696,2084.4818053909557,-628.42132505226073,-1524.6438826743606,1524.6438826743606,628.42132505226073,3940.2052741818825,0.0
543296.95196600363,3595566.251970998,-37500.0,137.35704045801302,-1375.8650609234812,-2188.519105797418,-708.48772633598855,-1381.9989724013831,-691.45643207870683,2211.8513870065922,-328.83061889639532,-1806.1266530805028,1806.1266530805028,328.83061889639532,4133.2258813645412,0.0
548296.95196600363,3595566.251970998,-37500.0,523.70131756564808,-1244.0096447642281,-2427.2614113843092,-560.20747534441898,-1459.2906372867142,-697.28386294500433,2337.5116128586378,53.709529782892673,-2097.1468495110157,2097.1468495110157,-53.709529782892673,4309.1378262598892,0.0
553296.95196600363,3595566.251970998,-37500.0,962.80736951263293,-1022.9146833734893,-2642.0522061898323,-348.49951256579681,-1493.2204283194424,-668.99608282157271,2462.0766190849681,522.7619751491718,-2378.5444571071803,2378.5444571071803,-522.7619751491718,4468.5471451673029,0.0
558296.95196600363,3595566.251970998,-37500.0,1439.1046444455426,-695.02209886465903,-2803.5479002921452,-64.915234712033211,-1459.253360017294,-591.67792157261249,2589.61097392599,1073.561031076988,-2621.5902422237273,2621.5902422237273,-1073.561031076988,4621.5088279993333,0.0
563296.95196600363,3595566.251970998,-37500.0,1925.5125213453171,-247.69785165221504,-2872.1681523299576,294.30531605177219,-1326.6831361042002,-447.45619242310369,2729.9922520324071,1688.5824376328787,-2786.6946615727843,2786.6946615727843,-1688.5824376328787,4794.5957275850024,0.0
568296.95196600363,3595566.251970998,-37500.0,2381.8766712782826,321.0341671889779,-2798.5327451078806,724.50468959492139,-1059.8007264833805,-216.46884709876471,2901.277726829434,2332.8786333161256,-2823.8285258758428,2823.8285258758428,-2332.8786333161256,5037.9549669121361,0.0
573296.95196600363,3595566.251970998,-37500.0,2755.7873943443192,995.16499001562624,-2526.8556027073778,1208.1714563574783,-621.19947747362596,120.99209846297138,3130.345131228692,2950.5190328980898,-2676.0926263836209,2676.0926263836209,-2950.5190328980898,5425.6374386255493,0.0
578296.95196600363,3595566.251970998,-37500.0,2987.5057725735269,1732.9881068207085,-2002.8096145026377,1710.6666849363291,21.953275975467527,580.80920146494066,3449.2149398780766,3464.3535742085596,-2287.9979768920875,2287.9979768920875,-3464.3535742085596,6039.5026129662092,0.0
583296.95196600363,3595566.251970998,-37500.0,3020.4709204950445,2461.6082295648835,-1186.8479097930199,2177.7711013623257,888.3019114328664,1169.7576242509344,3885.8095808868866,3781.9640357759654,-1619.3927652892037,1619.3927652892037,-3781.9640357759654,6936.4239734012854,0.0
588296.95196600363,3595566.251970998,-37500.0,2817.473317263321,3077.6732732941609,-72.292073952635619,2537.4237316018002,1970.1058343001469,1879.1194731352559,4451.8898593709146,3810.3426760126995,-664.12155105028796,664.12155105028796,-3810.3426760126995,8117.5954812462651,0.0
593296.95196600363,3595566.251970998,-37500.0,2379.7489005257576,3458.7517694387757,1295.5129503693424,2708.1180483833177,3221.1161294537378,2678.6302654253964,5132.7093341881937,3479.6658570683867,530.7089845128246,-530.7089845128246,-3479.6658570683867,9518.7354435638663,0.0
598296.95196600363,3595566.251970998,-37500.0,1762.4992975321945,3487.8225479091325,2806.2985396859053,2615.1304754383577,4549.3371570181926,3513.2058249609363,5880.3814795906092,2772.0777368785061,1852.6935972811832,-1852.6935972811832,-2772.0777368785061,11019.435119325628,0.0
603296.95196600363,3595566.251970998,-37500.0,1077.6242682499749,3088.1260663004346,4287.6930958856601,2212.6282301390411,5820.6419540755242,4305.4045291928242,6615.1945664063851,1745.7701701391354,3129.0805687817738,-3129.0805687817738,-1745.7701701391354,12461.864532409654,0.0
608296.95196600363,3595566.251970998,-37500.0,475.76349891037864,2258.1779118499608,5530.9705039677856,1505.3524530215241,6877.620476885053,4965.7585431139914,7241.3141136145023,541.05730976837185,4155.5577915958002,-4155.5577915958002,-541.05730976837185,13675.476946022176,0.0
613296.95196600363,3595566.251970998,-37500.0,107.24904761686365,1091.007524794898,6338.4932089861049,560.24328827053671,7572.6323239751709,5410.4219320283692,7670.6010454709522,-642.04705430596778,4746.3644174357669,-4746.3644174357669,642.04705430596778,14507.014585841191,0.0
618296.95196600363,3595566.251970998,-37500.0,73.593485499468727,-236.69603747107374,6579.1719542484034,-500.66200345391758,7806.0946114074586,5581.6068278835246,7842.9344854500951,-1593.8455222393679,4790.2024094918288,-4790.2024094918288,1593.8455222393679,14851.038711195915,0.0
623296.95196600363,3595566.251970998,-37500.0,390.62161585056725,-1507.866015997419,6229.3009655244168,-1527.6269733864153,7555.2342942132682,5463.2807946691173,7738.4213552086821,-2155.7990021873015,4287.948214671902,-4287.948214671902,2155.7990021873015,14672.11727375705,0.0
628296.95196600363,3595566.251970998,-37500.0,982.45908241334723,-2525.6485932705841,5378.9079794159115,-2381.9540376451787,6879.9944172366004,5085.1311964871566,7379.607830768321,-2265.7172392793254,3352.7468835035497,-3352.7468835035497,2265.7172392793254,14010.149185320002,0.0
633296.95196600363,3595566.251970998,-37500.0,1710.2819695302919,-3165.140039355148,4199.9897898623958,-2970.1174146965259,5903.0141415239987,4512.8580390362804,6823.5293631992254,-1966.7667170159602,2171.3557072240801,-2171.3557072240801,1966.7667170159602,12966.546831797612,0.0
638296.95196600363,3595566.251970998,-37500.0,2420.7358279265895,-3395.0000035309104,2892.428576182288,-3259.7670075063957,4773.255099092682,3829.3374334544492,6146.5252524990101,-1379.256184789652,945.74163430432316,-945.74163430432316,1379.256184789652,11676.918942683173,0.0
643296.95196600363,3595566.251970998,-37500.0,2990.4075733706436,-3265.2114685208539,1632.3355965697895,-3274.3818168596604,3629.3626004872385,3114.8271510721606,5426.6014509753113,-653.09049483533227,-158.52455572840006,158.52455572840006,653.09049483533227,10280.81590998494,0.0
648296.95196600363,3595566.251970998,-37500.0,3349.6179049148182,-2873.9622697287391,541.03577087461645,-3073.7153380761288,2575.460773125581,2433.0080966945479,4727.765861089144,75.968618297609339,-1039.4710855602659,1039.4710855602659,-75.968618297609339,8898.0381611169887,0.0
653296.95196600363,3595566.251970998,-37500.0,3483.1014409612885,-2331.8675604687683,-321.39355583887993,-2731.0207010212957,1673.1907091762778,1825.3011873359126,4091.0805910425247,711.80325036863553,-1659.8124454782751,1659.8124454782751,-711.80325036863553,7615.9263196099619,0.0
658296.95196600363,3595566.251970998,-37500.0,3415.7405949338877,-1736.1330116408981,-945.25493503279063,-2315.2744011047771,946.29087489396488,1312.0027914162181,3535.6102246022901,1203.621078282805,-2031.3506554818121,2031.3506554818121,-1203.621078282805,6486.9070457545595,0.0
663296.95196600363,3595566.251970998,-37500.0,3193.8659349181153,-1158.2081615979537,-1353.4857513851769,-1881.3529058277486,391.23284039741782,897.12152424903229,3065.1219345581749,1538.4076429365871,-2194.2964807702506,2194.2964807702506,-1538.4076429365871,5532.7508338794278,0.0
668296.95196600363,3595566.251970998,-37500.0,2869.3907949819268,-642.22927769424825,-1584.880075935049,-1467.1637646324239,-11.462836643265787,574.13213871768062,2674.3402936416132,1728.2468987971406,-2199.4283128853685,2199.4283128853685,-1728.2468987971406,4751.8959983193508,0.0
673296.95196600363,3595566.251970998,-37500.0,2489.5733947731774,-209.5160122190656,-1681.9002630641216,-1095.1489689251882,-288.13959128653505,330.97466056281627,2353.2133800236634,1798.2004275057045,-2096.1765361702364,2096.1765361702364,-1798.2004275057045,4127.3503799057544,0.0
678296.95196600363,3595566.251970998,-37500.0,2092.126077070322,134.88211843564176,-1683.5182499223533,-775.72052490539238,-465.95617209785587,153.6734654466002,2089.8666287296028,1777.3123322227666,-1926.4270377472994,1926.4270377472994,-1777.3123322227666,3633.9142840866998,0.0
683296.95196600363,3595566.251970998,-37500.0,1704.1096545484065,395.99161954809449,-1621.9988922350833,-510.9950875754198,-569.52034596173644,28.592407577507348,1872.6341919391232,1693.103283993134,-1722.4576244387572,1722.4576244387572,-1693.103283993134,3244.1085331225895,0.0
688296.95196600363,3595566.251970998,-37500.0,1342.96113904041,584.08647240048799,-1522.2036261637202,-297.99969426183793,-619.44444189360911,-56.379625646541413,1691.2659646224101,1568.8688173092571,-1507.2964256754765,1507.2964256754765,-1568.8688173092571,2932.4049138599325,0.0
693296.95196600363,3595566.251970998,-37500.0,1018.4160928837061,711.38393036593743,-1402.2339097985061,-131.07712567748854,-632.08341139331708,-111.36752308778664,1537.4350209996414,1422.8456217066957,-1296.200476218243,1296.200476218243,-1422.8456217066957,2677.588464649381,0.0
698296.95196600363,3595566.251970998,-37500.0,734.56742368798507,790.02842723547315,-1274.6191239363914,-3.5181036255131874,-619.8959080836263,-144.48200933015008,1404.749771449169,1268.4362936221867,-1098.4404680105692,1098.4404680105692,-1268.4362936221867,2463.4668421928664,0.0
703296.95196600363,3595566.251970998,-37500.0,491.682779271588,831.01600168133132,-1147.5929988227501,91.429723103745658,-592.06355075909823,-162.01547761392573,1288.49381623974,1114.9239289810846,-918.96719227059475,918.96719227059475,-1114.9239289810846,2278.4673535890784,0.0
528296.95196600363,3600566.251970998,-37500.0,-1047.5375321474817,-1588.0315310161261,-1442.4751433239078,-1126.1547115466149,-1132.1476798241099,-693.25547932582174,2039.3771904577375,-1378.2816131576417,-882.47838674032505,882.47838674032505,1378.2816131576417,3954.3509755218834,0.0
533296.95196600363,3600566.251970998,-37500.0,-855.7682400224985,-1665.2785136302771,-1679.2323457455786,-1140.5268069262497,-1279.4702499819839,-767.30216430844155,2195.7503405653251,-1255.9337049747671,-1129.4722753946583,1129.4722753946583,1255.9337049747671,4229.8655008742662,0.0
538296.95196600363,3600566.251970998,-37500.0,-598.41940242717999,-1710.5315780033118,-1944.2398948943335,-1122.8841405638968,-1432.2889700434657,-838.26590505641479,2355.2333256387715,-1065.0744907984463,-1415.7873774113591,1415.7873774113591,1065.0744907984463,4501.187077098306,0.0
543296.95196600363,3600566.251970998,-37500.0,-267.17768157850685,-1707.2982936416954,-2233.2436282109093,-1061.1238776443379,-1582.4918774891976,-899.44736676047773,2514.8890249510823,-790.57593118069053,-1739.2894428666059,1739.2894428666059,790.57593118069053,4759.9886588812033,0.0
548296.95196600363,3600566.251970998,-37500.0,143.05688719809339,-1635.1015053646042,-2536.6526110383875,-941.10172995763844,-1717.1098876850983,-940.99177128772192,2671.5962112964903,-417.89293827228278,-2092.4049243069339,2092.4049243069339,417.89293827228278,4997.41496158675,0.0
553296.95196600363,3600566.251970998,-37500.0,631.37394409386252,-1470.0376706898894,-2837.0894617385457,-747.43781304758306,-1816.6975585375203,-949.05109889841515,2822.9466915635048,64.266129711397298,-2459.4402930783963,2459.4402930783963,-64.266129711397298,5206.3929411144654,0.0
558296.95196600363,3600566.251970998,-37500.0,1187.2027373544033,-1186.6188533764355,-3106.5645618189769,-465.26442888945007,-1853.6980097428948,-905.04947062113376,2969.001425421357,659.8031364446299,-2813.4779333087245,2813.4779333087245,-659.8031364446299,5386.3259852063811,0.0
563296.95196600363,3600566.251970998,-37500.0,1786.1329362591102,-761.62107455850196,-3303.7934061840915,-83.322839069326363,-1791.2651957212372,-785.35398650161358,3115.2799522688269,1359.470666974391,-3113.418122912085,3113.418122912085,-1359.470666974391,5551.4085791258449,0.0
568296.95196600363,3600566.251970998,-37500.0,2386.116345410484,-180.64759645933623,-3372.7341071029391,401.26422960051025,-1583.3766511583412,-561.83047170007546,3277.0197873519746,2133.833689926736,-3302.3422110659858,3302.3422110659858,-2133.833689926736,5742.8345419064781,0.0
573296.95196600363,3600566.251970998,-37500.0,2925.8027317054643,552.28304215876972,-3244.1653968230125,976.54420122504666,-1177.5092340685744,-203.96192215207768,3483.5143651682288,2926.2549913498942,-3309.1587105711906,3309.1587105711906,-2926.2549913498942,6040.6071488927919,0.0
578296.95196600363,3600566.251970998,-37500.0,3327.6792926899648,1402.9477851908021,-2842.794056879281,1608.3818347015031,-521.4583551971898,316.69492774641168,3778.8429865980679,3648.6790986752762,-3056.1702137924672,3056.1702137924672,-3648.6790986752762,6560.7003982005226,0.0
583296.95196600363,3600566.251970998,-37500.0,3509.053127922366,2295.8270690602876,-2102.3387605970674,2234.2562641614509,424.34277401963732,1019.1330869024996,4213.4454997391204,4184.5810221337915,-2475.0664666566477,2475.0664666566477,-4184.5810221337915,7419.1558105006188,0.0
588296.95196600363,3600566.251970998,-37500.0,3402.7544663153781,3109.3374486674097,-989.36675476204152,2761.8481063888566,1668.9644296207045,1902.7656853175831,4824.7367086247614,4404.1443015730229,-1531.9326975534325,1531.9326975534325,-4404.1443015730229,8671.5766966985102,0.0
593296.95196600363,3600566.251970998,-37500.0,2985.6231296622395,3685.0421664304822,467.55021994071001,3077.1080956508563,3170.4549043333591,2936.2367087108319,5613.3317920874215,4194.734427882111,-257.26316547120132,257.26316547120132,-4194.734427882111,10272.220523910522,0.0
598296.95196600363,3600566.251970998,-37500.0,2306.4423813629091,3857.2872508873493,2153.1106253361791,3065.5399955495136,4819.6910051756477,4049.0041100331705,6525.0027530201978,3503.511233565634,1229.6943728037938,-1229.6943728037938,-3503.511233565634,12076.592541445745,0.0
603296.95196600363,3600566.251970998,-37500.0,1498.5267661258445,3502.6377514125743,3860.2501348777641,2645.9047465695039,6439.1392911726907,5131.3130620803986,7450.9198461411397,2379.0725219720216,2718.3911163873636,-2718.3911163873636,-2379.0725219720216,13870.494984813518,0.0
608296.95196600363,3600566.251970998,-37500.0,761.24575822127713,2595.7945835984415,5319.3134710996073,1807.5863890243252,7806.3864883171882,6047.8721800127887,8253.7306891307762,990.23175908722214,3940.731748436046,-3940.731748436046,-990.23175908722214,15409.839818524038,0.0
613296.95196600363,3600566.251970998,-37500.0,305.04278717012636,1246.1928730163825,6264.0047556113241,634.90982319377827,8704.0723429107347,6666.278411530865,8804.6949297626379,-399.08463308353703,4642.0426380197623,-4642.0426380197623,399.08463308353703,16468.731972590078,0.0
618296.95196600363,3600566.251970998,-37500.0,275.68878465912854,-311.66683568455107,6515.1850948259353,-699.30562904500823,8982.9411547106047,6893.1973144924896,9015.5095664631281,-1502.4963525451351,4667.106497334581,-4667.106497334581,1502.4963525451351,16889.967507293484,0.0
623296.95196600363,3600566.251970998,-37500.0,693.65288637166634,-1782.3206994416405,6045.0135531967935,-1976.9232193184127,8611.3799079806377,6703.6903835767798,8858.637749071102,-2105.8735584384185,4020.7328013555061,-4020.7328013555061,2105.8735584384185,16622.815726178902,0.0
628296.95196600363,3600566.251970998,-37500.0,1444.3540100971027,-2903.6893543176971,4986.1229920270898,-2999.2720778271728,7685.4556331550193,6148.7764004946612,8371.1616224951431,-2137.7866582741508,2867.5107113937793,-2867.5107113937793,2137.7866582741508,15731.928035229699,0.0
633296.95196600363,3600566.251970998,-37500.0,2327.0574921957682,-3525.430406676081,3579.2267578897977,-3643.1089834300647,6393.0188956366128,5336.6820311595638,7640.7323356604165,-1678.8302009347024,1468.3127818342357,-1468.3127818342357,1678.8302009347024,14372.612429158744,0.0
638296.95196600363,3600566.251970998,-37500.0,3133.5768462814494,-3634.6614601926353,2088.3721887169463,-3882.3262168752035,4951.1971803143852,4397.7473580865571,6779.4475153518297,-910.26489168551961,88.716854936264156,-88.716854936264156,910.26489168551961,12743.807110687314,0.0
643296.95196600363,3600566.251970998,-37500.0,3713.7741438906364,-3326.8793689021149,727.10583785842891,-3772.0238822980332,3548.2894745551152,3450.2444628527137,5895.3046752549299,-37.19946813425338,-1074.1448444634207,1074.1448444634207,37.19946813425338,11039.135193223532,0.0
648296.95196600363,3600566.251970998,-37500.0,4002.0465967224195,-2749.3930341245118,-377.22673317950449,-3411.679864687158,2311.4170985064688,2579.7151070976461,5069.4570630429043,773.36965219610477,-1920.5872038273851,1920.5872038273851,-773.36965219610477,9412.5658075251631,0.0
653296.95196600363,3600566.251970998,-37500.0,4007.189055326679,-2049.0025391217205,-1181.0215344518863,-2908.5027595745837,1302.4372615605619,1834.174996975891,4346.3877171214735,1420.2019254641009,-2437.4629010599565,2437.4629010599565,-1420.2019254641009,7964.1629978706569,0.0
658296.95196600363,3600566.251970998,-37500.0,3784.0813347666722,-1340.8877549856813,-1700.4571724435957,-2353.3876349423149,531.78240099605671,1230.1106190521184,3739.3768087156532,1865.2381173039885,-2667.641159112698,2667.641159112698,-1865.2381173039885,6741.8985366522002,0.0
663296.95196600363,3600566.251970998,-37500.0,3404.9451635277651,-699.17602922901915,-1983.5206828902919,-1811.2035699268888,-22.102464407535983,762.62766028788326,3242.6419457887891,2115.539823387136,-2678.7479307517756,2678.7479307517756,-2115.539823387136,5752.282188473785,0.0
668296.95196600363,3600566.251970998,-37500.0,2939.1760191152262,-161.35369595860556,-2088.0566736155201,-1321.1405655403755,-395.73336669341455,415.11073872246743,2841.1507627877891,2202.8119987706295,-2540.7240131096369,2540.7240131096369,-2202.8119987706295,4973.838307611034,0.0
673296.95196600363,3600566.251970998,-37500.0,2443.0586445250901,261.7440053740923,-2068.4813065906305,-901.93022325611935,-628.90758321605244,166.4130524808366,2516.8052472846157,2167.379171526029,-2313.6842242614825,2313.6842242614825,-2167.379171526029,4370.1794859988222,0.0
678296.95196600363,3600566.251970998,-37500.0,1956.8516940881266,575.73594293266478,-1969.7195214225192,-558.20353740983126,-758.16268633471248,-4.6536423678798373,2252.183751531189,2048.2632425264078,-2043.5879292354748,2043.5879292354748,-2048.2632425264078,3900.9095701590554,0.0
683296.95196600363,3600566.251970998,-37500.0,1506.0655726068449,794.65736753103317,-1825.7818953184467,-286.06465703065209,-813.96375787733507,-116.97519674477181,2032.5182463775,1878.3558151494683,-1762.4960436096901,1762.4960436096901,-1878.3558151494683,3529.2060817594088,0.0
688296.95196600363,3600566.251970998,-37500.0,1104.4884217729939,935.54351973379778,-1660.7461153679908,-77.23932634459139,-820.14719355356067,-186.22523340117164,1846.342108665852,1682.9566966869199,-1490.898828214735,1490.898828214735,-1682.9566966869199,3225.6603723942853,0.0
693296.95196600363,3600566.251970998,-37500.0,757.48880376926081,1015.2290736014866,-1490.6581237633004,78.173611214719301,-794.51165676089181,-224.7908201194922,1685.2883094585168,1480.1556310402664,-1240.5720120303088,1240.5720120303088,-1480.1556310402664,2968.9861608254146,0.0
698296.95196600363,3600566.251970998,-37500.0,464.89704298283306,1048.7263487911337,-1325.5413418704054,190.05713858613137,-749.85656562333725,-242.11388621920321,1543.4983980923091,1282.0170641422576,-1017.1990896676314,1017.1990896676314,-1282.0170641422576,2744.8816325239222,0.0
703296.95196600363,3600566.251970998,-37500.0,223.23487716380973,1048.6038054963747,-1171.1473090487068,267.40853379023372,-695.08368939127286,-245.18924634502909,1416.9594874516758,1095.9592916364334,-822.47565396171035,822.47565396171035,-1095.9592916364334,2544.2516360627933,0.0
708296.95196600363,3600566.251970998,-37500.0,27.304414213622248,1024.9347236239448,-1030.3357751149076,317.97144461271807,-636.18191210051816,-239.07648285403207,1302.9306623905275,926.0256931919738,-655.66390310394729,655.66390310394729,-926.0256931919738,2361.5248818690234,0.0
523296.95196600363,3605566.251970998,-37500.0,-1582.2136002821851,-1589.1236049383351,-1128.1030096930992,-1327.5502778520099,-1031.297255246129,-727.12859452924909,2080.3732720369308,-1784.3362008810004,-471.77342736463834,471.77342736463834,1784.3362008810004,4074.6676478712238,0.0
528296.95196600363,3605566.251970998,-37500.0,-1485.4513148224175,-1725.8604125444142,-1338.3493285271293,-1404.8938978125809,-1190.7512246294693,-825.19459263344629,2262.4134792093637,-1766.6655240424598,-673.83881797441654,673.83881797441654,1766.6655240424598,4412.6048291497491,0.0
533296.95196600363,3605566.251970998,-37500.0,-1329.4796495521678,-1852.461974858094,-1585.0102186624747,-1464.7564700905807,-1368.0685599486524,-929.92743607045043,2454.0840285199733,-1697.0568699561441,-921.47317718037675,921.47317718037675,1697.0568699561441,4761.6437347422661,0.0
538296.95196600363,3605566.251970998,-37500.0,-1100.8217887401447,-1956.8324540742667,-1870.5947836728212,-1496.3522578967272,-1560.4913287656248,-1037.6322188505712,2652.738355697275,-1558.5296625709966,-1219.7307103316784,1219.7307103316784,1558.5296625709966,5114.2325495115911,0.0
543296.95196600363,3605566.251970998,-37500.0,-785.84573470010287,-2022.1452675887344,-2195.0558566182126,-1485.6165051991982,-1761.8373231616235,-1141.9189521263704,2854.5717327863904,-1331.4597431370548,-1571.3219055934887,1571.3219055934887,1331.4597431370548,5459.9885744253215,0.0
548296.95196600363,3605566.251970998,-37500.0,-372.62632373165673,-2026.0222375914893,-2553.7756365757405,-1414.9789677658816,-1960.7562918622987,-1232.5861468525491,3054.6602093490505,-994.65643537128267,-1974.4168981381911,1974.4168981381911,994.65643537128267,5785.8217145507087,0.0
553296.95196600363,3605566.251970998,-37500.0,146.02805288803623,-1940.2369470474553,-2934.6934144161319,-1263.6866776837828,-2138.4755425599956,-1294.2760066595354,3247.4310317712852,-527.70765000870517,-2419.4836288979027,2419.4836288979027,527.70765000870517,6077.1414444520478,0.0
558296.95196600363,3605566.251970998,-37500.0,768.11553409023566,-1731.6117201874167,-3314.5340270310276,-1009.1591298023958,-2266.1460900195743,-1305.0325525098974,3428.0065716983368,84.787792587709873,-2885.1130967492008,2885.1130967492008,-84.787792587709873,6321.3077367104088,0.0
563296.95196600363,3605566.251970998,-37500.0,1476.556597741052,-1365.1182183863555,-3654.4289423900586,-630.03437943760559,-2302.1937691992412,-1235.074228822617,3595.1117535126614,846.50528713895119,-3333.1594228152358,3333.1594228152358,-846.50528713895119,6515.2419335342702,0.0
568296.95196600363,3605566.251970998,-37500.0,2232.5425370706635,-810.47889112098585,-3895.8974457492882,-111.66712383211846,-2190.598566966768,-1046.3854233400803,3756.404006571388,1739.9697416510594,-3704.2683527024997,3704.2683527024997,-1739.9697416510594,6679.7181798714882,0.0
573296.95196600363,3605566.251970998,-37500.0,2969.9756579980317,-53.48964912632195,-3959.2816977508332,545.33742418125109,-1861.8037089435363,-694.13549156781198,3936.5759269522669,2715.2504298942572,-3916.0917565884597,3916.0917565884597,-2715.2504298942572,6881.1663387392819,0.0
578296.95196600363,3605566.251970998,-37500.0,3594.5768996903571,887.73910193994232,-3748.1410178922065,1313.781385921309,-1238.820996743995,-131.33721305129811,4185.8517731790116,3679.6723418098763,-3867.9892538703871,3867.9892538703871,-3679.6723418098763,7251.6167295958421,0.0
583296.95196600363,3605566.251970998,-37500.0,3992.8612921121708,1944.0811924220359,-3164.1267227348144,2127.768512548374,-251.54897207577372,681.69631378103759,4580.2340979401106,4494.439194951743,-3457.0220407558199,3457.0220407558199,-4494.439194951743,7974.8796308479969,0.0
588296.95196600363,3605566.251970998,-37500.0,4056.1064652252217,2981.2300603956642,-2135.8794232371652,2874.8025138832754,1138.7355902980123,1762.2094990402284,5200.047012841138,4986.7915895368724,-2608.8040086918263,2608.8040086918263,-4986.7915895368724,9205.742643835365,0.0
593296.95196600363,3605566.251970998,-37500.0,3720.2191390699095,3802.0780565965224,-660.41492101911285,3400.1527044910281,2906.6847213961673,3085.4885973226474,6083.9048079761469,4985.84697116799,-1321.0782389785168,1321.0782389785168,-4985.84697116799,10963.998882461046,0.0
598296.95196600363,3605566.251970998,-37500.0,3012.4312527766465,4178.9691534519579,1154.5603847097796,3532.208955853172,4931.2631408107782,4566.3239351030343,7181.5897353780983,4382.641853315532,292.98173684661128,-292.98173684661128,-4382.641853315532,13096.797965491014,0.0
603296.95196600363,3605566.251970998,-37500.0,2082.6441000605332,3920.9423378175675,3070.4660635068999,3132.0225639456471,6982.7645770646222,6051.5421789007078,8346.8382471591358,3198.6793024218496,1986.7183616755492,-1986.7183616755492,-3198.6793024218496,15317.781999608171,0.0
608296.95196600363,3605566.251970998,-37500.0,1190.2456067083467,2960.7210980128893,4746.5302547728397,2156.5376381156125,8748.7724722549556,7335.7033067227812,9381.3557706524389,1628.6404939806635,3414.9900364828272,-3414.9900364828272,-1628.6404939806635,17275.168459241613,0.0
613296.95196600363,3605566.251970998,-37500.0,629.17657918495684,1421.2679727620664,5828.8076876295472,707.56723175605941,9908.2266337465571,8206.2756052971527,10094.253101513152,17.374989246992754,4232.0721149650562,-4232.0721149650562,-17.374989246992754,18631.459972264485,0.0
618296.95196600363,3605566.251970998,-37500.0,609.90230333744944,-387.46117819376207,6075.2273545255894,-969.08737799556866,10235.539309897102,8508.7491626091432,10353.219267389066,-1244.2677433924493,4222.9374334449803,-4222.9374334449803,1244.2677433924493,19148.325212185919,0.0
623296.95196600363,3605566.251970998,-37500.0,1158.6372635612179,-2063.1220184926779,5455.6680176657856,-2551.8772269648975,9687.0600326039912,8203.2345123732011,10119.418082100936,-1867.4936059390272,3400.4244600609345,-3400.4244600609345,1867.4936059390272,18752.147035237303,0.0
628296.95196600363,3605566.251970998,-37500.0,2101.1921211969384,-3258.8892482363008,4164.6025420092665,-3754.0783688260758,8418.3704473089056,7379.5662059656979,9454.3485624407967,-1776.1589466888024,2003.8616844066339,-2003.8616844066339,1776.1589466888024,17549.208444002928,0.0
633296.95196600363,3605566.251970998,-37500.0,3147.3180459527871,-3802.0487709976214,2534.5396004889276,-4417.0877403231088,6718.7860030845286,6219.8271208067554,8494.3902420324594,-1112.7813827177906,394.15150941125012,-394.15150941125012,1112.7813827177906,15780.480022066926,0.0
638296.95196600363,3605566.251970998,-37500.0,4019.3456723996132,-3719.9177678790711,904.58186170665044,-4537.4272829149522,4902.919403691245,4931.0470845185318,7405.0664523803553,-145.54605609236512,-1088.9526044167001,1088.9526044167001,145.54605609236512,13739.237508163777,0.0
643296.95196600363,3605566.251970998,-37500.0,4546.0621054278336,-3178.1497259079483,-480.98274539308272,-4226.9919755660676,3219.7802282635034,3685.7834270396211,6334.5881323963913,854.0102063566178,-2226.2618788219493,2226.2618788219493,-854.0102063566178,11691.5287501895,0.0
648296.95196600363,3605566.251970998,-37500.0,4684.5368953539255,-2387.5010007075548,-1506.4147293582898,-3645.2235918601223,1813.9637138838755,2593.7128052666703,5381.5848903498609,1693.8054879119964,-2941.1502446400473,2941.1502446400473,-1693.8054879119964,9828.0251247473261,0.0
653296.95196600363,3605566.251970998,-37500.0,4487.0231056504117,-1531.9393440232716,-2162.7507266875491,-2942.6455868716821,734.06747091818772,1702.9933413589472,4586.9300124740439,2283.0581416241871,-3264.5953099380718,3264.5953099380718,-2283.0581416241871,8251.7703701301707,0.0
658296.95196600363,3605566.251970998,-37500.0,4050.8851759003669,-736.85089212253968,-2504.1085657359117,-2231.9999075852506,-36.257536723843998,1017.1473383978847,3948.928188841488,2612.1010472175572,-3282.7560906607055,3282.7560906607055,-2612.1010472175572,6990.2530699500421,0.0
663296.95196600363,3605566.251970998,-37500.0,3478.4438130135413,-68.675945651669494,-2608.2136996879108,-1582.990792308859,-546.12577041586803,514.28573017259396,3444.8029870142295,2718.6034693171741,-3094.4079418026249,3094.4079418026249,-2718.6034693171741,6018.164714155977,0.0
668296.95196600363,3605566.251970998,-37500.0,2854.8771380550102,450.6015236412897,-2551.2134689021323,-1029.6694961152148,-854.14330334881629,162.03428919022809,3045.6175134104578,2658.503548835467,-2786.5695014115654,2786.5695014115654,-2658.503548835467,5281.849220588726,0.0
673296.95196600363,3605566.251970998,-37500.0,2240.9901466696842,826.46136002572553,-2395.951450631464,-581.50972949709114,-1015.2369125322588,-73.168299678248005,2724.2500496433968,2487.623930299118,-2425.2976614143427,2425.2976614143427,-2487.623930299118,4720.3424589767683,0.0
678296.95196600363,3605566.251970998,-37500.0,1674.5634185316669,1078.1544477568079,-2189.0357575996622,-233.40622203614487,-1075.0109894707364,-221.3241675656308,2458.8448080340654,2252.8150985699181,-2055.4740801880175,2055.4740801880175,-2252.8150985699181,4279.5409722065824,0.0
683296.95196600363,3605566.251970998,-37500.0,1175.2303515742212,1229.6256122966174,-1962.3504058282456,26.976444921744289,-1068.5741177627685,-307.08675692928858,2233.464733963137,1989.3547494211919,-1704.5429554195277,1704.5429554195277,-1989.3547494211919,3918.4767376905716,0.0
688296.95196600363,3605566.251970998,-37500.0,749.90903559932883,1304.3519661758039,-1736.154511339483,214.47545225962858,-1021.5399679277353,-349.61910513332526,2037.2655868384907,1721.6368992821922,-1387.1770160814385,1387.1770160814385,-1721.6368992821922,3609.5166288936116,0.0
693296.95196600363,3605566.251970998,-37500.0,397.45557460323522,1322.886805067611,-1522.2828707037661,343.72225176169968,-951.81128907117329,-363.22657480965529,1863.1854320417792,1465.1829183453801,-1109.4621573364784,1109.4621573364784,-1465.1829183453801,3335.577897468866,0.0
698296.95196600363,3605566.251970998,-37500.0,112.1564135696312,1302.0379789941851,-1326.8379151533936,427.80001412316301,-871.42770916117752,-358.25341986480856,1706.7116712576164,1228.8906458081162,-872.14009447232479,872.14009447232479,-1228.8906458081162,3086.7748567661938,0.0
703296.95196600363,3605566.251970998,-37500.0,-113.8741319034573,1254.9214481159872,-1152.2295864217008,477.73806385303544,-788.16982030334316,-341.97910639499571,1564.936842497438,1017.0294060680251,-672.90837856243593,672.90837856243593,-1017.0294060680251,2857.6527741395162,0.0
708296.95196600363,3605566.251970998,-37500.0,-289.16699451579609,1191.4127557723832,-998.62090317549769,502.47316662094414,-706.8307452477336,-319.39802821055849,1435.9144895329316,830.8190944427522,-507.94749636101938,507.94749636101938,-830.8190944427522,2645.2696005415546,0.0
523296.95196600363,3610566.251970998,-37500.0,-2015.9873993844712,-1636.4312214414088,-982.65164545447362,-1580.3758503925242,-1038.8137485902819,-838.81866401796265,2277.2244831699659,-2119.6926969772885,-224.26346797186761,224.26346797186761,2119.6926969772885,4472.2461241560286,0.0
528296.95196600363,3610566.251970998,-37500.0,-1972.5322436579695,-1809.6552754818622,-1184.3588176300573,-1706.5742680167768,-1216.2652204890685,-965.57448428949226,2494.2957286149394,-2161.3781812845123,-406.12006693921467,406.12006693921467,2161.3781812845123,4882.7421636110466,0.0
533296.95196600363,3610566.251970998,-37500.0,-1870.3400832346524,-1983.6450747491285,-1427.5298896789541,-1823.003098805493,-1419.5120477972907,-1106.0743636104496,2726.7796747030652,-2157.4787219851551,-638.28887778252056,638.28887778252056,2157.4787219851551,5316.1420137626528,0.0
538296.95196600363,3610566.251970998,-37500.0,-1692.3459299961983,-2148.0767285860165,-1718.0604814302822,-1918.7783656803267,-1648.332710950817,-1257.9231131446727,2972.3112311822015,-2089.1753950270104,-929.71342922989231,929.71342922989231,2089.1753950270104,5765.3611971222726,0.0
543296.95196600363,3610566.251970998,-37500.0,-1419.5014271489231,-2287.3750123297532,-2060.5860304812313,-1978.7678463554585,-1899.5132267307981,-1415.9063600237089,3226.8603958144522,-1933.2262215900041,-1288.5042943082872,1288.5042943082872,1933.2262215900041,6219.3712335972759,0.0
548296.95196600363,3610566.251970998,-37500.0,-1032.2118638360537,-2379.1967859618339,-2456.649735818205,-1982.7660835287634,-2164.8773656139242,-1570.5370366693937,3484.366963275641,-1662.2770013811139,-1719.9435438598259,1719.9435438598259,1662.2770013811139,6662.4248264899561,0.0
553296.95196600363,3610566.251970998,-37500.0,-513.1460199884059,-2393.0804536609912,-2901.7743052133083,-1905.0406365188071,-2428.4945726995611,-1706.1369117796023,3736.6089310598563,-1246.3876624090449,-2223.2398018216777,2223.2398018216777,1246.3876624090449,7073.8928382514805,0.0
558296.95196600363,3610566.251970998,-37500.0,147.98922184835658,-2289.9175256847739,-3381.1209835580294,-1714.8045698236303,-2662.9822928026078,-1798.4872253604385,3973.7271319119873,-656.64885636004033,-2786.6736939247257,2786.6736939247257,656.64885636004033,7429.7587136954789,0.0
563296.95196600363,3610566.251970998,-37500.0,947.20560139096665,-2023.4314054091956,-3863.62595832127,-1378.5074607238528,-2825.079731747207,-1812.2731048711451,4186.2131738075832,127.98887849976632,-3381.0126609347008,3381.0126609347008,-127.98887849976632,7707.8099785209342,0.0
568296.95196600363,3610566.251970998,-37500.0,1856.5373678142614,-1545.5417290541586,-4295.151750749309,-865.24531468419889,-2851.2870267028552,-1698.9456626587585,4369.8160907973343,1109.5645554741145,-3951.8004885189853,3951.8004885189853,-1109.5645554741145,7900.2576869403947,0.0
573296.95196600363,3610566.251970998,-37500.0,2813.2891780774489,-818.02431581000008,-4592.5633633643911,-156.79529366732513,-2655.4773123864934,-1396.2691666481087,4535.4751100814965,2255.3481915940465,-4412.6580634537067,4412.6580634537067,-2255.3481915940465,8039.128675640899,0.0
578296.95196600363,3610566.251970998,-37500.0,3712.2177596664028,167.49536068263819,-4642.9303511740218,736.68291541721567,-2132.0865388867642,-831.76492641850393,4725.7547638445467,3479.5719446921667,-4644.2478548105046,4644.2478548105046,-3479.5719446921667,8236.521020385102,0.0
583296.95196600363,3610566.251970998,-37500.0,4408.2253283786731,1361.884872274974,-4314.7433621486471,1756.3166901411703,-1170.2605286185146,66.783620538598228,5032.7378215041481,4629.3864767556606,-4506.4418905595758,4506.4418905595758,-4629.3864767556606,8717.4941392570909,0.0
588296.95196600363,3610566.251970998,-37500.0,4739.7428128782522,2630.3490688482289,-3489.0202339131051,2775.2040604788262,315.40778626353773,1350.4953350832864,5593.6250648588766,5487.9149640825663,-3872.1246821767099,3872.1246821767099,-5487.9149640825663,9770.8829162487837,0.0
593296.95196600363,3610566.251970998,-37500.0,4580.0602343656301,3740.6785310574132,-2113.4000353590395,3592.5217144306525,2336.193369313693,3017.4133237663923,6525.2333917765154,5810.8011218361544,-2685.5073272592736,2685.5073272592736,-5810.8011218361544,11569.564535386304,0.0
598296.95196600363,3610566.251970998,-37500.0,3910.1276710744555,4391.9669301028725,-268.02773388757714,3958.555825216667,4772.8243431424444,4975.408554111491,7812.1689114302126,5405.5612044114832,-1031.9198489546552,1031.9198489546552,-5405.5612044114832,14009.31421833143,0.0
603296.95196600363,3610566.251970998,-37500.0,2882.3644130182324,4300.9137310462183,1789.0717471057724,3643.6150000017365,7338.6101792079726,7016.7481919258307,9265.9473535561792,4238.7008925060672,816.77555346896179,-816.77555346896179,-4238.7008925060672,16724.098636570005,0.0
608296.95196600363,3610566.251970998,-37500.0,1824.8174778067344,3332.4145022839803,3642.5758718706343,2542.1552316216075,9600.9409059069585,8829.927973318765,10599.367825358586,2519.8832233540097,2430.1488962464673,-2430.1488962464673,-2519.8832233540097,19206.223938483949,0.0
613296.95196600363,3610566.251970998,-37500.0,1144.2865667492974,1614.9855444217858,4834.9844965757875,767.94556470595251,11087.757039285263,10069.286616788368,11525.899536838893,691.56962323960556,3348.9954841664858,-3348.9954841664858,-691.56962323960556,20946.269894132252,0.0
618296.95196600363,3610566.251970998,-37500.0,1144.402085175393,-445.91940896956368,5048.3471123195804,-1329.244107404337,11458.261486755991,10473.302068361361,11844.019289313121,-716.96209813792257,3281.5748130963671,-3281.5748130963671,716.96209813792257,21578.278891489215,0.0
623296.95196600363,3610566.251970998,-37500.0,1857.6721382919163,-2306.1350633500265,4256.5384237413755,-3271.080133124663,10654.035377155637,9976.6570965735209,11498.217391491646,-1320.2602843997076,2256.9919315180168,-2256.9919315180168,1320.2602843997076,20994.67072559211,0.0
628296.95196600363,3610566.251970998,-37500.0,3018.5742966754283,-3514.2267736218496,2740.3534452150666,-4642.5135036593865,8928.4714584876383,8741.4667581867197,10591.210285014204,-1049.7193507795944,620.14195294504532,-620.14195294504532,1049.7193507795944,19372.199283536564,0.0
633296.95196600363,3610566.251970998,-37500.0,4210.4533972871241,-3888.6120236776142,945.95383075396273,-5249.0315629979432,6725.9214507096867,7079.8623191006782,9336.8646192085889,-146.69921674624413,-1141.0441344524806,1141.0441344524806,146.69921674624413,17087.791393430918,0.0
638296.95196600363,3610566.251970998,-37500.0,5075.1787411625946,-3531.9515097677822,-713.20825884218596,-5143.2345230426272,4493.890608336018,5321.8634098726498,7979.1870490535639,1003.7826568979365,-2613.2964974215174,2613.2964974215174,-1003.7826568979365,14572.64459853599,0.0
643296.95196600363,3610566.251970998,-37500.0,5440.4381229461978,-2710.0162132211076,-1985.3248887133591,-4533.8419338549475,2545.852684157931,3712.9348614200553,6716.8803969243472,2061.7142679770709,-3582.4238717799412,3582.4238717799412,-2061.7142679770709,12183.678563617954,0.0
648296.95196600363,3610566.251970998,-37500.0,5318.3833503582009,-1705.9732705482793,-2796.21968929897,-3664.896237151173,1025.615887754823,2381.5050110721613,5659.6145948281783,2831.0390619267955,-4028.7580950635083,4028.7580950635083,-2831.0390619267955,10140.094994933848,0.0
653296.95196600363,3610566.251970998,-37500.0,4829.8987053538358,-731.52268532779033,-3193.4190033677673,-2735.1984212418338,-54.922028168315784,1359.7634317475588,4828.6556067542688,3258.3358450936003,-4050.9021852362857,4050.9021852362857,-3258.3358450936003,8522.4306917393551,0.0
658296.95196600363,3610566.251970998,-37500.0,4125.2716074104037,94.548843510070469,-3277.7605880245933,-1871.7943614993312,-756.63340321277849,622.19753005469272,4192.24636965849,3381.9330675217898,-3786.440602189381,3786.440602189381,-3381.9330675217898,7307.4062886671354,0.0
663296.95196600363,3610566.251970998,-37500.0,3335.3891405106665,728.66189152604545,-3155.2355358621467,-1137.7710869175651,-1165.5053869444857,118.50911859166021,3702.2581773615402,3278.8337816155658,-3362.0479766233725,3362.0479766233725,-3278.8337816155658,6414.7164341003036,0.0
668296.95196600363,3610566.251970998,-37500.0,2553.750732120624,1174.1771314082262,-2913.7102882169329,-551.91612922361833,-1364.953760764768,-205.87638883985292,3314.4080852990337,3029.5548955181735,-2873.4001168924592,2873.4001168924592,-3029.5548955181735,5749.7586468536929,0.0
673296.95196600363,3610566.251970998,-37500.0,1837.0714386124953,1457.5074541979625,-2616.7807822829054,-107.43143952202387,-1424.0192007694345,-399.75831208064056,2995.3052712666836,2701.3492267154661,-2383.4553141184715,2383.4553141184715,-2701.3492267154661,5231.519694933063,0.0
678296.95196600363,3610566.251970998,-37500.0,1213.3894668115581,1612.521559201085,-2306.1042878180588,214.56129315706625,-1394.8498675376998,-502.63223080374394,2722.6275466058005,2343.506775310369,-1928.5901176613913,1928.5901176613913,-2343.506775310369,4802.8787772684636,0.0
683296.95196600363,3610566.251970998,-37500.0,691.28574454356885,1672.0729372564383,-2006.5277552885962,436.70337814783903,-1314.4558164011009,-544.53215930924227,2482.6130559254966,1988.6859821401465,-1526.3903243508555,1526.3903243508555,-1988.6859821401465,4428.8184508734139,0.0
688296.95196600363,3610566.251970998,-37500.0,267.57402757396903,1664.2786571737925,-1731.2348407318786,580.91286716027287,-1207.8526814267002,-547.30901529942082,2267.2033057234489,1656.4280586314326,-1182.4250807848857,1182.4250807848857,-1656.4280586314326,4090.1161030968342,0.0
693296.95196600363,3610566.251970998,-37500.0,-67.164929526546288,1611.4930435035981,-1485.8814141805362,666.34065857775738,-1091.2071416280028,-526.31249278019618,2071.7634906856833,1356.8736820340976,-895.25949491767437,895.25949491767437,-1356.8736820340976,3777.185581516605,0.0
698296.95196600363,3610566.251970998,-37500.0,-324.96073819585786,1530.6159657320841,-1271.5812776159953,708.73067545128617,-974.47021465279352,-491.99836212794258,1893.5585317521641,1093.9057701002134,-659.8341701641699,659.8341701641699,-1093.9057701002134,3485.6707503959792,0.0
703296.95196600363,3610566.251970998,-37500.0,-518.27301529018303,1433.9346725870123,-1086.9132364059117,720.50769589779998,-863.38906697057314,-451.27667297405407,1730.835535637917,867.52163559359064,-469.58235086723971,469.58235086723971,-867.52163559359064,3213.7453265685758,0.0
708296.95196600363,3610566.251970998,-37500.0,-658.79830825382567,1330.0807388265828,-929.19909427714651,711.18774227426388,-760.96036270576587,-408.56312265685267,1582.3138884948471,675.49917160666826,-317.66662229571136,317.66662229571136,-675.49917160666826,2960.6229706892213,0.0
518296.95196600363,3615566.251970998,-37500.0,-2408.0753351095268,-1434.2288907140139,-658.35123986718054,-1664.8774649773964,-851.89581331934494,-814.97029769342771,2240.6769911695983,-2304.5936034127126,168.00326594959188,-168.00326594959188,2304.5936034127126,4413.1271999333194,0.0
523296.95196600363,3615566.251970998,-37500.0,-2469.0718114254419,-1619.5035117565656,-804.44371121585198,-1839.302249528278,-1011.0582810596327,-951.72273836676766,2472.9872409434711,-2432.1103249257872,60.824237222100237,-60.824237222100237,2432.1103249257872,4861.2449772575392,0.0
528296.95196600363,3615566.251970998,-37500.0,-2492.1158612806516,-1820.8465399698614,-985.88792533829974,-2021.0212966483437,-1199.5569879592385,-1109.7068118624486,2728.1543920588288,-2538.5231691541885,-86.857297728936601,86.857297728936601,2538.5231691541885,5349.2422602419038,0.0
533296.95196600363,3615566.251970998,-37500.0,-2461.3862158590823,-2034.3815712373503,-1210.5593299132522,-2203.8653001936323,-1421.0584098020795,-1290.0879896147617,3006.1293807292723,-2609.6009616838496,-285.72587393694221,285.72587393694221,2609.6009616838496,5875.1024713728839,0.0
538296.95196600363,3615566.251970998,-37500.0,-2357.1321161515289,-2252.6869398089243,-1487.2483810877102,-2378.0213557389243,-1678.302848943563,-1492.5515139763127,3305.5314700404911,-2626.1079049898522,-548.07264740842766,548.07264740842766,2626.1079049898522,6433.5811284561269,0.0
543296.95196600363,3615566.251970998,-37500.0,-2155.5899759480326,-2463.1477664833092,-1825.0411362113539,-2528.7216751061633,-1971.8969827263411,-1714.1559026257078,3623.0270862266807,-2562.8032470216276,-887.18823406591412,887.18823406591412,2562.8032470216276,7014.8367676155058,0.0
548296.95196600363,3615566.251970998,-37500.0,-1829.6330521264865,-2645.8614054279114,-2231.9909402699227,-2634.7404086304959,-2298.3442712990668,-1947.6178852920868,3952.5696753323637,-2387.764488759954,-1315.9392313901017,1315.9392313901017,2387.764488759954,7602.8164599543425,0.0
553296.95196600363,3615566.251970998,-37500.0,-1350.7782368480507,-2771.2352185532768,-2712.6348005997843,-2666.9233069315387,-2646.9876204354759,-2178.8590113767377,4284.5998625287084,-2062.6168952892799,-1844.0055494080921,1844.0055494080921,2062.6168952892799,8173.6740762217369,0.0
558296.95196600363,3615566.251970998,-37500.0,-693.44690968751127,-2797.7498650384241,-3263.7637849280682,-2587.2506372337498,-2995.5085517810353,-2383.664229079192,4605.4813330189727,-1544.6759161151879,-2473.0943246347201,2473.0943246347201,1544.6759161151879,8694.9407289531591,0.0
563296.95196600363,3615566.251970998,-37500.0,157.37834334448445,-2671.0151492904811,-3867.833368761655,-2349.4409948205903,-3303.7639606195639,-2523.4538119473746,4897.8679611129219,-792.59920323530014,-3189.4179339301122,3189.4179339301122,792.59920323530014,9127.1806738207051,0.0
568296.95196600363,3615566.251970998,-37500.0,1194.0702014038322,-2326.3186876484087,-4483.7743359097594,-1902.8540962417701,-3506.263519300649,-2540.5509985675321,5143.5347621676547,222.30044606005799,-3953.153359449997,3953.153359449997,-222.30044606005799,9431.8717210625382,0.0
573296.95196600363,3615566.251970998,-37500.0,2369.9038766486874,-1698.2751055821091,-5036.2623376689025,-1202.3765282160523,-3504.9052927081943,-2354.1853480722143,5331.7888955609824,1496.9742583556772,-4686.0735181153777,4686.0735181153777,-1496.9742583556772,9592.8907671134166,0.0
578296.95196600363,3615566.251970998,-37500.0,3581.411557461638,-742.17063678293744,-5407.4323131401434,-227.49578907314279,-3166.1756685099226,-1860.0934206042621,5478.8912043605924,2969.6412355014254,-5261.8501643022882,5261.8501643022882,-2969.6412355014254,9663.2381603411613,0.0
583296.95196600363,3615566.251970998,-37500.0,4658.7273228624535,529.95658016921595,-5439.8032783957042,987.63915746441467,-2330.9100815661559,-939.0566367434576,5663.9680672858294,4490.5902953715222,-5508.8920177902373,5508.8920177902373,-4490.5902953715222,9841.4629816588495,0.0
588296.95196600363,3615566.251970998,-37500.0,5380.6357665916912,2003.1349127303627,-4963.8140666349782,2317.3411992950669,-848.0994743414808,517.90993748639801,6068.3695321438609,5807.3162312785653,-5240.6847803371829,5240.6847803371829,-5807.3162312785653,10519.372545074135,0.0
593296.95196600363,3615566.251970998,-37500.0,5533.1917315878454,3423.9018805928513,-3861.443387848366,3517.2692170096757,1358.2464331082269,2561.0183231245187,6936.4274417830093,6592.060188255482,-4326.1532212623697,4326.1532212623697,-6592.060188255482,12123.854986382164,0.0
598296.95196600363,3615566.251970998,-37500.0,5015.1186820792464,4414.3649311699537,-2159.5639284599438,4238.3916825099632,4196.3650339018368,5113.0525825717141,8363.9502412150287,6538.0704743476454,-2792.2048541563418,2792.2048541563418,-6538.0704743476454,14743.421928327381,0.0
603296.95196600363,3615566.251970998,-37500.0,3953.0592565843035,4574.6928469059749,-111.63436112685602,4115.3193952543634,7327.1103367943942,7905.7506164334809,10135.986131378782,5517.7728808699903,-911.37387955286658,911.37387955286658,-5517.7728808699903,17968.378482862481,0.0
608296.95196600363,3615566.251970998,-37500.0,2744.1629685480648,3670.5413693961414,1803.9371303355963,2931.4311999770498,10166.714506146616,10471.76144147505,11838.822145161197,3732.7679350764056,805.48821631677652,-805.48821631677652,-3732.7679350764056,21074.872017633257,0.0
613296.95196600363,3615566.251970998,-37500.0,1940.4528246202631,1822.14118258081,3024.9939714923294,796.15725020719003,12033.340090830019,12246.222817030144,13038.892806243683,1734.4854257981603,1772.512932971644,-1772.512932971644,-1734.4854257981603,23291.073586728937,0.0
618296.95196600363,3615566.251970998,-37500.0,1974.6594006219566,-450.25444265633445,3157.8924181915377,-1795.6158054740367,12421.061951194788,12780.962929745052,13426.327080705589,225.80883555948742,1611.4193007559347,-1611.4193007559347,-225.80883555948742,24052.42392654268,0.0
623296.95196600363,3615566.251970998,-37500.0,2883.5087028641392,-2424.9594722113516,2196.4367084452792,-4130.5614569833087,11258.93732267403,11968.671486027812,12921.762073318447,-292.47714282376614,383.88570035686212,-383.88570035686212,292.47714282376614,23202.829993735708,0.0
628296.95196600363,3615566.251970998,-37500.0,4264.2482935062653,-3534.9571244383701,532.39249906730288,-5612.1661008072369,8957.7576221170948,10107.746851893893,11697.100028553965,213.67161389124908,-1424.8859466551157,1424.8859466551157,-213.67161389124908,21037.622786832952,0.0
633296.95196600363,3615566.251970998,-37500.0,5530.6596577771315,-3622.7630460310379,-1268.9293203165087,-6025.0421282416919,6187.5567372314708,7738.4705791195875,10087.326453214957,1354.055971958498,-3184.9908072882699,3184.9908072882699,-1354.055971958498,18145.392127909166,0.0
638296.95196600363,3615566.251970998,-37500.0,6248.5300146901682,-2915.7210754694956,-2749.3032757527408,-5540.202553157621,3559.485779195129,5381.2677618033404,8446.7182745778846,2603.6637549083762,-4438.245438548458,4438.245438548458,-2603.6637549083762,15149.432489834273,0.0
643296.95196600363,3615566.251970998,-37500.0,6289.7872339040314,-1805.8173030205016,-3698.1702788873067,-4519.9257831521645,1434.1668015081466,3366.7582427260772,7027.9655515811855,3576.1371322928817,-5029.4024324265092,5029.4024324265092,-3576.1371322928817,12504.036279656626,0.0
648296.95196600363,3615566.251970998,-37500.0,5769.8049023107087,-640.45240637261691,-4122.8401817465874,-3314.3970516864288,-83.969216512982513,1818.0633359526132,5928.627753874066,4115.9572785739292,-5040.3982966045132,5040.3982966045132,-4115.9572785739292,10420.886966935304,0.0
653296.95196600363,3615566.251970998,-37500.0,4903.1057047625718,367.69392889006758,-4144.2239323712247,-2162.1723452207402,-1052.7299096383899,719.46450851450891,5119.7248070704036,4244.1758843311973,-4655.3759109915018,4655.3759109915018,-4244.1758843311973,8902.8945434188008,0.0
658296.95196600363,3615566.251970998,-37500.0,3893.7259376259544,1132.8548278105052,-3907.001312470446,-1184.1594356089322,-1594.8900695898506,-7.5298078391688241,4521.2892129868515,4064.4258019632598,-4058.6287225410833,4058.6287225410833,-4064.4258019632598,7831.1119204370325,0.0
663296.95196600363,3615566.251970998,-37500.0,2888.8343018224055,1651.2904031552232,-3532.8442536102216,-417.73803494309897,-1837.520081872874,-454.69163902178042,4057.8841292034008,3693.730125521311,-3389.4981342679671,3389.4981342679671,-3693.730125521311,7055.4452510511192,0.0
668296.95196600363,3615566.251970998,-37500.0,1975.1704595365363,1958.91265506015,-3107.2616451702474,146.43680762044815,-1885.8815765623895,-703.86706422550901,3676.8719420268517,3229.3343707284967,-2736.1119427677677,2736.1119427677677,-3229.3343707284967,6452.7767186686251,0.0
673296.95196600363,3615566.251970998,-37500.0,1192.8842906872553,2103.7360093786942,-2683.1071944814898,538.27267011525396,-1817.7179785904359,-819.7317796090025,3346.969323140449,2739.9674532857216,-2145.6111571143529,2145.6111571143529,-2739.9674532857216,5944.0453086138878,0.0
678296.95196600363,3615566.251970998,-37500.0,551.84418061787778,2131.691013912106,-2289.1659850421579,793.08471103546162,-1686.3975547845359,-849.97573483882434,3051.4740900702477,2268.6139003364165,-1637.4876986711195,1637.4876986711195,-2268.6139003364165,5486.7962562758603,0.0
683296.95196600363,3615566.251970998,-37500.0,44.72490110270622,2080.9898870336324,-1938.4459434793953,944.11043739759214,-1526.5669155450594,-828.1524496295458,2782.1401032625859,1838.8505798371134,-1214.6926894490216,1214.6926894490216,-1838.8505798371134,5061.6821790864951,0.0
688296.95196600363,3615566.251970998,-37500.0,-344.08919519779573,1980.9843242670258,-1634.4737800604198,1019.5110654525672,-1359.5646372813374,-777.00097016503537,2535.0550504926723,1461.0814247102419,-871.38241185922675,871.38241185922675,-1461.0814247102419,4661.5700602143352,0.0
693296.95196600363,3615566.251970998,-37500.0,-633.04267363075235,1853.0334244456612,-1375.5722246298708,1041.7255088978495,-1197.7545704270965,-711.41017882576341,2308.2862557421308,1137.4911059159904,-597.80457627116698,597.80457627116698,-1137.4911059159904,4284.848208335151,0.0
698296.95196600363,3615566.251970998,-37500.0,-840.36139128243053,1712.0196432285265,-1157.5380458620371,1027.9071205018549,-1047.6834936937773,-640.77523819717203,2100.6565359220767,865.55597999677764,-383.12692402898881,383.12692402898881,-865.55597999677764,3931.8538581006692,0.0
703296.95196600363,3615566.251970998,-37500.0,-982.54365057720531,1567.8994151257748,-975.22456885159659,990.76853846863503,-912.26841246786239,-570.76167725979951,1911.1812112534094,640.36837143495768,-216.93937359733434,216.93937359733434,-640.36837143495768,3603.2065835951735,0.0
708296.95196600363,3615566.251970998,-37500.0,-1073.7681797061416,1427.0377365482973,-823.41534447852064,939.49253184466625,-792.25404486886771,-504.57071873077092,1738.8478056238378,456.08491265501937,-89.95031307759416,89.95031307759416,-456.08491265501937,3299.1529617669107,0.0
713296.95196600363,3615566.251970998,-37500.0,-1125.8118215838183,1293.2649431215273,-697.2650660724089,880.55776018129757,-687.15527347784484,-443.81961753902556,1582.5607952276901,306.77508118136052,5.7764035874549791,-5.7764035874549791,-306.77508118136052,3019.4032187971984,0.0
518296.95196600363,3620566.251970998,-37500.0,-2792.3744301621432,-1334.1772108376724,-486.0967253841489,-1870.2133966198476,-785.62462988025254,-899.50507728151092,2394.6007136668222,-2517.7696402795555,434.66493469325314,-434.66493469325314,2517.7696402795555,4713.9355071630871,0.0
523296.95196600363,3620566.251970998,-37500.0,-2920.0776532152181,-1526.9083284276953,-604.17023058542031,-2092.7844395918592,-942.97329063266693,-1060.9932109741142,2659.2923406264663,-2698.2523754120916,369.68666974668577,-369.68666974668577,2698.2523754120916,5226.4077373557247,0.0
528296.95196600363,3620566.251970998,-37500.0,-3019.590922353223,-1743.0724560277408,-754.59284611672149,-2334.0879692393451,-1132.9350878421549,-1251.314628136369,2954.071509223003,-2869.2764804579338,268.89117715604016,-268.89117715604016,2869.2764804579338,5793.212008766086,0.0
533296.95196600363,3620566.251970998,-37500.0,-3075.0110685579466,-1981.698645926268,-946.10937118632489,-2590.2886033769719,-1361.2336519369489,-1473.9285008963445,3280.4447321965413,-3018.281524345934,120.61048133394979,-120.61048133394979,3018.281524345934,6415.3086684323625,0.0
538296.95196600363,3620566.251970998,-37500.0,-3065.3638006553397,-2239.0244865376453,-1189.3483942375408,-2854.0190157006396,-1633.5852087380354,-1731.3924884887458,3638.7702985321357,-3127.267508498363,-89.608179161293265,89.608179161293265,3127.267508498363,7090.7073001194776,0.0
543296.95196600363,3620566.251970998,-37500.0,-2963.7571868809418,-2506.8087745251196,-1496.7594830071059,-3112.7446206749191,-1954.7861183715527,-2024.246397207208,4027.5063579639432,-3171.1656544884004,-379.05666942712651,379.05666942712651,3171.1656544884004,7812.8021118119395,0.0
548296.95196600363,3620566.251970998,-37500.0,-2736.9612487293844,-2769.9477025453502,-1882.0455317986634,-3346.6460227715452,-2327.0381973806152,-2349.2141576223667,4442.1649492584329,-3116.129791508587,-767.32993860552028,767.32993860552028,3116.129791508587,8568.1390951155463,0.0
553296.95196600363,3620566.251970998,-37500.0,-2346.0206329253383,-3003.3032191236853,-2358.6239056253557,-3526.0581186008912,-2747.0594101406355,-2696.4137769938479,4873.9271600131178,-2918.172868986137,-1274.6427962042903,1274.6427962042903,2918.172868986137,9333.6098349632412,0.0
558296.95196600363,3620566.251970998,-37500.0,-1748.9730127820701,-3167.8832437319029,-2936.3644623499017,-3608.7594000526683,-3201.3542752954822,-3045.193521573246,5307.9805273752627,-2523.0813122459458,-1918.1013091217301,1918.1013091217301,2523.0813122459458,10073.373737782202,0.0
563296.95196600363,3620566.251970998,-37500.0,-907.36703837900166,-3207.1119900985223,-3615.54191102087,-3537.9379950835614,-3658.9032845378915,-3358.1894563872293,5721.9294352280867,-1869.3936696165736,-2704.6587030703686,2704.6587030703686,1869.3936696165736,10736.569444414663,0.0
568296.95196600363,3620566.251970998,-37500.0,201.09899516226366,-3045.201607467036,-4376.8201656598549,-3242.7181316005936,-4060.7173908913137,-3573.3816926237855,6085.3820618568516,-897.48975610492971,-3619.3254544815813,3619.3254544815813,897.48975610492971,11258.706815712798,0.0
573296.95196600363,3620566.251970998,-37500.0,1561.585976916145,-2591.8980151376059,-5166.8008248167389,-2644.9438766551693,-4306.7967350373074,-3594.6939399048802,6363.623956443751,430.88750688055643,-4608.005170202513,4608.005170202513,-430.88750688055643,11573.739691272662,0.0
578296.95196600363,3620566.251970998,-37500.0,3093.0860881645199,-1760.8634997550666,-5881.4835213564447,-1678.2999960544694,-4244.1521537942335,-3283.842867379165,6532.3023063662567,2098.610174927825,-5557.580310182514,5557.580310182514,-2098.610174927825,11651.970035660892,0.0
583296.95196600363,3620566.251970998,-37500.0,4619.5786105834013,-510.37819221457175,-6356.4841887127113,-326.97676870482667,-3665.9846131915101,-2460.8186462954745,6617.6029616046071,3986.0485714908009,-6283.4615789487198,6283.4615789487198,-3986.0485714908009,11589.289176882108,0.0
588296.95196600363,3620566.251970998,-37500.0,5864.3269508269796,1091.3287116848107,-6382.5680558778586,1314.2036578473339,-2341.1376951589514,-927.61684875123615,6780.4222984324952,5827.8789154324459,-6546.2140695231283,6546.2140695231283,-5827.8789154324459,11753.037106800532,0.0
593296.95196600363,3620566.251970998,-37500.0,6504.2514849393056,2796.4397338580184,-5770.0892676664207,2975.5833988587233,-96.863474354062092,1465.2653048351481,7390.5709942525718,7215.6532961581506,-6124.8068201008755,6124.8068201008755,-7215.6532961581506,12816.054465242853,0.0
598296.95196600363,3620566.251970998,-37500.0,6310.2407483193056,4160.5779800928485,-4468.0833643367823,4194.8822090917492,3040.7411454860612,4700.9445872101051,8792.1449049265211,7701.217194232906,-4953.1943478781832,4953.1943478781832,-7701.217194232906,15293.045705982046,0.0
603296.95196600363,3620566.251970998,-37500.0,5337.2734551921812,4652.8272182140927,-2690.4643679600463,4417.2940747905795,6699.0598050008493,8459.2679760832689,10837.986694882247,7016.7181938862868,-3265.0246635489711,3265.0246635489711,-7016.7181938862868,18904.233622522501,0.0
608296.95196600363,3620566.251970998,-37500.0,4036.8788207719022,3911.7005511256143,-943.4283752112575,3245.8362201398568,10120.828242017627,12054.831455406647,12953.413986823885,5320.105577504286,-1623.6945573205926,1623.6945573205926,-5320.105577504286,22667.751239219568,0.0
613296.95196600363,3620566.251970998,-37500.0,3133.1615603991359,2033.8381342562295,139.6851728628404,754.4232438536734,12357.443537576062,14574.002419321087,14479.903695531184,3270.9257011032246,-727.7920189035417,727.7920189035417,-3270.9257011032246,25423.17477659832,0.0
618296.95196600363,3620566.251970998,-37500.0,3223.8072896935582,-333.14963006719705,124.74612474639163,-2366.3319804003531,12692.249074279598,15255.28384130933,14940.497893022235,1768.4455990176248,-1026.906225969808,1026.906225969808,-1768.4455990176248,26306.995204647374,0.0
623296.95196600363,3620566.251970998,-37500.0,4339.365358817442,-2270.7583916776475,-941.4958674326997,-5064.2738500003898,11061.964467975638,13930.298730066606,14224.408962306183,1427.5751186476261,-2396.9028221499439,2396.9028221499439,-1427.5751186476261,25100.452186409202,0.0
628296.95196600363,3620566.251970998,-37500.0,5880.2091377304387,-3115.0229809152629,-2548.3241503717873,-6505.4890642621358,8117.1194897066252,11152.053704331085,12617.199824141426,2196.3887659017578,-4188.4040413546618,4188.4040413546618,-2196.3887659017578,22293.577343787991,0.0
633296.95196600363,3620566.251970998,-37500.0,7055.7815085859838,-2794.4260681911146,-4053.6287214950676,-6505.3296998743754,4822.869099067655,7846.2756193187533,10634.744060978672,3482.8040155824019,-5655.7500781352737,5655.7500781352737,-3482.8040155824019,18788.038579482236,0.0
638296.95196600363,3620566.251970998,-37500.0,7397.6529002310526,-1713.1660709050054,-5035.752673108298,-5455.4047813654915,1950.6564623528218,4802.9119118655572,8770.8314161563085,4631.9031671195162,-6375.4282288783388,6375.4282288783388,-4631.9031671195162,15445.553008203598,0.0
643296.95196600363,3620566.251970998,-37500.0,6902.7841663716554,-389.10138136808621,-5399.8739943358087,-3934.7771557043557,-150.18488134382034,2420.137596528838,7309.035409698603,5278.5424480717784,-6333.0298482292137,6333.0298482292137,-5278.5424480717784,12777.72787435859,0.0
648296.95196600363,3620566.251970998,-37500.0,5845.7606739676257,807.36057454829222,-5268.8048303362029,-2399.0772251767316,-1474.9573563524789,756.8277412264224,6276.8865918041338,5377.6489745453828,-5751.4345796580265,5751.4345796580265,-5377.6489745453828,10891.199741704408,0.0
653296.95196600363,3620566.251970998,-37500.0,4544.838599539702,1708.9730388167734,-4831.8715895407358,-1091.5708578174738,-2183.6693361940725,-301.42470666357463,5553.2007460384848,5060.5801890068469,-4895.0057688347206,4895.0057688347206,-5060.5801890068469,9623.3330060553471,0.0
658296.95196600363,3620566.251970998,-37500.0,3238.4589880676372,2292.8494032381732,-4253.5246828378076,-90.311061472362312,-2466.8414264634166,-913.50186969486026,5007.5317532612453,4498.4574811401553,-3967.2893418869016,3967.2893418869016,-4498.4574811401553,8735.7906701179891,0.0
663296.95196600363,3620566.251970998,-37500.0,2063.3704087407887,2606.2884723048264,-3645.2024307742622,617.39607205935988,-2484.4607472131138,-1221.7498179039269,4555.599405809623,3833.171189347921,-3091.0421457565822,3091.0421457565822,-3833.171189347921,8041.5084911048762,0.0
668296.95196600363,3620566.251970998,-37500.0,1077.7489839299744,2716.9700773825452,-3070.2626303375855,1080.8019950889266,-2351.7784637119507,-1334.8677306461243,4154.6481691082599,3160.0763733418262,-2325.0452016880972,2325.0452016880972,-3160.0763733418262,7433.8362572625865,0.0
673296.95196600363,3620566.251970998,-37500.0,291.33164685930655,2688.5738084753161,-2558.3700454708792,1356.4321294347512,-2144.7400080020893,-1329.5221467588806,3786.4175688662754,2533.9905962563671,-1687.4612364051752,1687.4612364051752,-2533.9905962563671,6865.4029596800738,0.0
678296.95196600363,3620566.251970998,-37500.0,-311.36174528096871,2572.224656162437,-2118.7737124840733,1495.3371500331157,-1910.2454586400602,-1257.2261358150004,3444.4925371963536,1981.0664206897754,-1174.3318777468812,1174.3318777468812,-1981.0664206897754,6321.0808098417119,0.0
683296.95196600363,3620566.251970998,-37500.0,-756.37240694010563,2405.551200004375,-1749.6998248342948,1539.0041162191208,-1675.5012296701566,-1151.2986539519948,3127.2640017950453,1509.4551867575158,-771.51195569269316,771.51195569269316,-1509.4551867575158,5799.8205902545424,0.0
688296.95196600363,3620566.251970998,-37500.0,-1072.1004397763297,2214.670434670461,-1444.2142991727135,1519.1871939964003,-1455.0738969282995,-1032.4897920028602,2834.581605950907,1117.0698017485306,-461.52080305427091,461.52080305427091,-1117.0698017485306,5305.1467584952552,0.0
693296.95196600363,3620566.251970998,-37500.0,-1285.1964323500251,2016.833145991249,-1193.5589755317362,1459.2201663830183,-1255.7489954950634,-913.13528224117692,2566.342422682093,796.65320672673852,-227.08832709083572,227.08832709083572,-796.65320672673852,4840.8952790408193,0.0
698296.95196600363,3620566.251970998,-37500.0,-1418.8289320568235,1822.867115475048,-988.91226640309719,1375.7154734552075,-1079.7293149796767,-800.09980307908631,2322.0366442203831,538.87197299927152,-52.766147292868453,52.766147292868453,-538.87197299927152,4409.6951192811603,0.0
703296.95196600363,3620566.251970998,-37500.0,-1492.2310004532276,1639.1327006302713,-822.21623392804781,1280.167231672707,-926.66014993822716,-696.79131943795585,2100.6938135991368,334.07740276278003,74.524526666697085,-74.524526666697085,-334.07740276278003,4012.6720892390308,0.0
708296.95196600363,3620566.251970998,-37500.0,-1520.8841120265711,1468.9866294052845,-686.48871018177658,1180.2985661784298,-794.87553822180655,-604.50716770672943,1900.9810352513093,173.22719621909852,165.4843547599778,-165.4843547599778,-173.22719621909852,3649.6441352379738,0.0
713296.95196600363,3620566.251970998,-37500.0,-1516.9767225147375,1313.8310956636033,-575.86712841577355,1081.1239822153593,-682.14067898449048,-523.31199005118322,1721.3359848470225,48.301051656988548,228.67179774666175,-228.67179774666175,-48.301051656988548,3319.4579093498796,0.0
518296.95196600363,3625566.251970998,-37500.0,-3146.4580209265328,-1166.4164279850077,-312.11343503777999,-2057.1712538822858,-685.59002205621289,-975.8084663411139,2530.6798501323933,-2667.7379970050188,699.82476648258148,-699.82476648258148,2667.7379970050188,4977.991914047836,0.0
523296.95196600363,3625566.251970998,-37500.0,-3342.5782320912094,-1351.8483275226993,-396.97414100185387,-2326.9958870814221,-831.90392332518161,-1160.9465511299709,2826.3678529626927,-2893.6868669603218,683.04931413105237,-683.04931413105237,2893.6868669603218,5550.9711527279023,0.0
528296.95196600363,3625566.251970998,-37500.0,-3522.9940821199643,-1565.192078287806,-508.47132071400023,-2628.0981806152045,-1011.6023034417842,-1382.7586263650376,3159.81021973426,-3122.2317774654794,638.36429621819934,-638.36429621819934,3122.2317774654794,6193.2514333436793,0.0
533296.95196600363,3625566.251970998,-37500.0,-3673.0608179426144,-1808.1728376644537,-655.10529406611374,-2959.8401305386128,-1231.9095213241594,-1647.3659667403026,3534.478604594538,-3343.4343840879133,554.41062072791647,-554.41062072791647,3343.4343840879133,6909.5057162028952,0.0
538296.95196600363,3625566.251970998,-37500.0,-3772.3739163951664,-2080.7610313309929,-847.87694787922169,-3318.632060989386,-1500.9670735863299,-1960.8435599230731,3953.1369058324881,-3542.0313283075802,416.2465249407669,-416.2465249407669,3542.0313283075802,7702.1991574205194,0.0
543296.95196600363,3625566.251970998,-37500.0,-3793.2015932602603,-2379.7058037881197,-1100.7571295511218,-3696.1792189489288,-1827.356861983985,-2328.3119831299841,4417.1021738539939,-3695.3797858244557,204.63557633735536,-204.63557633735536,3695.3797858244557,8569.885981500769,0.0
548296.95196600363,3625566.251970998,-37500.0,-3698.8955091322,-2696.2580422405626,-1430.9597504854696,-4076.9822924392788,-2218.9970583309337,-2752.3222069074941,4925.1046165422995,-3770.8986443183467,-104.43999595544165,104.43999595544165,3770.8986443183467,9504.7033696908366,0.0
553296.95196600363,3625566.251970998,-37500.0,-3442.7291290793673,-3012.7749957784072,-1858.6489841474299,-4434.9019854472999,-2680.9191986559149,-3230.1229492965863,5471.5777593357925,-3723.1664877217809,-539.5842540864553,539.5842540864553,3723.1664877217809,10488.813836724685,0.0
558296.95196600363,3625566.251970998,-37500.0,-2968.1333586311962,-3297.9444936703526,-2405.3721291552324,-4728.6940645581262,-3211.1294464917373,-3749.1930539695049,6044.1868586698092,-3491.2696877395856,-1132.2354741521615,1132.2354741521615,3491.2696877395856,11489.617828651157,0.0
563296.95196600363,3625566.251970998,-37500.0,-2212.2457123554022,-3500.7089365748648,-3089.9701550343134,-4896.7914526433915,-3793.338810098669,-4280.1278128087915,6620.4759240764306,-2997.9335777188844,-1911.8041545300955,1911.8041545300955,2997.9335777188844,12453.929205957345,0.0
568296.95196600363,3625566.251970998,-37500.0,-1116.1714342840357,-3544.0733881688398,-3920.0560899707566,-4852.6684362391725,-4384.9722785159538,-4765.6606134597687,7163.9382114740447,-2153.774931475054,-2895.283815743433,2895.283815743433,2153.774931475054,13302.566698543042,0.0
573296.95196600363,3625566.251970998,-37500.0,352.96992822346971,-3322.6352651564976,-4876.8360157144598,-4484.6347932242652,-4899.1354168639855,-5104.6746484017258,7621.2365175114101,-872.88433113332417,-4068.4116645673366,4068.4116645673366,872.88433113332417,13930.343821642404,0.0
578296.95196600363,3625566.251970998,-37500.0,2163.2899244223177,-2712.6766805651782,-5892.6184154000712,-3668.7670543573795,-5181.8524140075606,-5131.9089307912154,7926.3460002916609,891.19860162219584,-5357.2074566043175,5357.2074566043175,-891.19860162219584,14225.270294700213,0.0
583296.95196600363,3625566.251970998,-37500.0,4165.0761445840099,-1609.820177532062,-6826.8905788396642,-2310.0636869497512,-4994.1651623604848,-4600.8299478246645,8027.7548687293347,3082.0461050223394,-6596.6573150819177,6596.6573150819177,-3082.0461050223394,14139.260826982199,0.0
588296.95196600363,3625566.251970998,-37500.0,6048.2767937094322,-8.6568827750667747,-7461.2807020678974,-427.39364253823368,-4025.403174614707,-3192.5700554630862,7978.5415279709023,5460.0467797282454,-7521.4010494834401,7521.4010494834401,-5460.0467797282454,13864.395960859783,0.0
593296.95196600363,3625566.251970998,-37500.0,7370.6973762934222,1886.7609001440526,-7550.1347395947087,1726.1117617312443,-1981.7555330710147,-593.93843936922167,8136.8895879407828,7558.5071560576243,-7824.4407996211512,7824.4407996211512,-7558.5071560576243,14093.534380716344,0.0
598296.95196600363,3625566.251970998,-37500.0,7726.4769115636691,3595.1436792128179,-6953.6559558714598,3579.4530771575405,1219.0144094480509,3315.2343097377511,9162.9388859891442,8774.3157597985501,-7319.0454519928198,7319.0454519928198,-8774.3157597985501,15870.67580164796,0.0
603296.95196600363,3625566.251970998,-37500.0,7037.5024827349889,4460.9368183699762,-5807.8797451288301,4335.747072811987,5203.4737590096247,8196.6879387703648,11232.974860815575,8656.5299675201804,-6150.4455959765028,6150.4455959765028,-8656.5299675201804,19456.67322976681,0.0
608296.95196600363,3625566.251970998,-37500.0,5776.2304275853794,3988.5213734591471,-4583.496015361382,3336.376540272388,9038.9974229900363,13078.877571571033,13691.572077571138,7279.6360795974606,-4877.5431004062966,4877.5431004062966,-7279.6360795974606,23717.832336384217,0.0
613296.95196600363,3625566.251970998,-37500.0,4845.8189409146571,2248.5765528637298,-3895.8901786690717,580.13396396680014,11487.316279410203,16529.827015442064,15550.085263451172,5393.9924015303332,-4248.661122927102,4248.661122927102,-5393.9924015303332,26965.25513796851,0.0
618296.95196600363,3625566.251970998,-37500.0,5023.051309276565,13.757385580254988,-4123.1784962456677,-2989.8799610610131,11624.71533153044,17310.127168160179,16073.213915121036,4080.8080583995056,-4718.696414666997,4718.696414666997,-4080.8080583995056,27914.636057445034,0.0
623296.95196600363,3625566.251970998,-37500.0,6301.4009093838931,-1632.2634212322298,-5114.5345837799478,-5873.6160922275949,9460.1950546685039,15193.584759674537,15114.179503482268,4017.3666716287808,-6056.5092944018488,6056.5092944018488,-4017.3666716287808,26284.671104701803,0.0
628296.95196600363,3625566.251970998,-37500.0,7824.3459901377864,-2009.3967696062052,-6285.4386777618083,-6978.9415227149811,5968.8166244699505,11187.248582000857,13136.604985611821,4985.0552136813067,-7470.4107007854354,7470.4107007854354,-4985.0552136813067,22868.213415182814,0.0
633296.95196600363,3625566.251970998,-37500.0,8607.7559810909042,-1219.3898361775189,-7049.206852729345,-6270.9486581820547,2420.5571091882325,6808.400422539502,10899.904475804924,6168.8298950574563,-8209.3899715156622,8209.3899715156622,-6168.8298950574563,18979.413547197964,0.0
638296.95196600363,3625566.251970998,-37500.0,8257.312416694358,138.83271931718386,-7160.8990585210213,-4495.2790320912009,-341.45214037679926,3158.8241832607168,9026.3918772164016,6871.4330323866443,-8026.0380459215021,8026.0380459215021,-6871.4330323866443,15688.736423542428,0.0
643296.95196600363,3625566.251970998,-37500.0,7005.5735394106741,1482.4533350573968,-6713.2891007620656,-2479.582555556447,-2089.0967602634028,614.92250208247913,7732.7285080180282,6874.5090272576044,-7130.1471753743144,7130.1471753743144,-6874.5090272576044,13397.989308138956,0.0
648296.95196600363,3625566.251970998,-37500.0,5322.9911007639048,2499.4501391801991,-5939.3027146400163,-730.90523161285455,-2978.8149897989533,-932.16055176496832,6879.5442374879021,6318.8738254984864,-5885.0214823724391,5885.0214823724391,-6318.8738254984864,11936.635414044618,0.0
653296.95196600363,3625566.251970998,-37500.0,3604.6619742802518,3121.2503953949708,-5052.4278880889869,573.10855909290956,-3279.6708466923324,-1753.4864965034649,6250.6039545079148,5454.5363722269121,-4587.8589224234165,4587.8589224234165,-5454.5363722269121,10943.019786800827,0.0
658296.95196600363,3625566.251970998,-37500.0,2076.6794708087473,3405.13916813795,-4190.4451037445779,1444.4788926883414,-3228.940532981384,-2104.1907525038587,5714.7687087334025,4491.8050399101821,-3409.7088702705196,3409.7088702705196,-4491.8050399101821,10142.836817756153,0.0
663296.95196600363,3625566.251970998,-37500.0,827.02695568866125,3444.5400995093823,-3421.7963782615957,1966.5752781144299,-2993.7036224128751,-2172.0848525887072,5219.1566267541402,3562.8204996795093,-2420.2984741245709,2420.2984741245709,-3562.8204996795093,9401.493696798143,0.0
668296.95196600363,3625566.251970998,-37500.0,-137.46272335182979,3326.0235232275513,-2769.5261409562654,2232.4170048027754,-2678.6505891386678,-2081.6985142516992,4749.3431523065101,2734.2020336909327,-1629.4523695878518,1629.4523695878518,-2734.2020336909327,8674.9247928583427,0.0
673296.95196600363,3625566.251970998,-37500.0,-847.74672910049196,3116.0812149211824,-2232.2017406019872,2321.5415549984336,-2344.3917124297755,-1911.3497487869815,4305.050366049898,2030.1567804156025,-1018.4835650743963,1018.4835650743963,-2030.1567804156025,7960.0581671329928,0.0
678296.95196600363,3625566.251970998,-37500.0,-1347.4454189258408,2861.0605298516048,-1797.4273845442649,2295.0272124960993,-2023.4032075135046,-1708.4990677970611,3889.4878603813077,1451.2006033019152,-558.58014267144188,558.58014267144188,-1451.2006033019152,7267.1390024807697,0.0
683296.95196600363,3625566.251970998,-37500.0,-1680.4350983251677,2591.2179601975727,-1449.3238688699046,2197.178090528781,-1731.2055155013873,-1500.7461009703491,3505.4668625098698,986.28149329054656,-220.03306812162771,220.03306812162771,-986.28149329054656,6607.6770682298202,0.0
688296.95196600363,3625566.251970998,-37500.0,-1885.6141528240109,2325.1740272773445,-1172.2058648178247,2058.9304176191476,-1473.5489621925817,-1303.1807386143926,3154.3504833999064,619.82347310180501,23.785892540925715,-23.785892540925715,-619.82347310180501,5990.2915654898579,0.0
693296.95196600363,3625566.251970998,-37500.0,-1995.297513238396,2073.5989798322476,-952.13916471899552,1901.2054064273907,-1250.8360331476263,-1123.1900169334599,2836.0674321092456,335.5151132159807,195.14059679440027,-195.14059679440027,-335.5151132159807,5419.959514134016,0.0
698296.95196600363,3625566.251970998,-37500.0,-2035.2919400707131,1841.9435056580171,-777.40710316943557,1737.6891329636146,-1060.7598361824569,-963.55961032497521,2549.4460476174295,118.17027831013397,311.90991499723089,-311.90991499723089,-118.17027831013397,4898.5060064742793,0.0
703296.95196600363,3625566.251970998,-37500.0,-2025.6608405214747,1632.3553089395416,-638.46539422053149,1576.9798088688819,-899.83341363752209,-824.44763196920917,2292.5902014021926,-45.495239471041174,388.08640561826121,-388.08640561826121,45.495239471041174,4425.421439727932,0.0
708296.95196600363,3625566.251970998,-37500.0,-1981.6923288271405,1444.9765961241062,-527.68714841290898,1424.1795212364943,-764.24215709644295,-704.61503785912089,2063.196352793032,-166.67022008166984,434.43020920023787,-434.43020920023787,166.67022008166984,3998.6388578038027,0.0
713296.95196600363,3625566.251970998,-37500.0,-1914.8469530286304,1278.7994676003127,-439.04866559548339,1282.0426424583245,-650.29223935404787,-602.17252899844993,1858.7908002083013,-254.54699664605658,459.11156025573774,-459.11156025573774,254.54699664605658,3615.1592354547747,0.0
513296.95196600363,3630566.251970998,-37500.0,-3192.7591697512953,-795.31302006031694,-114.63636024512991,-1941.5329698325882,-452.27759499851879,-869.82256437020897,2358.1893237056111,-2496.2503105492524,901.06719741557947,-901.06719741557947,2496.2503105492524,4641.1716882967557,0.0
518296.95196600363,3630566.251970998,-37500.0,-3446.8543105107497,-932.47477582162128,-151.06604026856584,-2214.299382180739,-553.0266331309349,-1039.45074408503,2641.3820398924445,-2737.5189037246455,944.64588152901092,-944.64588152901092,2737.5189037246455,5192.1987705793126,0.0
523296.95196600363,3630566.251970998,-37500.0,-3706.9783996028609,-1094.2662382075073,-201.33778336870037,-2526.7984044612776,-678.53037007355874,-1245.4604259301052,2964.3509703156428,-2995.6962971076609,977.38305192249845,-977.38305192249845,2995.6962971076609,5817.8162740628131,0.0
528296.95196600363,3630566.251970998,-37500.0,-3965.1230119336597,-1284.3995789072183,-270.70459943824858,-2883.0294945935466,-835.10461188810939,-1495.5540300788787,3332.4714547519416,-3267.0391828601314,992.32073332585628,-992.32073332585628,3267.0391828601314,6526.9212051780551,0.0
533296.95196600363,3630566.251970998,-37500.0,-4209.0324678613197,-1506.4783052075934,-366.37948578418451,-3286.0686537367505,-1030.5329385283023,-1798.6245691121262,3751.3805748162308,-3544.6338633619935,979.6446523780935,-979.6446523780935,3544.6338633619935,7328.2230952967384,0.0
538296.95196600363,3630566.251970998,-37500.0,-4420.5744415749105,-1763.4110119806899,-498.21189830822425,-3737.0501800194265,-1274.2264267758926,-2164.571976228694,4226.6533412724821,-3816.8375077591099,925.70325978822257,-925.70325978822257,3816.8375077591099,8229.3415151173867,0.0
543296.95196600363,3630566.251970998,-37500.0,-4573.6383657862034,-2056.3598282845455,-679.52587865290434,-4233.5549078373642,-1577.2162857820249,-2603.7772756724298,4763.2218838649533,-4065.0804218996559,811.79992300996992,-811.79992300996992,4065.0804218996559,9235.3260065597333,0.0
548296.95196600363,3630566.251970998,-37500.0,-4631.5423708470798,-2382.9377825291813,-928.07374989234222,-4767.1130994664964,-1951.7636167990313,-3125.9784148769304,5364.3795650418151,-4260.8390233708569,612.8168429679572,-612.8168429679572,4260.8390233708569,10346.304498092479,0.0
553296.95196600363,3630566.251970998,-37500.0,-4544.0951520473818,-2734.2228658544082,-1266.9245669405523,-5319.4039146878213,-2410.1691301780002,-3738.1180872104042,6030.1122082281609,-4361.6265387293461,295.89993770656974,-295.89993770656974,4361.6265387293461,11553.829041284916,0.0
558296.95196600363,3630566.251970998,-37500.0,-4244.8906098678217,-3090.007314676669,-1724.8195231960597,-5856.5957150740924,-2962.0039590190713,-4440.4236981761305,6754.3514078823555,-4306.0844981619866,-180.19380015746765,180.19380015746765,4306.0844981619866,12835.331193089973,0.0
563296.95196600363,3630566.251970998,-37500.0,-3650.4216822483586,-3411.6703572270885,-2334.9539243205122,-6321.2360056823945,-3608.3427774077354,-5219.3854943604911,7520.5484875005832,-4008.9981040047132,-863.7217436962228,863.7217436962228,4008.9981040047132,14145.988645888929,0.0
568296.95196600363,3630566.251970998,-37500.0,-2664.7310648923367,-3632.608510147023,-3130.1549941878739,-6621.6481386492242,-4330.6067415548141,-6035.2537329343404,8294.8913445221115,-3358.9753295673827,-1803.8043162618142,1803.8043162618142,3358.9753295673827,15407.692585718798,0.0
573296.95196600363,3630566.251970998,-37500.0,-1197.050162525615,-3648.3784030896604,-4131.1008218965844,-6621.2199645992914,-5070.6169161583266,-6800.2466952832947,9017.1105019542865,-2225.6296741218675,-3034.7614348228271,3034.7614348228271,2225.6296741218675,16497.015678038573,0.0
578296.95196600363,3630566.251970998,-37500.0,795.89198879541073,-3314.6446370816593,-5323.6892940856033,-6136.9225915663947,-5699.1989978417723,-7343.4050514172459,9591.9002808440746,-489.79321390259429,-4545.0325298408588,4545.0325298408588,489.79321390259429,17241.723031923069,0.0
583296.95196600363,3630566.251970998,-37500.0,3233.3208148887506,-2472.1383660494575,-6625.6111151279574,-4970.4158613338759,-5978.3640613115613,-7364.7361645723859,9893.8597890467208,1884.5883181036352,-6229.5979442214466,6229.5979442214466,-1884.5883181036352,17455.768231300706,0.0
588296.95196600363,3630566.251970998,-37500.0,5815.866975846393,-1027.8592565221672,-7857.534376328811,-3009.9019271676916,-5545.7031872525422,-6406.903448208599,9826.7996306424611,4731.2118672105753,-7845.8722905870982,7845.8722905870982,-4731.2118672105753,17083.432326195063,0.0
593296.95196600363,3630566.251970998,-37500.0,7994.5618026500915,897.07994560960117,-8762.595556522796,-423.15018184764011,-3989.287115213192,-3923.1783055258638,9552.4676000774853,7568.8204713468931,-9033.730519165505,9033.730519165505,-7568.8204713468931,16547.569799403587,0.0
598296.95196600363,3630566.251970998,-37500.0,9145.0448159766365,2831.7481143886284,-9127.8454175843108,2144.1581417969228,-1090.6915438142405,449.21429177988807,9866.1001489878745,9647.9723386124442,-9478.1282421748019,9478.1282421748019,-9647.9723386124442,17089.045848946622,0.0
603296.95196600363,3630566.251970998,-37500.0,8987.9121958625146,4031.3743605599207,-8980.085420139214,3615.419387969408,2810.9630113862927,6414.5764647168635,11375.827610613589,10308.288686162061,-9186.0539129177814,9186.0539129177814,-10308.288686162061,19872.281040264043,0.0
608296.95196600363,3630566.251970998,-37500.0,7971.372649865707,3897.8208347032905,-8666.9996634384042,3000.9277717013533,6634.2373071177817,12646.294696197534,13743.259338370717,9513.6735758860905,-8628.9264683058227,8628.9264683058227,-9513.6735758860905,24106.191343940111,0.0
613296.95196600363,3630566.251970998,-37500.0,7152.3184206816995,2505.7482063167849,-8639.4661278921394,207.22785300806257,8909.1077769184667,17018.9454101419,15798.910946423619,8076.1778278568499,-8485.2153890624722,8485.2153890624722,-8076.1778278568499,27561.280658348056,0.0
618296.95196600363,3630566.251970998,-37500.0,7442.9736823545563,726.8291768634241,-9065.922219269969,-3510.1475091730608,8630.9812101037442,17689.577516757916,16367.627848673652,7179.8117374178946,-9090.2400799294319,9090.2400799294319,-7179.8117374178946,28438.115419102753,0.0
623296.95196600363,3630566.251970998,-37500.0,8732.3570876864233,-315.29070383554244,-9654.2118767760676,-6152.5905751495147,6016.1930399121111,14472.856010618852,15248.292991931034,7431.039577840942,-10069.453095587336,10069.453095587336,-7431.039577840942,26438.842611327269,0.0
628296.95196600363,3630566.251970998,-37500.0,9886.2847710237857,-87.204990800436505,-9891.6389474228909,-6464.1153132968821,2381.7645078398409,9105.2804969654208,13148.360860466568,8356.9348131072729,-10606.751776468951,10606.751776468951,-8356.9348131072729,22775.538903111843,0.0
633296.95196600363,3630566.251970998,-37500.0,9842.3223776806117,1067.2568726670343,-9474.1910210924125,-4761.4884562175712,-849.00527609877645,3850.7277204143497,11057.602230898356,8997.4090735374448,-10159.167080501309,10159.167080501309,-8997.4090735374448,19154.243302052797,0.0
638296.95196600363,3630566.251970998,-37500.0,8464.0088628638423,2431.9880405205581,-8476.349556415571,-2246.1224385488044,-2969.9862786590561,20.954044638388449,9566.8475613115552,8811.1691051935923,-8813.6420644612153,8813.6420644612153,-8811.1691051935923,16570.271399819594,0.0
643296.95196600363,3630566.251970998,-37500.0,6315.5071915770332,3496.5069729287061,-7181.1094926466376,74.045675936176238,-3996.5571839334289,-2223.7797000681376,8629.1383267904512,7877.9267400530225,-7023.3897764807552,7023.3897764807552,-7877.9267400530225,14981.226248224086,0.0
648296.95196600363,3630566.251970998,-37500.0,4036.6151713406975,4101.2984675900452,-5856.6882308856957,1769.7302692849794,-4255.2260520795862,-3280.7662702803382,7930.8511140659948,6553.058906727003,-5217.9368301751147,5217.9368301751147,-6553.058906727003,13899.894890272988,0.0
653296.95196600363,3630566.251970998,-37500.0,2021.7688890894647,4302.7219982153656,-4663.0458861173774,2820.6706590112885,-4076.0324237817995,-3604.9516898269767,7287.7141967317129,5156.5635132319203,-3641.2747034243457,3641.2747034243457,-5156.5635132319203,12960.866785477225,0.0
658296.95196600363,3630566.251970998,-37500.0,418.59885979612653,4223.6899809335446,-3661.9323556344902,3365.7399734567298,-3689.8278376760763,-3528.1645749011636,6652.4528707138561,3875.848407970574,-2375.0234247740245,2375.0234247740245,-3875.848407970574,12019.590737679937,0.0
663296.95196600363,3630566.251970998,-37500.0,-770.52543204522055,3977.741063891146,-2856.6027349524884,3561.6882053063405,-3232.8415986063574,-3254.6000330426832,6029.5766510955,2788.0813806727906,-1410.0128833295562,1410.0128833295562,-2788.0813806727906,11055.238958419117,0.0
668296.95196600363,3630566.251970998,-37500.0,-1604.0039904611001,3647.6447099341362,-2224.1565600492245,3534.8433943887258,-2777.2881018359972,-2900.8169728210351,5433.4173156105771,1906.2085012192374,-700.77469517573729,700.77469517573729,-1906.2085012192374,10089.765511526515,0.0
673296.95196600363,3630566.251970998,-37500.0,-2154.8941051584402,3287.1347635660486,-1734.0906088189809,3375.2933904376896,-2357.552133527357,-2530.6273490234162,4875.5022970857626,1213.1255780251963,-194.48640831369551,194.48640831369551,-1213.1255780251963,9151.1801631710132,0.0
678296.95196600363,3630566.251970998,-37500.0,-2491.2411806163377,2928.4667124965399,-1356.9278099371304,3143.7321805275592,-1987.1145843500601,-2177.3095498207704,4362.4707949987078,680.91600496134811,156.89835692468887,-156.89835692468887,-680.91600496134811,8261.471060694319,0.0
683296.95196600363,3630566.251970998,-37500.0,-2669.7830477869807,2589.5428995010766,-1067.4126864225607,2879.6568420521598,-1668.4719574675569,-1856.6121665066573,3896.8678829195078,280.21297080898933,392.96070670915014,-392.96070670915014,-280.21297080898933,7434.4939724114911,0.0
688296.95196600363,3630566.251970998,-37500.0,-2735.3077172668864,2279.1643411912919,-845.13441121753374,2607.9397859051942,-1398.7096722827844,-1574.3072045277211,3478.3531326153779,-15.791365716368659,544.71416711727306,-544.71416711727306,15.791365716368659,6677.0630853093417,0.0
693296.95196600363,3630566.251970998,-37500.0,-2722.058489159087,2000.5979337005037,-674.11791589203813,2343.5947654733027,-1172.580809406177,-1330.6626407723243,3104.7633310925435,-229.96212087887253,635.76565876440645,-635.76565876440645,229.96212087887253,5990.815453855962,0.0
698296.95196600363,3630566.251970998,-37500.0,-2655.6452905714314,1753.88291663481,-542.08351707966881,2095.0976322648594,-984.15139765568188,-1123.103788303722,2772.8922505771598,-381.06159691607093,683.7530788333894,-683.7530788333894,381.06159691607093,5373.917168466086,0.0
703296.95196600363,3630566.251970998,-37500.0,-2554.888948905244,1537.2917608751006,-439.68868952018801,1866.6753822482819,-827.64090212624876,-947.78570016992649,2479.0382107110277,-484.10947050266299,701.68144590926204,-701.68144590926204,484.10947050266299,4822.4169242891567,0.0
708296.95196600363,3630566.251970998,-37500.0,-2433.40275475608,1348.2324810816544,-359.86444525850231,1659.8641126315679,-697.80953735876517,-800.4936215399498,2219.3658583769484,-550.92606000483954,699.04041975201233,-699.04041975201233,550.92606000483954,4331.2246827273329,0.0
713296.95196600363,3630566.251970998,-37500.0,-2300.8771225864207,1183.7909670560337,-297.2741504387069,1474.5582812301802,-590.09807452014513,-677.13166763764468,1990.1342665529116,-590.69990798107017,682.69285901396381,-682.69285901396381,590.69990798107017,3894.7823688699609,0.0
513296.95196600363,3635566.251970998,-37500.0,-3374.0642425198503,-538.31736969562337,-6.7422430400336957,-2031.7489085987681,-316.5375320176509,-904.65699810134913,2420.3569675949825,-2464.3341021548954,1069.3043065820098,-1069.3043065820098,2464.3341021548954,4761.8794534316421,0.0
518296.95196600363,3635566.251970998,-37500.0,-3670.5400839359208,-640.18263014794343,-18.144953747861578,-2330.5248559449892,-392.07510011748428,-1086.1942188360538,2720.0616231306631,-2714.4549325811477,1149.3690993281834,-1149.3690993281834,2714.4549325811477,5344.5757408634317,0.0
523296.95196600363,3635566.251970998,-37500.0,-3983.4441838851499,-762.38522862336981,-37.052441501609792,-2677.1853043742581,-487.51651728948212,-1308.5426213350531,3064.3203731385775,-2986.5848733215298,1227.2140428624145,-1227.2140428624145,2986.5848733215298,6010.9542463556827,0.0
528296.95196600363,3635566.251970998,-37500.0,-4307.2724874130481,-908.73649552921188,-67.102899247830919,-3078.4575572058739,-608.44891623465492,-1581.1768849107418,3460.0331609889063,-3278.9767140290251,1297.8993448809069,-1297.8993448809069,3278.9767140290251,6772.7591720581504,0.0
533296.95196600363,3635566.251970998,-37500.0,-4632.7308502936003,-1083.4105194696974,-113.56307004230004,-3541.0854469334186,-762.01738484465227,-1915.5146297504878,3914.8947286018974,-3587.3847591039903,1353.9749472720748,-1353.9749472720748,3587.3847591039903,7642.498962535069,0.0
538296.95196600363,3635566.251970998,-37500.0,-4945.0369274587047,-1290.6681391933087,-184.02483926255655,-4071.1199292848319,-957.28247732113982,-2325.0696101919316,4437.2687787820305,-3903.6633647590515,1384.4278957721881,-1384.4278957721881,3903.6633647590515,8632.8710853293087,0.0
543296.95196600363,3635566.251970998,-37500.0,-5221.5614604051825,-1534.2675849260247,-289.36954314735664,-4672.6821957411094,-1205.5732934729538,-2825.4207556976321,5035.8729475057517,-4213.6850410662009,1373.245046459801,-1373.245046459801,4213.6850410662009,9755.7065474780702,0.0
548296.95196600363,3635566.251970998,-37500.0,-5428.5999796846763,-1816.3140027214613,-445.05988451928039,-5345.8696987673748,-1520.7254050488957,-3433.8172973008063,5719.1257161835465,-4494.2703322691159,1297.5038494732385,-1297.5038494732385,4494.2703322691159,11020.141823133918,0.0
553296.95196600363,3635566.251970998,-37500.0,-5517.071077042513,-2135.1276401152154,-672.77556204724522,-6083.2453595785819,-1918.9479067704742,-4168.0907867370479,6493.8753744044534,-4708.7209312993527,1124.9566651776699,-1124.9566651776699,4708.7209312993527,12429.525466808585,0.0
558296.95196600363,3635566.251970998,-37500.0,-5417.1307102152741,-2481.4366427552486,-1002.2497625559788,-6863.9610681886679,-2417.7480141387109,-5044.2161677238601,7362.9838786112505,-4800.5234790465165,811.28573773914832,-811.28573773914832,4800.5234790465165,13976.224460909541,0.0
563296.95196600363,3635566.251970998,-37500.0,-5032.4440530022548,-2831.8630964434942,-1472.7625759672869,-7643.9871108752914,-3032.6810030659267,-6071.0843093666326,8320.7942310480666,-4685.1296796655834,297.79028582809497,-297.79028582809497,4685.1296796655834,15632.938275504028,0.0
568296.95196600363,3635566.251970998,-37500.0,-4237.0811089265244,-3138.5305207720712,-2132.836500108232,-8340.4489741652251,-3769.3886841750045,-7239.2557051541316,9344.8577413682015,-4241.2226308416166,-488.30038170678199,488.30038170678199,4241.2226308416166,17338.496743010699,0.0
573296.95196600363,3635566.251970998,-37500.0,-2883.2811574599609,-3314.7175389862068,-3034.9690431330778,-8809.2110210699975,-4606.2557329988331,-8496.9474924205424,10381.839394715766,-3307.2907115034941,-1625.7825102861864,1625.7825102861864,3307.2907115034941,18976.46339342689,0.0
578296.95196600363,3635566.251970998,-37500.0,-837.78547632835114,-3221.5288307637325,-4219.9143270797331,-8822.0280225439037,-5461.0665188117691,-9701.8862097375204,11326.951061039053,-1699.0993094443004,-3174.2628471996377,3174.2628471996377,1699.0993094443004,20349.952541254646,0.0
583296.95196600363,3635566.251970998,-37500.0,1927.2980186073717,-2674.0585529195755,-5684.6790190484317,-8071.1141712103599,-6138.924136226995,-10539.477722826239,12004.421794842983,722.18728092854099,-5120.7738180788874,5120.7738180788874,-722.18728092854099,21175.586629657169,0.0
588296.95196600363,3635566.251970998,-37500.0,5181.8635383955952,-1506.9837314024819,-7338.288469256614,-6266.9995099812304,-6283.5223831999056,-10430.232144801941,12182.375603930264,3901.2586652624705,-7303.1218650528408,7303.1218650528408,-3901.2586652624705,21168.673456297656,0.0
593296.95196600363,3635566.251970998,-37500.0,8310.378948501786,260.67980568117889,-8980.5793810042487,-3406.5382628945595,-5415.6606412189794,-8546.2003313549358,11735.214599292169,7395.406768107262,-9369.4353448182301,9369.4353448182301,-7395.406768107262,20363.216992909071,0.0
598296.95196600363,3635566.251970998,-37500.0,10447.793501163495,2222.1871399605716,-10373.498185489159,-142.93265190780576,-3196.3682859319611,-4169.7346707104898,11301.011341269528,10341.348124192884,-10898.397608923815,10898.397608923815,-10341.348124192884,19707.065902707258,0.0
603296.95196600363,3635566.251970998,-37500.0,11049.987273223744,3609.9346011488769,-11415.168736310285,2155.8600424900483,91.375907790315082,2518.0193525341315,12040.510984686407,11869.033020811328,-11715.926600698202,11715.926600698202,-11869.033020811328,20949.196892421758,0.0
608296.95196600363,3635566.251970998,-37500.0,10500.438288273834,3796.1962922330963,-12224.15465332534,2137.5048920081263,3280.7439669639571,9759.0648137082389,13248.445514830582,11830.67650272462,-12106.351264131799,12106.351264131799,-11830.67650272462,24276.311331230827,0.0
613296.95196600363,3635566.251970998,-37500.0,9958.2421427714999,2917.647624592249,-12921.891313011556,-331.24131946354873,4842.8386790629283,14618.28604190381,14778.065451792703,11068.906051108872,-12533.31519078893,12533.31519078893,-11068.906051108872,27350.783667960022,0.0
618296.95196600363,3635566.251970998,-37500.0,10347.783866204136,1881.1834920301658,-13345.457124353257,-3621.7878299911349,3973.1955798944382,14726.049036346438,15560.108370148449,10723.867694442835,-13088.586209515239,13088.586209515239,-10723.867694442835,27957.138818738422,0.0
623296.95196600363,3635566.251970998,-37500.0,11353.89914878719,1629.2379209868068,-13126.959618551589,-5344.0634169985215,1255.8524130161254,10238.331472947117,14761.827617764377,11137.604413998197,-13293.065067795535,13293.065067795535,-11137.604413998197,25915.606656650019,0.0
628296.95196600363,3635566.251970998,-37500.0,11644.891476166913,2363.7430237545982,-12068.94401654467,-4364.7989660710919,-1818.1741400149649,3862.0503972430738,13175.461049081816,11565.91269909881,-12532.360777624626,12532.360777624626,-11565.91269909881,22851.501502605948,0.0
633296.95196600363,3635566.251970998,-37500.0,10328.667448380234,3542.6671838757043,-10353.814547281332,-1572.6049908494049,-4033.1332013180195,-1504.9547564743248,11788.475920279943,11134.100031328229,-10700.160518241455,10700.160518241455,-11134.100031328229,20418.624335402958,0.0
638296.95196600363,3635566.251970998,-37500.0,7721.7476059526407,4530.4592617486333,-8386.0503452151661,1426.3682780555453,-5065.623268886101,-4681.9217162583091,10919.527999703723,9711.8084661505072,-8269.5283333108691,8269.5283333108691,-9711.8084661505072,18925.558070054161,0.0
643296.95196600363,3635566.251970998,-37500.0,4721.6114504933739,5042.8028058198179,-6520.7166963006439,3654.640563122292,-5198.2347946427999,-5970.5896544685238,10214.493241694379,7752.7936427225022,-5833.9954405652197,5833.9954405652197,-7752.7936427225022,17830.636037123433,0.0
648296.95196600363,3635566.251970998,-37500.0,2025.3563051688566,5109.0944967796022,-4942.9647356693522,4929.6077880239263,-4833.8350451006372,-6110.5010334131412,9439.8155192112608,5754.2504814280828,-3760.6442155537106,3760.6442155537106,-5754.2504814280828,16714.243302533519,0.0
653296.95196600363,3635566.251970998,-37500.0,-78.806407519718135,4875.6946474193664,-3695.5759057357777,5453.9955915906457,-4265.6834676757289,-5690.7997436281303,8594.7895974941748,4002.7221546159526,-2161.7869878286992,2161.7869878286992,-4002.7221546159526,15473.259819721923,0.0
658296.95196600363,3635566.251970998,-37500.0,-1577.6100305017083,4482.2615377500388,-2746.8782328689895,5492.7880798193401,-3656.8798840159061,-5053.9561602099093,7736.9879520564418,2591.5591651370596,-1003.3710067685377,1003.3710067685377,-2591.5591651370596,14152.380335437234,0.0
663296.95196600363,3635566.251970998,-37500.0,-2570.785824953849,4025.5154912373664,-2040.5385300695282,5252.8075114427565,-3083.9483756307336,-4371.3367520772626,6912.526788656437,1509.5250995380675,-199.93337812475841,199.93337812475841,-1509.5250995380675,12821.871197736958,0.0
668296.95196600363,3635566.251970998,-37500.0,-3179.090848149704,3562.8490560107771,-1520.2832745947344,4869.9604317178801,-2576.6737921227082,-3721.5185946153165,6147.1061460934443,706.28337478765252,336.72297023066062,-336.72297023066062,-706.28337478765252,11536.664213733651,0.0
673296.95196600363,3635566.251970998,-37500.0,-3508.660646471953,3124.7892116773296,-1138.8023131553705,4427.1835045538355,-2142.0520242630255,-3137.0615263595359,5451.687181190081,124.92939131595267,680.3661603489918,-680.3661603489918,-124.92939131595267,10331.099746870152,0.0
678296.95196600363,3635566.251970998,-37500.0,-3642.8053900394525,2725.5559915641525,-859.25282790813242,3973.1232590581899,-1776.7461530499775,-2628.0862793301053,4828.5367306525368,-285.56858171648906,887.62378159950026,-887.62378159950026,285.56858171648906,9223.170177380598,0.0
683296.95196600363,3635566.251970998,-37500.0,-3643.7484013761255,2370.0570794386522,-654.02455964266403,3535.2147948689912,-1473.240442035793,-2193.7556966168654,4275.2074393979874,-567.11788100549177,1000.2365964628078,-1000.2365964628078,567.11788100549177,8219.6048902030107,0.0
688296.95196600363,3635566.251970998,-37500.0,-3556.7935722374823,2058.1208953830051,-502.83503606761087,3127.9021485608964,-1222.8226154468978,-1828.0603557530328,3786.8548467806045,-752.74327693421662,1048.3200817595896,-1048.3200817595896,752.74327693421662,7319.8693684160517,0.0
693296.95196600363,3635566.251970998,-37500.0,-3414.3917793289661,1786.9834956270856,-390.93866893755347,2757.7157591324244,-1016.9989875562752,-1522.8874747570057,3357.5728788264846,-867.89267786736025,1053.3181753709591,-1053.3181753709591,867.89267786736025,6519.0461080956566,0.0
698296.95196600363,3635566.251970998,-37500.0,-3239.4576666144872,1552.7157512483561,-307.6658243389117,2426.4296454499363,-848.10952590475688,-1269.6774950963418,2981.1551675631026,-931.89909261897014,1030.3471778059907,-1030.3471778059907,931.89909261897014,5809.8005371851541,0.0
703296.95196600363,3635566.251970998,-37500.0,-3047.9262579909951,1351.0312454307627,-245.30727704490133,2133.0542553679848,-709.53837171080704,-1060.2931717566944,2651.5340093297627,-959.29803268361229,989.96288177620295,-989.96288177620295,959.29803268361229,5183.6986769513287,0.0
708296.95196600363,3635566.251970998,-37500.0,-2850.6740234300432,1177.7267490064862,-198.28914719586137,1875.0971548522343,-595.72073898674751,-887.42897951211114,2363.0225288601814,-960.92442373950337,939.46058672833158,-939.46058672833158,960.92442373950337,4632.0550163261478,0.0
713296.95196600363,3635566.251970998,-37500.0,-2654.9450780240454,1028.9055935922424,-162.5732315581964,1649.3522893054869,-502.05432446040419,-744.75401353409961,2110.4341201833713,-944.792467297435,883.81948633908746,-883.81948633908746,944.792467297435,4146.449759954121,0.0
718296.95196600363,3635566.251970998,-37500.0,-2465.4007989912548,901.07452469247221,-135.22504458214078,1452.3835116552646,-424.77431907897534,-626.90784800293511,1889.1262941664061,-916.78565107730026,826.38344767978276,-826.38344767978276,916.78565107730026,3719.0217580171984,0.0
513296.95196600363,3640566.251970998,-37500.0,-3473.7590435469028,-247.23985352650317,65.983285193830113,-2081.2821519584218,-164.91790399146043,-923.64467342255637,2451.7403848563335,-2350.9408854124822,1187.9749076547455,-1187.9749076547455,2350.9408854124822,4823.5146775357334,0.0
518296.95196600363,3640566.251970998,-37500.0,-3797.6430635117308,-303.79492801674439,72.937735365850543,-2396.3900185242096,-209.7919138936077,-1112.4500277453224,2761.5464675106487,-2592.4340675094113,1295.6814568242494,-1295.6814568242494,2592.4340675094113,5425.4371375373858,0.0
523296.95196600363,3640566.251970998,-37500.0,-4145.5965469537896,-373.17480764957554,77.530309460010955,-2765.0482123026572,-267.65658495523508,-1345.0117101006645,3119.1759122222966,-2856.9163622130463,1408.3355564220392,-1408.3355564220392,2856.9163622130463,6117.1908698578673,0.0
528296.95196600363,3640566.251970998,-37500.0,-4514.2760188029388,-458.18912994614624,77.653315992025625,-3196.0870677745866,-342.52495486042568,-1632.0835888785375,3532.6796784037015,-3143.6758828583306,1522.9579776204871,-1522.9579776204871,3143.6758828583306,6912.6495467560662,0.0
533296.95196600363,3640566.251970998,-37500.0,-4897.1108576534962,-562.10326526849428,70.016805177510818,-3699.1839492401327,-439.69113526138074,-1986.9613437250482,4011.3565451230952,-3450.0163970155891,1634.5664795689011,-1634.5664795689011,3450.0163970155891,7827.259677267456,0.0
538296.95196600363,3640566.251970998,-37500.0,-5282.6794555079059,-688.56147904976672,49.550510311215255,-4284.4943665006313,-566.1234317877346,-2425.9418146544558,4565.8257990601751,-3770.0560208466295,1735.1989300352222,-1735.1989300352222,3770.0560208466295,8877.8014274415964,0.0
543296.95196600363,3640566.251970998,-37500.0,-5652.3430998316544,-841.34092927422876,8.5214269233376267,-4961.8892834397293,-730.94860589017389,-2968.7746657850116,5208.0040898779016,-4092.8858188562072,1812.4963947808944,-1812.4963947808944,4092.8858188562072,10081.818607353882,0.0
548296.95196600363,3640566.251970998,-37500.0,-5976.7914810974489,-1023.7700776462425,-64.748369742040651,-5739.4959599359345,-946.00660157861216,-3639.041481758582,5950.8760163632633,-4399.7359394734849,1847.663202542416,-1847.663202542416,4399.7359394734849,11456.482559624326,0.0
553296.95196600363,3640566.251970998,-37500.0,-6211.0067784727271,-1237.4999018032906,-187.70039589599261,-6620.961435911091,-1226.3835779860435,-4464.3243695423334,6807.8173937064357,-4659.604342685062,1812.5717673004565,-1812.5717673004565,4659.604342685062,13016.450168284282,0.0
558296.95196600363,3640566.251970998,-37500.0,-6287.0528237910266,-1480.0478276335516,-386.00800970683866,-7600.286080013635,-1590.6330083461592,-5475.789813947089,7790.9340896069189,-4822.5684454104594,1665.792839767332,-1665.792839767332,4822.5684454104594,14769.840503674692,0.0
563296.95196600363,3640566.251970998,-37500.0,-6104.391781930859,-1740.0956634943377,-696.64666154531653,-8651.9988696746859,-2059.8971930035045,-6706.0554356701587,8907.2659788178953,-4809.9317893125517,1347.5971914198246,-1347.5971914198246,4809.9317893125517,16710.593392846022,0.0
568296.95196600363,3640566.251970998,-37500.0,-5519.172690351138,-1988.9809947283591,-1171.003802796381,-9712.7801826964132,-2653.9639165228878,-8181.9760190562793,10150.552829656428,-4501.2058030356502,774.99732035583384,-774.99732035583384,4501.2058030356502,18803.94690123709,0.0
573296.95196600363,3640566.251970998,-37500.0,-4339.6619396719607,-2166.8301562876295,-1876.1652825795197,-10649.567465794327,-3379.8677611266835,-9903.4984741228618,11484.675591643341,-3721.807257913817,-159.22361381146243,159.22361381146243,3721.807257913817,20960.138933629318,0.0
578296.95196600363,3640566.251970998,-37500.0,-2348.5840173482416,-2164.749383902059,-2889.8897111468509,-11214.092204901581,-4204.9442726033576,-11789.495769378134,12814.285322483887,-2246.4094069092057,-1573.3742437806654,1573.3742437806654,2246.4094069092057,22993.131320249693,0.0
583296.95196600363,3640566.251970998,-37500.0,606.06196192402547,-1816.2177626874052,-4281.2687893675129,-11009.172769384239,-5005.3333719974207,-13563.053809952769,13943.776168530432,145.5726843557984,-3551.1962388521852,3551.1962388521852,-145.5726843557984,24577.680341649713,0.0
588296.95196600363,3640566.251970998,-37500.0,4410.1663940273029,-936.9844207902363,-6069.6760025673375,-9555.8064329811477,-5499.3834348938826,-14578.041679811309,14549.461264350204,3508.7636048882123,-6048.5716540519843,6048.5716540519843,-3508.7636048882123,25272.306941896983,0.0
593296.95196600363,3640566.251970998,-37500.0,8437.9321802206505,527.18546951321832,-8172.8877440044917,-6614.9584933890055,-5244.1782560187921,-13735.607515754244,14252.806766446261,7468.9861447545391,-8788.9828042156896,8788.9828042156896,-7468.9861447545391,24776.511944577433,0.0
598296.95196600363,3640566.251970998,-37500.0,11594.291418453258,2268.7495449558673,-10395.703059431326,-2766.8789869512107,-3870.4676843360048,-9896.7213266669678,13155.296780111945,11094.23151776439,-11294.612118886529,11294.612118886529,-11094.23151776439,23583.602908036566,0.0
603296.95196600363,3640566.251970998,-37500.0,13030.752071494295,3593.8333807453901,-12503.983544909212,349.41018466692799,-1611.6388517474811,-3078.8698059157682,13396.725360987313,13342.910414452581,-13183.842310139098,13183.842310139098,-13342.910414452581,23390.019696771786,0.0
608296.95196600363,3640566.251970998,-37500.0,13045.042834866623,3951.5483808621998,-14278.703348701885,1036.053911329642,408.57460764625597,4447.257909463834,14286.809573677554,13988.197351676625,-14455.461938296203,14455.461938296203,-13988.197351676625,25222.024991174061,0.0
613296.95196600363,3640566.251970998,-37500.0,12850.34534222304,3577.5583456360805,-15404.066946567222,-752.52157849969649,887.32196424607139,8947.1607332328585,14638.266482576239,13873.300161403535,-15258.801558403804,15258.801558403804,-13873.300161403535,27307.913410354962,0.0
618296.95196600363,3640566.251970998,-37500.0,13229.407424147244,3290.019580037379,-15441.301963612701,-2977.3226434313801,-471.29303957604242,7919.3486891442499,15357.942179746053,13928.984970113848,-15444.774354974277,15444.774354974277,-13928.984970113848,27526.269961823258,0.0
623296.95196600363,3640566.251970998,-37500.0,13593.670448914525,3632.5291913258238,-14177.769716269657,-3155.9249990254661,-2722.0089845318025,2332.7313412394101,14992.415588378966,14098.00692519881,-14600.136229085911,14600.136229085911,-14098.00692519881,26019.656671718985,0.0
628296.95196600363,3640566.251970998,-37500.0,12612.49979455086,4437.1522682814575,-11927.696781292887,-671.84091138071835,-4600.2877811124326,-4160.7728197720189,14051.913407825819,13508.047837554686,-12527.592978773593,12527.592978773593,-13508.047837554686,24410.070245561859,0.0
633296.95196600363,3640566.251970998,-37500.0,9837.6204848470588,5176.6496332991355,-9328.4696477843954,2951.7566511206333,-5481.121668988575,-8533.4451371256164,13511.429490935938,11674.390258237825,-9602.9940809893633,9602.9940809893633,-11674.390258237825,23439.141495085638,0.0
638296.95196600363,3640566.251970998,-37500.0,6100.368473289559,5508.5529819877765,-6921.8286563164711,5961.2758614738896,-5477.6844224338302,-10184.461125533473,13025.524713274717,9013.1241864578697,-6541.3410678562113,6541.3410678562113,-9013.1241864578697,22591.303843255744,0.0
643296.95196600363,3640566.251970998,-37500.0,2501.1413803252854,5415.6521411559661,-4965.3795052411042,7665.893705935554,-4979.2525498188552,-9996.5031626400978,12195.322347096499,6259.2818457567846,-3903.5107558874024,3903.5107558874024,-6259.2818457567846,21384.355038093552,0.0
648296.95196600363,3640566.251970998,-37500.0,-348.48732499458873,5041.8326992773191,-3491.8518439931922,8228.7661011528089,-4304.4066434846309,-8966.2483327757909,11107.686527672795,3897.7700777260652,-1903.2606981597955,1903.2606981597955,-3897.7700777260652,19799.988290497527,0.0
653296.95196600363,3640566.251970998,-37500.0,-2336.7387813730984,4536.4056528813808,-2429.3162752383132,8064.8606913846443,-3625.8790930189616,-7701.5396830683494,9935.9147226900313,2080.8530805482474,-508.94383635732959,508.94383635732959,-2080.8530805482474,18016.571808560515,0.0
658296.95196600363,3640566.251970998,-37500.0,-3596.040888116836,3999.4667172430586,-1681.404335718973,7522.3891199564941,-3014.5688412258919,-6476.3508429732128,8796.6106009281393,770.04273123713051,405.70464946269385,-405.70464946269385,-770.04273123713051,16201.415292011399,0.0
663296.95196600363,3640566.251970998,-37500.0,-4314.6280909564775,3484.785175816683,-1161.7997703167607,6820.7598962029988,-2490.2281163837865,-5386.9822764054179,7746.3175188228388,-136.37149448880808,973.24766110694941,-973.24766110694941,136.37149448880808,14459.405472865459,0.0
668296.95196600363,3640566.251970998,-37500.0,-4657.7432399091786,3016.3800096845912,-803.31969814035199,6081.1605908204183,-2051.2673012617956,-4454.2311183215124,6804.7134758484081,-741.04358478192012,1301.212105825967,-1301.212105825967,741.04358478192012,12844.214892965871,0.0
673296.95196600363,3640566.251970998,-37500.0,-4750.0168310908557,2602.0473397149549,-556.90437714075699,5365.6097923486295,-1688.5351922317618,-3670.8866939014069,5973.0615537799285,-1127.8469262242295,1468.3885656605837,-1468.3885656605837,1127.8469262242295,11377.895656868684,0.0
678296.95196600363,3640566.251970998,-37500.0,-4679.936294133804,2241.5362108514919,-387.84617523780958,4703.4946986840296,-1391.0001612318672,-3020.5738073884413,5244.5878858450233,-1360.1230590719542,1529.9965394838146,-1529.9965394838146,1360.1230590719542,10064.793756410458,0.0
683296.95196600363,3640566.251970998,-37500.0,-4508.7784034956894,1930.9359518646916,-271.98797886218773,4106.651691030911,-1147.9564282794313,-2484.7969841654294,4609.5212169063525,-1484.2299218123987,1523.9582670581265,-1523.9582670581265,1484.2299218123987,8899.6868461559789,0.0
688296.95196600363,3640566.251970998,-37500.0,-4278.4624558502537,1664.9185337030981,-192.65616162952472,3577.5112131478813,-949.82538042164913,-2045.6361562473214,4057.38835968282,-1533.6653910578468,1476.0362120389748,-1476.0362120389748,1533.6653910578468,7872.3920114126167,0.0
693296.95196600363,3640566.251970998,-37500.0,-4017.3700681421137,1437.857765584961,-138.3884362202771,3113.5299555919214,-788.38181634367834,-1686.8258079494849,3578.0319797020938,-1532.4811335702577,1403.5807033509784,-1403.5807033509784,1532.4811335702577,6970.4336703051258,0.0
698296.95196600363,3640566.251970998,-37500.0,-3744.4530108819963,1244.3724728363952,-101.31727494397846,2709.680577358703,-656.7355241600909,-1394.1552188830938,3162.0544758717301,-1497.8580394574144,1318.1577204757066,-1318.1577204757066,1497.8580394574144,6180.6377922429274,0.0
703296.95196600363,3640566.251970998,-37500.0,-3472.0898144211765,1079.5666085690655,-76.043159806819389,2359.8735631892491,-549.20643382909134,-1155.5233727121445,2800.9797487729147,-1441.9886171470266,1227.3631787246336,-1227.3631787246336,1441.9886171470266,5490.0573999932167,0.0
708296.95196600363,3640566.251970998,-37500.0,-3208.1140474092476,939.12058838988025,-58.858086582756592,2057.796764628964,-461.16624877309636,-960.82499559894666,2487.3068044584702,-1373.460496984158,1136.0851973096051,-1136.0851973096051,1373.460496984158,4886.5407689143285,0.0
713296.95196600363,3640566.251970998,-37500.0,-2957.2190422313606,819.29240770465674,-47.213060720571058,1797.3696250478981,-388.87062467567398,-801.73349127311883,2214.4686526714504,-1298.2544356277126,1047.3676635487031,-1047.3676635487031,1298.2544356277126,4358.987367471791,0.0
718296.95196600363,3640566.251970998,-37500.0,-2721.9608147554295,716.88193627840155,-39.354168487574441,1572.9871248777038,-329.30544616084245,-671.45691327665031,1976.7683442765042,-1220.4772835865961,963.01084804275979,-963.01084804275979,1220.4772835865961,3897.4607274055375,0.0
513296.95196600363,3645566.251970998,-37500.0,-3481.4894648332174,62.040179897658071,96.095453467321292,-2085.4309480297293,-4.787728051223862,-925.08052743204814,2450.1321316087724,-2158.3979352601236,1246.396228386006,-1246.396228386006,2158.3979352601236,4821.5405089251635,0.0
518296.95196600363,3645566.251970998,-37500.0,-3814.1614153609057,56.895289036358548,112.04376071970285,-2405.2777958603483,-15.720754510243331,-1115.7248678427572,2762.7244006104647,-2373.4781195423752,1369.2675925618296,-1369.2675925618296,2373.4781195423752,5428.4959076488331,0.0
523296.95196600363,3645566.251970998,-37500.0,-4174.3796924476319,48.634290580587113,128.50145426708147,-2780.9945225493843,-31.365552432062973,-1351.1864195091982,3124.4922698752021,-2607.9605660416973,1501.4234079549751,-1501.4234079549751,2607.9605660416973,6127.7385870406642,0.0
528296.95196600363,3645566.251970998,-37500.0,-4560.0359811329317,36.300823996802372,144.33934860716946,-3222.4682536611435,-53.541934149438184,-1642.7845849497462,3544.0676436558056,-2860.9032152751743,1641.2208662402745,-1641.2208662402745,2860.9032152751743,6934.1990060794797,0.0
533296.95196600363,3645566.251970998,-37500.0,-4966.2108313677418,18.739887696989001,157.59174839766274,-3740.9279833218889,-84.769044446623681,-2004.691600210657,4031.5979011916979,-3129.5481287854391,1785.4362025067812,-1785.4362025067812,3129.5481287854391,7864.8551549510839,0.0
538296.95196600363,3645566.251970998,-37500.0,-5383.6649496535883,-5.3796106360887324,164.97667739981131,-4348.8211852118338,-128.53275994939713,-2454.579297881528,4598.957310460818,-3408.2547105554595,1928.4075933219635,-1928.4075933219635,3408.2547105554595,8938.730671570409,0.0
543296.95196600363,3645566.251970998,-37500.0,-5796.5811934460407,-37.463693536707957,161.16176257980644,-5059.4209081070976,-189.64729814942157,-3014.3864226620854,5259.9401919426782,-3686.8549909626618,2060.7478937625165,-2060.7478937625165,3686.8549909626618,10176.690828996581,0.0
548296.95196600363,3645566.251970998,-37500.0,-6179.1468632605547,-78.727497930860679,137.65287311713234,-5885.9170419153088,-274.73064169752496,-3711.2438033944291,6030.3709965088901,-3948.0897470940813,2167.4083591185668,-2167.4083591185668,3948.0897470940813,11600.876610438152,0.0
553296.95196600363,3645566.251970998,-37500.0,-6490.3171062415386,-129.58802505391887,81.132534297195591,-6839.4625649408581,-392.78740379620388,-4578.6061068619611,6927.9508050878921,-4163.5574294131638,2224.7639979671794,-2224.7639979671794,4163.5574294131638,13233.436677512607,0.0
558296.95196600363,3645566.251970998,-37500.0,-6665.7818628646473,-188.37287376116336,-28.974155466418175,-7925.0009410142193,-555.8056240092634,-5657.5420305992857,7971.3671953827461,-4287.2881464460088,2196.266087646477,-2196.266087646477,4287.2881464460088,15093.786889102405,0.0
563296.95196600363,3645566.251970998,-37500.0,-6606.0320152512768,-248.68944163071279,-223.94383647413173,-9132.3152569663962,-778.9966757632111,-6997.5356878652192,9177.5036912842115,-4245.7655953671374,2026.1875112134724,-2026.1875112134724,4245.7655953671374,17192.630056039827,0.0
568296.95196600363,3645566.251970998,-37500.0,-6160.5293563063233,-294.34769851393679,-550.31762359085928,-10417.186923654457,-1079.5781868602219,-8653.8697244849627,10554.147123149414,-3923.6447213019846,1631.5033660795409,-1631.5033660795409,3923.6447213019846,19518.942808442858,0.0
573296.95196600363,3645566.251970998,-37500.0,-5113.3393458336632,-290.43108003933241,-1075.1125447332838,-11664.40960398989,-1471.2820806028867,-10671.98952333868,12083.190471420985,-3147.6952822589656,894.20477104859265,-894.20477104859265,3147.6952822589656,22013.072828788965,0.0
578296.95196600363,3645566.251970998,-37500.0,-3191.2274543475073,-170.48585797006294,-1889.4949196288831,-12626.061639547663,-1948.6525246092269,-13034.385690386294,13687.018789614331,-1682.5809450973552,-337.29077892552459,337.29077892552459,1682.5809450973552,24517.884590990918,0.0
583296.95196600363,3645566.251970998,-37500.0,-145.75659232080673,172.76614814226721,-3104.7394528830209,-12853.51528883645,-2452.7081971007292,-15525.931368539104,15173.86890896988,723.00818651303689,-2216.5903047806646,2216.5903047806646,-723.00818651303689,26712.752103220388,0.0
588296.95196600363,3645566.251970998,-37500.0,4017.9248543814101,865.72361322102063,-4827.8355931557908,-11724.113426328588,-2819.7320137999009,-17491.696294851547,16180.061054841373,4173.4193401670964,-4806.9228847297818,4806.9228847297818,-4173.4193401670964,28091.064927980478,0.0
593296.95196600363,3645566.251970998,-37500.0,8694.1163171543412,1951.002601347509,-7101.2239715637825,-8786.4933033794605,-2767.2575961880889,-17643.7155047671,16184.557707811333,8327.4879257318171,-7931.5060645792519,7931.5060645792519,-8327.4879257318171,28163.077154233597,0.0
598296.95196600363,3645566.251970998,-37500.0,12607.888592100853,3207.0792666024636,-9809.1288871456254,-4527.2580255746607,-2063.9861576881704,-14491.773105412962,14758.922550387084,12215.396407195165,-11101.205530667887,11101.205530667887,-12215.396407195165,27102.493083926725,0.0
603296.95196600363,3645566.251970998,-37500.0,14644.551594627714,4128.437844461776,-12596.277248256469,-809.60437943223349,-947.2120533297749,-7950.2133307434024,14313.911930403121,14726.074885588809,-13735.393828892062,13735.393828892062,-14726.074885588809,26322.538648183516,0.0
608296.95196600363,3645566.251970998,-37500.0,15047.279187074853,4381.9263053763634,-14864.146903528153,416.36452301392853,-287.06922466934941,-850.95635785285083,15592.630313884838,15656.733008248866,-15511.62032393564,15511.62032393564,-15656.733008248866,27023.684901343204,0.0
613296.95196600363,3645566.251970998,-37500.0,15068.036119349554,4281.2736186512566,-15906.489703223106,-655.44723240572864,-812.41755994385358,2480.1888688072213,16103.477717380834,15838.323291237568,-16296.459811402092,16296.459811402092,-15838.323291237568,28039.781741580657,0.0
618296.95196600363,3645566.251970998,-37500.0,15266.279341576363,4381.9615283315998,-15263.399767790024,-1614.0971079240353,-2207.0898315673767,-19.879953975861522,16115.012245640779,15883.774465654285,-15878.901229390183,15878.901229390183,-15883.774465654285,27912.019990043704,0.0
623296.95196600363,3645566.251970998,-37500.0,14819.582185458436,4759.0865432430355,-13116.233312375642,-224.40065911621619,-3499.1911575296681,-6268.0085334050218,15424.655315440366,15369.12667432144,-14108.066770314053,14108.066770314053,-15369.12667432144,27218.156139896444,0.0
628296.95196600363,3645566.251970998,-37500.0,12597.840309054149,5072.007567001544,-10222.088445236648,3418.3555760464228,-4086.8852721986236,-12086.135763694481,15225.656851014928,13533.352508900372,-11198.640415545024,11198.640415545024,-13533.352508900372,27001.858977754851,0.0
633296.95196600363,3645566.251970998,-37500.0,8664.1640694425205,5067.7919287551586,-7384.1744733407586,7369.9658614088376,-4017.5212241971562,-14897.888254025111,15487.178248632785,10430.08263400855,-7790.3160247651704,7790.3160247651704,-10430.08263400855,26888.768158525108,0.0
638296.95196600363,3645566.251970998,-37500.0,4205.13701871802,4757.4501541421614,-5054.3352703447545,10018.799758502044,-3602.0961389363097,-14848.130566264219,15019.561339447584,6910.6898984342197,-4612.7480994819389,4612.7480994819389,-6910.6898984342197,26082.483796800479,0.0
643296.95196600363,3645566.251970998,-37500.0,346.4300485561937,4276.6835953188893,-3331.100133460136,11046.81199868311,-3088.3424457006236,-13256.709705334659,13896.871003165666,3791.0861019830127,-2101.6103134055957,2101.6103134055957,-3791.0861019830127,24456.563399224997,0.0
648296.95196600363,3645566.251970998,-37500.0,-2450.7494318883764,3748.061010193147,-2131.4550304149179,10901.077043038555,-2596.2149321899174,-11212.019982214566,12471.577054942787,1421.9508810630455,-337.33489365379126,337.33489365379126,-1421.9508810630455,22327.663496946861,0.0
653296.95196600363,3645566.251970998,-37500.0,-4232.4810339368642,3241.7305214721787,-1325.7401751275791,10125.523633413326,-2164.9918876915067,-9254.4894961246246,11003.660541952946,-208.4697119875355,798.58487718501192,-798.58487718501192,208.4697119875355,20035.820300156476,0.0
658296.95196600363,3645566.251970998,-37500.0,-5235.158158508254,2786.9160307679517,-797.17641620039319,9097.8469643530807,-1799.6166439182855,-7563.0275233771645,9627.6104324503667,-1255.0827148216904,1474.6228101227211,-1474.6228101227211,1255.0827148216904,17798.166217561342,0.0
663296.95196600363,3645566.251970998,-37500.0,-5700.6580122959549,2390.6962413729234,-456.86999504514762,8025.1366479530179,-1494.1066399967478,-6157.9154056446359,8394.6984184730863,-1884.5560301461642,1838.1661513900676,-1838.1661513900676,1884.5560301461642,15721.194677861567,0.0
668296.95196600363,3645566.251970998,-37500.0,-5816.6184028219723,2050.5003655681603,-241.85787891330065,7005.4948439266454,-1240.2498974897317,-5008.3264641312007,7313.8086868415112,-2230.1532017153822,1998.2615562130893,-1998.2615562130893,2230.1532017153822,13845.015184627986,0.0
673296.95196600363,3645566.251970998,-37500.0,-5714.056206848737,1760.3926863194501,-109.08023694856627,6079.0662165344829,-1030.144708951754,-4073.7831833332361,6375.9244324419133,-2387.4542819429203,2029.9344540635097,-2029.9344540635097,2387.4542819429203,12176.134038489747,0.0
678296.95196600363,3645566.251970998,-37500.0,-5480.6884451794376,1513.7695554153031,-29.647355238274095,5257.6961397677878,-856.75189508584253,-3316.5762514102271,5566.0195975090337,-2422.200637350199,1983.1734902542314,-1983.1734902542314,2422.200637350199,10705.47702740342,0.0
683296.95196600363,3645566.251970998,-37500.0,-5174.307330142422,1304.3759189043417,15.592529238076308,4539.9817601047343,-713.94124462425145,-2704.3271382215339,4868.0944663069686,-2378.9895031740243,1890.7929788478129,-1890.7929788478129,2378.9895031740243,9417.2470451925165,0.0
688296.95196600363,3645566.251970998,-37500.0,-4832.6589661391508,1126.6255455630296,39.224894663141669,3918.5681339839775,-596.4420524950408,-2209.8931891712718,4267.0677555389957,-2287.9569690510525,1774.1182006485456,-1774.1182006485456,2287.9569690510525,8293.1873126216342,0.0
693296.95196600363,3645566.251970998,-37500.0,-4480.1187058641399,975.65872456803629,49.458205696850406,3383.7193570873519,-499.77811803829292,-1810.7655884393075,3749.3893126589828,-2169.4090362902393,1646.8437655605067,-1646.8437655605067,2169.4090362902393,7314.7253686403665,0.0
698296.95196600363,3645566.251970998,-37500.0,-4132.0976954960734,847.30352442421906,51.6055966431271,2925.1055912877555,-420.1927189806508,-1488.4352696234319,3303.146934101067,-2036.9376259374706,1517.5990898735665,-1517.5990898735665,2036.9376259374706,6464.0706041554031,0.0
703296.95196600363,3645566.251970998,-37500.0,-3797.9891653871628,738.00960585241353,49.076234853826506,2532.7244731898659,-354.56725201386888,-1227.810643056546,2918.0026437481565,-1899.5307422409287,1391.6598361309539,-1391.6598361309539,1899.5307422409287,5724.7963352033994,0.0
708296.95196600363,3645566.251970998,-37500.0,-3483.1440905045802,644.77214776778624,44.033020809959559,2197.3475136280617,-300.3349181518015,-1016.6767058857869,2585.050536316659,-1763.0067881772718,1272.0868838894537,-1272.0868838894537,1763.0067881772718,5082.0839498059713,0.0
713296.95196600363,3645566.251970998,-37500.0,-3190.2288220837313,565.05965723676832,37.827080637276829,1910.7173411267383,-255.39752528370107,-845.2094757799706,2296.6646054560024,-1631.0094038465527,1160.4939881875484,-1160.4939881875484,1631.0094038465527,4522.7967356846848,0.0
718296.95196600363,3645566.251970998,-37500.0,-2920.1542593496933,496.74609385337465,31.283446112063277,1665.5943603528119,-218.04787987863838,-705.54532449196449,2046.342107410205,-1505.6978958798936,1057.5625586842489,-1057.5625586842489,1505.6978958798936,4035.4324860085567,0.0
513296.95196600363,3650566.251970998,-37500.0,-3393.1099705936754,371.10059899941268,80.20150054212273,-2042.3168457345248,155.38785720332152,-908.28841521059474,2415.2912964135767,-1895.5083493633165,1238.6745502020999,-1238.6745502020999,1895.5083493633165,4754.6218506761707,0.0
518296.95196600363,3650566.251970998,-37500.0,-3714.1757193632398,418.45815919717774,94.364049156070521,-2354.3981157205526,178.9703219269048,-1094.9772481830519,2723.0718072591617,-2068.2670458086322,1362.0509500844623,-1362.0509500844623,2068.2670458086322,5351.7136081823774,0.0
523296.95196600363,3650566.251970998,-37500.0,-4061.3116201727516,473.06133728596558,108.99668736763576,-2720.8571909136185,206.50834563451983,-1325.4520208244492,3079.2769056686789,-2252.6555802468783,1495.3153037475493,-1495.3153037475493,2252.6555802468783,6039.4959101611948,0.0
528296.95196600363,3650566.251970998,-37500.0,-4432.3428325538116,536.14051260808776,123.08243262069087,-3151.3329590149278,238.60463951959267,-1610.7552150763411,3492.4393793917866,-2446.2720244986367,1637.1230851399537,-1637.1230851399537,2446.2720244986367,6832.6831650994282,0.0
533296.95196600363,3650566.251970998,-37500.0,-4822.3642198590651,609.15387813326083,134.8453807251548,-3656.8110938839332,275.88160265197632,-1964.7194940187808,3972.6249420409567,-2644.6851121622726,1784.6794671083967,-1784.6794671083967,2644.6851121622726,7748.0614336807112,0.0
538296.95196600363,3650566.251970998,-37500.0,-5222.2859980773301,693.84492203685727,141.31189155458944,-4249.5457630350538,318.92770686909063,-2404.6163703808284,4531.6750820157285,-2840.3876369237587,1932.9344074804374,-1932.9344074804374,2840.3876369237587,8804.5398593133359,0.0
543296.95196600363,3650566.251970998,-37500.0,-5616.6508744099874,792.33306288279846,137.63670706347403,-4942.755021144465,368.20746125257267,-2951.9496738004614,5183.4617635796913,-3021.219270608432,2073.3637881167701,-2073.3637881167701,3021.219270608432,10023.05282237648,0.0
548296.95196600363,3650566.251970998,-37500.0,-5980.3061967455324,907.26282718083519,116.07579167914524,-5749.8719469498456,423.92123395218476,-3633.4642515440905,5944.1116354195728,-3167.9548751035636,2192.1125607470167,-2192.1125607470167,3167.9548751035636,11426.192842309358,0.0
553296.95196600363,3650566.251970998,-37500.0,-6273.2354968022219,1042.0657316133711,64.433170323257571,-6682.8596859923528,485.8127960107052,-4482.4850290287277,6832.0563309729469,-3250.5484924043894,2267.1451531529774,-2267.1451531529774,3250.5484924043894,13037.301644709454,0.0
558296.95196600363,3650566.251970998,-37500.0,-6432.4709951178766,1201.4221541243937,-36.259403469145226,-7748.4499886135145,552.95242469496907,-5540.6717122430691,7867.4941910438793,-3222.2464459806924,2263.8731046222974,-2263.8731046222974,3222.2464459806924,14878.361407858569,0.0
563296.95196600363,3650566.251970998,-37500.0,-6359.7260530796948,1392.0632157124633,-215.15036630189431,-8939.6946301787539,623.61661930595608,-6859.7635802892883,9070.1614702790212,-3010.553544694119,2128.5824529811048,-2128.5824529811048,3010.553544694119,16965.052302516229,0.0
568296.95196600363,3650566.251970998,-37500.0,-5904.239424689742,1624.0698513514703,-516.41982356545896,-10217.373496702872,695.60636973352291,-8500.6479095164996,10452.825542968783,-2504.5505082081086,1779.2454600011047,-1779.2454600011047,2504.5505082081086,19295.271297026171,0.0
573296.95196600363,3650566.251970998,-37500.0,-4845.4518979399263,1912.6311688663047,-1005.7363486593921,-11471.875646218024,767.78316493577336,-10520.036138778827,12005.284827380567,-1541.441351037276,1095.1449337059153,-1095.1449337059153,1541.441351037276,21824.020037731796,0.0
578296.95196600363,3650566.251970998,-37500.0,-2896.4434074705141,2279.2416668363617,-1777.4148954856591,-12456.476365348437,844.19038678629192,-12918.361460236407,13660.806120192407,93.701159178540252,-87.107888216953171,87.107888216953171,-93.701159178540252,24415.570617727099,0.0
583296.95196600363,3650566.251970998,-37500.0,216.46425187089511,2748.2079170630386,-2957.6732351736791,-12707.802117253241,941.73603618882714,-15498.154223331927,15239.214026431535,2616.5719872761033,-1949.6223236509354,1949.6223236509354,-2616.5719872761033,26775.497521366327,0.0
588296.95196600363,3650566.251970998,-37500.0,4511.9328609969607,3327.9874195413809,-4689.6190786244633,-11560.43960846737,1096.502890483335,-17595.777651152042,16383.434686279357,6076.698563539524,-4603.0361642347261,4603.0361642347261,-6076.698563539524,28421.099979176335,0.0
593296.95196600363,3650566.251970998,-37500.0,9363.0601753524425,3964.6156463932552,-7068.5919363268586,-8514.1486641340016,1343.6319295706858,-17853.79363863698,16572.767156411879,10067.826545422929,-7912.8835777234381,7912.8835777234381,-10067.826545422929,28871.806379021527,0.0
598296.95196600363,3650566.251970998,-37500.0,13395.491240674935,4491.1748426870663,-9993.2523128499179,-4098.2354830978593,1623.6647386478028,-14712.274870479299,15449.652111240503,13597.250443398632,-11361.323967029261,11361.323967029261,-13597.250443398632,28257.422485318188,0.0
603296.95196600363,3650566.251970998,-37500.0,15422.034729853525,4697.9778744509576,-12977.46054131697,-355.00521147014689,1652.0171590312177,-8291.614639205909,15197.253769267783,15674.32864580018,-14214.894740358284,14214.894740358284,-15674.32864580018,27752.322091049169,0.0
608296.95196600363,3650566.251970998,-37500.0,15789.988636828552,4601.2201403075842,-15153.865725700094,759.16364526145105,1056.3104735700285,-1990.6967501521744,16195.289175759272,16331.397928056647,-15950.280301348592,15950.280301348592,-16331.397928056647,28143.596086299989,0.0
613296.95196600363,3650566.251970998,-37500.0,15808.529719746091,4520.2621001594116,-15699.822234015697,-132.74963122903551,-59.120394139867187,-262.91536752254888,16390.473090877396,16412.666668937814,-16367.011352132151,16367.011352132151,-16412.666668937814,28390.922902209371,0.0
618296.95196600363,3650566.251970998,-37500.0,15802.949536545257,4601.5358450117574,-14419.232396051153,-355.68053413029048,-959.36200771633389,-4249.535114337451,15838.84241941385,16174.051127991606,-15414.085077524796,15414.085077524796,-16174.051127991606,27858.851929551569,0.0
623296.95196600363,3650566.251970998,-37500.0,14805.750653789382,4546.0288431589724,-11865.150672116211,1896.6460045717095,-1108.0073974562965,-10910.090360973847,14549.258129078647,14937.703300980653,-13206.12327935521,13206.12327935521,-14937.703300980653,27626.993548380771,0.0
628296.95196600363,3650566.251970998,-37500.0,11924.683949171478,4088.1296069787941,-8900.9004765565696,5973.0510041897069,-727.62329902792351,-16123.193100796361,15714.313031058053,12164.859386416574,-10107.659687775042,10107.659687775042,-12164.859386416574,28196.341520822931,0.0
633296.95196600363,3650566.251970998,-37500.0,7527.8039210256229,3349.6535716368835,-6200.799016561883,9848.3142537573549,-316.97771040922163,-17963.314696709185,16438.773435020426,8318.2150122816747,-6725.144437145379,6725.144437145379,-8318.2150122816747,28517.434382188843,0.0
638296.95196600363,3650566.251970998,-37500.0,2881.9538960267278,2605.5460721029767,-4070.4920487686659,12148.020801936289,-109.40407074337656,-17039.564429288377,15953.061962974187,4440.6120802414471,-3678.8795591197095,3678.8795591197095,-4440.6120802414471,27745.735972805527,0.0
643296.95196600363,3650566.251970998,-37500.0,-966.79583351903318,2012.3901562018937,-2535.5186934848098,12769.821062899091,-75.880612714257694,-14800.289636918917,14704.309829648988,1295.4973000907839,-1321.8356997924066,1321.8356997924066,-1295.4973000907839,25951.819400908465,0.0
648296.95196600363,3650566.251970998,-37500.0,-3655.1777418584979,1588.465383138639,-1492.8665772137447,12260.169715625425,-120.27123140834414,-12305.116989377926,13139.541279089441,-901.06679680636171,301.79930443609231,-301.79930443609231,901.06679680636171,23595.534439006729,0.0
653296.95196600363,3650566.251970998,-37500.0,-5292.9734784492157,1293.9410589255133,-813.31145332781955,11188.213687866579,-177.05359221170056,-10037.287828384031,11546.423751379822,-2273.1834222290395,1319.6271091391034,-1319.6271091391034,2273.1834222290395,21082.554072752053,0.0
658296.95196600363,3650566.251970998,-37500.0,-6148.926546596369,1084.7388934670319,-385.25184264070464,9927.8129505493052,-219.14963662893396,-8129.9919755891333,10065.919111743418,-3043.2169874896408,1899.1936125773673,-1899.1936125773673,3043.2169874896408,18652.647213222117,0.0
663296.95196600363,3650566.251970998,-37500.0,-6478.9348224958267,929.10687163546788,-124.95279918691398,8674.7539719813012,-241.26641625485803,-6572.6996799548615,8748.5534635288786,-3411.0758311940904,2184.570581755434,-2184.570581755434,3411.0758311940904,16416.3356517389,0.0
668296.95196600363,3650566.251970998,-37500.0,-6475.5106473133537,807.42337614752512,26.309971277396262,7515.8145102845383,-246.59171364803493,-5314.4735347098404,7600.2929351429702,-3523.3726538184183,2281.4663718425954,-2281.4663718425954,3523.3726538184183,14410.879456135881,0.0
673296.95196600363,3650566.251970998,-37500.0,-6270.3362204811965,708.25503884460034,108.23334418760147,6481.7166953286696,-240.21750900837802,-4301.575149726812,6608.9180215505121,-3478.9745421459097,2262.0569629457955,-2262.0569629457955,3478.9745421459097,12638.047052831165,0.0
678296.95196600363,3650566.251970998,-37500.0,-5949.9934740389954,624.99179509291332,147.04421057400666,5576.9171583698053,-226.68462505118143,-3487.3646554312177,5756.547581005113,-3342.316621041663,2173.9899922558261,-2173.9899922558261,3342.316621041663,11084.028395805644,0.0
683296.95196600363,3650566.251970998,-37500.0,-5570.4769462807826,553.70630232497263,159.78119287465381,4794.3381004937619,-209.37678884959183,-2833.3283083801484,5024.8263939367198,-3154.8585340986447,2048.1748407661516,-2048.1748407661516,3154.8585340986447,9728.9050842979559,0.0
688296.95196600363,3650566.251970998,-37500.0,-5167.6031688837229,491.93671713318633,157.35212998498039,4122.2999323270242,-190.58974787083454,-2308.0454123477712,4396.8001907017324,-2943.0885636459179,1904.3947258605876,-1904.3947258605876,2943.0885636459179,8551.0380085104061,0.0
693296.95196600363,3650566.251970998,-37500.0,-4763.9149236672656,438.02624983192624,146.63516383892281,3547.7721115450149,-171.77723113120345,-1885.9872940120745,3857.4482097666914,-2723.7520565796958,1755.0988539623575,-1755.0988539623575,2723.7520565796958,7529.1397871337522,0.0
698296.95196600363,3650566.251970998,-37500.0,-4373.1917687853747,390.77340348948405,131.89076116739358,3057.920582346534,-153.79730157862832,-1546.4982632701767,3393.7187613736482,-2507.2220813193358,1607.9176964422629,-1607.9176964422629,2507.2220813193358,6643.2811545905934,0.0
703296.95196600363,3650566.251970998,-37500.0,-4003.409002266163,349.24707876426191,115.69612701159329,2640.8284241439787,-137.10869908400724,-1272.9459197712113,2994.3832572971232,-2299.6830399653645,1467.3238597176237,-1467.3238597176237,2299.6830399653645,5875.3410515451433,0.0
708296.95196600363,3650566.251970998,-37500.0,-3658.725511442161,312.68939803384285,99.557715168277582,2285.8113111685047,-121.9135753010659,-1052.0077806594777,2649.8511320334728,-2104.5763478815361,1335.7396026144438,-1335.7396026144438,2104.5763478815361,5209.1841400111416,0.0
713296.95196600363,3650566.251970998,-37500.0,-3340.804110120629,280.46242192443879,84.308513433339101,1983.4932754109871,-108.25575602676413,-873.05507618011075,2351.9588260007145,-1923.5510728760069,1214.2666556506647,-1214.2666556506647,1923.5510728760069,4630.6301480366683,0.0
718296.95196600363,3650566.251970998,-37500.0,-3049.7228980170153,252.01919499090477,70.36453825534079,1725.7759304431161,-96.08651307813723,-727.63743638523397,2093.7838141353573,-1757.1109479786451,1103.1777834435243,-1103.1777834435243,1757.1109479786451,4127.355496020039,0.0
513296.95196600363,3655566.251970998,-37500.0,-3211.4842724638193,660.91202556601911,19.6160659848235,-1953.2271924183667,306.87923366454885,-873.73970969003835,2349.2191450384016,-1576.9219371246138,1164.6669676500653,-1164.6669676500653,1576.9219371246138,4624.9107985236906,0.0
518296.95196600363,3655566.251970998,-37500.0,-3501.0584722559524,756.49584588028097,21.414870142101485,-2245.3253871659904,362.6772665704006,-1050.810322745453,2645.0141725508056,-1695.3583157639675,1273.6233539571456,-1273.6233539571456,1695.3583157639675,5197.7419356383252,0.0
523296.95196600363,3655566.251970998,-37500.0,-3810.3282735888192,868.58663008795247,20.728082769357528,-2586.5463144928835,430.39867542068981,-1268.5766565621982,2986.4622970782666,-1814.6569096689564,1389.1609766483111,-1389.1609766483111,1814.6569096689564,5855.7342128823429,0.0
528296.95196600363,3655566.251970998,-37500.0,-4135.7229314031347,1000.2867355077474,15.747062618866986,-2984.9662673584321,512.83204168676662,-1536.9646073567114,3381.3322811744852,-1930.1283545673257,1509.0879508549726,-1509.0879508549726,1930.1283545673257,6612.1375026927026,0.0
533296.95196600363,3655566.251970998,-37500.0,-4470.6490250347397,1155.2573537426156,3.6774305521803816,-3449.4979730872374,613.41877830583201,-1868.2446484006884,3838.6881319908698,-2034.6013951648083,1629.5330771668605,-1629.5330771668605,2034.6013951648083,7481.8389632524659,0.0
538296.95196600363,3655566.251970998,-37500.0,-4804.0026117893403,1337.7822534582272,-19.764968636355778,-3989.6334202615967,736.38147370399395,-2277.4848016502324,4369.0502536630802,-2117.3364905836665,1744.0823740412702,-1744.0823740412702,2117.3364905836665,8481.2759676477635,0.0
543296.95196600363,3655566.251970998,-37500.0,-5117.9777991689516,1552.8114989410765,-61.10995755287253,-4614.8940616426771,886.86231877076762,-2783.0507113156441,4984.5385414013608,-2162.455752384275,1842.4918938828644,-1842.4918938828644,2162.455752384275,9628.1548461649818,0.0
548296.95196600363,3655566.251970998,-37500.0,-5384.7964234633482,1805.9508681007885,-130.26100876141803,-5333.7473409988716,1071.0626728095515,-3407.1639851197806,5698.945939939671,-2146.6499692266393,1908.7586108402875,-1908.7586108402875,2146.6499692266393,10940.846231214618,0.0
553296.95196600363,3655566.251970998,-37500.0,-5561.752322397786,2103.3269103790881,-242.16544600165398,-6151.4789816140219,1296.3716529881472,-4176.5327529118249,6527.5965570456865,-2035.7912276089487,1918.2129388955864,-1918.2129388955864,2035.7912276089487,12437.194763931044,0.0
558296.95196600363,3655566.251970998,-37500.0,-5583.6788227744282,2451.1609158691549,-419.25685052197093,-7065.8844574996647,1571.4479732432101,-5122.958361735763,7486.585762623311,-1779.9517699679877,1833.1462265562586,-1833.1462265562586,1779.9517699679877,14132.135294538448,0.0
563296.95196600363,3655566.251970998,-37500.0,-5351.8734495168737,2854.6712859044769,-694.9451261630245,-8058.2954769310882,1906.1352860300519,-6283.1937135056842,8590.3829970796232,-1306.4139326380387,1596.4047953854592,-1596.4047953854592,1306.4139326380387,16032.694975477063,0.0
568296.95196600363,3655566.251970998,-37500.0,-4719.7391131735785,3315.4857128756444,-1118.3804190102492,-9074.9799391308588,2310.7892601436847,-7694.9698503208519,9845.477250131471,-511.32270905873719,1122.7820266827857,-1122.7820266827857,511.32270905873719,18127.300287240116,0.0
573296.95196600363,3655566.251970998,-37500.0,-3481.0463979760266,3826.0129420705689,-1760.2901605571992,-9991.0414829662877,2793.6916936772554,-9379.2471486740269,11235.609205609646,745.25706503668721,290.16994276648666,-290.16994276648666,-745.25706503668721,20363.966571745306,0.0
578296.95196600363,3655566.251970998,-37500.0,-1383.1327271053997,4358.631510925984,-2718.0803142563409,-10551.482503502411,3353.0376732078485,-11283.639707827459,12692.411669079162,2625.0979698365168,-1060.9393410815069,1060.9393410815069,-2625.0979698365168,22612.129611193126,0.0
583296.95196600363,3655566.251970998,-37500.0,1780.7278565679603,4849.2994142356019,-4113.6285163615203,-10312.41131969153,3956.3096274626268,-13143.457726423238,14050.124760890138,5242.7147885404693,-3096.6003511761728,3096.6003511761728,-5242.7147885404693,24618.042929446165,0.0
588296.95196600363,3655566.251970998,-37500.0,5925.5340220948601,5185.1216008489573,-6066.2007506596146,-8696.3736126882704,4499.1117960235115,-14244.797966980099,15012.361952134193,8497.3070149721279,-5888.3147052235408,5888.3147052235408,-8497.3070149721279,26019.7990933578,0.0
593296.95196600363,3655566.251970998,-37500.0,10322.484129963033,5228.7736437165504,-8607.7900174703282,-5404.7480209364767,4756.1656738137181,-13295.428678965653,15257.781444793294,11849.567665584484,-9229.8704485938906,9229.8704485938906,-11849.567665584484,26581.666260702328,0.0
598296.95196600363,3655566.251970998,-37500.0,13614.926946409207,4924.697371511792,-11520.071712857478,-1245.1775520587576,4406.0820098258691,-9081.9671448344689,15091.1612278675,14364.997592847978,-12511.174969130947,12511.174969130947,-14364.997592847978,26684.841511256054,0.0
603296.95196600363,3655566.251970998,-37500.0,14873.555894162924,4443.0170846849514,-14187.766188039692,1635.2445221340099,3269.7996879691723,-2379.2311185794047,15662.066216300416,15435.870957876861,-14948.987755215563,14948.987755215563,-15435.870957876861,27205.667554093685,0.0
608296.95196600363,3655566.251970998,-37500.0,14802.909475044071,4129.7683554114892,-15748.32109148002,1661.4458340836961,1694.8535729318814,2953.3638826507363,16018.170286997285,15536.80313122462,-16107.561435399613,16107.561435399613,-15536.80313122462,27925.525475114529,0.0
613296.95196600363,3655566.251970998,-37500.0,14769.908418992702,4136.0229195287211,-15647.809699798163,91.873611077832621,567.68409548768261,2941.280229050154,15770.247753279044,15497.624101673966,-16021.848046043477,16021.848046043477,-15497.624101673966,27525.739175308474,0.0
618296.95196600363,3655566.251970998,-37500.0,14826.443795666275,4131.4997825561722,-14056.74918566865,-256.03877143096258,618.56122174115978,-2420.1962350367039,15038.887524468391,15171.211739211763,-14870.686681384572,14870.686681384572,-15171.211739211763,26193.506632973193,0.0
623296.95196600363,3655566.251970998,-37500.0,13866.177210226966,3608.3099239882222,-11622.879749747608,1981.8238486826328,1677.018468861399,-9577.7103242994453,13665.771330493895,13676.336353377372,-12814.487780668898,12814.487780668898,-13676.336353377372,25710.40751074463,0.0
628296.95196600363,3655566.251970998,-37500.0,11119.712377355147,2490.5833109936443,-8974.7497121815195,5869.8137727788489,2861.3562577987527,-14865.832246602238,14813.809017561485,10623.392740472724,-10065.63956325202,10065.63956325202,-10623.392740472724,26521.795386434089,0.0
633296.95196600363,3655566.251970998,-37500.0,6992.2926851383627,1199.2688846896967,-6524.3858617056858,9527.5420766051284,3471.9107014331653,-16869.972915099315,15716.367148364625,6636.6615306492804,-7017.5304213220661,7017.5304213220661,-6636.6615306492804,27246.452033084042,0.0
638296.95196600363,3655566.251970998,-37500.0,2620.0746806929083,170.12393398139983,-4488.9503338708382,11753.328714320029,3422.0971514494859,-16256.640495605636,15433.774809474853,2763.444978701194,-4163.973485913928,4163.973485913928,-2763.444978701194,26875.915852764629,0.0
643296.95196600363,3655566.251970998,-37500.0,-1054.9536021303688,-446.4414491024533,-2933.7323711788381,12437.460430090616,2976.4932308763637,-14331.426558282836,14371.10975961117,-293.02525051900966,-1852.9114352320325,1852.9114352320325,293.02525051900966,25418.472021614678,0.0
648296.95196600363,3655566.251970998,-37500.0,-3674.2797288811053,-718.08445984620187,-1820.1176614165454,12042.234293459342,2406.1934069315507,-12066.477601383474,12950.165484687883,-2361.8694349556199,-183.67265790956912,183.67265790956912,2361.8694349556199,23310.724000045848,0.0
653296.95196600363,3655566.251970998,-37500.0,-5306.4566858371672,-773.32476325660264,-1061.2877069877336,11076.526868209356,1866.1885571023147,-9938.6125187615435,11455.461650589026,-3590.3867964839901,916.6459215332718,-916.6459215332718,3590.3867964839901,20963.134944789999,0.0
658296.95196600363,3655566.251970998,-37500.0,-6182.0921418626313,-717.70734843387356,-564.21273349341709,9893.0122832707384,1414.6712512933882,-8106.5029877753095,10036.638495494833,-4213.4764227697788,1582.4297764416599,-1582.4297764416599,4213.4764227697788,18634.358215078744,0.0
663296.95196600363,3655566.251970998,-37500.0,-6535.4706552474263,-617.11730991078116,-249.95606052429608,8687.9946730275769,1059.1138607964035,-6585.5559549137588,8755.288825460324,-4438.9781044707297,1943.2474817633001,-1943.2474817633001,4438.9781044707297,16455.285967991807,0.0
668296.95196600363,3655566.251970998,-37500.0,-6550.3609739709009,-506.79101191594231,-58.772009229919618,7555.608821220274,787.4571725222205,-5342.5807743120004,7626.5813048855325,-4418.5736714890436,2100.9232150450161,-2100.9232150450161,4418.5736714890436,14479.347341808896,0.0
673296.95196600363,3655566.251970998,-37500.0,-6356.498600025604,-403.31433111332205,51.779594591496739,6533.9862392805799,583.0767029711451,-4334.2061734655726,6644.7436912806288,-4253.9325553671897,2128.4368016173539,-2128.4368016173539,4253.9325553671897,12719.399939339692,0.0
678296.95196600363,3655566.251970998,-37500.0,-6041.2752067780566,-313.19485574292798,110.72085882766579,5633.1354584280452,430.50566485495318,-3519.3977747460272,5796.0385802109658,-4010.5590587697779,2075.7755164451846,-2075.7755164451846,4010.5590587697779,11168.673379055635,0.0
683296.95196600363,3655566.251970998,-37500.0,-5662.2482110470819,-237.91281625585466,137.41204292065009,4849.668744192908,317.04145580016757,-2862.548086724194,5064.6554329598703,-3729.798506498279,1976.3480642722884,-1976.3480642722884,3729.798506498279,9811.5383338817719,0.0
688296.95196600363,3655566.251970998,-37500.0,-5256.7370542052504,-176.64464745671356,144.53558957716237,4174.208926802683,232.7973488375726,-2333.6970171456737,4435.1626521197541,-3437.3105988048765,1852.1056300710482,-1852.1056300710482,3437.3105988048765,8628.9064977536509,0.0
693296.95196600363,3655566.251970998,-37500.0,-4848.4813745132433,-127.65887102916267,140.27233575063161,3595.105113563905,170.27604128828975,-1908.0222349703306,3893.4364339806143,-3148.6463443259581,1717.2266151350043,-1717.2266151350043,3148.6463443259581,7600.9835926810683,0.0
698296.95196600363,3655566.251970998,-37500.0,-4452.1345698381929,-89.001756010199557,129.81820694287009,3100.323261068113,123.86836059793917,-1565.187048472771,3426.948270586729,-2872.8534517232033,1580.6666625740986,-1580.6666625740986,2872.8534517232033,6708.7038276539388,0.0
703296.95196600363,3655566.251970998,-37500.0,-4076.2673988553915,-58.813324863646478,116.41355553102997,2678.3861339511386,89.407338696879989,-1288.6785707345466,3024.7637513820869,-2614.7958205385976,1447.8900829076317,-1447.8900829076317,2614.7958205385976,5934.4224114419449,0.0
708296.95196600363,3655566.251970998,-37500.0,-3725.4316291155678,-35.454368175458235,102.03156704459984,2318.8375204331742,63.808393785746105,-1065.1969584404098,2677.4554603386077,-2376.6834457084674,1322.0554139660508,-1322.0554139660508,2376.6834457084674,5262.2600310504449,0.0
713296.95196600363,3655566.251970998,-37500.0,-3401.5376834818508,-17.540570211998816,87.831960148941988,2012.4049251592489,44.791229627961357,-884.09073812990732,2376.9453824924985,-2159.0589786556416,1204.8080755221013,-1204.8080755221013,2159.0589786556416,4678.1619475999551,0.0
513296.95196600363,3660566.251970998,-37500.0,-2946.3680304672002,913.95847874627384,-79.693070276154003,-1822.5661948680975,441.6000260323093,-823.03599640687742,2256.1306657396422,-1221.6496865875961,1030.1329505332737,-1030.1329505332737,1221.6496865875961,4437.9833410751526,0.0
518296.95196600363,3660566.251970998,-37500.0,-3187.3582612411255,1048.6129911620378,-99.001982116527927,-2083.9491636193702,524.6763232678627,-985.45334617786352,2533.8585479043018,-1279.144561152119,1111.5002090624444,-1111.5002090624444,1279.144561152119,4973.853494953566,0.0
523296.95196600363,3660566.251970998,-37500.0,-3437.6950933396342,1206.3601925808184,-126.0145117030233,-2386.0121578801009,625.95427461425083,-1183.6959021597017,2852.8062606079852,-1325.504119898033,1192.8517051202634,-1192.8517051202634,1325.504119898033,5586.0315370827448,0.0
528296.95196600363,3660566.251970998,-37500.0,-3691.4284341059056,1391.282966496178,-163.96909086695163,-2734.2075956709186,749.75032733822172,-1425.8722563006704,3219.4601750327292,-1353.5809994478627,1270.2514350310253,-1270.2514350310253,1353.5809994478627,6285.309218587071,0.0
533296.95196600363,3660566.251970998,-37500.0,-3939.0644542136824,1608.0232085548512,-217.49966702969357,-3133.9244206358403,901.37886909967619,-1721.684795596198,3641.1768576201034,-1353.3274962730109,1337.6076520029653,-1337.6076520029653,1353.3274962730109,7083.347322829366,0.0
538296.95196600363,3660566.251970998,-37500.0,-4166.0185985630033,1861.7181891761099,-293.24993825028395,-3589.8963964482696,1087.3211897370636,-2082.5373626048645,4126.1846173183703,-1310.7314174176786,1385.6945950894892,-1385.6945950894892,1310.7314174176786,7992.3241106889382,0.0
543296.95196600363,3660566.251970998,-37500.0,-4350.4259025048668,2157.8074996439414,-400.75733486983711,-4105.1859902496435,1315.3720476950102,-2521.505414967321,4683.5014152828535,-1206.3745280568182,1400.745870534432,-1400.745870534432,1206.3745280568182,9024.2932528439414,0.0
548296.95196600363,3660566.251970998,-37500.0,-4460.0315752153301,2501.597514891791,-553.71437836048699,-4679.4608738797606,1594.7105537688456,-3053.0609593527847,5322.6959870028941,-1013.4906766401879,1362.4349682352465,-1362.4349682352465,1013.4906766401879,10190.100327528147,0.0
553296.95196600363,3660566.251970998,-37500.0,-4447.7683177626859,2897.3721957285125,-771.74156018066856,-5306.0165197971801,1935.7878451575423,-3692.3489015334449,6053.3231969141843,-695.3865990676552,1240.9890945437039,-1240.9890945437039,695.3865990676552,11497.584260218406,0.0
558296.95196600363,3660566.251970998,-37500.0,-4245.5984325198724,3346.6439050203303,-1082.8045227000714,-5966.4741173770899,2349.7959705328403,-4453.5496566408046,6883.6593436729136,-202.19976463555093,993.15271933949089,-993.15271933949089,202.19976463555093,12948.565776301806,0.0
563296.95196600363,3660566.251970998,-37500.0,-3756.6014769906628,3844.7747462065299,-1526.3121601649673,-6621.0694292280177,2847.1575370819291,-5346.0206774879725,7817.8999520431553,532.51905897777647,556.88366059011241,-556.88366059011241,-532.51905897777647,14533.643257096493,0.0
568296.95196600363,3660566.251970998,-37500.0,-2847.3078503998604,4374.6344784326884,-2156.5477649807217,-7190.9751619194612,3433.6612775171852,-6364.4984862670399,8850.1608259569366,1593.1882314558293,-154.43591794975748,154.43591794975748,-1593.1882314558293,16223.133343240888,0.0
573296.95196600363,3660566.251970998,-37500.0,-1348.6724606823582,4895.5234524021198,-3044.9578176110645,-7528.6555227328645,4101.019638933958,-7463.8161448432538,9952.7497873817774,3074.7899020456034,-1254.5625164714338,1254.5625164714338,-3074.7899020456034,17952.571832438342,0.0
578296.95196600363,3660566.251970998,-37500.0,910.87085202451931,5326.9805456334725,-4277.0311013802784,-7379.4038890414995,4805.3702633380162,-8498.3688628751515,11057.397557425611,5050.8015233372034,-2872.7595709283796,2872.7595709283796,-5050.8015233372034,19606.264972462228,0.0
583296.95196600363,3660566.251970998,-37500.0,3994.6504684107831,5535.3665986331634,-5933.9466059926917,-6369.4441193054663,5425.1575332712218,-9102.2047587561974,12039.370917156843,7490.9205210080336,-5104.567166471209,5104.567166471209,-7490.9205210080336,21023.761944713257,0.0
588296.95196600363,3660566.251970998,-37500.0,7631.1708110977652,5353.9248481370787,-8042.4012753362449,-4133.1531019987769,5702.8458923858507,-8537.4267657311284,12757.088249519817,10121.262596700528,-7896.62526528336,7896.62526528336,-10121.262596700528,22101.458803486312,0.0
593296.95196600363,3660566.251970998,-37500.0,10985.518070313039,4694.2738156694832,-10481.396182101147,-751.25955065264475,5235.6878721815801,-5751.0876939388345,13291.926390304399,12333.956347376145,-10889.200497526192,10889.200497526192,-12333.956347376145,23058.581361444281,0.0
598296.95196600363,3660566.251970998,-37500.0,12896.421515215887,3754.0391551697821,-12884.930917064687,2618.3024581577515,3685.763900571359,-183.29502524560073,14167.345186075343,13450.549682516456,-13401.583732850031,13401.583732850031,-13450.549682516456,24538.619683825054,0.0
603296.95196600363,3660566.251970998,-37500.0,12968.618831809757,3077.0818079155442,-14676.431390745804,3946.4694486899725,1293.9055399583551,6640.455018804133,15141.929010689011,13452.810753928596,-14817.63449363803,14817.63449363803,-13452.810753928596,26636.512308294081,0.0
608296.95196600363,3660566.251970998,-37500.0,12353.0717300125,3107.1918138546926,-15354.137794240025,2340.0516537856429,-820.42602764393598,10851.203367281922,14973.330716675622,13240.485926212459,-15106.309561963135,15106.309561963135,-13240.485926212459,27852.167447573902,0.0
613296.95196600363,3660566.251970998,-37500.0,12386.079978874166,3593.6678692229843,-14839.628378657893,-364.16892245141747,-1362.6760595584162,9404.2108454628797,14155.029238273743,13466.25237950243,-14685.876427695168,14685.876427695168,-13466.25237950243,26714.398760155098,0.0
618296.95196600363,3660566.251970998,-37500.0,12831.324933939839,3748.7053435808321,-13479.343471845221,-1395.2981724345548,-15.362542703796436,3159.3684122512013,13772.221551110315,13540.352516196195,-13817.651674102839,13817.651674102839,-13540.352516196195,24069.109420404773,0.0
623296.95196600363,3660566.251970998,-37500.0,12431.569127405495,3007.8790274806315,-11685.508155782623,266.74588651461363,2344.0214809186814,-4361.0309666314488,12753.398809993958,12396.737396812119,-12444.252857005135,12444.252857005135,-12396.737396812119,22415.95813907521,0.0
628296.95196600363,3660566.251970998,-37500.0,10410.062534804321,1499.0350172374001,-9697.9953672161664,3624.9830737429879,4452.6538753774767,-10084.602315770249,12866.783372074773,9688.0359974377388,-10467.449940341216,10467.449940341216,-9688.0359974377388,22757.385105405945,0.0
633296.95196600363,3660566.251970998,-37500.0,7049.5745807664562,-173.23702062618779,-7669.7463973841313,7025.3330316279926,5561.2762025142483,-12902.461173569927,13680.341087520255,6024.7253779738294,-8028.8928799536625,8028.8928799536625,-6024.7253779738294,23706.561268523914,0.0
638296.95196600363,3660566.251970998,-37500.0,3265.5061077214959,-1473.5983426075509,-5770.541082396433,9373.7694176740933,5660.2075800318489,-13299.828416909539,13729.431027650076,2371.0773899650153,-5502.5711552011326,5502.5711552011326,-2371.0773899650153,23929.193411200464,0.0
643296.95196600363,3660566.251970998,-37500.0,-109.68845065749055,-2216.6029780350996,-4147.5426293635355,10437.062235622647,5124.0409747978119,-12296.413225010578,13067.085537979805,-596.5984268323823,-3256.0758150836427,3256.0758150836427,596.5984268323823,23149.870148473106,0.0
648296.95196600363,3660566.251970998,-37500.0,-2674.4154260360756,-2483.1361545469181,-2866.7210694742053,10494.39459706086,4331.8218571519365,-10728.76677783786,12001.240562342704,-2665.6231506794325,-1481.5890320834919,1481.5890320834919,2665.6231506794325,21646.005430757814,0.0
653296.95196600363,3660566.251970998,-37500.0,-4395.3212844120471,-2440.2459429617757,-1915.675143755401,9937.5402146124907,3520.8977965674276,-9075.9324590666056,10783.241654201156,-3928.2060124826157,-199.37127946583155,199.37127946583155,3928.2060124826157,19773.257359511797,0.0
658296.95196600363,3660566.251970998,-37500.0,-5416.8173696153672,-2234.4737968633572,-1239.9269622941333,9077.6504951305251,2799.622870606016,-7551.3481759223323,9566.0809017687698,-4583.6999168554967,663.19373785416792,-663.19373785416792,4583.6999168554967,17793.8707458928,0.0
663296.95196600363,3660566.251970998,-37500.0,-5922.4380271750269,-1963.3313369401615,-774.91109036226885,8112.0653074838283,2200.0524532029053,-6226.0155217924585,8426.9296692545431,-4825.8374598811142,1204.6179299013663,-1204.6179299013663,4825.8374598811142,15863.586576068423,0.0
668296.95196600363,3660566.251970998,-37500.0,-6073.042959904169,-1682.2803163483484,-462.77600815031491,7150.9840252405411,1718.8627622166873,-5107.5822757519863,7397.1854225453717,-4804.8952764798296,1515.4380445122633,-1515.4380445122633,4804.8952764798296,14062.507023825065,0.0
673296.95196600363,3660566.251970998,-37500.0,-5991.372021729333,-1419.0577700236977,-257.81941366245428,6250.1120975381837,1339.8713880241407,-4179.2456486865467,6484.1109225615382,-4626.2639658441585,1667.4712008995746,-1667.4712008995746,4626.2639658441585,12425.222339167691,0.0
678296.95196600363,3660566.251970998,-37500.0,-5765.228888791502,-1185.2911043452034,-126.28928294134282,5433.946935411831,1044.3449869023787,-3416.4779901927641,5683.3835429221817,-4360.1519589720674,1713.7657015914554,-1713.7657015914554,4360.1519589720674,10960.832926719037,0.0
683296.95196600363,3660566.251970998,-37500.0,-5455.3468653677,-983.98419665302413,-44.215388026434951,4709.8646249383819,815.05355225600465,-2793.8409921449279,4985.6957027506396,-4051.9364958191081,1692.0225292974826,-1692.0225292974826,4051.9364958191081,9664.7961749439037,0.0
688296.95196600363,3660566.251970998,-37500.0,-5102.8055441186343,-813.86991800210103,5.0209836921666966,4076.1324727178526,637.50411152190566,-2287.6923664505644,4380.0314509933487,-3730.2240910446817,1628.3998039916578,-1628.3998039916578,3730.2240910446817,8525.6436288381465,0.0
693296.95196600363,3660566.251970998,-37500.0,-4734.8127494468299,-671.80749417785512,32.760959065621122,3526.4322968812467,500.02482941967838,-1877.1950740422149,3855.2619919372792,-3412.5174360108717,1540.7190351712038,-1540.7190351712038,3412.5174360108717,7528.8152851504537,0.0
698296.95196600363,3660566.251970998,-37500.0,-4368.9180996882842,-554.04921432310789,46.656696114303024,3052.42493676086,393.43572140008615,-1544.563732500907,3400.8973257438784,-3109.0454422531211,1440.9107953595856,-1440.9107953595856,3109.0454422531211,6658.8520775420093,0.0
703296.95196600363,3660566.251970998,-37500.0,-4016.0128887905048,-456.87658905575199,51.823687207509096,2645.2030878333408,310.61437904014338,-1274.9458666836329,3007.4128098009523,-2825.3194805718526,1336.8005151559569,-1336.8005151559569,2825.3194805718526,5900.6339317780967,0.0
708296.95196600363,3660566.251970998,-37500.0,-3682.445569925791,-376.89219243547745,51.651892616117379,2296.0932415203101,246.07816394814998,-1056.1298381960908,2666.3544968491187,-2563.8321936809011,1233.3838006630813,-1233.3838006630813,2563.8321936809011,5240.0418277477102,0.0
713296.95196600363,3660566.251970998,-37500.0,-3371.5112144030363,-311.12894050157286,48.36624831620567,1997.0728826420659,195.62524002168965,-878.18796329878933,2370.3324471854921,-2325.1876935451323,1133.7270331255986,-1133.7270331255986,2325.1876935451323,4664.276401864835,0.0
513296.95196600363,3665566.251970998,-37500.0,-2613.3621535070993,1116.1654696190208,-207.88393804171869,-1657.4099498906307,552.93691426805992,-758.75449211005002,2141.7224429556632,-850.96057821344948,846.01969332744352,-846.01969332744352,850.96057821344948,4202.4271178980753,0.0
518296.95196600363,3665566.251970998,-37500.0,-2793.326774807083,1277.1137593386875,-253.90851651956626,-1879.824094359057,656.32612909546367,-902.52711025955546,2396.867394266761,-846.9016273040271,890.10335495093125,-890.10335495093125,846.9016273040271,4691.3541514510034,0.0
523296.95196600363,3665566.251970998,-37500.0,-2969.9122302064357,1464.0186177228179,-313.96269525928142,-2132.2848566982393,781.80362599725368,-1075.9528094158068,2687.7222269060776,-820.43025243987483,925.55586053808099,-925.55586053808099,820.43025243987483,5245.4273396195522,0.0
528296.95196600363,3665566.251970998,-37500.0,-3134.4230118612199,1680.7282232921837,-392.87120643536673,-2417.012926564631,934.28842715128383,-1284.8679230183782,3019.2227862414547,-762.47904630739822,946.32672504851485,-946.32672504851485,762.47904630739822,5872.4262765936255,0.0
533296.95196600363,3665566.251970998,-37500.0,-3274.1339589905328,1931.2198311171887,-497.22218488152606,-2735.1095280509808,1119.6456069439305,-1535.7886776863018,3396.6861007076886,-660.97717796321604,943.72908798692697,-943.72908798692697,660.97717796321604,6580.1195425425667,0.0
538296.95196600363,3665566.251970998,-37500.0,-3370.7791489354663,2219.2525914356283,-636.02076824480173,-3085.6089931013612,1344.7090572134694,-1835.6168771098569,3825.6458433898933,-499.98698907088743,905.41365754669573,-905.41365754669573,499.98698907088743,7375.6525695941282,0.0
543296.95196600363,3665566.251970998,-37500.0,-3398.5463787970189,2547.730450792897,-821.56606460260809,-3463.997872998651,1617.1522923648818,-2191.0084486349865,4311.5502531504499,-258.67235197147227,813.98074566872458,-813.98074566872458,258.67235197147227,8264.5843011047764,0.0
548296.95196600363,3665566.251970998,-37500.0,-3321.4680794688493,2917.582582550785,-1070.5946592319763,-3859.9120235785131,1945.0561840655864,-2607.1782784517995,4859.2459369983244,89.852112155877876,645.14101657122774,-645.14101657122774,-89.852112155877876,9249.4444531082336,0.0
553296.95196600363,3665566.251970998,-37500.0,-3090.1536081823861,3325.8398430893708,-1405.6954643375648,-4253.5247952261543,2335.8916609227758,-3085.7443254241052,5472.1087910015158,579.61423661696631,365.3679282664292,-365.3679282664292,-579.61423661696631,10327.643125081728,0.0
558296.95196600363,3665566.251970998,-37500.0,-2638.0942221549894,3762.3814176397095,-1856.8706046381917,-4609.8163849235762,2794.3759511850531,-3620.8464911411488,6150.5834416754133,1252.299869795627,-70.845521789517761,70.845521789517761,-1252.299869795627,11488.569781251244,0.0
563296.95196600363,3665566.251970998,-37500.0,-1878.7075422355533,4204.5560048131583,-2462.7774058393516,-4869.4700948411173,3318.1291616803496,-4191.8999293055158,6889.7450450243232,2155.830863531819,-723.47852320476295,723.47852320476295,-2155.830863531819,12709.876658348456,0.0
568296.95196600363,3665566.251970998,-37500.0,-706.92684580335106,4608.7511602796867,-3270.3728729022928,-4935.0539128451283,3889.0015324801952,-4749.3681560619098,7675.4927266694312,3337.7253630820433,-1667.1050792494316,1667.1050792494316,-3337.7253630820433,13953.818081918424,0.0
573296.95196600363,3665566.251970998,-37500.0,984.71603102489667,4898.9053007914317,-4329.9850126609908,-4653.4585224019393,4456.1809507024918,-5186.2926933805038,8480.0294882720373,4826.3427550542374,-2983.1183906204365,2983.1183906204365,-4826.3427550542374,15167.887903263769,0.0
578296.95196600363,3665566.251970998,-37500.0,3254.9015971546351,4956.6129825593462,-5679.961213231596,-3806.2796367528144,4905.7435256472845,-5284.9525984349066,9262.5514370916499,6588.8709509109649,-4732.3258198188196,4732.3258198188196,-6588.8709509109649,16304.13281589834,0.0
583296.95196600363,3665566.251970998,-37500.0,5999.9584306814968,4630.9625548367103,-7312.5119472415063,-2149.5344256154272,5016.2754734948512,-4638.0438306125634,9998.3588474577773,8459.0834373392827,-6890.6169622770385,6890.6169622770385,-8459.0834373392827,17391.344567404634,0.0
588296.95196600363,3665566.251970998,-37500.0,8787.3107793683939,3809.4747220803542,-9117.9998359327074,409.40028116629486,4429.5176468811496,-2606.0385910009177,10789.137653272361,10067.426710492153,-9244.3296167664048,9244.3296167664048,-10067.426710492153,18689.785905083583,0.0
593296.95196600363,3665566.251970998,-37500.0,10797.763633053137,2590.7709363746867,-10836.113155846737,3432.1206741219139,2739.3328624598121,1472.4020338298883,11988.794182306016,10907.894518582687,-11316.14907409554,11316.14907409554,-10907.894518582687,20766.071913522494,0.0
598296.95196600363,3665566.251970998,-37500.0,11240.553258869757,1471.1450244048706,-12099.912377501867,5622.9282084056504,-144.56035477469521,7512.8884479138778,13775.530527749594,10730.739789771078,-12516.560840938166,12516.560840938166,-10730.739789771078,23938.98180142837,0.0
603296.95196600363,3665566.251970998,-37500.0,10281.069345197437,1190.9552615996638,-12644.964227274104,5374.9446066388564,-3459.2484555957481,13669.249767793208,15502.42053836093,10068.525354458005,-12625.936076962189,12625.936076962189,-10068.525354458005,27232.053385147126,0.0
608296.95196600363,3665566.251970998,-37500.0,9306.9187808573552,2026.40221732502,-12532.035966097097,2470.2432931092685,-5619.2890803700675,16706.891375561052,16034.476891367947,9985.2388355261501,-12124.816140061841,12124.816140061841,-9985.2388355261501,28612.264125602145,0.0
613296.95196600363,3665566.251970998,-37500.0,9479.9056235814569,3280.4737894046411,-12070.553347795791,-1086.7491569170231,-5353.9078537035966,14604.264783486784,14796.936640717318,10817.24215964434,-11706.830821707843,11706.830821707843,-10817.24215964434,26887.435996461274,0.0
618296.95196600363,3665566.251970998,-37500.0,10386.9098381599,3851.526080327912,-11495.306989163186,-2840.9849218157724,-2815.2683286154038,8469.717199207249,12877.294113719498,11631.831983233616,-11525.953804372581,11525.953804372581,-11631.831983233616,23087.835943936658,0.0
623296.95196600363,3665566.251970998,-37500.0,10724.35602729086,3188.6063826349632,-10790.20073737058,-1971.7988030288907,680.62031633067295,1260.6990045309578,11424.771350087944,11246.280715497996,-11192.636671563101,11192.636671563101,-11246.280715497996,19808.733084194035,0.0
628296.95196600363,3665566.251970998,-37500.0,9657.9497629379584,1561.1657412931738,-9807.0226447855366,667.39392157567022,3727.4236944358495,-4572.4147531245872,10824.237124063144,9283.188040716439,-10288.375541168713,10288.375541168713,-9283.188040716439,18834.112508557453,0.0
633296.95196600363,3665566.251970998,-37500.0,7282.1253702151407,-337.30983533923973,-8493.9068404076606,3696.6832470675804,5577.6445836697521,-8079.0290989333744,11212.182334182166,6247.7262833240311,-8731.2188124288605,8731.2188124288605,-6247.7262833240311,19421.078327573148,0.0
638296.95196600363,3665566.251970998,-37500.0,4269.0981718436115,-1910.8396095135404,-6978.2648807738433,6122.4893514632286,6211.6532235215454,-9488.2445586352915,11468.898218118118,2982.5320704235005,-6775.7296576561712,6775.7296576561712,-2982.5320704235005,20004.906529057243,0.0
643296.95196600363,3665566.251970998,-37500.0,1325.7961940652795,-2906.0355686448561,-5467.1986814612455,7587.3105959961104,5995.6317312641941,-9495.2016940776866,11213.0968028264,143.76552896111389,-4784.0563254850194,4784.0563254850194,-143.76552896111389,19889.986562633563,0.0
648296.95196600363,3665566.251970998,-37500.0,-1114.985047294746,-3352.8825970422827,-4124.2195886540485,8175.2260343106291,5338.0994009169153,-8756.2708636827319,10562.709523377218,-1980.7802062603707,-3025.0827181364803,3025.0827181364803,1980.7802062603707,19083.098887251912,0.0
653296.95196600363,3665566.251970998,-37500.0,-2913.5418102408271,-3403.2362255991429,-3024.6671786355982,8135.8072964558087,4531.7144922553671,-7714.2365689244862,9698.7493908656415,-3386.976863078547,-1617.6793542739611,1617.6793542739611,3386.976863078547,17817.266352467694,0.0
658296.95196600363,3665566.251970998,-37500.0,-4111.3706228692008,-3215.4881505277008,-2173.4723000155668,7714.6002458776529,3739.6952106706126,-6616.1612490315729,8759.0432563321865,-4204.229753468062,-568.78502214108312,568.78502214108312,4204.229753468062,16321.846689328579,0.0
663296.95196600363,3665566.251970998,-37500.0,-4822.6761516895513,-2909.3336639101549,-1538.7764244550626,7094.7907588941644,3034.8638447031444,-5582.0408653876921,7828.5058020978613,-4590.1743812965688,170.35471641537106,-170.35471641537106,4590.1743812965688,14760.973554347185,0.0
668296.95196600363,3665566.251970998,-37500.0,-5171.0932518210611,-2561.6338735961408,-1077.2053951479913,6396.0548602585604,2439.2978174747686,-4661.4577193266196,6952.7247278154082,-4682.6650328440182,664.79652622140475,-664.79652622140475,4682.6650328440182,13236.246998359342,0.0
673296.95196600363,3665566.251970998,-37500.0,-5263.4277403564729,-2216.4754689172896,-747.19189221861927,5690.4786807882901,1950.6058844839638,-3868.002481401893,6152.6133058837704,-4586.9861551373488,976.18525047227331,-976.18525047227331,4586.9861551373488,11804.196356535724,0.0
678296.95196600363,3665566.251970998,-37500.0,-5183.2276377152912,-1896.4326675924749,-514.06218456215208,5018.4824793382404,1556.4400807492416,-3197.8042819605089,5434.8504611159124,-4378.118550530221,1155.6267235446996,-1155.6267235446996,4378.118550530221,10492.146050128165,0.0
683296.95196600363,3665566.251970998,-37500.0,-4992.4818738789545,-1611.1377389252009,-350.87889501192757,4400.554556323541,1241.7016055253264,-2639.1700224014039,4798.3628515269147,-4107.2696394158775,1242.7050043508268,-1242.7050043508268,4107.2696394158775,9309.5015906389981,0.0
688296.95196600363,3665566.251970998,-37500.0,-4735.6729332506247,-1362.9270383464313,-237.54441025516653,3845.0338800911459,991.79414229549855,-2177.5922026635517,4238.1088218668619,-3808.3377720917679,1266.888090513974,-1266.888090513974,3808.3377720917679,8255.1132729960827,0.0
693296.95196600363,3665566.251970998,-37500.0,-4443.9065586441684,-1150.3062230153571,-159.42423658949446,3353.0929250007489,793.89592948439326,-1798.3438523556251,3747.2459124499287,-3503.0933449510308,1249.5501295485724,-1249.5501295485724,3503.0933449510308,7321.956439755214,0.0
698296.95196600363,3665566.251970998,-37500.0,-4138.39989268918,-969.98324828749696,-106.02157136515997,2921.8818821358923,637.2872400494366,-1487.7615143730993,3318.3559697087294,-3205.0015997495707,1205.8964595607645,-1205.8964595607645,3205.0015997495707,6500.0592911773729,0.0
703296.95196600363,3665566.251970998,-37500.0,-3833.2172047364284,-818.01704514326161,-69.879762699859839,2546.4921158896309,513.25894959197024,-1233.7967306688918,2944.1247591995307,-2921.9396193182392,1146.5646232750523,-1146.5646232750523,2921.9396193182392,5778.3064388528846,0.0
708296.95196600363,3665566.251970998,-37500.0,-3537.3345118163647,-690.43438447449626,-45.734620590018125,2221.1579399503462,414.85723227417401,-1026.1595712609683,2617.6980362223148,-2658.0861296960334,1078.8741194856275,-1078.8741194856275,2658.0861296960334,5145.5123654607678,0.0
713296.95196600363,3665566.251970998,-37500.0,-3256.1665682417884,-583.5387030385449,-29.885811706622345,1939.9710333555568,336.58996429074142,-856.24700958365213,2332.8494879604737,-2415.2222588726559,1007.7679829723503,-1007.7679829723503,2415.2222588726559,4591.0326306267098,0.0
513296.95196600363,3670566.251970998,-37500.0,-2232.1184464184535,1258.2954357071123,-352.59395565560095,-1466.7386741066825,636.36256897527562,-684.18060520458505,2011.8932065064168,-486.03278948092503,627.01565659757864,-627.01565659757864,486.03278948092503,3929.1345066569465,0.0
518296.95196600363,3670566.251970998,-37500.0,-2344.372045906628,1430.9039211145555,-427.09618366691029,-1645.0392050661969,751.93504896047318,-806.6353309306653,2241.712806840801,-425.50117434755123,628.68152608223352,-628.68152608223352,425.50117434755123,4364.568072211955,0.0
523296.95196600363,3670566.251970998,-37500.0,-2440.0539423214273,1628.2983734473489,-521.70239279923271,-1841.7838066517631,890.79434066990859,-951.86323849491907,2501.3380819109034,-333.70812872680682,612.690018896521,-612.690018896521,333.70812872680682,4852.939781018943,0.0
528296.95196600363,3670566.251970998,-37500.0,-2508.0546107914852,1852.8958041773212,-642.4482392237569,-2055.8908207356312,1057.483491730095,-1123.2709947668718,2794.1770974231013,-200.74797557942375,571.13336897142506,-571.13336897142506,200.74797557942375,5398.9994859381177,0.0
533296.95196600363,3670566.251970998,-37500.0,-2533.0510478487263,2106.4604622668803,-797.23542793697732,-2284.2063278073429,1257.0602030244145,-1324.0323020549672,3123.6086556140126,-14.089608435216604,493.24507429280322,-493.24507429280322,14.089608435216604,6006.7522267565564,0.0
538296.95196600363,3670566.251970998,-37500.0,-2494.2262797211483,2389.3927220923233,-996.3572864673165,-2520.3179124101744,1494.8233487523701,-1556.4368761494304,3492.7241832734062,241.87354416651328,364.50584906331767,-364.50584906331767,-241.87354416651328,6678.7323069970653,0.0
543296.95196600363,3670566.251970998,-37500.0,-2363.7537668022096,2699.5832476791879,-1253.0993868520811,-2752.8259925458301,1775.7054767112963,-1820.7590525822693,3903.9393867593917,586.15055673070913,165.56809320660093,-165.56809320660093,-586.15055673070913,7414.9921606809985,0.0
548296.95196600363,3670566.251970998,-37500.0,-2105.1527471445816,3030.6071987102096,-1584.3357422050522,-2962.8549906216153,2103.0725973770641,-2113.3591558174294,4358.4420175957221,1041.1241088248953,-128.9315632782791,128.9315632782791,-1041.1241088248953,8211.7966273803577,0.0
553296.95196600363,3670566.251970998,-37500.0,-1671.8472132759757,3368.9460926532633,-2010.9131064864378,-3120.5194798706302,2476.4909438107702,-2423.5542785093048,4855.4654965700975,1631.7045452566326,-551.44129602357987,551.44129602357987,-1631.7045452566326,9060.1595983212137,0.0
558296.95196600363,3670566.251970998,-37500.0,-1006.7946940247568,3689.8491152195047,-2557.3440184336037,-3180.0221692711943,2887.7031748448821,-2728.4656188141407,5391.4603316648272,2382.7607317319298,-1141.843448450898,1141.843448450898,-2382.7607317319298,9944.7418086071102,0.0
563296.95196600363,3670566.251970998,-37500.0,-45.25888694164923,3951.5314549226691,-3249.7973422976611,-3073.2538774099066,3313.5323603424431,-2984.4256535846835,5959.5268314790355,3313.1027008376377,-1945.6767327825792,1945.6767327825792,-3313.1027008376377,10844.632583700892,0.0
568296.95196600363,3670566.251970998,-37500.0,1274.6920269715097,4088.1202696608925,-4110.4238597502072,-2702.886756092465,3703.6891633636651,-3112.4899898263757,6550.4152682171389,4422.9786585715101,-3007.2042943053725,3007.2042943053725,-4422.9786585715101,11740.028462836382,0.0
573296.95196600363,3670566.251970998,-37500.0,2985.1503327101177,4004.3156188027392,-5144.7082596439968,-1939.8762518254998,3960.9793062516123,-2974.6238397677016,7159.1504705059115,5670.7877567577616,-4351.6118395142366,4351.6118395142366,-5670.7877567577616,12634.177820096245,0.0
578296.95196600363,3670566.251970998,-37500.0,5032.1774072536027,3581.5015190610247,-6317.81101972941,-640.69823914683832,3913.5739486675607,-2339.5280576021696,7808.0133561391822,6936.6313781482586,-5948.0689631908008,5948.0689631908008,-6936.6313781482586,13607.22720796222,0.0
583296.95196600363,3670566.251970998,-37500.0,7186.100573711461,2717.7115885866251,-7519.8572619495262,1281.2329587510658,3290.9238836876029,-853.62616634925928,8604.0528656734459,7984.7590370269036,-7649.7206047804475,7649.7206047804475,-7984.7590370269036,14907.836932773909,0.0
588296.95196600363,3670566.251970998,-37500.0,8963.1997625614622,1433.0259212585026,-8538.0294148628964,3684.5732428257088,1748.7324352694689,1917.2894930730804,9805.7021736277329,8477.8668294952058,-9135.3853621067556,9135.3853621067556,-8477.8668294952058,16990.847803016048,0.0
593296.95196600363,3670566.251970998,-37500.0,9712.7545713518175,34.130394073182387,-9090.2888477494143,5953.9223298032675,-961.55240497402315,6235.5249214967016,11675.002993180975,8147.7825215446555,-9945.6781074531118,9945.6781074531118,-8147.7825215446555,20233.33597892223,0.0
598296.95196600363,3670566.251970998,-37500.0,9064.8337797646491,-816.7862765495795,-8990.4437177701457,6949.1407724662786,-4613.8861634490895,11640.787772236268,14020.878811591298,7158.2646026632165,-9747.3084461826002,9747.3084461826002,-7158.2646026632165,24287.343970027134,0.0
603296.95196600363,3670566.251970998,-37500.0,7546.2902006016539,-431.60776406514447,-8389.8226226032602,5627.9118348974425,-8155.9370924326113,16484.330230067288,16034.916491053096,6327.2409076877957,-8753.5994857365658,8753.5994857365658,-6327.2409076877957,27774.499563942238,0.0
608296.95196600363,3670566.251970998,-37500.0,6476.7877772999036,1200.4152619782626,-7797.8498286139456,2201.0614510904129,-10010.181608222267,18493.165534630778,16711.955952511522,6602.138666649882,-7781.2822647038956,7781.2822647038956,-6602.138666649882,28968.193996786878,0.0
613296.95196600363,3670566.251970998,-37500.0,6753.5731524596777,3135.5161582488126,-7687.5624950114598,-1577.0809535847277,-9178.082125623243,16470.06867079591,15580.458508983518,8027.8401293479328,-7582.4011803778321,7582.4011803778321,-8027.8401293479328,27072.890979673753,0.0
618296.95196600363,3670566.251970998,-37500.0,7945.4115205668886,4186.7897986593644,-8079.2639226242036,-3762.1597506900334,-6045.700425431246,11319.558627322784,13162.943488893179,9555.6589673053622,-8156.3190650057277,8156.3190650057277,-9555.6589673053622,22955.290226149948,0.0
623296.95196600363,3670566.251970998,-37500.0,8871.4916378218259,3822.50202467081,-8580.1266950576774,-3648.0510010426101,-1976.128030162527,5164.5050491841257,10743.787029027855,10007.389782188846,-8875.4311547139223,8875.4311547139223,-10007.389782188846,18683.748456187011,0.0
628296.95196600363,3670566.251970998,-37500.0,8683.6686173288526,2331.4091168853033,-8743.1444072735321,-1813.1897078827665,1679.1373347075337,-171.15071840038365,9352.6473893712791,8942.3337878971888,-9094.6409435439036,9094.6409435439036,-8942.3337878971888,16199.328364475419,0.0
633296.95196600363,3670566.251970998,-37500.0,7285.2967539356896,398.79099573389101,-8353.8738615392358,685.46222156710019,4185.3732093503277,-3852.3988601620304,9106.4120177980403,6704.0631849466563,-8549.1158751289404,8549.1158751289404,-6704.0631849466563,15776.131465324113,0.0
638296.95196600363,3670566.251970998,-37500.0,5107.3441221188968,-1361.5409275511838,-7476.8980112101826,2989.7663933500071,5450.8037365833188,-5877.7143548640015,9280.0265847011324,3981.9163469048599,-7364.2505060638596,7364.2505060638596,-3981.9163469048599,16195.903758874181,0.0
643296.95196600363,3670566.251970998,-37500.0,2709.4825119073712,-2628.1384007209203,-6328.780965775607,4674.1440843865876,5752.5817523385958,-6645.5408812026781,9263.4407391003951,1387.0073094497748,-5852.3029304535021,5852.3029304535021,-1387.0073094497748,16437.587921824317,0.0
648296.95196600363,3670566.251970998,-37500.0,513.6083514512369,-3350.3326718744502,-5130.3182510792885,5667.9105235831385,5457.0794914288927,-6614.419554765549,8949.9214495204542,-733.527577337205,-4311.864357471577,4311.864357471577,733.527577337205,16180.901979714326,0.0
653296.95196600363,3670566.251970998,-37500.0,-1267.2127966150463,-3625.9387830969581,-4030.1468710712402,6084.3861039987332,4866.218773889007,-6147.33057205559,8415.4266854006419,-2277.4687590949093,-2934.4830962181663,2934.4830962181663,2277.4687590949093,15476.037120102366,0.0
658296.95196600363,3670566.251970998,-37500.0,-2583.2142293845409,-3594.0345610890877,-3097.6834365018385,6088.2618449300635,4178.0750227961571,-5484.4990852504925,7758.1850382680423,-3289.8444344011459,-1803.0836106757824,1803.0836106757824,3289.8444344011459,14474.477313708832,0.0
663296.95196600363,3670566.251970998,-37500.0,-3475.6081890526602,-3378.3818890408147,-2346.8122259036054,5829.190829776976,3503.2585865724468,-4768.3996040078073,7055.0838902070209,-3875.0024695457923,-927.51764597033593,927.51764597033593,3875.0024695457923,13319.235699808158,0.0
668296.95196600363,3670566.251970998,-37500.0,-4021.3154117002573,-3069.8715605813486,-1761.9385369618451,5421.1777708506879,2894.1792761223842,-4076.469534724411,6356.76053093257,-4144.5745361217942,-280.3795304340581,280.3795304340581,4144.5745361217942,12116.150391168019,0.0
673296.95196600363,3670566.251970998,-37500.0,-4301.7812912019681,-2728.0297436208793,-1316.1123203490754,4943.2163261307705,2369.3907045901756,-3446.4309884365039,5693.0450693986622,-4194.878055723344,179.02497295267267,-179.02497295267267,4194.878055723344,10934.655422362031,0.0
678296.95196600363,3670566.251970998,-37500.0,-4389.119114774363,-2388.5160618465261,-980.99930138466095,4446.596519649207,1929.6973897870312,-2892.9211130709086,5079.499986364106,-4100.9500241561454,491.873510851427,-491.873510851427,4100.9500241561454,9816.1882559158184,0.0
683296.95196600363,3670566.251970998,-37500.0,-4341.8275489508387,-2070.7340056855842,-731.33751333911357,3962.6541691930943,1567.6483099580109,-2417.738772394001,4522.5700538130986,-3917.8872733188305,694.28179333671824,-694.28179333671824,3917.8872733188305,8782.6600978207953,0.0
688296.95196600363,3670566.251970998,-37500.0,-4204.9654188504546,-1783.765445612283,-546.34906154363227,3509.094160379263,1272.740349442817,-2016.0129812135442,4023.1618300030191,-3684.5550603381316,815.67748572689038,-815.67748572689038,3684.5550603381316,7843.1330599377643,0.0
693296.95196600363,3670566.251970998,-37500.0,-4012.0222166709227,-1530.4959261565432,-409.70263285776173,3094.6539555430099,1034.0783734624506,-1679.8438175813419,3578.988137839408,-3427.4888111678042,879.00672162920227,-879.00672162920227,3427.4888111678042,6998.597534515402,0.0
698296.95196600363,3670566.251970998,-37500.0,-3787.1958889635694,-1310.3140720330107,-308.90990407374898,2722.390455219147,841.61690473527244,-1400.3952552558333,3186.0716089038892,-3164.2369876169319,901.64910938670255,-901.64910938670255,3164.2369876169319,6245.2598650427317,0.0
703296.95196600363,3670566.251970998,-37500.0,-3547.5231673894332,-1120.7998628821554,-234.5833483005496,2391.9202425490962,686.63621400739089,-1169.0325534160602,2839.6810999163367,-2905.9754847200866,896.49528552866047,-896.49528552866047,2905.9754847200866,5576.7215987997952,0.0
708296.95196600363,3670566.251970998,-37500.0,-3304.6734369030746,-958.74276923167656,-179.74210731127613,2100.9076848268455,561.82908956245308,-977.88280333575119,2534.8991043903338,-2659.4583438180771,872.94908939548986,-872.94908939548986,2659.4583438180771,4985.3834044812438,0.0
713296.95196600363,3670566.251970998,-37500.0,-3066.386154540111,-820.73109698782287,-139.22931873090585,1846.0321004083789,461.20466987794498,-820.05912205241657,2266.9564105530376,-2428.4373086215251,837.77473446688839,-837.77473446688839,2428.4373086215251,4463.3297144794096,0.0
513296.95196600363,3675566.251970998,-37500.0,-1824.1309567625353,1336.5924689068218,-500.59320427155427,-1260.4826396313517,689.74025750629346,-602.9733918355779,1872.12624610937,-145.77374391135004,389.66277281775331,-389.66277281775331,145.77374391135004,3630.4052733065955,0.0
518296.95196600363,3675566.251970998,-37500.0,-1867.9514444297467,1506.2771099018262,-601.47738900233605,-1392.8228604550573,809.15422234438734,-702.85664885542553,2075.6338634612357,-38.417918519742102,348.62260046028467,-348.62260046028467,38.417918519742102,4009.5524075526441,0.0
523296.95196600363,3675566.251970998,-37500.0,-1883.3557019163468,1695.9687347233216,-727.05446357208893,-1532.2547170429384,950.49229493423695,-818.53529252255214,2303.2817405800301,105.48813584898097,282.05155006050148,-282.05155006050148,-105.48813584898097,4429.7033884254452,0.0
528296.95196600363,3675566.251970998,-37500.0,-1857.721196189199,1905.7848532854448,-883.78666061236993,-1674.8108435035419,1117.0956777414694,-951.1133003481591,2557.2255944133003,295.3746847447656,180.9696527148904,-180.9696527148904,-295.3746847447656,4893.0807965614213,0.0
533296.95196600363,3675566.251970998,-37500.0,-1774.4931439218487,2134.2696667668793,-1079.7158491420505,-1813.8068904574027,1312.1347743463996,-1100.6927506753184,2839.3738557236252,542.44923566490252,33.743141248287969,-33.743141248287969,-542.44923566490252,5400.8037903669892,0.0
538296.95196600363,3675566.251970998,-37500.0,-1612.3445118866291,2377.3714316445707,-1324.6762049755728,-1938.6149629561223,1537.9861345397189,-1265.4856761405495,3151.159629306132,859.59483355347015,-174.46539230424713,174.46539230424713,-859.59483355347015,5952.2984265425257,0.0
543296.95196600363,3675566.251970998,-37500.0,-1344.4322830629837,2626.9330698259259,-1630.3576204275494,-2033.0085268316755,1795.1147139877555,-1440.3986976751216,3493.2703623662951,1260.853156266812,-462.15768899006406,462.15768899006406,-1260.853156266812,6544.65714926909,0.0
548296.95196600363,3675566.251970998,-37500.0,-938.06058193935098,2868.5286510643336,-2010.0036305980766,-2073.0031358423448,2080.1474156620534,-1614.8240651511205,3865.3982815784616,1760.1388832928328,-851.62621453947304,851.62621453947304,-1760.1388832928328,7172.1722290102443,0.0
553296.95196600363,3675566.251970998,-37500.0,-355.38295838123406,3078.4982312822685,-2477.3398305337791,-2024.193465119286,2382.6533322363844,-1769.2522685742924,4266.1977586153052,2368.6013414102404,-1368.2527449389668,1368.2527449389668,-2368.6013414102404,7826.6340167444887,0.0
558296.95196600363,3675566.251970998,-37500.0,443.62642637085065,3220.1877254586288,-3044.0067883668298,-1838.8184754620731,2679.9098595499222,-1870.147234992382,4693.909704828744,3089.7049130970272,-2038.0313654720476,2038.0313654720476,-3089.7049130970272,8499.7575146840518,0.0
563296.95196600363,3675566.251970998,-37500.0,1493.6551836362421,3239.9347990339875,-3714.2904573050259,-1453.4310866015733,2928.6795627110305,-1862.3148113813261,5148.7311825482648,3910.6885505923874,-2881.604230623786,2881.604230623786,-3910.6885505923874,9190.6437924322472,0.0
568296.95196600363,3675566.251970998,-37500.0,2808.1484479139849,3064.7737456243053,-4475.3937751472422,-789.68718876094476,3053.0120294429762,-1657.9344406760572,5639.279356848263,4788.9087203488943,-3902.0136922717629,3902.0136922717629,-4788.9087203488943,9923.6565665983162,0.0
573296.95196600363,3675566.251970998,-37500.0,4349.8616377977087,2607.1079140014135,-5281.4860815721959,235.51320619227124,2928.2633290522463,-1122.414788718123,6197.5946865135611,5632.9076107352585,-5062.570695647747,5062.570695647747,-5632.9076107352585,10783.546907616408,0.0
578296.95196600363,3675566.251970998,-37500.0,5985.2032505762872,1787.4862325730101,-6032.2157085260496,1677.621103641334,2366.4191504316082,-62.026308276041803,6907.5070215087326,6284.0446536591844,-6253.2358331802607,6253.2358331802607,-6284.0446536591844,11964.264716609381,0.0
583296.95196600363,3675566.251970998,-37500.0,7435.3796672972649,592.58776391779145,-6555.4540831659306,3490.5516151823235,1121.1228154878802,1767.4791719470873,7934.3910928852965,6520.3242138865389,-7255.2070133464113,7255.2070133464113,-6520.3242138865389,13782.088126423072,0.0
588296.95196600363,3675566.251970998,-37500.0,8278.2398546396435,-822.71588411487437,-6623.6548455550437,5404.3706016768538,-1045.3964703467859,4585.0354261128232,9479.0188632921854,6128.6141802517068,-7742.4639301795742,7742.4639301795742,-6128.6141802517068,16540.897542931383,0.0
593296.95196600363,3675566.251970998,-37500.0,8103.7985738649459,-2034.3247705547565,-6052.1039089739152,6817.6642630949873,-4178.9236933854918,8379.9396367878453,11564.113818049114,5090.7799489173522,-7395.2750780163515,7395.2750780163515,-5090.7799489173522,20214.404133762186,0.0
598296.95196600363,3675566.251970998,-37500.0,6872.8792615612711,-2400.6248799815808,-4892.6458165658905,6899.1200980357135,-7853.1819977502646,12604.113180584285,13828.124201995543,3817.5639480313089,-6168.7808537208166,6168.7808537208166,-3817.5639480313089,24162.068936565935,0.0
603296.95196600363,3675566.251970998,-37500.0,5230.4027045220237,-1433.7663427963614,-3588.8383366078042,5092.9043031680121,-11032.867307244456,16043.113541778859,15581.304507216337,3134.4402873574663,-4552.7591855522469,4552.7591855522469,-3134.4402873574663,27188.346675224017,0.0
608296.95196600363,3675566.251970998,-37500.0,4247.1718865570683,675.07590474326275,-2829.1375294619938,1774.7674019900221,-12449.739173967213,17287.826798094386,16122.423474346806,3740.2464042489701,-3434.0910606962152,3434.0910606962152,-3740.2464042489701,28075.205102350457,0.0
613296.95196600363,3675566.251970998,-37500.0,4557.2053848888963,2976.0014745923504,-3072.9957189836514,-1724.1658972594516,-11419.024315467221,15680.002381770148,15159.095859972624,5508.1019357826117,-3467.1124724045826,3467.1124724045826,-5508.1019357826117,26333.934518961694,0.0
618296.95196600363,3675566.251970998,-37500.0,5805.5385529938194,4388.0030428149785,-4196.8864775966931,-3994.2038867110473,-8334.9144045886478,11809.87271833028,13028.395578277295,7474.5012965681381,-4559.441863910095,4559.441863910095,-7474.5012965681381,22587.508454488136,0.0
623296.95196600363,3675566.251970998,-37500.0,7042.456391004599,4405.9792168627937,-5629.5222690671953,-4435.31546645651,-4334.9398530544386,7030.1841810687856,10550.679977973485,8583.1286178874743,-6026.8640020287257,6026.8640020287257,-8583.1286178874743,18277.111905716316,0.0
628296.95196600363,3675566.251970998,-37500.0,7487.9631435084402,3238.849934735656,-6768.0034186525518,-3350.8061855475185,-569.1086047098479,2598.0274393315312,8631.9703056484122,8348.0548411607651,-7141.1558174192569,7141.1558174192569,-8348.0548411607651,14951.892880600753,0.0
633296.95196600363,3675566.251970998,-37500.0,6906.2353221734475,1474.0230837367537,-7276.8306203241264,-1470.4929650512918,2272.4769262696655,-792.98429051986227,7738.5438406581816,6933.8879893057883,-7512.3416826132807,7512.3416826132807,-6933.8879893057883,13406.585608474752,0.0
638296.95196600363,3675566.251970998,-37500.0,5513.9811364210345,-311.09637280786723,-7133.6069736288573,520.53007427145417,4012.2816246729581,-2995.5366930156074,7572.0453478229074,4852.2984894578203,-7133.8439435280361,7133.8439435280361,-4852.2984894578203,13196.473438399567,0.0
643296.95196600363,3675566.251970998,-37500.0,3712.1796663226787,-1755.0493799762896,-6511.9333029548625,2196.7139055420039,4804.7373192209816,-4182.3370540015167,7560.5946755700807,2631.8619981392108,-6228.6718333236495,6228.6718333236495,-2631.8619981392108,13383.392787951692,0.0
648296.95196600363,3675566.251970998,-37500.0,1869.1118017349797,-2729.8076188982845,-5637.5889211467984,3393.1491232150011,4928.2309124387866,-4633.1958059546596,7427.2298063178905,638.37032788086526,-5072.6596319734645,5072.6596319734645,-638.37032788086526,13400.671414281835,0.0
653296.95196600363,3675566.251970998,-37500.0,225.71613472926205,-3263.2504781101748,-4697.4410403858446,4115.7851171324628,4649.9321338755708,-4611.695140404946,7129.0540409034311,-953.73378727304748,-3887.2287364854383,3887.2287364854383,953.73378727304748,13094.035564956856,0.0
658296.95196600363,3675566.251970998,-37500.0,-1105.9164085050754,-3452.3081999448468,-3810.2894576168082,4449.751274188261,4171.2963687103784,-4319.9364580009051,6704.9765899688055,-2111.5350664552702,-2807.9750826980448,2807.9750826980448,2111.5350664552702,12502.277567773412,0.0
663296.95196600363,3675566.251970998,-37500.0,-2104.7386821554651,-3404.9328683668409,-3034.623861042397,4499.3706673215484,3623.4245769160057,-3896.0530726557331,6207.5318883150412,-2879.9425349935409,-1896.7521539362776,1896.7521539362776,2879.9425349935409,11717.896854938863,0.0
668296.95196600363,3675566.251970998,-37500.0,-2800.181487192327,-3212.8392852271654,-2388.1847861254896,4358.9457799314105,3082.1804344383108,-3427.2165526282784,5680.8035583618694,-3333.9095034832053,-1166.7158054047466,1166.7158054047466,3333.9095034832053,10830.004297318384,0.0
673296.95196600363,3675566.251970998,-37500.0,-3242.7722921837812,-2943.9993740694704,-1865.9533712215391,4102.9260829577579,2586.1365117745454,-2964.5694812809747,5156.0834137340407,-3551.0439682597084,-604.60827130478128,604.60827130478128,3551.0439682597084,9907.4569236513853,0.0
678296.95196600363,3675566.251970998,-37500.0,-3486.8562094945946,-2644.452453314419,-1452.5885806708529,3785.5300929280529,2151.0232975486829,-2535.4491470127846,4653.3424442751093,-3599.1909252800992,-185.90761077386151,185.90761077386151,3599.1909252800992,8997.7112568633111,0.0
683296.95196600363,3675566.251970998,-37500.0,-3582.0662297624363,-2343.1419307866049,-1129.7124865879628,3443.9577800430352,1779.67228708672,-2152.230708331002,4184.0220651408008,-3532.6470227038626,116.42158771261461,-116.42158771261461,3532.6470227038626,8130.6324631460338,0.0
688296.95196600363,3675566.251970998,-37500.0,-3570.0402760374627,-2056.8602581012346,-879.62109841159952,3102.3661567477257,1468.2829364160373,-1818.3433128610729,3753.635119586198,-3392.5346348248913,327.55731230089805,-327.55731230089805,3392.5346348248913,7323.0876356084163,0.0
693296.95196600363,3675566.251970998,-37500.0,-3483.9131540255412,-1794.2828108309818,-686.85783336480097,2775.4748969163788,1210.133462492237,-1532.2021082703102,3363.798317888803,-3208.7921861900168,469.05269411230097,-469.05269411230097,3208.7921861900168,6582.9366414342312,0.0
698296.95196600363,3675566.251970998,-37500.0,-3349.0932308724582,-1558.9330022954866,-538.6412345396833,2471.463956212584,997.65488052755677,-1289.6894663420949,3013.703645383513,-3002.5209111774043,558.45928246783023,-558.45928246783023,3002.5209111774043,5912.11410810096,0.0
703296.95196600363,3675566.251970998,-37500.0,-3184.5058380086821,-1351.2299323703135,-424.74274645491613,2194.1507675999219,823.50841832867138,-1085.6574249437635,2701.1337304129802,-2788.1419077492474,609.61153334436676,-609.61153334436676,2788.1419077492474,5308.8596426951935,0.0
708296.95196600363,3675566.251970998,-37500.0,-3003.8929135379112,-1169.8439824846157,-337.14567316337354,1944.557285121175,681.08359798451806,-914.79302364736168,2423.1404380137265,-2575.1808594921094,633.16651953011774,-633.16651953011774,2575.1808594921094,4769.2679066607325,0.0
513296.95196600363,3680566.251970998,-37500.0,-1410.5073893152162,1352.6310709252737,-639.4160417168888,-1048.5451190385845,713.29698226170069,-518.8195192513549,1727.6680061626957,154.84196823713577,150.39124118136451,-150.39124118136451,-154.84196823713577,3318.9858570627621,0.0
518296.95196600363,3680566.251970998,-37500.0,-1390.506211295447,1506.5433895691831,-761.34838267894656,-1136.142730451751,828.87069475100134,-596.22884467984966,1905.4748858306148,296.45291837421752,70.71896707414129,-70.71896707414129,-296.45291837421752,3642.7393588916088,0.0
523296.95196600363,3680566.251970998,-37500.0,-1332.9733607707672,1673.0637037815497,-910.23101217367173,-1220.74649057341,962.91759985521776,-682.89273394874249,2102.4987070369543,475.94050531194364,-40.011178578131535,40.011178578131535,-475.94050531194364,3997.0267286465441,0.0
528296.95196600363,3680566.251970998,-37500.0,-1224.9790592834129,1849.6507713226986,-1091.9943744088373,-1296.2593864618489,1117.0452126197811,-777.96018579834026,2320.0843065143745,701.05210351033293,-190.7805083578159,190.7805083578159,-701.05210351033293,4382.4563061467334,0.0
533296.95196600363,3680566.251970998,-37500.0,-1050.408600994642,2031.3828122261425,-1313.491918233736,-1353.6259553884925,1291.9284254461243,-879.04133436929362,2559.3497843980595,980.16391790710679,-392.57797182343222,392.57797182343222,-980.16391790710679,4798.6830152662578,0.0
538296.95196600363,3680566.251970998,-37500.0,-789.6995316317898,2209.7931704998437,-1582.2852923033763,-1379.769086692884,1486.3915714509637,-981.23213027764211,2821.1142355114703,1321.6283115049584,-658.45711381283422,658.45711381283422,-1321.6283115049584,5244.2345859006764,0.0
543296.95196600363,3680566.251970998,-37500.0,-419.99146441210098,2371.2981125265924,-1906.0538991045298,-1356.29884890331,1695.9180469322439,-1075.6586760492087,3105.9254478424523,1732.509071082213,-1003.22250834178,1003.22250834178,-1732.509071082213,5716.654320763485,0.0
548296.95196600363,3680566.251970998,-37500.0,83.876054944497071,2495.1880053049072,-2291.328896747616,-1258.0787808734988,1910.2989130276731,-1147.3566598537041,3414.356925040991,2216.3456447044005,-1442.381943457307,1442.381943457307,-2216.3456447044005,6213.4535109797962,0.0
553296.95196600363,3680566.251970998,-37500.0,746.77747055065879,2551.300023914494,-2741.0743859733097,-1051.9142959921285,2110.0367675364578,-1172.2677489603409,3747.9190908245837,2769.4537472864968,-1989.7518284726036,1989.7518284726036,-2769.4537472864968,6734.8520155563929,0.0
558296.95196600363,3680566.251970998,-37500.0,1587.9361586010805,2497.8582895737213,-3250.4152511967391,-696.00475042882454,2261.0622586943582,-1113.1408227629979,4111.2410346639217,3375.180296926108,-2652.7476930890289,2652.7476930890289,-3375.180296926108,7290.0661971276504,0.0
563296.95196600363,3680566.251970998,-37500.0,2611.0382967570522,2280.7759465413606,-3799.6319472513765,-141.55401199951763,2307.4401489450611,-914.26277397613421,4516.6399309770877,3995.6791792016684,-3423.9866738865258,3423.9866738865258,-3995.6791792016684,7909.7198075660335,0.0
568296.95196600363,3680566.251970998,-37500.0,3787.7850447663973,1837.3093035158061,-4343.7427707744755,660.64473550890534,2162.4360121644067,-495.49425536485433,4992.5800378660097,4561.6860999644041,-4267.702275050161,4267.702275050161,-4561.6860999644041,8666.2264427627742,0.0
573296.95196600363,3680566.251970998,-37500.0,5034.0257086410966,1109.5718404642785,-4799.4372705870092,1743.5695064253896,1700.4671444294663,252.24423811986506,5596.5777576960127,4963.5644028134247,-5100.6457939352094,5100.6457939352094,-4963.5644028134247,9696.8693678452692,0.0
578296.95196600363,3680566.251970998,-37500.0,6183.2503022323972,76.215229948967945,-5034.5289871559698,3089.9596635824769,757.66156637301287,1463.6743202083917,6426.8947921310064,5053.2601078467142,-5771.9769654447464,5771.9769654447464,-5053.2601078467142,11205.040808881062,0.0
583296.95196600363,3680566.251970998,-37500.0,6976.7535290793712,-1190.9876616301672,-4874.3605152513755,4575.9986563093616,-841.7920045455935,3273.5539380482428,7609.0754743688231,4676.9466298920161,-6058.5139753949916,6058.5139753949916,-4676.9466298920161,13396.866719325426,0.0
588296.95196600363,3680566.251970998,-37500.0,7112.3283546424082,-2456.2721832035263,-4151.2309125150141,5906.1596084533003,-3207.0145391549568,5745.6878385989394,9215.9035704615872,3763.4134759027929,-5709.733868056619,5709.733868056619,-3763.4134759027929,16338.45301900009,0.0
593296.95196600363,3680566.251970998,-37500.0,6398.2016820307417,-3290.270455863289,-2819.4477618044034,6598.3596662706714,-6234.8344613018498,8743.5833575190518,11138.941621788272,2465.8459168323752,-4580.8845233596403,4580.8845233596403,-2465.8459168323752,19793.861541495418,0.0
598296.95196600363,3680566.251970998,-37500.0,4984.2309564356765,-3185.4625492569994,-1104.9600221558571,6124.3167118685287,-9451.665078969123,11793.344239613662,13032.631732101236,1263.9677831518611,-2833.2733155588312,2833.2733155588312,-1263.9677831518611,23148.854409409385,0.0
603296.95196600363,3680566.251970998,-37500.0,3472.3878225943922,-1867.7352581586915,445.64171977925304,4246.5264575308629,-12011.571050769277,14095.665785179473,14396.83500634285,838.52604330264785,-1041.333832814069,1041.333832814069,-838.52604330264785,25525.809977038942,0.0
608296.95196600363,3680566.251970998,-37500.0,2651.9015974793733,378.91795284087812,1174.3731624095319,1344.8122169413998,-13016.110036611146,14836.760692284241,14777.717217588179,1644.0879586068995,14.908584129272754,-14.908584129272754,-1644.0879586068995,26129.887386354178,0.0
613296.95196600363,3680566.251970998,-37500.0,2946.954688791579,2737.9668433759284,712.75149122288155,-1647.713179178186,-12030.984037264197,13667.28923475683,14002.246922562364,3490.0492425759212,-166.97659423527421,166.97659423527421,-3490.0492425759212,24672.588769939663,0.0
618296.95196600363,3680566.251970998,-37500.0,4098.902338043109,4324.1746448441581,-769.58928747235109,-3763.023404373097,-9363.5131071722008,10932.247248185044,12290.47202296149,5591.9916829718368,-1471.7109640241356,1471.7109640241356,-5591.9916829718368,21570.060812743126,0.0
623296.95196600363,3680566.251970998,-37500.0,5404.1774738854401,4681.4679033026296,-2699.987344678063,-4518.2481979252789,-5846.9088816935364,7434.436173626148,10167.069981425235,7079.6212670229615,-3291.3768190499959,3291.3768190499959,-7079.6212670229615,17770.879124481704,0.0
628296.95196600363,3680566.251970998,-37500.0,6209.0635397023925,3910.7463658127181,-4457.6264740949082,-4022.3146662657823,-2369.9021635716431,3988.674893804176,8250.8386245333404,7470.6480944703817,-4938.7280133278346,4938.7280133278346,-7470.6480944703817,14362.881682467214,0.0
633296.95196600363,3680566.251970998,-37500.0,6213.5824401476539,2454.7694349417311,-5644.9294231378572,-2731.6060882413144,466.4716699544876,1126.8264238111076,7001.440606733102,6780.0639333766958,-5972.3216040052557,5972.3216040052557,-6780.0639333766958,12136.453999121301,0.0
638296.95196600363,3680566.251970998,-37500.0,5472.8322337814807,807.03636519563202,-6152.8782860807896,-1149.9105720483212,2429.6061709581995,-949.07657684433048,6452.8233585626367,5343.5285012952172,-6276.7204490169224,6276.7204490169224,-5343.5285012952172,11196.810686065277,0.0
643296.95196600363,3680566.251970998,-37500.0,4239.3896329163681,-671.82330621020014,-6080.666538983387,348.9402584769644,3561.6007311271965,-2270.5785414606462,6272.9664509864724,3579.4645647756652,-5970.4509338033995,5970.4509338033995,-3579.4645647756652,11021.539124181989,0.0
648296.95196600363,3680566.251970998,-37500.0,2801.8091293509488,-1801.4885612000348,-5616.1429753950943,1563.6159589289462,4040.5128132758541,-2982.2521253303294,6159.0769620199862,1829.7619537849844,-5268.9778756632677,5268.9778756632677,-1829.7619537849844,11030.654138131331,0.0
653296.95196600363,3680566.251970998,-37500.0,1389.3047554658483,-2545.3838897791643,-4945.6634320963922,2431.255952939996,4072.9917418838741,-3254.638585794979,5980.1733457053951,303.96372163951219,-4382.3927722160615,4382.3927722160615,-303.96372163951219,10918.632584534598,0.0
658296.95196600363,3680566.251970998,-37500.0,143.07410116735622,-2949.6987556421368,-4211.1153603151206,2972.6280571867155,3837.1779992572206,-3239.1121036824434,5712.2196940116401,-908.10606952086323,-3467.5272847785136,3467.5272847785136,908.10606952086323,10604.479987298539,0.0
663296.95196600363,3680566.251970998,-37500.0,-873.07105638865937,-3092.664993515385,-3502.2400249917605,3246.2465503857015,3464.3152295074137,-3052.5032954344888,5373.2202424856878,-1797.9401018371777,-2620.3515210242699,2620.3515210242699,1797.9401018371777,10111.620990236735,0.0
668296.95196600363,3680566.251970998,-37500.0,-1648.6296189765524,-3053.8434872612443,-2866.0655910845744,3319.3919388829372,3041.1231044383949,-2777.2909037409063,4991.1488663532227,-2400.886376621072,-1887.6542560506673,1887.6542560506673,2400.886376621072,9495.2731223690807,0.0
673296.95196600363,3680566.251970998,-37500.0,-2203.4735496305329,-2900.1462774261772,-2320.5960968253862,3253.4091330986907,2619.7336817118435,-2467.7927188649178,4591.457389074707,-2769.4863529950908,-1283.2944685597276,1283.2944685597276,2769.4863529950908,8810.6864955346227,0.0
678296.95196600363,3680566.251970998,-37500.0,-2571.1420955028079,-2682.1041608547566,-1866.6831786054481,3098.1331161665858,2228.2779900288906,-2157.4461654532706,4193.4724645017559,-2957.8843994447589,-802.13882842160137,802.13882842160137,2957.8843994447589,8102.3439762427506,0.0
683296.95196600363,3680566.251970998,-37500.0,-2788.4868594332288,-2435.1003174521779,-1496.4185341093432,2891.1838173860779,1879.5047836792164,-1865.1928724981874,3810.3317701583564,-3014.2725912228443,-429.84757625053476,429.84757625053476,3014.2725912228443,7402.1983484412594,0.0
688296.95196600363,3680566.251970998,-37500.0,-2890.0975841305162,-2182.3710687597954,-1198.3628751947949,2659.4245430260808,1576.9657717437715,-1600.4271504677599,3450.0858295122425,-2978.2057998702876,-148.92004287209875,148.92004287209875,2978.2057998702876,6731.2514585586741,0.0
693296.95196600363,3680566.251970998,-37500.0,-2905.8237463292949,-1938.1842809889217,-960.4831806747012,2421.1088450692005,1319.1268983922077,-1366.5691153039932,3116.9984272486363,-2880.4872790156692,57.966072898774655,-57.966072898774655,2880.4872790156692,6102.0116865939472,0.0
698296.95196600363,3680566.251970998,-37500.0,-2860.0926050917205,-1710.5536782142858,-771.61849383900858,2188.0032094606445,1101.9473296480662,-1163.5161768230998,2812.6914199644566,-2744.2033912271245,206.35176057097397,-206.35176057097397,2744.2033912271245,5520.847696329969,0.0
703296.95196600363,3680566.251970998,-37500.0,-2772.1579840300483,-1503.3300663622751,-622.08146816268709,1967.1962130081654,920.41426324283896,-989.25278720676386,2537.0407763222693,-2586.1240764017466,309.40997046263647,-309.40997046263647,2586.1240764017466,4989.9169638267686,0.0
708296.95196600363,3680566.251970998,-37500.0,-2656.7663408366489,-1317.7154679868017,-503.78960962354614,1762.5291536043176,769.40412773294634,-840.86736252603794,2288.8396774232469,-2418.089428930939,377.90784966077933,-377.90784966077933,2418.089428930939,4508.6369347050058,0.0
518296.95196600363,3685566.251970998,-37500.0,-934.9535478583042,1440.7165588197047,-894.14676604974557,-886.52735352166485,814.68260327409916,-491.30565320044951,1737.620818892186,567.89407359607537,-187.11053562649059,187.11053562649059,-567.89407359607537,3279.6787787021799,0.0
523296.95196600363,3685566.251970998,-37500.0,-816.68035233624209,1572.8034322375702,-1056.1495274681479,-921.98087997620962,933.67278513763574,-551.03372526096007,1907.0617890203773,765.60262384061457,-331.63668013534675,331.63668013534675,-765.60262384061457,3574.6385191508643,0.0
528296.95196600363,3685566.251970998,-37500.0,-643.22157542142611,1703.7163548578633,-1249.216904259282,-938.986571340002,1065.9643527336491,-611.9805243221341,2092.915300414415,1004.0601429954825,-517.67569676427456,517.67569676427456,-1004.0601429954825,3892.1734125908242,0.0
533296.95196600363,3685566.251970998,-37500.0,-400.44022169465944,1825.5440034183578,-1477.902849407925,-927.40836176371397,1209.6399031294879,-669.99906060642331,2296.225454737878,1287.9137041776773,-754.18609270774823,754.18609270774823,-1287.9137041776773,4232.1301641424434,0.0
538296.95196600363,3685566.251970998,-37500.0,-72.414189824158669,1926.4075635820316,-1746.1549441391494,-873.53955711529818,1360.0951983618158,-718.19687387731733,2518.1995839454476,1620.1711237723075,-1050.7115263848241,1050.7115263848241,-1620.1711237723075,4594.5075702823142,0.0
543296.95196600363,3685566.251970998,-37500.0,357.60862676683985,1989.1531202189246,-2056.1491278133312,-759.3408637268609,1508.4092612594095,-745.63868044907019,2760.5992348423551,2000.4775622569828,-1416.3451232395614,1416.3451232395614,-2000.4775622569828,4980.5914230168373,0.0
548296.95196600363,3685566.251970998,-37500.0,905.17999269935603,1989.9600951284008,-2406.3051290909189,-561.88187030071629,1638.9720440916587,-735.59625604501127,3026.578302097279,2422.479379445097,-1857.7391024065921,1857.7391024065921,-2422.479379445097,5395.3980026915833,0.0
553296.95196600363,3685566.251970998,-37500.0,1580.9050758733456,1897.2369907062807,-2788.0935691393488,-253.40686782797553,1726.177947917065,-663.30338675300686,3322.3021375130857,2870.0318644492604,-2375.6179575608071,2375.6179575608071,-2870.0318644492604,5852.3429234650357,0.0
558296.95196600363,3685566.251970998,-37500.0,2384.1558653320703,1671.6338037478984,-3181.2160797675588,197.18390423312852,1730.1157159396075,-493.30157288761711,3659.7918049408408,3312.1882525636288,-2959.1200650291389,2959.1200650291389,-3312.1882525636288,6381.1150801070198,0.0
563296.95196600363,3685566.251970998,-37500.0,3293.4318104109311,1268.7889907705685,-3546.9472761878346,820.0639148038473,1591.5864287782197,-176.77136634876507,4061.3379931213985,3697.4822521520091,-3577.3634345043629,3577.3634345043629,-3697.4822521520091,7038.6095191465392,0.0
568296.95196600363,3685566.251970998,-37500.0,4253.2406882078058,647.60455118908885,-3820.2613654682314,1635.2464078482446,1227.7952640979063,350.06290475297527,4565.0587052574883,3949.4092368094875,-4168.3470516782745,4168.3470516782745,-3949.4092368094875,7918.7517582198116,0.0
573296.95196600363,3685566.251970998,-37500.0,5159.737017522214,-211.962019278773,-3903.5194923532854,2635.5392634706636,532.20139003570171,1163.9544044740599,5228.9074704303412,3967.7647162644066,-4627.5473060872728,4627.5473060872728,-3967.7647162644066,9149.688232622304,0.0
578296.95196600363,3685566.251970998,-37500.0,5852.8636313053175,-1277.9533570842586,-3668.7304391664447,3759.6084560718382,-614.30773714084876,2344.120672365591,6125.8065777299726,3644.6663392387109,-4803.5739565709137,4803.5739565709137,-3644.6663392387109,10862.724713780828,0.0
583296.95196600363,3685566.251970998,-37500.0,6131.7337191256956,-2424.4647031373761,-2981.1906521077503,4858.4583155958144,-2309.5181835492685,3945.3170212646996,7316.311454664683,2907.1976449823446,-4516.161410978325,4516.161410978325,-2907.1976449823446,13128.241321089205,0.0
588296.95196600363,3685566.251970998,-37500.0,5816.6372391010382,-3397.4901864163648,-1759.363223698638,5672.985073108759,-4562.547223057386,5947.1344166861845,8789.9906167223962,1792.2424998743986,-3617.326130629926,3617.326130629926,-1792.2424998743986,15875.423405720392,0.0
593296.95196600363,3685566.251970998,-37500.0,4866.6614851997601,-3833.321607223761,-70.656490739565086,5861.602731999933,-7200.2226049405981,8185.4633487521278,10406.13348719755,529.50974651193053,-2103.3316408036408,2103.3316408036408,-529.50974651193053,18827.250855694158,0.0
598296.95196600363,3685566.251970998,-37500.0,3504.3104947586257,-3382.4450567464387,1782.3855864067027,5121.1239317258041,-9798.6856033994591,10305.745128373497,11889.968523139103,-442.87008096159991,-233.43411536670214,233.43411536670214,442.87008096159991,21493.704927124621,0.0
603296.95196600363,3685566.251970998,-37500.0,2222.8074908658514,-1929.9038845368652,3282.2366998582997,3386.1409535882376,-11735.051313652648,11810.638086289413,12900.288937998286,-623.79254390194365,1458.5033816901041,-1458.5033816901041,623.79254390194365,23272.236348861697,0.0
608296.95196600363,3685566.251970998,-37500.0,1574.0537694150262,228.68553918918766,3892.4966262842363,976.37121460575111,-12414.880871440522,12242.715785228536,13151.985936719993,257.76975164152736,2360.3315095003231,-2360.3315095003231,-257.76975164152736,23661.475817774564,0.0
613296.95196600363,3685566.251970998,-37500.0,1834.0392495500862,2448.5617060300297,3345.3033775445915,-1476.8226932813598,-11573.253761886819,11417.624500666871,12544.661470102028,2009.2190411759482,2112.1092114529574,-2112.1092114529574,-2009.2190411759482,22494.347821627565,0.0
618296.95196600363,3685566.251970998,-37500.0,2824.6003335850414,4048.6380498157723,1799.6372345901079,-3325.1276236178251,-9423.4182521724033,9529.2695054607902,11220.570915122189,4033.6489312724952,816.47939103584054,-816.47939103584054,-4033.6489312724952,20040.495067042597,0.0
623296.95196600363,3685566.251970998,-37500.0,4048.8820880109461,4640.3452354637639,-259.80130407267893,-4199.5555557188673,-6533.2101917453265,7040.5129671679169,9515.5475657873267,5654.4624327998399,-1045.4148534981841,1045.4148534981841,-5654.4624327998399,16910.361223603915,0.0
628296.95196600363,3685566.251970998,-37500.0,4995.0387127446984,4237.9717889023086,-2281.2810500466016,-4101.9919817135815,-3545.6188349795111,4461.018324278275,7841.1670757069605,6436.5134799014595,-2894.2206713089236,2894.2206713089236,-6436.5134799014595,13835.417306064919,0.0
633296.95196600363,3685566.251970998,-37500.0,5361.2329476378636,3141.1625983796912,-3865.1094367230289,-3294.2880629378601,-946.98960399939244,2172.7984065731298,6546.3490754791383,6298.6780097178553,-4301.8950235977363,4301.8950235977363,-6298.6780097178553,11433.372063113962,0.0
638296.95196600363,3685566.251970998,-37500.0,5101.9729406254301,1736.9746636815044,-4842.1209554760844,-2121.8141444960343,1018.5564236437272,371.90231447143071,5768.4876094731071,5429.8659169178554,-5086.5608530551508,5086.5608530551508,-5429.8659169178554,9994.6088169484556,0.0
643296.95196600363,3685566.251970998,-37500.0,4350.5394301900806,350.03127090254554,-5234.8646054795136,-882.68911956624049,2315.5312232325218,-902.58518789377433,5388.6490837892507,4132.8271053716262,-5274.2180221398239,5274.2180221398239,-4132.8271053716262,9376.1403210819317,0.0
648296.95196600363,3685566.251970998,-37500.0,3310.5637894209085,-819.05377642026554,-5172.0514448128652,226.86591536869872,3035.1913799436729,-1707.7870529751633,5195.0543390394851,2696.3920691530939,-5006.0974024898815,5006.0974024898815,-2696.3920691530939,9185.5309546220433,0.0
653296.95196600363,3685566.251970998,-37500.0,2174.7963943571376,-1687.917974379259,-4811.2666659429769,1110.9953749174131,3318.6460119239487,-2141.8612016424481,5037.3160633690186,1331.0337632620112,-4453.8945674263732,4453.8945674263732,-1331.0337632620112,9086.9431163374011,0.0
658296.95196600363,3685566.251970998,-37500.0,1085.8329360661953,-2256.5218288299247,-4291.9731774874917,1747.2834032914707,3306.5081559620612,-2307.7371611259823,4848.406607179907,157.42170255633437,-3768.0939021017298,3768.0939021017298,-157.42170255633437,8911.8355744830442,0.0
663296.95196600363,3685566.251970998,-37500.0,129.13551680356116,-2568.6659363427489,-3717.1390188546447,2156.4088738774249,3114.8945357782777,-2294.7870796232264,4612.9535962942246,-776.68225374346935,-3057.9180635932498,3057.9180635932498,776.68225374346935,8613.843072446638,0.0
668296.95196600363,3685566.251970998,-37500.0,-657.15260657471867,-2683.4416582669478,-3152.8314317660197,2378.4356719975558,2829.1926257250316,-2172.6332970735189,4338.6615317909245,-1471.5296750513776,-2391.2166087243754,2391.2166087243754,1471.5296750513776,8205.448210204504,0.0
673296.95196600363,3685566.251970998,-37500.0,-1267.4395583171495,-2658.5014181854258,-2635.6877009746386,2457.7510870962578,2506.923294211414,-1991.5298313603596,4040.3238605837214,-1953.4197809534871,-1803.0997083401589,1803.0997083401589,1953.4197809534871,7719.0788525071675,0.0
678296.95196600363,3685566.251970998,-37500.0,-1715.232085230643,-2542.4109304045392,-2181.9472589425418,2435.0724092667215,2183.840001288057,-1785.5265127116545,3732.5550019689872,-2259.1993097637851,-1306.267876652367,1306.267876652367,2259.1993097637851,7188.7218105787078,0.0
683296.95196600363,3685566.251970998,-37500.0,-2023.1656736408459,-2372.5676413591518,-1795.1729850214604,2344.1431578585866,1880.1938359391816,-1576.3024748272087,3427.1354712159714,-2426.9110196527463,-899.81383880653732,899.81383880653732,2426.9110196527463,6642.8476948192656,0.0
688296.95196600363,3685566.251970998,-37500.0,-2216.5541533444348,-2175.9452667369737,-1471.876087022169,2211.1156555486928,1605.9320251483343,-1376.6781256172526,3132.5028130777187,-2490.9820146015318,-575.60791418875226,575.60791418875226,2490.9820146015318,6102.6931476576565,0.0
693296.95196600363,3685566.251970998,-37500.0,-2319.6966302981468,-1970.9422994919912,-1205.2088111947046,2055.2527645028895,1364.5608497930484,-1193.4522897522352,2854.1118021448892,-2480.3012775983102,-322.45617870465639,322.45617870465639,2480.3012775983102,5582.7802370148402,0.0
698296.95196600363,3685566.251970998,-37500.0,-2354.0641680116642,-1769.4139074291045,-987.19267193692622,1890.1247069516319,1155.8165273969514,-1029.5213273699749,2595.052512688475,-2417.9243014074978,-128.56994738179537,128.56994738179537,2417.9243014074978,5092.1702696574457,0.0
703296.95196600363,3685566.251970998,-37500.0,-2337.6579275041199,-1578.4850351393738,-809.95546125907254,1724.8778740905689,977.42105305949997,-885.38492066346782,2356.6787738526868,-2321.5895579334419,17.111188223452473,-17.111188223452473,2321.5895579334419,4635.821659911855,0.0
708296.95196600363,3685566.251970998,-37500.0,-2285.0224625332726,-1402.0022654468487,-666.33833436033103,1565.3659578942379,826.17808170365447,-760.16618240211085,2139.137350376559,-2204.5483493525244,124.31909547784994,-124.31909547784994,2204.5483493525244,4215.7701306974286,0.0
518296.95196600363,3690566.251970998,-37500.0,-519.05567922878254,1321.6428156483494,-991.46599369306546,-653.2572925340985,772.11077381210566,-391.84158765031594,1577.6369442351709,771.37982625582447,-411.31837588454448,411.31837588454448,-771.37982625582447,2934.0026904617976,0.0
523296.95196600363,3690566.251970998,-37500.0,-354.92056252027885,1412.8293313603533,-1155.5965092593708,-647.32011556903092,870.72564768855273,-427.80530334779968,1723.7024673541505,971.25493347950612,-577.26126721365392,577.26126721365392,-971.25493347950612,3179.2855665404486,0.0
528296.95196600363,3690566.251970998,-37500.0,-135.45961426146366,1492.0891874841095,-1345.8686838911517,-616.72702594660313,975.31492981928295,-459.38390130185149,1883.7280672129925,1203.7582782353588,-782.31263337849498,782.31263337849498,-1203.7582782353588,3442.6299402454488,0.0
533296.95196600363,3690566.251970998,-37500.0,150.39871649328811,1549.4912008522206,-1563.8861051775382,-551.42357559778918,1081.6937304468036,-481.41758451391155,2059.2691437520389,1469.6207759846384,-1032.4508739451921,1032.4508739451921,-1469.6207759846384,3725.5882752020316,0.0
538296.95196600363,3690566.251970998,-37500.0,513.83872936376611,1571.2961671313765,-1809.4003123006923,-438.57996758335253,1182.5105258330475,-486.0951009279143,2252.6204747763363,1766.7123888565286,-1332.7441538309079,1332.7441538309079,-1766.7123888565286,4031.5242186548262,0.0
543296.95196600363,3690566.251970998,-37500.0,964.64912643314472,1539.1456495713826,-2078.7969060427422,-262.37457875483898,1265.7126799585922,-461.93031164883763,2467.4759181464051,2088.2217480489826,-1685.8184207557126,1685.8184207557126,-2088.2217480489826,4367.5496711596797,0.0
548296.95196600363,3690566.251970998,-37500.0,1508.6525987477144,1429.5307926752796,-2362.8179898998665,-4.2224356730217378,1312.4984168213091,-392.50705091365251,2710.027749786429,2420.1840958605258,-2089.3764634621471,2089.3764634621471,-2420.1840958605258,4747.7461489912275,0.0
553296.95196600363,3690566.251970998,-37500.0,2143.6690106045685,1214.0594618716977,-2643.3303652294799,356.10407598188556,1294.7654948193865,-255.07891558566496,2990.6404916688271,2738.4038110498955,-2532.435607169858,2532.435607169858,-2738.4038110498955,5197.889412211428,0.0
558296.95196600363,3690566.251970998,-37500.0,2853.6803090971257,861.44151223521828,-2889.1086053685854,837.75614040235109,1172.2960964041663,-19.279606667832034,3326.0752065219481,3005.1641683582275,-2990.0497642238843,2990.0497642238843,-3005.1641683582275,5761.0160336548552,0.0
563296.95196600363,3690566.251970998,-37500.0,3601.2719823030798,342.65522682952729,-3051.0816008132215,1453.4816700815472,890.41675834423393,353.48231876232376,3741.7920989866589,3166.838108085738,-3416.7117405623248,3416.7117405623248,-3166.838108085738,6501.1607738749062,0.0
568296.95196600363,3690566.251970998,-37500.0,4319.5355711491948,-358.73749202709575,-3058.5680148834576,2200.4943670285097,379.81006127187612,908.82508051493573,4273.018606424308,3154.7838038049176,-3739.7416546438935,3739.7416546438935,-3154.7838038049176,7500.0102977091292,0.0
573296.95196600363,3690566.251970998,-37500.0,4906.9171269654171,-1229.2903030489649,-2819.993496354843,3046.7126442204599,-438.34547991946494,1694.446214349704,4962.1467638396225,2893.7050873535536,-3856.2014654553241,3856.2014654553241,-2893.7050873535536,8840.8098927389346,0.0
578296.95196600363,3690566.251970998,-37500.0,5232.1597199383559,-2201.6959097993499,-2234.307977846111,3913.4379308921089,-1636.9628976801309,2748.5543372291227,5848.6615778979613,2323.1455500690176,-3640.3445739915937,3640.3445739915937,-2323.1455500690176,10578.232496721748,0.0
583296.95196600363,3690566.251970998,-37500.0,5160.0016962953487,-3130.6959844739335,-1221.1349009244227,4660.3451111650766,-3251.9229976118331,4078.6960911433011,6946.4821604670742,1436.2645134216632,-2971.8041479813396,2971.8041479813396,-1436.2645134216632,12699.346383517957,0.0
588296.95196600363,3690566.251970998,-37500.0,4606.2466949465515,-3786.6191429658625,226.07523990611,5086.695981086642,-5234.3222378323471,5630.994815255307,8209.5189752064434,330.53566832937076,-1792.487996937175,1792.487996937175,-330.53566832937076,15085.020803195615,0.0
593296.95196600363,3690566.251970998,-37500.0,3614.0921695442235,-3894.4191118426556,1975.6339719056623,4969.1760581145663,-7399.4688277097239,7258.9868944517166,9507.2164138351654,-755.75503034900271,-183.84736327213341,183.84736327213341,755.75503034900271,17486.447895585847,0.0
598296.95196600363,3690566.251970998,-37500.0,2409.7808903528576,-3237.1553121717957,3721.6285623612152,4148.1691470387432,-9408.2958182055918,8715.516819207669,10636.139132805118,-1468.8960165250903,1576.6947627143429,-1576.6947627143429,1468.8960165250903,19540.179653517243,0.0
603296.95196600363,3690566.251970998,-37500.0,1370.4465515983891,-1796.3432947509468,5032.667561387042,2637.5470408770061,-10826.740785094322,9697.1151028051354,11369.085326466549,-1463.5063003816183,3047.1251101982461,-3047.1251101982461,1463.5063003816183,20843.623253542049,0.0
608296.95196600363,3690566.251970998,-37500.0,872.53723326099805,162.0067556696917,5505.8479296014575,685.52456347809346,-11273.497694414851,9946.1457118172966,11528.449148903705,-588.86484526993695,3775.649024988882,-3775.649024988882,588.86484526993695,21083.664595103608,0.0
613296.95196600363,3690566.251970998,-37500.0,1093.7670412692814,2150.2599309718535,4956.1998694245322,-1284.53653458249,-10589.250759767116,9364.085564795203,11056.466148642594,985.99213594728121,3513.4169434030082,-3513.4169434030082,-985.99213594728121,20164.093251767299,0.0
618296.95196600363,3690566.251970998,-37500.0,1913.5918347901047,3661.3383094755714,3512.7661341818498,-2840.6836483358452,-8915.3105139059717,8060.4392684968489,10045.5127896503,2821.8208487857005,2340.6426271693595,-2340.6426271693595,-2821.8208487857005,18258.809968669695,0.0
623296.95196600363,3690566.251970998,-37500.0,2989.000311523675,4379.1908467828616,1551.5525211820793,-3710.6006363798992,-6626.0190746932903,6302.4045109897224,8711.661840096971,4410.6374090251193,614.73673700813652,-614.73673700813652,-4410.6374090251193,15759.370040847938,0.0
628296.95196600363,3690566.251970998,-37500.0,3936.3214876667321,4266.1505624709243,-477.84208028312713,-3849.755873320607,-4168.9805014462645,4404.9026228811208,7328.3993723265394,5386.2026958926317,-1208.784582697338,1208.784582697338,-5386.2026958926317,13152.033304490096,0.0
633296.95196600363,3690566.251970998,-37500.0,4487.4408745590472,3507.3494464606933,-2214.5719176645384,-3396.9600563339777,-1916.5328337679634,2631.1681452149305,6145.105011896203,5621.6516640753243,-2754.2495734750855,2754.2495734750855,-5621.6516640753243,10884.106207465873,0.0
638296.95196600363,3690566.251970998,-37500.0,4547.5807045148604,2386.0910807976147,-3463.8383879097069,-2576.5583330048212,-92.249551283569289,1144.5569346581185,5302.09701625454,5200.7933599997259,-3815.6686161560906,3815.6686161560906,-5200.7933599997259,9247.817983596,0.0
643296.95196600363,3690566.251970998,-37500.0,4166.6933693654564,1171.713549206203,-4189.215530767935,-1610.1483901195113,1227.8101053402022,9.2227919400859015,4788.3501644486696,4324.4603868712647,-4353.6908225333491,4353.6908225333491,-4324.4603868712647,8293.6936374968027,0.0
648296.95196600363,3690566.251970998,-37500.0,3473.8763546904006,58.289755640304222,-4459.8075959706985,-666.59963017135169,2072.8718509830242,-783.13140105528907,4494.6046816005528,3217.1025811208729,-4441.3775765620703,4441.3775765620703,-3217.1025811208729,7843.8098760310322,0.0
653296.95196600363,3690566.251970998,-37500.0,2616.1210618257332,-848.08670845794541,-4391.5817094314316,151.3020573548709,2527.4825500867951,-1281.467473876751,4303.3100246654267,2066.8513784069746,-4201.8561164775792,4201.8561164775792,-2066.8513784069746,7640.4768697320596,0.0
658296.95196600363,3690566.251970998,-37500.0,1719.6349578085908,-1513.294893528632,-4104.2271379452486,797.92675845281826,2692.3380470690267,-1549.9167929679811,4136.2297138334388,1002.1649824201581,-3761.8493666078907,3761.8493666078907,-1002.1649824201581,7489.4738112167943,0.0
663296.95196600363,3690566.251970998,-37500.0,874.09492829622889,-1949.830873412425,-3698.0569529414452,1267.5625090522065,2660.7892737164643,-1651.6346408946904,3956.3680282442315,93.508340700928557,-3226.6336782696935,3226.6336782696935,-93.508340700928557,7293.8965996023953,0.0
668296.95196600363,3690566.251970998,-37500.0,132.39368147160869,-2193.83156227068,-3246.5040908891365,1577.5798881779167,2508.4553036540556,-1640.7073251850959,3753.3900605128715,-633.33010005523295,-2671.931241252621,2671.931241252621,633.33010005523295,7025.0779360228016,0.0
673296.95196600363,3690566.251970998,-37500.0,-482.12821499739215,-2288.8703729190602,-2797.6322123308864,1755.6517993039522,2291.2056409496686,-1559.4972698546499,3530.1671853518174,-1181.6768595743442,-2145.6858042045615,2145.6858042045615,1181.6768595743442,6688.8132601786947,0.0
678296.95196600363,3690566.251970998,-37500.0,-966.54674784917268,-2276.5302403903356,-2379.3965801221211,1831.5492694219438,2047.3786202882361,-1439.0414040663572,3294.4341001015282,-1570.8495948342795,-1673.9744689139059,1673.9744689139059,1570.8495948342795,6303.8557631465901,0.0
683296.95196600363,3690566.251970998,-37500.0,-1330.2144452887567,-2192.0224756444477,-2005.4999532438378,1832.6429205928964,1801.4996003378865,-1300.8143883275918,3054.5183449224955,-1826.8527918308555,-1267.5723262942101,1267.5723262942101,1826.8527918308555,5890.9726333979961,0.0
688296.95196600363,3690566.251970998,-37500.0,-1588.6397449217138,-2062.9569223831431,-1680.4114991297615,1781.945073815175,1568.042531364177,-1158.8652853991275,2817.5245803595203,-1976.6056366925245,-927.56632628167756,927.56632628167756,1976.6056366925245,5468.290406205726,0.0
693296.95196600363,3690566.251970998,-37500.0,-1759.3921899848369,-1909.7703149987651,-1403.1209094315273,1697.6636418859157,1354.594338754504,-1021.8067019897699,2588.7839463499076,-2044.8169134010163,-649.53889835412747,649.53889835412747,2044.8169134010163,5049.8328695091705,0.0
698296.95196600363,3690566.251970998,-37500.0,-1859.6469800095733,-1746.8666985974023,-1169.7157881550606,1593.5552953338361,1164.2761258306066,-894.4622307603762,2371.9050173742098,-2052.6207414055621,-426.41287831044428,426.41287831044428,2052.6207414055621,4645.5545958120438,0.0
703296.95196600363,3690566.251970998,-37500.0,-1904.8932349332506,-1583.9189959258656,-975.02619142370941,1479.6120646988488,997.47318861376323,-779.128603360851,2169.0513110513098,-2017.2569602314534,-250.23690125969097,250.23690125969097,2017.2569602314534,4261.9478321112965,0.0
518296.95196600363,3695566.251970998,-37500.0,-154.7476358248349,1163.9913007811913,-1049.2927276607004,-442.97527203311734,707.72269823939621,-300.62577224424382,1429.8937132193068,908.22346966393661,-593.34743109013084,593.34743109013084,-908.22346966393661,2616.6619104622127,0.0
523296.95196600363,3695566.251970998,-37500.0,39.744475100096288,1212.3939271331778,-1205.2613142531427,-404.37331348924283,783.12636114094164,-316.61513671302515,1557.3626968658982,1097.0029929820307,-768.13549611183316,768.13549611183316,-1097.0029929820307,2823.7338640233552,0.0
528296.95196600363,3695566.251970998,-37500.0,285.8825929502791,1239.8592850414957,-1380.2325993450827,-337.89289247721837,857.51658561635998,-324.23600723475789,1697.8658931708171,1308.5508697296275,-976.52491547278692,976.52491547278692,-1308.5508697296275,3048.266509954633,0.0
533296.95196600363,3695566.251970998,-37500.0,591.1640206872396,1235.5992302176414,-1572.7384687716615,-234.43489903334086,925.02803203439566,-317.96360471376795,1853.7960209640983,1540.1039160086129,-1221.1272701872126,1221.1272701872126,-1540.1039160086129,3294.5029382683056,0.0
538296.95196600363,3695566.251970998,-37500.0,961.7917287549526,1185.651575868121,-1778.5159281601907,-83.05354592613557,976.52595368074526,-289.9347598337493,2028.7664490123757,1785.3637647599433,-1502.4087515041549,1502.4087515041549,-1785.3637647599433,3569.986140438627,0.0
543296.95196600363,3695566.251970998,-37500.0,1400.9283298870937,1072.6471662509025,-1988.9225053223945,128.81116510066599,998.33729689489951,-229.23182252427523,2228.3255411586138,2032.8936244619083,-1816.9633956294776,1816.9633956294776,-2032.8936244619083,3887.6774437933664,0.0
548296.95196600363,3695566.251970998,-37500.0,1906.0858204326041,876.12720034954066,-2188.7934300425572,414.54932271184015,970.72582236143205,-121.11412623253364,2460.9178951607478,2264.2118190170049,-2155.0255236847734,2155.0255236847734,-2264.2118190170049,4268.6897995315967,0.0
553296.95196600363,3695566.251970998,-37500.0,2465.5134263668906,573.94149594941018,-2353.7703926065674,786.67021469255053,866.26985178968653,53.652335353845061,2738.9911542555847,2451.8530521540638,-2497.1393175547578,2497.1393175547578,-2451.8530521540638,4745.0157314134985,0.0
558296.95196600363,3695566.251970998,-37500.0,3053.6807338036069,145.51549711939671,-2447.4023379456989,1253.6664123013413,648.55128936140375,319.06427043151473,3079.9107917106521,2558.0459985648267,-2810.1534581952674,2810.1534581952674,-2558.0459985648267,5360.7004070503281,0.0
563296.95196600363,3695566.251970998,-37500.0,3626.5085290351371,-422.00395608684772,-2418.8742730869963,1814.9028285413901,272.00273075627348,703.20990250077318,3506.028972703441,2535.2750975676913,-3043.2797181964056,3043.2797181964056,-2535.2750975676913,6169.0926517918169,0.0
568296.95196600363,3695566.251970998,-37500.0,4118.0490926404682,-1123.7845289999329,-2203.1666886357343,2453.177323607772,-315.58899862681432,1235.7998545161822,4042.9878551367992,2330.8177362839615,-3126.0108738544977,3126.0108738544977,-2330.8177362839615,7224.09243079936,0.0
573296.95196600363,3695566.251970998,-37500.0,4441.9141654835139,-1923.4747573571201,-1726.7368316193092,3125.371863407674,-1165.668672555483,1942.7215793203309,4715.2010523130293,1898.0507573370044,-2971.2741695923614,2971.2741695923614,-1898.0507573370044,8565.1056917615515,0.0
578296.95196600363,3695566.251970998,-37500.0,4502.4206318689376,-2737.9542768986998,-922.87145741554809,3753.4161649618559,-2313.9687955705217,2836.385337620085,5537.0206492409307,1216.9512331613319,-2488.8092870806468,2488.8092870806468,-1216.9512331613319,10197.434682475561,0.0
583296.95196600363,3695566.251970998,-37500.0,4220.4910400323306,-3427.8080449651143,239.93545807942408,4220.8539099227091,-3756.6278267666644,3901.4695702674962,6497.524826551039,322.98496568225505,-1613.7067522777309,1613.7067522777309,-322.98496568225505,12071.035572790648,0.0
588296.95196600363,3695566.251970998,-37500.0,3574.5614610935099,-3806.2921982823718,1718.6199842543497,4383.6305111763559,-5420.5291669455428,5078.3303070904267,7541.5505842722232,-664.34781988598604,-350.08063747185099,350.08063747185099,664.34781988598604,14062.55261683645,0.0
593296.95196600363,3695566.251970998,-37500.0,2644.3021712937361,-3680.8024626073457,3359.0384683105472,4103.69338466716,-7139.7601542514685,6251.2242544724977,8561.3122369758257,-1533.3070051111654,1182.8749360634306,-1182.8749360634306,1533.3070051111654,15969.88041370503,0.0
598296.95196600363,3695566.251970998,-37500.0,1628.6036705651004,-2928.7694879787036,4889.8644816153947,3304.8585034102307,-8659.1075310430188,7253.3508942951585,9410.7707839858103,-2017.3877047847645,2732.0939482705071,-2732.0939482705071,2017.3877047847645,17531.959580778977,0.0
603296.95196600363,3695566.251970998,-37500.0,805.43483604447397,-1581.3366095157005,5975.0310347636714,2030.7103865799347,-9683.7552086776559,7899.2489951982834,9939.5058762205554,-1887.4942312640999,3953.5914614400444,-3953.5914614400444,1887.4942312640999,18481.702971747254,0.0
608296.95196600363,3695566.251970998,-37500.0,429.38530212654297,138.92152904755261,6324.2676417867087,466.87005845007934,-9971.2026762807673,8041.2063948218702,10036.39385312689,-1065.853811836836,4524.0868574763035,-4524.0868574763035,1065.853811836836,18622.704351844088,0.0
613296.95196600363,3695566.251970998,-37500.0,614.86113658445925,1870.2466853481988,5813.057981957053,-1101.4042060946299,-9425.6521433272883,7625.4474179070157,9668.3071773318297,308.36196400841845,4274.1697772627485,-4274.1697772627485,-308.36196400841845,17899.403889742625,0.0
618296.95196600363,3695566.251970998,-37500.0,1280.0767670088239,3240.4992318847471,4539.8366137708317,-2384.5660540915701,-8139.8587665307132,6715.5792632237835,8896.2714567129005,1916.1336085179232,3263.2106075605793,-3263.2106075605793,-1916.1336085179232,16425.138133132994,0.0
623296.95196600363,3695566.251970998,-37500.0,2189.7631274711175,4000.4750532958765,2783.7387598074929,-3185.4196798227172,-6358.4024415291087,5468.7528466276035,7861.1531040823047,3382.8434795746389,1748.4487718556848,-1748.4487718556848,-3382.8434795746389,14453.265479798894,0.0
628296.95196600363,3695566.251970998,-37500.0,3063.3962999146534,4088.9048450188461,893.17356332533257,-3446.2830649365428,-4387.2765383601673,4080.2994828546921,6745.8792713909097,4414.0090374969786,73.747209822638979,-73.747209822638979,-4414.0090374969786,12307.8625632726,0.0
633296.95196600363,3695566.251970998,-37500.0,3679.5506685616579,3610.5861588757975,-828.03787855674966,-3234.3546108644477,-2501.5051991021396,2727.7892984382956,5725.7505581833511,4871.7963975977527,-1451.6006573613654,1451.6006573613654,-4871.7963975977527,10305.279560791943,0.0
638296.95196600363,3695566.251970998,-37500.0,3928.5601332660422,2762.1954717764092,-2187.135168767657,-2689.6401466277762,-889.14451488532688,1536.8426371540984,4917.2434723980423,4773.9753330054464,-2627.5368170497345,2627.5368170497345,-4773.9753330054464,8686.6808325605798,0.0
643296.95196600363,3695566.251970998,-37500.0,3809.3950092498303,1753.8933220604631,-3112.2062548905978,-1968.8678309436586,360.66613797909417,572.87154193640276,4350.1226594236277,4242.4211670479481,-3377.9260380841611,3377.9260380841611,-4242.4211670479481,7565.032084755333,0.0
648296.95196600363,3695566.251970998,-37500.0,3394.0411385465518,756.7609835688894,-3624.4311281582973,-1206.3715672330438,1239.453185643252,-149.31226410406182,3982.9360462688601,3439.875386668698,-3723.8963603128636,3723.8963603128636,-3439.875386668698,6902.0409980373361,0.0
653296.95196600363,3695566.251970998,-37500.0,2785.5390968889351,-117.89256181940215,-3797.9863124342583,-496.6684989050961,1789.7157447448535,-648.69577903283664,3743.809656914581,2520.9970142688808,-3742.5025979293723,3742.5025979293723,-2520.9970142688808,6551.2125239348243,0.0
658296.95196600363,3695566.251970998,-37500.0,2085.6260491511889,-815.81996748430834,-3725.0519922220183,106.39879342602683,2077.2381837654216,-961.74478439942948,3566.8450400507882,1606.020886651414,-3529.8204246303885,3529.8204246303885,-1606.020886651414,6349.6898896940638,0.0
663296.95196600363,3695566.251970998,-37500.0,1376.6676997395823,-1325.7010295017067,-3492.8860060368602,581.70211926949628,2171.3801855297925,-1130.1553054861206,3408.4913107019083,773.61690973931536,-3176.4730911866432,3176.4730911866432,-773.61690973931536,6182.3832843034843,0.0
668296.95196600363,3695566.251970998,-37500.0,715.67111390800414,-1662.8081125758792,-3172.625582317929,930.28711760507963,2133.9045987714489,-1193.2970597990138,3246.9116962531339,65.402950677497074,-2755.6036630850849,2755.6036630850849,-65.402950677497074,5991.0030357484029,0.0
673296.95196600363,3695566.251970998,-37500.0,135.85730140638651,-1855.3936870463665,-2816.3973797019717,1165.8523520853839,2014.3841615624606,-1184.5077357798459,3074.9023463778012,-504.73704245127783,-2319.7947642613317,2319.7947642613317,504.73704245127783,5756.6866030026213,0.0
678296.95196600363,3695566.251970998,-37500.0,-348.32031576740491,-1935.3201515802484,-2459.0233674747146,1307.6447527406538,1849.6947540777744,-1129.9777450171475,2893.108606590527,-940.94364239031825,-1902.9885790148244,1902.9885790148244,940.94364239031825,5481.4703960814686,0.0
683296.95196600363,3695566.251970998,-37500.0,-735.44417393193271,-1932.5975916670611,-2121.5841021014808,1375.8652919352476,1665.5756706862546,-1049.1151437608819,2705.4789939883262,-1257.3873404835224,-1524.4383785928019,1524.4383785928019,1257.3873404835224,5176.0240267164345,0.0
688296.95196600363,3695566.251970998,-37500.0,-1032.099725262427,-1872.7999422624687,-1815.215181395419,1389.0961049895313,1478.9198120038923,-955.58797445377047,2516.7230723406906,-1472.558673838608,-1192.9103171976242,1192.9103171976242,1472.558673838608,4852.9945053749334,0.0
693296.95196600363,3695566.251970998,-37500.0,-1249.0461856161155,-1776.3089710223755,-1544.3780989482761,1363.1356364717867,1300.0594047552725,-858.55222137350074,2331.0954982365233,-1605.6363479963204,-910.29338809747401,910.29338809747401,1605.6363479963204,4523.9067347024775,0.0
698296.95196600363,3695566.251970998,-37500.0,-1398.5897347623618,-1658.5620887332809,-1309.3709850823448,1310.7045883199839,1134.7173527917612,-763.80464825124125,2151.9383088687023,-1674.4415743228324,-674.35567050241616,674.35567050241616,1674.4415743228324,4198.0176192908784,0.0
523296.95196600363,3700566.251970998,-37500.0,362.04981262501201,989.99671683008182,-1206.9045486081679,-197.14782486109527,679.88401979046398,-219.45281689621405,1410.9558534257169,1152.1628780541439,-901.77300666378574,901.77300666378574,-1152.1628780541439,2516.1520508032795,0.0
528296.95196600363,3700566.251970998,-37500.0,617.66028691930137,970.04806036248203,-1356.9276036837598,-106.03596242890954,724.41158302645817,-208.58581357599707,1537.8158841983934,1332.7098517304814,-1100.1488175173251,1100.1488175173251,-1332.7098517304814,2716.8384991928265,0.0
533296.95196600363,3700566.251970998,-37500.0,922.48162015121784,912.05560083326918,-1513.4606740765755,21.271452803728323,755.03962841189104,-181.45928342968335,1681.1531692309115,1520.3921007434028,-1323.9791085574134,1323.9791085574134,-1520.3921007434028,2944.5733552775127,0.0
538296.95196600363,3700566.251970998,-37500.0,1278.1899564438347,803.20468225734942,-1668.9759819283586,193.34643809912362,761.84495384404386,-130.76384068940249,1845.6562887765733,1706.1010265055481,-1569.6831312202473,1569.6831312202473,-1706.1010265055481,3210.4987544579908,0.0
543296.95196600363,3700566.251970998,-37500.0,1682.4831536908644,628.70958442500512,-1811.2098368209124,419.18995692632342,730.92189288161273,-46.840184125579611,2038.0080524114412,1875.8704523379022,-1829.0744916646897,1829.0744916646897,-1875.8704523379022,3531.3529163902867,0.0
548296.95196600363,3700566.251970998,-37500.0,2126.8050203471794,372.78399160866593,-1921.4588963738947,707.15881201463321,643.42623537429279,82.690375809348083,2267.4328886165194,2009.7095740952691,-2087.2378515737719,2087.2378515737719,-2009.7095740952691,3930.7564530060858,0.0
553296.95196600363,3700566.251970998,-37500.0,2593.5701452295239,20.73007952849969,-1972.7857417704483,1063.0917624048332,474.81585752611494,273.06905754816137,2546.0343308258721,2080.8415271760819,-2320.049445633666,2320.049445633666,-2080.8415271760819,4439.3951583849421,0.0
558296.95196600363,3700566.251970998,-37500.0,3053.2546527802829,-437.31598639329968,-1928.6231444332607,1487.3632110769904,194.72996355654817,542.04631899576782,2888.590226017126,2056.0414623749193,-2491.7655936401343,2491.7655936401343,-2056.0414623749193,5093.0328584018371,0.0
563296.95196600363,3700566.251970998,-37500.0,3462.2260041872823,-1000.4843209836445,-1742.7378161809172,1970.693887068516,-231.74962312223198,908.62404176345353,3311.4133630802094,1898.1655644880893,-2553.6250792320579,2553.6250792320579,-1898.1655644880893,5927.5677145386844,0.0
568296.95196600363,3700566.251970998,-37500.0,3762.9333085847547,-1649.0177972441886,-1362.1452261310728,2488.8922992179528,-840.3690558640883,1390.356179246048,3829.9432212227166,1572.3098763149217,-2445.1699971279895,2445.1699971279895,-1572.3098763149217,6971.0904650922239,0.0
573296.95196600363,3700566.251970998,-37500.0,3888.886147062452,-2334.8407151213628,-735.13310829971522,2997.4465080686327,-1660.2149608805603,1998.6456408128572,4454.7514345333184,1056.9599161287369,-2100.794033392322,2100.794033392322,-1056.9599161287369,8233.5591391221533,0.0
578296.95196600363,3700566.251970998,-37500.0,3777.1510800868623,-2973.8588426410488,173.53613947918171,3428.1476478984919,-2701.5235341548373,2731.7593471323844,5185.2334540754591,360.318544067581,-1464.2852893324939,1464.2852893324939,-360.318544067581,9695.0751208979473,0.0
583296.95196600363,3700566.251970998,-37500.0,3389.6980697776571,-3445.745685800196,1360.0061549246213,3691.4515166882275,-3939.3824763834859,3566.1616855413531,5999.9944388659696,-461.09995774778747,-512.61259074814791,512.61259074814791,461.09995774778747,11294.471711001486,0.0
588296.95196600363,3700566.251970998,-37500.0,2740.4776919320107,-3608.8742109654709,2755.7156369664672,3689.0701081842631,-5297.2071563856061,4448.4670506478233,6846.7375948487188,-1289.6146940590052,714.51404880076075,-714.51404880076075,1289.6146940590052,12921.775364495677,0.0
593296.95196600363,3700566.251970998,-37500.0,1917.6139592971494,-3335.7901422492018,4210.2805128446898,3339.3522482026656,-6638.3431910223799,5292.4924958961747,7641.0420370433458,-1952.0537561388221,2090.7355320852821,-2090.7355320852821,1952.0537561388221,14420.393989655588,0.0
598296.95196600363,3700566.251970998,-37500.0,1083.6292720205568,-2564.8217364268689,5499.5563781319242,2611.547520090222,-7776.8158432772343,5987.0102015575312,8279.29799250838,-2255.5014037735018,3403.2815385284184,-3403.2815385284184,2255.5014037735018,15605.212300287967,0.0
603296.95196600363,3700566.251970998,-37500.0,439.64668293844488,-1347.8240400805557,6371.014946948676,1555.489875105387,-8514.107095700183,6417.3431080694127,8661.4733163849396,-2051.4402029895464,4393.1782227364229,-4393.1782227364229,2051.4402029895464,16298.363698890207,0.0
608296.95196600363,3700566.251970998,-37500.0,157.93764818001785,135.99737726523412,6619.5404746884451,307.73285929394171,-8695.4174314338907,6496.7553750736197,8717.2356214384708,-1304.1606124106004,4832.15876414386,-4832.15876414386,1304.1606124106004,16375.116367223003,0.0
613296.95196600363,3700566.251970998,-37500.0,312.52904128586829,1619.8884967201268,6162.2344836173934,-937.41708673581343,-8262.7405559493,6195.2168469228664,8427.6505990837795,-124.76022666088102,4605.3339836657351,-4605.3339836657351,124.76022666088102,15803.167144663779,0.0
618296.95196600363,3700566.251970998,-37500.0,847.23495232447362,2831.6959591934233,5072.359794097405,-1983.66893158787,-7277.4893680525311,5551.0445749241708,7834.0133353990959,1255.4355924002143,3755.8438900144988,-3755.8438900144988,-1255.4355924002143,14657.735494254997,0.0
623296.95196600363,3700566.251970998,-37500.0,1600.2227198786024,3578.506227395997,3553.1104744591134,-2689.3376349232785,-5900.2246560606791,4659.0910843632046,7029.9087404253341,2562.0286850940042,2466.5248914510798,-2466.5248914510798,-2562.0286850940042,13105.323493134318,0.0
628296.95196600363,3700566.251970998,-37500.0,2368.8544871873614,3793.2279977320982,1867.1654839096977,-2998.8558344539342,-4339.1420059018819,3642.0252739547404,6139.1122722021046,3564.7436057985124,991.37851306248263,-991.37851306248263,-3564.7436057985124,11364.022017283365,0.0
633296.95196600363,3700566.251970998,-37500.0,2978.0351828208177,3529.0644270358498,259.32099331877333,-2940.2654452768793,-2793.2896790073214,2618.7214032167535,5284.5243396208953,4133.9770730899854,-424.90271383428194,424.90271383428194,-4133.9770730899854,9656.5735804395863,0.0
638296.95196600363,3700566.251970998,-37500.0,3322.3241166209546,2917.1055392190979,-1096.0035182663664,-2598.2572683141043,-1412.705933091466,1681.641057677142,4556.2110467349194,4250.9814327634731,-1604.3141976983823,1604.3141976983823,-4250.9814327634731,8169.0229236877676,0.0
643296.95196600363,3700566.251970998,-37500.0,3373.7656120559709,2114.1182445324425,-2111.5509840150621,-2079.9031813807455,-283.49237150708467,887.59216669426394,3994.1220001785114,3982.0819785538388,-2456.2026809587933,2456.2026809587933,-3982.0819785538388,7018.5391258050668,0.0
648296.95196600363,3700566.251970998,-37500.0,3164.9604509229439,1261.510843427495,-2775.8196248044378,-1486.6224923159684,566.70942239412159,259.6602630128416,3592.2410937971608,3438.4264826419871,-2967.6568745819409,2967.6568745819409,-3438.4264826419871,6232.3137321713857,0.0
653296.95196600363,3700566.251970998,-37500.0,2762.5133611178139,463.53884787202185,-3128.139551823941,-898.00359441382386,1152.5541419884808,-204.66635312597745,3315.0304468759955,2739.3689458675867,-3178.6273081026106,3178.6273081026106,-2739.3689458675867,5751.0260543907771,0.0
658296.95196600363,3700566.251970998,-37500.0,2242.6477055053451,-217.35955897409434,-3232.8387361164091,-366.71055202880751,1512.860555086095,-523.76940311882106,3117.4447859347206,1988.3115830296997,-3155.23897173657,3155.23897173657,-1988.3115830296997,5467.9011164318226,0.0
663296.95196600363,3700566.251970998,-37500.0,1674.5710429910137,-754.5800070978878,-3159.4078616750248,79.234441982076163,1695.663094873752,-723.43314874042562,2960.7493505272505,1261.7770027599545,-2968.9608814517223,2968.9608814517223,-1261.7770027599545,5280.0285722581102,0.0
668296.95196600363,3700566.251970998,-37500.0,1112.1715445911807,-1147.0973463417645,-2970.461375934929,430.70773716288141,1748.2092425420924,-830.7877343896306,2819.1481356144295,608.26895204280891,-2683.8439342150659,2683.8439342150659,-608.26895204280891,5116.9643252196029,0.0
673296.95196600363,3700566.251970998,-37500.0,592.05495911910111,-1409.2412698741305,-2716.3266604129503,691.1087294083087,1711.5515666444762,-870.68242437577385,2679.0016931452619,52.57381205175011,-2350.7676396782163,2350.7676396782163,-52.57381205175011,4942.1350763982591,0.0
678296.95196600363,3700566.251970998,-37500.0,135.33550861142442,-1562.5688529936499,-2434.0730205362829,870.88055836797776,1618.5033956020507,-863.97175560563164,2535.1330431442543,-397.97287801989091,-2006.4421844644728,2006.4421844644728,397.97287801989091,4742.5382883693337,0.0
683296.95196600363,3700566.251970998,-37500.0,-248.95706660156102,-1630.3454072700929,-2148.9528290122607,983.4763481977692,1493.664021756425,-827.08371976602712,2387.2036780305348,-747.38689989176532,-1675.0118544856762,1675.0118544856762,747.38689989176532,4518.2550156239122,0.0
688296.95196600363,3700566.251970998,-37500.0,-560.23677321261437,-1634.3057109232179,-1876.7869681961138,1042.7350191675207,1354.4793503303545,-772.31576878577414,2237.1332982833969,-1006.0820910829671,-1370.6799547897522,1370.6799547897522,1006.0820910829671,4275.2387811183462,0.0
693296.95196600363,3700566.251970998,-37500.0,-803.19942456314993,-1593.0957296126442,-1626.4395462004982,1061.3890277126923,1212.6687747155008,-708.4685157004559,2087.5547125853354,-1187.3057980836459,-1100.4216046256818,1100.4216046256818,1187.3057980836459,4021.1793313640155,0.0
698296.95196600363,3700566.251970998,-37500.0,-985.39252418295712,-1521.7978162349762,-1401.9650875400221,1050.3684515620628,1075.6345630535195,-641.56782610116466,1941.0059405816635,-1304.8211959903249,-866.32779241413868,866.32779241413868,1304.8211959903249,3763.4256511438634,0.0
528296.95196600363,3705566.251970998,-37500.0,863.85706583573017,701.69157663572059,-1284.8487158214346,79.218235292621358,586.22459366233045,-112.79678655991,1403.4031058537801,1293.2993406359676,-1158.9940446781281,1158.9940446781281,-1293.2993406359676,2449.319317570254,0.0
533296.95196600363,3705566.251970998,-37500.0,1153.1813450778543,600.80338232600718,-1399.645847606429,218.30520048876235,584.35020466517108,-71.484244950507374,1539.2948520555046,1433.5592573413373,-1351.5834506763126,1351.5834506763126,-1433.5592573413373,2672.1964640235196,0.0
538296.95196600363,3705566.251970998,-37500.0,1478.7178092980778,448.31870618808153,-1500.6752888742351,396.81944664847401,553.6500374505066,-6.7213572911929802,1698.2630348186772,1559.3043508583366,-1551.8188770316644,1551.8188770316644,-1559.3043508583366,2941.5228452214774,0.0
543296.95196600363,3705566.251970998,-37500.0,1834.2409434261799,232.89318832078459,-1573.6646313823526,620.44340150277037,481.04610867395542,89.575153654845337,1887.1577291685458,1655.9331754125928,-1748.3440422585736,1748.3440422585736,-1655.9331754125928,3274.7223828264832,0.0
548296.95196600363,3705566.251970998,-37500.0,2207.5201770480485,-56.065996221392268,-1598.6889252156366,893.27202229680131,349.78920396825572,227.25491457962809,2114.5749575923237,1704.3095554138961,-1923.5456954245444,1923.5456954245444,-1704.3095554138961,3693.4627302681602,0.0
553296.95196600363,3705566.251970998,-37500.0,2578.4968952589525,-426.07207868622379,-1549.2946860891136,1216.0753392114493,139.36448489063076,417.75521861805009,2390.6219064903712,1680.9616097114877,-2052.0435639420325,2052.0435639420325,-1680.9616097114877,4222.2948676618871,0.0
558296.95196600363,3705566.251970998,-37500.0,2917.8461144002163,-877.98005475029947,-1392.4053982795044,1583.8690399820136,-173.86007526635481,673.45414498908235,2726.1616918728996,1559.5231774283538,-2099.7483000679986,2099.7483000679986,-1559.5231774283538,4885.7775070185053,0.0
563296.95196600363,3705566.251970998,-37500.0,3186.7541138842512,-1401.0715387547336,-1089.8543823834777,1982.8615294304882,-614.69380388703564,1006.2919371415448,3131.404886691319,1314.1850870957639,-2024.3795403851766,2024.3795403851766,-1314.1850870957639,5704.0846580437274,0.0
568296.95196600363,3705566.251970998,-37500.0,3339.1577621750794,-1967.2089806215095,-602.69749764889707,2387.1815447208323,-1205.2328218890095,1425.3827749287727,3613.7968259566433,925.92743869100082,-1778.754469994866,1778.754469994866,-925.92743869100082,6687.3262788031907,0.0
573296.95196600363,3705566.251970998,-37500.0,3327.9162884575912,-2525.386201867871,100.49301064600459,2756.3399923153656,-1958.4559084157308,1933.4390038926147,4175.0932602367748,391.84777848878724,-1318.3690448520242,1318.3690448520242,-391.84777848878724,7828.91211879619,0.0
578296.95196600363,3705566.251970998,-37500.0,3115.9956544090578,-2999.3269739727971,1030.7822699814378,3035.0935873785083,-2869.2986091195462,2522.1564123458861,4807.1389145903186,-263.36088849368474,-614.34353012896372,614.34353012896372,263.36088849368474,9098.5915413314724,0.0
583296.95196600363,3705566.251970998,-37500.0,2692.1200790841986,-3292.0308617067594,2162.7485256869099,3157.9322475892359,-3904.4632166980232,3167.3464509284831,5485.8834074175193,-976.98484516132567,328.96392161608031,-328.96392161608031,976.98484516132567,10436.577720917232,0.0
588296.95196600363,3705566.251970998,-37500.0,2087.1705460726207,-3301.1693172200503,3419.5873132807374,3060.1499835959403,-4994.2019922332411,3825.5206659908426,6166.2025956644839,-1644.8368901719225,1455.8154745766617,-1455.8154745766617,1644.8368901719225,11751.334379582226,0.0
593296.95196600363,3705566.251970998,-37500.0,1383.7252752215882,-2946.3238576406857,4667.529889589865,2695.5047784262565,-6031.2472613379805,4434.4399702184246,6783.6306974559466,-2132.0111439940447,2648.8182837448976,-2648.8182837448976,2132.0111439940447,12924.388702724762,0.0
598296.95196600363,3705566.251970998,-37500.0,709.35908555334834,-2202.4906982824391,5728.7467476825941,2056.582615359192,-6882.2375366629049,4920.052970343173,7264.7856157823662,-2302.101922939818,3737.0205983026135,-3737.0205983026135,2302.101922939818,13824.838627717692,0.0
603296.95196600363,3705566.251970998,-37500.0,208.43298590736782,-1126.4283823599474,6416.920672193145,1189.6547226911985,-7413.4051675452338,5210.3620241623958,7542.497203079115,-2060.2644674545454,4528.6884167385178,-4528.6884167385178,2060.2644674545454,14333.118464828267,0.0
608296.95196600363,3705566.251970998,-37500.0,-1.8632783025961723,140.48251416991468,6588.0943874084569,194.60325006778066,-7524.968268078791,5253.1856357718198,7571.5967412251221,-1394.0646052733125,4863.1648191411887,-4863.1648191411887,1394.0646052733125,14368.743537350054,0.0
613296.95196600363,3705566.251970998,-37500.0,126.73389380993426,1401.3489649798319,6187.2572751507514,-794.51787235860752,-7181.4608623759705,5031.3993392334096,7341.3583646751504,-390.88557382355657,4662.3351634301107,-4662.3351634301107,390.88557382355657,13912.803464601295,0.0
618296.95196600363,3705566.251970998,-37500.0,555.00716383312101,2456.639341398813,5268.6043900781924,-1642.8899167218296,-6424.2086204762709,4568.9168476129007,6880.4622130786865,780.8016662206162,3957.5189853727688,-3957.5189853727688,-780.8016662206162,13016.273575938414,0.0
623296.95196600363,3705566.251970998,-37500.0,1170.7666422416842,3158.4199802237863,3979.1837256665744,-2248.803742393241,-5359.8411866327024,3924.5363848432621,6252.4282244066617,1920.0049116839798,2878.4716163822422,-2878.4716163822422,-1920.0049116839798,11790.615678937575,0.0
628296.95196600363,3705566.251970998,-37500.0,1828.2084882074873,3443.0779771820553,2514.422838217738,-2564.4156479432122,-4130.4628686808783,3176.5183770491012,5542.226467465116,2849.4602418828626,1611.0099927465508,-1611.0099927465508,-2849.4602418828626,10384.546756709928,0.0
633296.95196600363,3705566.251970998,-37500.0,2392.360774770561,3332.7987582807373,1066.3594039335658,-2597.5373506649489,-2878.7491710065515,2404.4794275543641,4836.3460756604718,3456.0826485261277,344.16064757349,-344.16064757349,-3456.0826485261277,8955.4636825803191,0.0
638296.95196600363,3705566.251970998,-37500.0,2770.5852229655839,2912.0810809664254,-215.70781134616053,-2397.9911475805789,-1720.6102823817323,1674.8977781152898,4202.4284247490295,3704.0403810772095,-771.92538381865347,771.92538381865347,-3704.0403810772095,7643.2758558583764,0.0
643296.95196600363,3705566.251970998,-37500.0,2923.6471011854092,2294.0920070606198,-1242.913892581588,-2037.1665351273148,-731.63749354448134,1033.4371946595224,3678.6781528763186,3623.4589784011355,-1646.3714183519637,1646.3714183519637,-3623.4589784011355,6549.9653656284936,0.0
648296.95196600363,3705566.251970998,-37500.0,2859.3688150032481,1590.5274121668012,-1984.7198733012829,-1588.9647538732304,53.380983728679702,503.92637440347067,3274.7291871011753,3286.0798840670041,-2247.1745642164506,2247.1745642164506,-3286.0798840670041,5725.001321455271,0.0
653296.95196600363,3705566.251970998,-37500.0,2616.9992067052867,892.23727753716526,-2454.8563828795036,-1116.7493029677817,632.52496338520336,91.847241535627433,2977.8372472138617,2779.5235761802637,-2587.7247773016566,2587.7247773016566,-2779.5235761802637,5159.7304234756448,0.0
658296.95196600363,3705566.251970998,-37500.0,2250.1658997472105,261.43350830847606,-2693.6394080656978,-667.18266257110008,1025.6066465879742,-210.20553958331172,2762.0681364325847,2187.494399061733,-2708.9179574195887,2708.9179574195887,-2187.494399061733,4798.6548838357858,0.0
663296.95196600363,3705566.251970998,-37500.0,1813.2921349868157,-267.4716369139266,-2752.3463690887916,-269.5135702499424,1263.6289169329582,-417.03954692377988,2598.6793530222212,1578.3144834570699,-2663.0085785019478,2663.0085785019478,-1578.3144834570699,4567.2044184463111,0.0
668296.95196600363,3705566.251970998,-37500.0,1353.1717057472488,-682.34941274040682,-2682.1573920962419,61.883856162810133,1380.7407322298004,-546.4300460336018,2463.7908670849711,1000.8014910287629,-2502.0438254914316,2502.0438254914316,-1000.8014910287629,4399.3721628288322,0.0
673296.95196600363,3705566.251970998,-37500.0,905.25928195399945,-986.41357618418397,-2527.8278925281702,323.6628077753362,1409.0979733259694,-616.07438216651201,2341.3168611167152,485.10339875872717,-2271.2069411253101,2271.2069411253101,-485.10339875872717,4250.6060672951962,0.0
678296.95196600363,3705566.251970998,-37500.0,493.30605173792634,-1191.8578289951497,-2325.0840699958071,519.65035742091402,1376.2086102361332,-641.82825698487113,2222.3341181023893,46.083458601223811,-2006.0859286443392,2006.0859286443392,-46.083458601223811,4097.0887965430829,0.0
683296.95196600363,3705566.251970998,-37500.0,130.8890302793591,-1314.9488158432719,-2100.4354502630122,657.65049574612942,1304.0406954155717,-636.91788660627719,2103.0392577158605,-312.52616892615458,-1732.5148940135496,1732.5148940135496,312.52616892615458,3929.5623323134178,0.0
688296.95196600363,3705566.251970998,-37500.0,-176.29742084287307,-1372.7120775073022,-1872.2746533345726,747.11070814773757,1209.1993822441925,-611.79622356955269,1982.7087275070755,-594.25531863062156,-1467.7918147240387,1467.7918147240387,594.25531863062156,3747.1896052981124,0.0
693296.95196600363,3705566.251970998,-37500.0,-428.10447177053436,-1380.9753487746561,-1652.4765225677088,797.59869534608174,1103.6412817678286,-574.36594405420908,1862.1837952993121,-806.78163269640982,-1222.4267995357845,1222.4267995357845,806.78163269640982,3553.2017805023197,0.0
528296.95196600363,3710566.251970998,-37500.0,1033.2016520509565,449.01564812017892,-1175.0992059123728,221.05344518759682,451.02763667806101,-35.971575182298082,1292.3334561009974,1207.674064628412,-1162.6119351760658,1162.6119351760658,-1207.674064628412,2240.6215063914287,0.0
533296.95196600363,3710566.251970998,-37500.0,1296.9347165610432,317.01383123739765,-1246.6387252088064,362.48042974111138,422.32754132470183,13.940112873654563,1423.8312438287694,1301.6324423171277,-1318.1689864616101,1318.1689864616101,-1301.6324423171277,2466.4146360257523,0.0
538296.95196600363,3710566.251970998,-37500.0,1583.4222688826267,136.13717586615755,-1294.1704009746256,536.97055828181578,362.35733936743935,85.888350064987094,1579.3741282220467,1372.14564388285,-1469.0229485320924,1469.0229485320924,-1372.14564388285,2743.7885198200865,0.0
543296.95196600363,3710566.251970998,-37500.0,1884.0668488885603,-101.31830304083772,-1302.8921995171299,747.43273122799917,259.53918201581484,186.33579206657035,1765.1638217485297,1405.4122960422899,-1602.2351454220563,1602.2351454220563,-1405.4122960422899,3088.242928259529,0.0
548296.95196600363,3710566.251970998,-37500.0,2185.0547806909576,-401.06146948578976,-1253.5224060943235,994.71909008137197,99.819084218364168,322.76855180770514,1988.2992544289907,1384.6751450012066,-1699.6023472445472,1699.6023472445472,-1384.6751450012066,3516.9800661965442,0.0
553296.95196600363,3710566.251970998,-37500.0,2466.3921032971352,-764.58814024073672,-1122.1982401915325,1276.1825394551017,-132.99483691473188,503.36011703678179,2256.2804198777835,1291.0593115302502,-1737.0170215495652,1737.0170215495652,-1291.0593115302502,4047.188058043092,0.0
558296.95196600363,3710566.251970998,-37500.0,2701.5865070320215,-1186.1558291761974,-881.29905529365931,1583.8623152544753,-456.19630972774479,736.25268360827715,2576.1507016857095,1105.5560738844019,-1684.6368654276203,1684.6368654276203,-1105.5560738844019,4693.5212242476719,0.0
563296.95196600363,3710566.251970998,-37500.0,2858.6337366452381,-1649.1224492539347,-501.82427508060437,1902.4788318254857,-886.09770020395115,1028.3099351584074,2953.2670440786701,812.59307563352866,-1508.5669891859684,1508.5669891859684,-812.59307563352866,5464.854624009221,0.0
568296.95196600363,3710566.251970998,-37500.0,2903.1174167250442,-2122.2580197509255,41.980331986498705,2207.6748049742127,-1434.5732749429635,1383.2317038146466,3389.7214840544802,405.45131456340408,-1174.9029939732784,1174.9029939732784,-405.45131456340408,6360.4229029593607,0.0
573296.95196600363,3710566.251970998,-37500.0,2804.1370145047013,-2557.28714906295,765.27457653924114,2465.2817366951917,-2104.1101379813381,1799.047794877675,3882.3501657186962,-106.74757019078277,-656.8601994294155,656.8601994294155,106.74757019078277,7365.5793359422214,0.0
578296.95196600363,3710566.251970998,-37500.0,2543.1749861981857,-2889.629930321049,1662.8245667244132,2632.714477290483,-2881.7573378680991,2265.2653468589533,4419.9592420134268,-691.77419342217854,54.958575901131951,-54.958575901131951,691.77419342217854,8447.7576186603219,0.0
583296.95196600363,3710566.251970998,-37500.0,2124.6803130771941,-3044.6586828540708,2698.4663427704741,2663.6644904099944,-3733.2259259322509,2760.3372580180949,4979.5947710482196,-1289.4257383495315,940.57613107344469,-940.57613107344469,1289.4257383495315,9553.7768220032121,0.0
588296.95196600363,3710566.251970998,-37500.0,1585.198599271426,-2951.0700167430787,3797.4749283920742,2516.7186100195336,-4599.433844717958,3250.5497054148659,5524.075410867239,-1812.9217068323367,1940.5050616741307,-1940.5050616741307,1812.9217068323367,10610.173397468659,0.0
593296.95196600363,3710566.251970998,-37500.0,996.14849723395321,-2560.5349776021926,4846.9971172378691,2167.0886550031369,-5398.4629481278416,3691.6495144121491,6004.7375676436859,-2160.236737220011,2952.9947194530828,-2952.9947194530828,2160.236737220011,11528.349356824903,0.0
598296.95196600363,3710566.251970998,-37500.0,455.43202965739346,-1868.8112879016326,5709.1735778365255,1618.4834459200711,-6035.3125238751672,4034.1665485541585,6369.4227323690939,-2236.2445332331217,3844.2043812274815,-3844.2043812274815,2236.2445332331217,12215.490962136031,0.0
603296.95196600363,3710566.251970998,-37500.0,66.473169353078561,-929.82419105922952,6247.636923252142,910.32839070845569,-6419.3503391698569,4232.1947190477395,6572.4925811016647,-1981.100064279452,4473.2044514625177,-4473.2044514625177,1981.100064279452,12590.274146217938,0.0
608296.95196600363,3710566.251970998,-37500.0,-90.396028985577246,146.02079787359574,6361.3407959418182,115.66844040426362,-6485.4730766819821,4253.6404918203234,6584.4985607102171,-1394.6523853347765,4726.657523502312,-4726.657523502312,1394.6523853347765,12599.887611870145,0.0
613296.95196600363,3710566.251970998,-37500.0,16.558993448843733,1212.7279587550977,6013.7564330355326,-671.82080158818655,-6211.7770260482239,4088.5654630125359,6399.491597594978,-545.19197500363157,4551.1379508972259,-4551.1379508972259,545.19197500363157,12233.219747168212,0.0
618296.95196600363,3710566.251970998,-37500.0,359.51868325219198,2123.1798912548302,5245.0858852834308,-1358.3173579619088,-5626.5797619293298,3752.3559855032145,6037.8961966786228,443.69586400055664,3969.5490959471463,-3969.5490959471463,-443.69586400055664,11525.542648316841,0.0
623296.95196600363,3710566.251970998,-37500.0,859.91793411478432,2764.3372297563196,4161.9265954326584,-1870.5796660320552,-4801.7105311629348,3282.3595031209165,5543.7727708392486,1424.2082723217691,3074.3935089101951,-3074.3935089101951,-1424.2082723217691,10552.900985410777,0.0
628296.95196600363,3710566.251970998,-37500.0,1412.7264940901771,3080.0289401603241,2908.995796782282,-2169.5816849950115,-3834.8819808750263,2729.3170014707334,4976.3724143453437,2260.9333871968597,2001.2976888718963,-2001.2976888718963,-2260.9333871968597,9418.1848958218379,0.0
633296.95196600363,3710566.251970998,-37500.0,1915.3737190635095,3074.8738000231151,1634.6533508567472,-2253.3892528195356,-2828.080380069172,2146.8087517775316,4396.9996288255898,2859.306323826122,894.36041918060869,-894.36041918060869,-2859.306323826122,8233.4249597517446,0.0
638296.95196600363,3710566.251970998,-37500.0,2290.4812641351396,2801.6560431756984,462.29845586511215,-2150.4270594068726,-1869.1687071858605,1582.0779501195159,3855.8538556199301,3177.944821786406,-123.89941227582813,123.89941227582813,-3177.944821786406,7102.9016049641814,0.0
643296.95196600363,3710566.251970998,-37500.0,2496.6409279944892,2340.1114543461372,-525.42028718412746,-1907.4532801639414,-1021.0071521808142,1070.3195081444167,3385.5809624884459,3224.9473158431092,-970.08864027497089,970.08864027497089,-3224.9473158431092,6109.6384390916501,0.0
648296.95196600363,3710566.251970998,-37500.0,2527.5078326012449,1775.6613422678759,-1289.0768467884295,-1577.0201931517342,-318.68316223230818,632.83590628486604,3001.2351069884917,3043.8445566293881,-1603.7692993912847,1603.7692993912847,-3043.8445566293881,5305.6101465000611,0.0
653296.95196600363,3710566.251970998,-37500.0,2403.2831816030412,1183.6949191155636,-1825.4725179886138,-1207.7159669216835,227.18449988721164,278.22059739924424,2702.3967240834063,2696.3187343538079,-2021.1632163425531,2021.1632163425531,-2696.3187343538079,4705.9396707279202,0.0
658296.95196600363,3710566.251970998,-37500.0,2159.4778766440231,621.21653888855383,-2156.3003072719985,-838.44756090188946,624.00445058288585,5.247123922517579,2476.8469293649432,2247.1048543311113,-2243.9483703716592,2243.9483703716592,-2247.1048543311113,4290.0264507080656,0.0
663296.95196600363,3710566.251970998,-37500.0,1836.6576348930353,124.89167485623005,-2316.6667257395347,-496.44668223233373,890.18574405992263,-193.75127060595307,2306.1348626769832,1753.6979665427655,-2307.5832741826921,2307.5832741826921,-1753.6979665427655,4012.8768348811182,0.0
668296.95196600363,3710566.251970998,-37500.0,1473.0352792639681,-286.705483030761,-2345.8775722770361,-197.90077599113582,1049.1177282223568,-329.82635666605796,2171.4045204358476,1261.1255146729829,-2251.795647158302,2251.795647158302,-1261.1255146729829,3823.0187354229129,0.0
673296.95196600363,3710566.251970998,-37500.0,1100.2587048833161,-608.86314865510849,-2281.2867684115299,50.002159249473458,1124.8194212358267,-415.07617212910566,2057.3269249741211,800.71724750562396,-2114.182032346921,2114.182032346921,-800.71724750562396,3677.2565349580004,0.0
678296.95196600363,3710566.251970998,-37500.0,741.83983792985782,-846.16405431548094,-2154.9550533282149,246.58089984511369,1139.2673003315101,-461.0969496698392,1953.4450484559152,391.3845049880714,-1926.7246199303108,1926.7246199303108,-391.3845049880714,3546.5467150342752,0.0
683296.95196600363,3710566.251970998,-37500.0,413.36464358337389,-1008.5125895793011,-1992.4124361892307,395.32323948563368,1111.0788865449576,-478.1172701530723,1853.7033533625613,42.095160370528106,-1714.5187083816481,1714.5187083816481,-42.095160370528106,3414.8821066633441,0.0
688296.95196600363,3710566.251970998,-37500.0,123.67230695979879,-1108.1317954785959,-1812.7639418048623,501.99530241225102,1055.1424189018944,-474.64063595235399,1755.2626917935029,-245.38254177099975,-1495.9194983300383,1495.9194983300383,245.38254177099975,3275.5169827537111,0.0
533296.95196600363,3715566.251970998,-37500.0,1369.4336195434425,69.627326001066564,-1069.3647819172572,461.31017359901767,275.17165647612535,77.712580328225044,1329.2777728318592,1143.694647316973,-1239.0126241858868,1239.0126241858868,-1143.694647316973,2312.1758420385709,0.0
538296.95196600363,3715566.251970998,-37500.0,1613.2217947505737,-126.03018278343217,-1068.1145296222185,624.78238245296563,194.09137627583596,151.67377066158369,1481.4150742145068,1166.7412921659566,-1341.2473577105397,1341.2473577105397,-1166.7412921659566,2595.8639387564917,0.0
543296.95196600363,3715566.251970998,-37500.0,1858.712365361009,-369.84635248372234,-1021.3288241888702,815.59081314690309,71.626578675912242,250.4703645611695,1662.4732212155272,1148.7928362603673,-1415.7935006642199,1415.7935006642199,-1148.7928362603673,2944.5868264829264,0.0
548296.95196600363,3715566.251970998,-37500.0,2092.0843434878361,-663.44419098233823,-911.62985599621879,1032.3578612111592,-103.45265757780497,379.56191694059532,1877.7741443446712,1076.214034530042,-1445.4013659109808,1445.4013659109808,-1076.214034530042,3370.6044451392313,0.0
553296.95196600363,3715566.251970998,-37500.0,2295.0374064665398,-1003.8321464925782,-718.88808245553776,1270.4375871950836,-343.2834413195871,544.51757494090691,2132.3366112685571,934.99354260624295,-1408.7903072200997,1408.7903072200997,-934.99354260624295,3884.6792250277986,0.0
558296.95196600363,3715566.251970998,-37500.0,2445.2014262486159,-1381.0811919954451,-421.56419735330923,1520.6725361867852,-659.76556999401544,750.35015821685238,2430.1253700136822,712.83615166372329,-1281.5206976771242,1281.5206976771242,-712.83615166372329,4494.1614451130381,0.0
563296.95196600363,3715566.251970998,-37500.0,2517.7101474004367,-1775.8662986519705,0.6528633231682387,1768.2150556402585,-1062.6498819042533,1000.5003094083203,2773.1115892619277,402.36498528743391,-1038.1955866886981,1038.1955866886981,-402.36498528743391,5200.6855399274364,0.0
568296.95196600363,3715566.251970998,-37500.0,2488.3824232125971,-2157.4852290181607,562.58251015882809,1991.7873342030653,-1556.7491054866721,1295.4540654686894,3160.1781561428475,5.3806649069671266,-656.44997807139055,656.44997807139055,-5.3806649069671266,5997.5597763486658,0.0
573296.95196600363,3715566.251970998,-37500.0,2338.7317855738966,-2483.3582225247487,1267.643639426617,2163.9351873209439,-2138.3741237434629,1631.0861314751994,3585.8084552037444,-462.34244060332554,-122.92586046206389,122.92586046206389,462.34244060332554,6867.0971789404693,0.0
578296.95196600363,3715566.251970998,-37500.0,2062.4605104537518,-2701.3058372010209,2100.9237196211511,2252.930384459733,-2791.4782505138132,1996.9937582246209,4038.2518573301054,-966.93490971401138,559.19989639967798,-559.19989639967798,966.93490971401138,7778.4048155596111,0.0
583296.95196600363,3715566.251970998,-37500.0,1672.1670599932579,-2755.8138284567717,3022.8221141490444,2226.8527355513675,-3484.5125925002289,2375.3016376997243,4497.1648731186315,-1454.9389981873803,1362.6044433975405,-1362.6044433975405,1454.9389981873803,8686.4611867704025,0.0
588296.95196600363,3715566.251970998,-37500.0,1203.9303521858392,-2598.6636871955084,3965.8859949567882,2059.8750054423476,-4169.4791718741053,2740.5950497495369,4932.6317152332049,-1856.7453158052042,2230.7944242636336,-2230.7944242636336,1856.7453158052042,9533.4999511485767,0.0
593296.95196600363,3715566.251970998,-37500.0,716.81991836077896,-2202.5692843504876,4837.9017240111189,1739.8379818040571,-4784.7835701408721,3061.6362568435188,5308.0644077167344,-2096.5984637432821,3079.0603689409136,-3079.0603689409136,2096.5984637432821,10253.575150410299,0.0
598296.95196600363,3715566.251970998,-37500.0,285.03896042061325,-1574.2093601402007,5533.358276056244,1275.0795870010168,-5262.8303108249193,3305.1854387930562,5586.1634831234778,-2108.6999133100371,3804.1302239265278,-3804.1302239265278,2108.6999133100371,10780.514139921164,0.0
603296.95196600363,3715566.251970998,-37500.0,-17.186992934020672,-761.45341733167959,5952.6516348037248,697.77817967455996,-5541.7354306047355,3441.5478749179629,5735.5432369132432,-1855.7609745739712,4302.5862422655437,-4302.5862422655437,1855.7609745739712,11058.315556311743,0.0
608296.95196600363,3715566.251970998,-37500.0,-134.30959896144563,149.85176133593095,6024.5809633388517,61.503096620488883,-5578.4805267458751,3450.6018957925671,5736.7320227742812,-1343.6510122048239,4494.0450882921623,-4494.0450882921623,1343.6510122048239,11051.764353149496,0.0
613296.95196600363,3715566.251970998,-37500.0,-45.282986041953187,1050.76245211785,5724.8329171050109,-567.48575939718432,-5359.413705127261,3326.498714888332,5586.5736801903086,-625.64135254305461,4341.6912784895758,-4341.6912784895758,625.64135254305461,10754.345605466457,0.0
618296.95196600363,3715566.251970998,-37500.0,229.85690770176691,1832.0261020801736,5083.4327991033924,-1123.0710455489618,-4904.2803603743905,3079.3878814140417,5299.9473061729586,206.84244770724604,3862.449379311126,-3862.449379311126,-206.84244770724604,10190.943678754738,0.0
623296.95196600363,3715566.251970998,-37500.0,635.48372435859119,2407.2487086093201,4178.0951753281634,-1552.2251719537289,-4262.1859474617158,2733.5003920480449,4908.0564554992216,1044.4487041472398,3122.7700578868667,-3122.7700578868667,-1044.4487041472398,9414.3904263646364,0.0
628296.95196600363,3715566.251970998,-37500.0,1095.6204763360079,2728.7455724678225,3116.0387413197195,-1824.0016748155147,-3500.9526900907545,2322.2408442970282,4452.8771247593158,1783.9967022227415,2221.8589615410187,-2221.8589615410187,-1783.9967022227415,8496.9120295955672,0.0
633296.95196600363,3715566.251970998,-37500.0,1532.866847774452,2791.8646313353161,2010.9817777929939,-1932.3041956910963,-2693.5922236433253,1881.9201731237508,3978.2571717706105,2348.3574048086448,1268.8666037311884,-1268.8666037311884,-2348.3574048086448,7518.9616689405202,0.0
638296.95196600363,3715566.251970998,-37500.0,1884.4979177121149,2628.4401525147728,962.69933744803018,-1892.6879623162131,-1906.0170791745095,1445.9558426506326,3521.3219949866225,2696.8116887030346,361.729435000065,-361.729435000065,-2696.8116887030346,6558.1539860283019,0.0
643296.95196600363,3715566.251970998,-37500.0,2111.6413389917798,2293.6098405833559,44.043520363978608,-1735.3457201576941,-1188.8249521557134,1040.8353480858125,3108.598429576009,2825.0150913797324,-426.89659774126881,426.89659774126881,-2825.0150913797324,5680.115930793947,0.0
648296.95196600363,3715566.251970998,-37500.0,2200.8372690820324,1851.1987311070541,-703.32555670837746,-1497.0167231871674,-574.02147664352083,684.29945786270753,2755.7826671848106,2757.2875276895693,-1054.8920021789929,1054.8920021789929,-2757.2875276895693,4931.7608739596644,0.0
653296.95196600363,3715566.251970998,-37500.0,2159.8567976865893,1361.6602211407678,-1266.1747427238574,-1214.0112150528378,-75.9113020377808,385.47320740133006,2468.2645640039318,2535.4135487428694,-1508.5481858831026,1508.5481858831026,-2535.4135487428694,4336.8361783587743,0.0
658296.95196600363,3715566.251970998,-37500.0,2010.6659691323478,874.46099820989173,-1652.8887950289552,-917.49155457931931,305.41592161144172,146.28801470967699,2242.3315092243411,2207.6788202642733,-1796.0242801196609,1796.0242801196609,-2207.6788202642733,3894.4245987936256,0.0
663296.95196600363,3715566.251970998,-37500.0,1782.1065628818612,424.92192242958254,-1885.4896549144848,-631.1589912592317,579.61481961215497,-36.522544449920218,2067.7576479237105,1820.406779271435,-1939.361691318777,1939.361691318777,-1820.406779271435,3582.3592178579793,0.0
668296.95196600363,3715566.251970998,-37500.0,1503.923210394383,34.448159492078531,-1992.4693499393609,-370.88386009903405,761.81197192153354,-169.409845163244,1931.4060197833674,1412.7582912328355,-1967.1803501700213,1967.1803501700213,-1412.7582912328355,3366.2252132290191,0.0
673296.95196600363,3715566.251970998,-37500.0,1202.7752256151202,-287.24438257113547,-2003.4041329580157,-145.58246452399823,869.18463433638033,-260.31730709979593,1820.5870677175994,1014.4922712283924,-1909.1345723056693,1909.1345723056693,-1014.4922712283924,3210.4275905460945,0.0
678296.95196600363,3715566.251970998,-37500.0,900.16003674330727,-539.11396980603183,-1945.5150991144171,41.309414315916442,918.58706688373934,-317.43844040723911,1725.1274369873604,645.88157443618036,-1792.3570345052494,1792.3570345052494,-645.88157443618036,3086.0947712771749,0.0
683296.95196600363,3715566.251970998,-37500.0,611.82121379892101,-725.81593366875268,-1841.897495078776,190.24382734895966,925.14517463752247,-348.42181990804198,1637.9959340393257,318.908733201671,-1639.6331047170929,1639.6331047170929,-318.908733201671,2973.7722041043562,0.0
538296.95196600363,3720566.251970998,-37500.0,1587.6217464872889,-336.8067398793022,-837.86521767248337,671.17256797179243,51.523306174444279,195.46248813757279,1397.7495622478214,959.66391301769124,-1186.1907612234725,1186.1907612234725,-959.66391301769124,2478.735246465747,0.0
543296.95196600363,3720566.251970998,-37500.0,1781.5344351838094,-575.09276006294374,-746.12073005481102,839.26588927336547,-81.627025011105346,288.83617216534299,1571.7520660849209,902.96564475812784,-1209.738350659909,1209.738350659909,-902.96564475812784,2823.0210634132445,0.0
548296.95196600363,3720566.251970998,-37500.0,1955.2727389332113,-850.90603019179662,-590.91473379345473,1024.374228439917,-261.69275057145467,407.07865737386572,1775.8398936977303,794.564130976348,-1183.9053808121869,1183.9053808121869,-794.564130976348,3234.7462602282267,0.0
553296.95196600363,3720566.251970998,-37500.0,2093.0765958060283,-1158.2828357523242,-356.21824117822121,1220.9308904257252,-497.32335344487052,553.79290686125034,2013.0091090267995,624.92370749168458,-1090.9575650908046,1090.9575650908046,-624.92370749168458,3719.8313853681834,0.0
558296.95196600363,3720566.251970998,-37500.0,2177.0235929824084,-1485.1347291957584,-26.300897115800435,1419.7627116052361,-796.14931380280802,731.80081544278426,2285.0036831951684,387.26668872798911,-911.98752775123535,911.98752775123535,-387.26668872798911,4280.7275198236057,0.0
563296.95196600363,3720566.251970998,-37500.0,2188.7565272121988,-1811.7800836387319,411.75464053981716,1607.4959526043501,-1163.1832512414053,942.37009983744656,2591.6444284024269,80.190346997301219,-629.18495711884043,629.18495711884043,-80.190346997301219,4914.7879459694914,0.0
568296.95196600363,3720566.251970998,-37500.0,2112.3265617268144,-2110.1616858111597,964.47443007113611,1766.4312027903643,-1598.7139440224892,1184.2530540380444,2930.1048584585192,-289.23127129330754,-229.33878320842118,229.33878320842118,289.23127129330754,5612.5250311684786,0.0
573296.95196600363,3720566.251970998,-37500.0,1938.1005341350483,-2344.4649183608935,1627.5590493321931,1875.2452832054294,-2095.8752566015937,1452.6413814173077,3294.0586037071121,-702.41147318395974,291.52111428064921,-291.52111428064921,702.41147318395974,6355.9902884740768,0.0
578296.95196600363,3720566.251970998,-37500.0,1667.2467235141264,-2473.912218154639,2381.2809365124804,1910.8727350003799,-2638.3272448243874,1738.2484679703898,3672.429340271643,-1127.2518808861666,922.92710232961531,-922.92710232961531,1127.2518808861666,7117.6912830059937,0.0
583296.95196600363,3720566.251970998,-37500.0,1315.7327273523395,-2458.2567201284869,3186.9851399868344,1851.7487115566457,-3198.7652139615088,2026.8335351602173,4047.8616072210634,-1518.4792387566367,1635.4587934522183,-1635.4587934522183,1518.4792387566367,7860.5913078466911,0.0
588296.95196600363,3720566.251970998,-37500.0,916.2504779619735,-2265.7999091547745,3986.4425994399094,1682.2163530778798,-3739.1688045629307,2299.5439309972071,4396.5685489904145,-1821.5882607531407,2378.748016334825,-2378.748016334825,1821.5882607531407,8539.780857054202,0.0
593296.95196600363,3720566.251970998,-37500.0,516.38317653241381,-1882.6202398667617,4705.7690199093395,1397.3336656843856,-4213.6066660798724,2534.3815086145905,4691.0394041648933,-1980.9641385680652,3083.9729320252882,-3083.9729320252882,1980.9641385680652,9106.2034789653771,0.0
598296.95196600363,3720566.251970998,-37500.0,172.02634791932505,-1320.4892445665055,5264.7330898112004,1006.7561006221758,-4573.8858752048691,2708.8591025964365,4904.4145944430411,-1951.3224842475697,3672.0537628941142,-3672.0537628941142,1951.3224842475697,9512.3541872125807,0.0
603296.95196600363,3720566.251970998,-37500.0,-63.339348042830991,-620.34647398192317,5590.4775461490708,536.14519892821875,-4777.38222841684,2803.5141849038077,5014.860420246373,-1709.8073239373277,4066.9716158558504,-4066.9716158558504,1709.8073239373277,9719.1983645873133,0.0
608296.95196600363,3720566.251970998,-37500.0,-150.95170663329864,151.10601898473925,5632.5398944825765,24.964998095193742,-4795.3174710488074,2805.5196330162739,5009.3407101006942,-1264.8261336814176,4211.321884210286,-4211.321884210286,1264.8261336814176,9702.9041273884504,0.0
613296.95196600363,3720566.251970998,-37500.0,-76.738261308853708,911.9911868405112,5374.6934896190669,-479.37962299240115,-4619.1180021625305,2711.3972349000519,4886.3317217795602,-657.96785553756399,4079.5269961131708,-4079.5269961131708,657.96785553756399,9459.6949690502188,0.0
618296.95196600363,3720566.251970998,-37500.0,144.66985406917684,1580.5374307170171,4839.5510813308765,-929.74020630739585,-4262.7723350048173,2527.9796018562279,4656.8909846040351,42.535565808820593,3684.2347402101327,-3684.2347402101327,-42.535565808820593,9007.4385427805919,0.0
623296.95196600363,3720566.251970998,-37500.0,473.44541044893634,2090.5455358357349,4084.2051273997813,-1287.468052175308,-3760.3335939530066,2271.2785330644306,4343.547782437462,755.19663777122628,3073.6167594875951,-3073.6167594875951,-755.19663777122628,8383.4620733410211,0.0
628296.95196600363,3720566.251970998,-37500.0,854.29685222138983,2402.4463394744266,3188.3725704895592,-1528.3868251987578,-3159.3583488168661,1963.5972190487457,3976.5048485940965,1401.3325982772994,2320.5822686583133,-2320.5822686583133,-1401.3325982772994,7639.1783161002841,0.0
633296.95196600363,3720566.251970998,-37500.0,1228.9564573897649,2507.2174651769542,2238.9557475028296,-1645.0947071051928,-2512.3294203469695,1629.741360765008,3587.4400098355732,1918.9439700884225,1507.6520154798779,-1507.6520154798779,-1918.9439700884225,6832.9173875460992,0.0
638296.95196600363,3720566.251970998,-37500.0,1547.4812753653921,2423.1692220151258,1315.5492121322823,-1645.5462059854872,-1868.4535590541814,1293.3387265451743,3203.8368863405722,2270.9298330080442,712.15051045536359,-712.15051045536359,-2270.9298330080442,6022.5831170739175,0.0
643296.95196600363,3720566.251970998,-37500.0,1775.5721184922625,2187.8365855420016,480.24712176754031,-1548.9849986738793,-1267.6567990818085,974.05846850459511,2846.7152675123007,2446.6119022793237,-4.6333836605401757,4.6333836605401757,-2446.6119022793237,5259.3613629836073,0.0
648296.95196600363,3720566.251970998,-37500.0,1897.0106887148281,1848.1026037651711,-226.95283694986142,-1380.7828203886372,-737.55468794581793,686.09658923408779,2530.4161493353608,2457.7754349812567,-602.72157577098585,602.72157577098585,-2457.7754349812567,4582.9783635938775,0.0
653296.95196600363,3720566.251970998,-37500.0,1911.9700724596107,1451.2733971591026,-787.72270467145768,-1167.5919252304725,-293.20266506142781,437.88836222834118,2262.5213282126247,2331.6244391348355,-1063.5371418435725,1063.5371418435725,-2331.6244391348355,4018.456142999743,0.0
658296.95196600363,3720566.251970998,-37500.0,1832.8248822090291,1038.6982212889702,-1201.6148191569303,-933.69089027943869,61.184114309578362,232.73096781574856,2044.0295938409022,2103.0947089687493,-1386.4040070046774,1386.4040070046774,-2103.0947089687493,3574.3509682718468,0.0
663296.95196600363,3720566.251970998,-37500.0,1679.1539575327968,642.35296378217936,-1480.7715508602435,-698.82384433148525,329.5054586226085,69.915157734303676,1870.3936670361902,1808.279647791046,-1583.3486503218655,1583.3486503218655,-1808.279647791046,3243.1993199671051,0.0
668296.95196600363,3720566.251970998,-37500.0,1473.1989056250843,283.97151585055764,-1644.6321704430686,-477.39602791912614,520.86852949255206,-53.995648080724926,1733.4717172984792,1479.8225323396066,-1673.7753710036466,1673.7753710036466,-1479.8225323396066,3005.1974357649851,0.0
673296.95196600363,3720566.251970998,-37500.0,1236.4428251310583,-24.075337544320099,-1715.5328382961147,-278.66044323462029,647.03305060825971,-143.99058327213055,1623.8508895184013,1144.3644681033036,-1679.9845397291122,1679.9845397291122,-1144.3644681033036,2834.6781096196733,0.0
678296.95196600363,3720566.251970998,-37500.0,987.48023547583159,-276.97416875896658,-1715.5558299967686,-107.4898352760467,720.46094116766324,-205.67244846447906,1532.7991105212363,821.69356339889055,-1623.9426140670821,1623.9426140670821,-821.69356339889055,2706.8211484913886,0.0
543296.95196600363,3725566.251970998,-37500.0,1671.568087738249,-723.34930054970062,-489.14390657416823,830.85538727907726,-201.9297980175443,307.60274337849535,1488.0589215173482,678.36180742098713,-999.88369159485319,999.88369159485319,-678.36180742098713,2710.1537021185381,0.0
548296.95196600363,3725566.251970998,-37500.0,1794.9993872416862,-974.31930232497803,-302.36416967345542,985.63039599719036,-379.32948190480028,413.37446104368138,1678.421663450421,547.77319318072557,-931.22446411011913,931.22446411011913,-547.77319318072557,3099.0353766535868,0.0
553296.95196600363,3725566.251970998,-37500.0,1880.8254730168856,-1244.107168899689,-42.592994165179832,1144.6835515555065,-603.23024727417589,541.34083504575096,1895.8723251231249,364.78011133617872,-798.28356564938269,798.28356564938269,-364.78011133617872,3547.300049683517,0.0
558296.95196600363,3725566.251970998,-37500.0,1915.3073706038238,-1519.975559235922,300.85369944586989,1299.5170392052453,-878.07161316568613,692.86322784480876,2140.6753304896424,126.78794518749118,-587.20044065515617,587.20044065515617,-126.78794518749118,4054.3175610130124,0.0
563296.95196600363,3725566.251970998,-37500.0,1885.5398373846228,-1783.3578137849377,735.06888046694587,1438.6654868212333,-1205.6445737389622,867.91905363006492,2411.4081934995088,-163.61843422902143,-286.40203286897685,286.40203286897685,163.61843422902143,4615.1380547940926,0.0
568296.95196600363,3725566.251970998,-37500.0,1781.7893618649478,-2009.8324530413222,1260.7415027428615,1547.8985765958441,-1583.5786339312315,1064.4604457221747,2704.5013500147224,-496.56108748102213,110.54536977723819,-110.54536977723819,496.56108748102213,5219.3584181482338,0.0
573296.95196600363,3725566.251970998,-37500.0,1600.3736623561247,-2170.2738427522631,1869.0061674813585,1611.0551283491134,-2003.758648643369,1277.7826631094495,3013.6772186312915,-853.11706139194916,601.52616289893581,-601.52616289893581,853.11706139194916,5850.1961084434261,0.0
578296.95196600363,3725566.251970998,-37500.0,1346.6124517802705,-2233.5950917156206,2538.5657069194585,1611.6757019282777,-2451.0156984267892,1500.0538729250384,3329.0441684007496,-1204.634510723535,1172.4689868833846,-1172.4689868833846,1204.634510723535,6484.0706734522237,0.0
583296.95196600363,3725566.251970998,-37500.0,1037.0471164199632,-2171.2297654980371,3234.0178378782975,1535.4486185526284,-2902.5720399614643,1720.2029608964926,3636.0846455431533,-1513.9255039590521,1794.8823605428852,-1794.8823605428852,1513.9255039590521,7091.0369958262927,0.0
588296.95196600363,3725566.251970998,-37500.0,699.91054093035939,-1962.9786358069352,3906.4899388507492,1373.2250253560246,-3328.7723753890045,1924.3703418243763,3915.9814344124725,-1738.9749755723492,2425.5274560316316,-2425.5274560316316,1738.9749755723492,7636.3864840773258,0.0
593296.95196600363,3725566.251970998,-37500.0,372.93064963244564,-1603.1487783379005,4497.4852417006714,1124.0332663838615,-3695.4913181812526,2097.0545768816751,4148.0069693678115,-1839.234624123033,3009.3170985232623,-3009.3170985232623,1839.234624123033,8083.5567205633224,0.0
598296.95196600363,3725566.251970998,-37500.0,98.121139795647821,-1105.2898546699023,4946.1454076440741,797.25733420304095,-3968.2337964273315,2222.9304801112899,4312.6844374678312,-1783.6456803517649,3485.8926952154698,-3485.8926952154698,1783.6456803517649,8398.1855145378249,0.0
603296.95196600363,3725566.251970998,-37500.0,-85.780786588878101,-503.66375211808594,5198.9907315940154,413.10532301220661,-4117.3761029988318,2289.0876728736062,4394.6651758046592,-1558.5357515048734,3799.1697704195358,-3799.1697704195358,1558.5357515048734,8552.7498779680263,0.0
608296.95196600363,3725566.251970998,-37500.0,-151.47749593809189,149.82507461951027,5220.01474644476,0.81108727925451829,-4123.4395507035797,2287.2291064743258,4385.127254573511,-1172.9748079861793,3907.8401598398787,-3907.8401598398787,1172.9748079861793,8530.9044669240375,0.0
613296.95196600363,3725566.251970998,-37500.0,-89.487122681323825,793.18174145247917,4998.364293214986,-405.34493874626713,-3981.0096181869858,2215.2718540537303,4283.4924536238677,-659.5099157564714,3793.9857291776366,-3793.9857291776366,659.5099157564714,8330.5169630288801,0.0
618296.95196600363,3725566.251970998,-37500.0,89.370917980095797,1364.7084487852658,4551.2186976666671,-771.36426835298016,-3700.1378859701499,2077.8938353295239,4098.12036656277,-69.511962460016321,3467.1621446915588,-3467.1621446915588,69.511962460016321,7964.6204880015612,0.0
623296.95196600363,3725566.251970998,-37500.0,356.2660872464125,1813.4756238628411,3920.8785028220877,-1068.871427324415,-3304.7590308797016,1885.8466520277286,3845.5699434044327,535.82578547751677,2962.6279098363248,-2962.6279098363248,-535.82578547751677,7459.9968606976518,0.0
628296.95196600363,3725566.251970998,-37500.0,670.67555583104672,2107.0788976854424,3166.9268257043914,-1279.1174946444839,-2828.5663946223672,1654.2165781089705,3547.9046643022562,1096.3284813420951,2334.299898797125,-2334.299898797125,-1096.3284813420951,6853.7282192909834,0.0
633296.95196600363,3725566.251970998,-37500.0,988.70508663285057,2234.9065504323048,2355.7811363361943,-1394.7762759061482,-2309.497759638788,1400.0933850893148,3228.252449162208,1562.5575255268841,1644.6279034228969,-1644.6279034228969,-1562.5575255268841,6188.5137408063201,0.0
638296.95196600363,3725566.251970998,-37500.0,1271.0011675309095,2206.715047644941,1550.4464759533496,-1419.4049246921245,-1784.2458487959559,1140.2212578188487,2907.0307380238105,1902.1299667657161,954.24383631302794,-954.24383631302794,-1902.1299667657161,5507.7439636800455,0.0
643296.95196600363,3725566.251970998,-37500.0,1488.3836329456358,2047.6825916477253,802.71643555088565,-1365.0972844702703,-1283.9409959439772,889.1030386059042,2600.6789466528976,2101.7350729862496,313.79382974075725,-313.79382974075725,-2101.7350729862496,4851.1201707001592,0.0
648296.95196600363,3725566.251970998,-37500.0,1624.3794537680892,1791.8091452812521,148.93850253144973,-1249.214372334274,-831.62516001123265,657.83153927969124,2321.5224171333648,2165.3172323389754,-240.74670857167234,240.74670857167234,-2165.3172323389754,4251.259507603675,0.0
653296.95196600363,3725566.251970998,-37500.0,1674.8757143521548,1475.4628467118414,-390.72807864893139,-1091.0730490801084,-441.54155022707482,453.679987602381,2077.4822183349847,2109.7659612089456,-689.20519933564083,689.20519933564083,-2109.7659612089456,3731.3136239962519,0.0
658296.95196600363,3725566.251970998,-37500.0,1645.7683864548023,1132.3018018798607,-810.42969336778719,-909.22511541901895,-119.85234786550134,280.31242573638184,1871.8594815524111,1959.6683304983449,-1025.5901505863294,1025.5901505863294,-1959.6683304983449,3303.4883802127542,0.0
663296.95196600363,3725566.251970998,-37500.0,1549.6781402782285,790.0924367103014,-1115.2706178652052,-719.63214885995376,133.7744608076631,138.3957809974996,1703.6405907192848,1742.3994284568626,-1254.871714596482,1254.871714596482,-1742.3994284568626,2968.6210425287186,0.0
668296.95196600363,3725566.251970998,-37500.0,1402.6406773880674,469.34937434735144,-1317.5615292710077,-534.74643810398004,324.25463692465257,26.387143433717075,1568.4455830142845,1484.3083048798858,-1389.2583225873068,1389.2583225873068,-1484.3083048798858,2717.3584431109953,0.0
548296.95196600363,3730566.251970998,-37500.0,1625.971018333862,-1045.4622903472114,-51.445116985793469,927.67364340375286,-462.09560629525805,404.97773467183697,1583.6171351403841,338.49780713542384,-697.60114926088193,697.60114926088193,-338.49780713542384,2959.3482509382238,0.0
553296.95196600363,3730566.251970998,-37500.0,1671.772120240593,-1276.854244131071,219.71244781537183,1054.1800267651035,-669.72122349116512,514.98855819431333,1780.470660410911,153.24804946380601,-538.6638386233119,538.6638386233119,-153.24804946380601,3367.1119912877616,0.0
558296.95196600363,3730566.251970998,-37500.0,1670.7720017718755,-1504.5927797565193,562.3899744797842,1172.539486256469,-917.65713382904448,642.48107868650152,1998.3708142528976,-74.992247605617962,-310.99348412110953,310.99348412110953,74.992247605617962,3819.4741061995155,0.0
563296.95196600363,3730566.251970998,-37500.0,1614.3683218244801,-1712.023477045145,979.37228809949318,1273.2546592978754,-1205.6369356331577,786.73236696094284,2235.2696206706714,-341.23758212855364,-7.839697802459483,7.839697802459483,341.23758212855364,4310.4457298223842,0.0
568296.95196600363,3730566.251970998,-37500.0,1497.2878366629902,-1878.6084172929905,1467.5367330963995,1345.1618533201381,-1529.91231312025,945.4473893228934,2487.43818523033,-634.52427305945412,372.50644418646613,-372.50644418646613,634.52427305945412,4829.7805534153395,0.0
573296.95196600363,3730566.251970998,-37500.0,1319.6169704829742,-1981.2434095736548,2015.7205036110997,1376.2336116245888,-1882.2681459245009,1114.3946804464708,2749.0765997748449,-937.02896375970909,824.31808833314722,-824.31808833314722,937.02896375970909,5362.4962100733846,0.0
578296.95196600363,3730566.251970998,-37500.0,1088.6545063475812,-1996.6829122782672,2603.0429659792912,1354.8988793871854,-2249.3445715079006,1287.1918470982189,3011.598429935505,-1224.1322282520193,1332.3121874536935,-1332.3121874536935,1224.1322282520193,5888.8250700340477,0.0
583296.95196600363,3730566.251970998,-37500.0,820.02107119384266,-1905.0361459072499,3198.3281802839806,1271.8281644382098,-2612.5757425431334,1455.360304238063,3262.9670835013717,-1465.9022922725508,1870.4714848609433,-1870.4714848609433,1465.9022922725508,6384.8064696081146,0.0
588296.95196600363,3730566.251970998,-37500.0,537.39807021226409,-1693.9369658196611,3761.2928980057109,1121.963684518912,-2949.0425357810145,1608.7561270997337,3488.3190720962452,-1630.2789364589062,2402.552285590989,-2402.552285590989,1630.2789364589062,6823.6786810783024,0.0
593296.95196600363,3730566.251970998,-37500.0,270.42256380670784,-1362.5770471776952,4245.9429614934852,906.39334649467094,-3233.4093074325533,1736.4280501547748,3671.998013328438,-1687.8186323835189,2884.8511160962325,-2884.8511160962325,1687.8186323835189,7178.0987995916485,0.0
598296.95196600363,3730566.251970998,-37500.0,50.688679213944539,-924.49077718340448,4606.1083404926012,633.55032195216222,-3440.8592960693245,1827.8516493794182,3799.7888913404008,-1617.2822669420093,3271.316548969543,-3271.316548969543,1617.2822669420093,7423.0168453245469,0.0
603296.95196600363,3730566.251970998,-37500.0,-93.574495793785971,-407.98701385386346,4802.3477334193994,319.2464150783959,-3550.6183413947078,1874.3667975602837,3860.7995794982053,-1410.8061708330176,3520.3692578152695,-3520.3692578152695,1410.8061708330176,7538.8160034888833,0.0
608296.95196600363,3730566.251970998,-37500.0,-142.96830893019862,146.4265211345942,4808.7854532408546,-14.72945406845437,-3549.3560700860467,1870.5362016617194,3849.0042993337174,-1077.1622165307872,3602.0477645486744,-3602.0477645486744,1077.1622165307872,7514.1497047485982,0.0
613296.95196600363,3730566.251970998,-37500.0,-91.059795408838369,691.45525042045404,4618.1551850225733,-343.33518739280271,-3433.6421824415966,1815.108243919113,3764.3596595173958,-641.90912278957444,3503.6970620547236,-3503.6970620547236,641.90912278957444,7347.8766588646058,0.0
618296.95196600363,3730566.251970998,-37500.0,54.058013494980401,1180.1716190684556,4243.621047472906,-641.79484786387013,-3210.7917090960618,1711.3324032661776,3613.278435043946,-144.05651279672225,3232.6111855048102,-3232.6111855048102,144.05651279672225,7049.6388933987173,0.0
623296.95196600363,3730566.251970998,-37500.0,271.29114963813902,1573.2003631902394,3716.8008304184523,-889.11581653669839,-2897.8412429029559,1566.5329123507006,3408.1341184460889,370.07807997086093,2814.8489825294569,-2814.8489825294569,-370.07807997086093,6638.9254185394639,0.0
628296.95196600363,3730566.251970998,-37500.0,530.71327864493583,1844.1978120958515,3082.5067719168969,-1070.7985451796887,-2518.9056277361051,1391.0378474180718,3165.2845139829888,854.27975694416421,2290.5614809119656,-2290.5614809119656,-854.27975694416421,6142.810409499757,0.0
633296.95196600363,3730566.251970998,-37500.0,799.16840357933336,1982.4681469101304,2391.6129091858852,-1180.1958714464522,-2101.589748194559,1196.725183684038,2901.8034994208188,1269.2763032644127,1707.1476533999755,-1707.1476533999755,-1269.2763032644127,5592.853380996713,0.0
638296.95196600363,3730566.251970998,-37500.0,1045.8181554305843,1992.4716615696016,1693.7964793146027,-1218.3905510339944,-1673.2878300720793,995.50721384067742,2632.931007451507,1587.5202577785642,1111.9977596559081,-1111.9977596559081,-1587.5202577785642,5021.7467634772456,0.0
643296.95196600363,3730566.251970998,-37500.0,1246.3900146825558,1890.8329390647662,1031.6640209999432,-1192.8511766037047,-1258.1096576523094,798.0463621900285,2371.4394142897977,1795.1957452484874,546.41948916811975,-546.41948916811975,-1795.1957452484874,4460.246335996032,0.0
648296.95196600363,3730566.251970998,-37500.0,1385.4686012648465,1701.9613383040166,437.13115387941457,-1115.3683455842436,-874.88049136804727,612.88696739393072,2127.5809731468812,1891.5769572274105,41.728248246128032,-41.728248246128032,-1891.5769572274105,3934.7125248630496,0.0
653296.95196600363,3730566.251970998,-37500.0,1456.8116807741001,1453.4546910633819,-69.809850296682328,-999.81603897495313,-536.31364543673328,446.05328498471073,1908.7505384141298,1886.4695190354378,-382.26609866665274,382.26609866665274,-1886.4695190354378,3465.3347941010065,0.0
658296.95196600363,3730566.251970998,-37500.0,1462.1395844538376,1172.1898288891782,-480.34906298814855,-860.17683788741499,-249.19232354862825,301.06265778887217,1719.1482261677525,1796.7053612890113,-716.73318019318276,716.73318019318276,-1796.7053612890113,3064.9752088288774,0.0
663296.95196600363,3730566.251970998,-37500.0,1409.0521562940698,881.58146753453514,-794.84800940681896,-709.08386186201619,-15.239845589463222,179.23410574431077,1559.7619404859784,1642.5767753104558,-961.94160494689481,961.94160494689481,-1642.5767753104558,2738.592038308575,0.0
553296.95196600363,3735566.251970998,-37500.0,1474.1991473001779,-1270.2560557509453,432.47135301164991,958.168384826188,-705.09623581386904,480.53194573233645,1667.3263529242529,-13.956622343993956,-315.06960775243891,315.06960775243891,13.956622343993956,3181.797286213025,0.0
558296.95196600363,3735566.251970998,-37500.0,1448.8576545863248,-1454.6000843613565,764.30765281154652,1047.0127537857927,-925.55831665447363,586.91150629134779,1859.702482264024,-226.33125979949779,-82.478713411018148,82.478713411018148,226.33125979949779,3581.5891108239384,0.0
563296.95196600363,3735566.251970998,-37500.0,1376.8257901856305,-1614.2237851935045,1155.7016365869922,1117.9557053681219,-1175.9419101178696,705.05653753680133,2065.7138177441589,-465.02241379521013,212.30015899891308,-212.30015899891308,465.02241379521013,4008.3380226931017,0.0
568296.95196600363,3735566.251970998,-37500.0,1255.8880922385545,-1732.2869054772136,1601.2630245891994,1162.397991483801,-1451.9518155892474,832.72904521916848,2281.8011191624132,-719.08337820016141,567.87827929008836,-567.87827929008836,719.08337820016141,4452.5216692417544,0.0
573296.95196600363,3735566.251970998,-37500.0,1088.3508811079312,-1790.8060628910068,2089.054622665974,1171.5137842821321,-1745.896762548306,966.30260677544845,2502.8121879540945,-972.50807766113962,976.6561939934063,-976.6561939934063,972.50807766113962,4901.1424327182813,0.0
578296.95196600363,3735566.251970998,-37500.0,882.14649747617955,-1772.6739023170949,2599.708459106922,1137.2736835311309,-2046.3893341964665,1100.6875134145419,2721.3884473113103,-1204.6739790656372,1423.5828393716326,-1423.5828393716326,1204.6739790656372,5337.8686794095356,0.0
583296.95196600363,3735566.251970998,-37500.0,651.28205169933074,-1664.3072710958454,3106.4616732808568,1053.7199269870232,-2338.5201942219051,1229.4492804983147,2927.5749496377339,-1391.8176621138768,1885.7429757044965,-1885.7429757044965,1391.8176621138768,5743.6437170562613,0.0
588296.95196600363,3735566.251970998,-37500.0,415.26037859187977,-1458.575470476015,3576.496878186671,918.31838593922294,-2604.6662156014377,1345.1741893033484,3109.6349704381287,-1509.6323322065582,2333.2189985391246,-2333.2189985391246,1509.6323322065582,6097.8348525518059,0.0
593296.95196600363,3735566.251970998,-37500.0,197.24687666918373,-1157.4239518906115,3973.7771147219764,733.11498372862081,-2825.9920643543092,1440.0948892379781,3255.7156473886653,-1536.7857726462817,2731.5066440634628,-2731.5066440634628,1536.7857726462817,6379.9024690990746,0.0
598296.95196600363,3735566.251970998,-37500.0,21.052563122690898,-773.47361986165822,4263.2111573404636,505.37761162358106,-2984.5406385384686,1506.9274914339237,3355.3823511316673,-1458.8025115021856,3045.4184999606423,-3045.4184999606423,1458.8025115021856,6571.4434583378243,0.0
603296.95196600363,3735566.251970998,-37500.0,-92.615969900306311,-329.94362808218591,4415.5530918440454,247.44642126495245,-3065.6143362102662,1539.8014750021332,3400.8389332249858,-1271.4633924057025,3243.9564238898165,-3243.9564238898165,1271.4633924057025,6658.3340668060655,0.0
608296.95196600363,3735566.251970998,-37500.0,-129.85092598279664,141.43077194238083,4412.0729800960098,-24.332354020006076,-3059.9957592240935,1535.1112337405318,3387.9358286196434,-982.79515092126758,3305.215117840135,-3305.215117840135,982.79515092126758,6632.6123545310711,0.0
613296.95196600363,3735566.251970998,-37500.0,-86.261439670858053,604.29983611482749,4247.9091839594585,-291.48801646693897,-2965.5103998641866,1492.1046930769385,3316.9164240527771,-612.95096407438177,3220.1860221878742,-3220.1860221878742,612.95096407438177,6493.7318223022903,0.0
618296.95196600363,3735566.251970998,-37500.0,32.034517534542083,1022.6869453681884,3933.2337116676881,-535.78359438473854,-2787.5444368864009,1413.068941747297,3192.7613697990782,-191.80114439783279,2994.4907582481092,-2994.4907582481092,191.80114439783279,6248.9191671777007,0.0
623296.95196600363,3735566.251970998,-37500.0,209.44404649113886,1365.9833650634694,3491.8861757209297,-741.56736124795293,-2538.3672094294352,1303.0585760338461,3024.8577327065286,245.31887157151823,2647.5726738621465,-2647.5726738621465,-245.31887157151823,5912.5387990672489,0.0
628296.95196600363,3735566.251970998,-37500.0,423.69062097739629,1612.848371825791,2957.7994686519378,-897.62525513011963,-2235.41165001529,1169.2260717139632,2825.5154207541514,662.73515106784714,2209.5543985881654,-2209.5543985881654,-662.73515106784714,5504.5882153634911,0.0
633296.95196600363,3735566.251970998,-37500.0,649.62823256955414,1753.2586669218947,2370.0793024029444,-998.1939199885262,-1898.9055988902398,1019.8997184629786,2607.4839382041901,1029.2835099984475,1716.5600571382295,-1716.5600571382295,-1029.2835099984475,5048.6104492750219,0.0
638296.95196600363,3735566.251970998,-37500.0,863.14532262155717,1788.481538606412,1767.8446215781294,-1043.0229136136934,-1549.3597703902942,863.59724573762958,2382.2008131440807,1321.897223151163,1205.6053611224038,-1205.6053611224038,-1321.897223151163,4569.3881759300975,0.0
643296.95196600363,3735566.251970998,-37500.0,1044.3335226020231,1729.2848842919364,1185.841715757831,-1036.6135478789931,-1205.3877872191999,708.15680610761126,2159.5592933965181,1527.3964748530068,710.11185467407245,-710.11185467407245,-1527.3964748530068,4090.7788796227442,0.0
648296.95196600363,3735566.251970998,-37500.0,1179.4238129093339,1593.0428766184177,651.47324342742274,-986.91775487773566,-882.1652538112935,560.10382800311606,1947.927423219922,1642.4587264949009,256.75581427471798,-256.75581427471798,-1642.4587264949009,3633.9155327011058,0.0
653296.95196600363,3735566.251970998,-37500.0,1261.3823786796061,1400.4962968260661,183.44934215900281,-903.83491144343111,-590.64743807721879,424.30667230787918,1753.8328260461171,1672.1569654433004,-136.07696552769698,136.07696552769698,-1672.1569654433004,3215.8730188670907,0.0
658296.95196600363,3735566.251970998,-37500.0,1289.3796668320601,1172.807141406154,-208.1187608423991,-797.80099231481233,-337.48347028774447,303.9043819249203,1581.6103069878407,1627.6621109778739,-458.36468595440522,458.36468595440522,-1627.6621109778739,2848.7698589667616,0.0
563296.95196600363,3740566.251970998,-37500.0,1171.7203322535177,-1502.0669269727994,1275.4969051069143,976.17979655090232,-1126.5865329759222,626.7242235156566,1904.5969679382977,-546.29135137519756,381.51660506640707,-381.51660506640707,546.29135137519756,3714.7457460427895,0.0
568296.95196600363,3740566.251970998,-37500.0,1053.0399820270538,-1581.6792845711498,1677.0488956784598,1000.7973919874119,-1360.2074918571543,729.20884206975188,2089.3708172120964,-763.63310473112153,708.14255338547275,-708.14255338547275,763.63310473112153,4093.4990960347882,0.0
573296.95196600363,3740566.251970998,-37500.0,898.95103883609886,-1607.2955720806999,2107.147754417419,995.35040218929225,-1604.6292807531966,834.78452461017264,2276.0091421312077,-973.91539217644413,1073.5392346797394,-1073.5392346797394,973.91539217644413,4470.8223226029522,0.0
578296.95196600363,3740566.251970998,-37500.0,717.2375446788792,-1566.5020733918957,2548.4481621036584,954.33614464213838,-1850.3504849325143,939.44849904402099,2458.2176450737516,-1160.1630252957161,1463.6825772134493,-1463.6825772134493,1160.1630252957161,4833.3471212682553,0.0
583296.95196600363,3740566.251970998,-37500.0,520.06673529037994,-1450.2262901071797,2978.3628699677929,874.04985739753681,-2085.5104230371921,1038.3422475451432,2627.758665353525,-1303.6827186326936,1858.8562727887979,-1858.8562727887979,1303.6827186326936,5165.9630481540789,0.0
588296.95196600363,3740566.251970998,-37500.0,323.31539830999134,-1254.7710409102281,3370.3527323815351,753.47842259366905,-2296.5887397346551,1126.0438460035434,2775.373306203825,-1386.1181561544563,2234.6056629269992,-2234.6056629269992,1386.1181561544563,5452.7392877718185,0.0
593296.95196600363,3740566.251970998,-37500.0,145.05220233913391,-983.50538854553497,3696.2164447849759,595.00828721239589,-2469.5450655735499,1197.0175665277809,2892.0752457657672,-1392.0318951613162,2563.747916548607,-2563.747916548607,1392.0318951613162,5678.1694624962438,0.0
598296.95196600363,3740566.251970998,-37500.0,3.2834087744729628,-647.75117919952652,3929.2028541425962,404.75259200379469,-2591.3045513487473,1246.1822564965382,2970.164178138034,-1311.6025095753744,2819.3223191202119,-2819.3223191202119,1311.6025095753744,5828.6290728161266,0.0
603296.95196600363,3740566.251970998,-37500.0,-86.698624425190033,-266.48063852783275,4047.4998475135571,192.34153652517998,-2651.3787839843967,1269.5184564927565,3004.0152571331096,-1142.8702363681132,2978.0804352738096,-2978.0804352738096,1142.8702363681132,5893.8528275689932,0.0
608296.95196600363,3740566.251970998,-37500.0,-114.83701410949502,135.3333375436485,4037.4529178848838,-29.879246668114696,-2643.332128423649,1264.6087828350628,2990.749193375475,-892.95098204499391,3023.8804333826938,-3023.8804333826938,892.95098204499391,5868.1991581771999,0.0
613296.95196600363,3740566.251970998,-37500.0,-78.119450055847551,529.54705310122222,3895.8197919432337,-248.15925911023584,-2565.7907324785424,1231.0038897536167,2930.7474411521252,-577.80822947926731,2950.2614468456059,-2950.2614468456059,577.80822947926731,5751.4759802904227,0.0
618296.95196600363,3740566.251970998,-37500.0,18.783568592990015,888.36657674594096,3630.5225470680621,-448.94627080081113,-2422.7624754679764,1170.3323522958358,2827.9165945024233,-220.49778926838712,2761.594518046204,-2761.594518046204,220.49778926838712,5549.1627518042251,0.0
623296.95196600363,3740566.251970998,-37500.0,164.2311808962605,1187.8598292066154,3259.6909015788942,-620.47920133503726,-2223.181877920068,1086.1251940101199,2689.4789825729122,151.81205656615271,2472.521832570822,-2472.521832570822,-151.81205656615271,5271.9733398210956,0.0
628296.95196600363,3740566.251970998,-37500.0,341.50785063547983,1410.7576356171783,2809.2007638963137,-754.06862655192185,-1979.7740322610266,983.39018233866909,2524.8391844944545,511.43047072290324,2105.814136818678,-2105.814136818678,-511.43047072290324,4934.8392291209075,0.0
633296.95196600363,3740566.251970998,-37500.0,531.44860769657566,1548.0388632793515,2309.2438815454152,-844.84546486284432,-1707.4691784788474,868.01790018892746,2343.6332665117698,833.60612977039614,1689.1379517889288,-1689.1379517889288,-833.60612977039614,4555.4803433212001,0.0
638296.95196600363,3740566.251970998,-37500.0,715.20104694009126,1599.1180906189611,1790.6441622726231,-891.89404577516586,-1421.6865794191956,746.13515132642613,2154.4960859064222,1099.2094339609871,1251.4383426160634,-1251.4383426160634,-1099.2094339609871,4152.80701498915,0.0
643296.95196600363,3740566.251970998,-37500.0,876.57650356833847,1570.7898789908384,1281.5917795317532,-897.82808115315152,-1136.7848713776375,623.5134757905189,1965.0803280417272,1296.2427150453927,819.63164852064801,-819.63164852064801,-1296.2427150453927,3745.3758843331329,0.0
648296.95196600363,3740566.251970998,-37500.0,1003.624903203618,1475.3221612890943,805.26782474648348,-867.97142844324412,-864.89702889119781,505.11402086883368,1782.139377836837,1420.102324929253,416.12146425829832,-416.12146425829832,-1420.102324929253,3350.069509799655,0.0
573296.95196600363,3745566.251970998,-37500.0,744.35394697716958,-1435.4872444939606,2084.8261881523631,845.08675480946079,-1465.0644176968785,719.60605920992953,2068.7681460353124,-952.16490774590011,1127.7275289270851,-1127.7275289270851,952.16490774590011,4073.6076326362268,0.0
578296.95196600363,3745566.251970998,-37500.0,585.63691486100049,-1380.1645746062841,2464.6489553131505,801.35034874033386,-1666.0082873929318,801.30834272261995,2220.9419885509537,-1100.573444037017,1466.4986845300664,-1466.4986845300664,1100.573444037017,4374.9002214319717,0.0
583296.95196600363,3745566.251970998,-37500.0,417.88273278125644,-1261.9898396978963,2828.6848190871069,726.37323818937773,-1855.6295976098768,877.53950787974463,2360.731376521805,-1209.5834580680528,1803.5313289504309,-1803.5313289504309,1209.5834580680528,4648.2149754923394,0.0
588296.95196600363,3745566.251970998,-37500.0,253.92461787707407,-1079.4688188090317,3155.5641981009312,620.02965622043655,-2023.5580180873164,944.3255743365097,2480.8522176655506,-1265.362418358679,2118.9564273358924,-2118.9564273358924,1265.362418358679,4881.219239752756,0.0
593296.95196600363,3745566.251970998,-37500.0,107.85420050409749,-836.58323453343996,3423.2087972182158,484.71457136200814,-2159.2896830162758,997.69984846397642,2574.4864322369067,-1256.7457348819948,2391.3648287675751,-2391.3648287675751,1256.7457348819948,5062.1440612982924,0.0
598296.95196600363,3745566.251970998,-37500.0,-6.6548327540275425,-543.2534411171697,3611.1485336667124,325.49550271922567,-2253.2428895851426,1034.0895929942651,2635.9227321115013,-1177.1132405498056,2600.0244431231981,-2600.0244431231981,1177.1132405498056,5180.8268548448777,0.0
603296.95196600363,3745566.251970998,-37500.0,-78.230483545165399,-214.95880658768775,3703.0175594932566,149.89968410312278,-2297.8698270039599,1050.7161144567763,2661.0711303942621,-1025.8797395117563,2727.3905212176246,-2727.3905212176246,1025.8797395117563,5229.7398507735916,0.0
608296.95196600363,3745566.251970998,-37500.0,-99.539886511665742,128.55372602062866,3688.7918827579192,-32.684601861479408,-2288.6358096122035,1045.9419734675773,2647.9186261841605,-809.23384283724056,2761.4759602263598,-2761.4759602263598,809.23384283724056,5204.8501998091324,0.0
613296.95196600363,3745566.251970998,-37500.0,-68.50845279142051,465.33786099746584,3566.3236725573447,-211.92991526950735,-2224.6800197370094,1019.5020704368695,2596.8959754356038,-539.88121735920504,2697.6146807708824,-2697.6146807708824,539.88121735920504,5106.1727632168813,0.0
618296.95196600363,3745566.251970998,-37500.0,11.265626542900662,773.75992787493249,3341.8289225639846,-377.67291710295126,-2109.0136813868567,972.56853927176587,2511.0901440877369,-235.75556653705712,2539.2330747129017,-2539.2330747129017,235.75556653705712,4937.9059186112445,0.0
623296.95196600363,3745566.251970998,-37500.0,131.00903021939018,1034.9969962432813,3029.2111237188274,-521.00764368883858,-1948.2121557338062,907.63694758486292,2396.1301487022333,82.094275821090605,2297.4572647442883,-2297.4572647442883,-82.094275821090605,4708.1309129110405,0.0
628296.95196600363,3745566.251970998,-37500.0,278.07867247906097,1235.0662000639522,2648.3416871490217,-635.1798822403033,-1751.65029362818,828.24985447993333,2259.3116895684534,392.04826893814482,1989.6305509505241,-1989.6305509505241,-392.04826893814482,4428.1087318758755,0.0
633296.95196600363,3745566.251970998,-37500.0,437.78778522165805,1366.0431464131204,2222.6469032221512,-716.13907742610718,-1530.4308964920185,738.6105239911484,2108.0152507403473,674.40585732463796,1637.0575184862855,-1637.0575184862855,-674.40585732463796,4111.2934142584245,0.0
638296.95196600363,3745566.251970998,-37500.0,595.37274534187532,1426.3319355052738,1776.4605589891985,-762.6875030527849,-1296.2007425231145,643.15413663721108,1948.7992009221225,913.39147319306926,1262.4252215517583,-1262.4252215517583,-913.39147319306926,3772.2104412850636,0.0
593296.95196600363,3750566.251970998,-37500.0,81.372112134163615,-712.69243786536344,3160.9830201484597,396.39820646199325,-1890.1132128259849,834.15229011197766,2296.9823823297252,-1132.3920498373409,2220.8092725985839,-2220.8092725985839,1132.3920498373409,4521.6348053340062,0.0
598296.95196600363,3750566.251970998,-37500.0,-11.499282263546517,-456.42861887486924,3312.9392755773624,262.83999203212693,-1962.9488559178003,861.2471120037186,2345.496375175202,-1055.5795506094664,2391.6934507951714,-2391.6934507951714,1055.5795506094664,4615.6176941675476,0.0
603296.95196600363,3750566.251970998,-37500.0,-68.711934828964161,-173.15844368797735,3384.2635732148633,117.09026505017283,-1996.1605760290017,873.12684637675875,2364.0919833816879,-920.4515782768151,2494.2193857299562,-2494.2193857299562,920.4515782768151,4652.2045280868315,0.0
608296.95196600363,3750566.251970998,-37500.0,-84.876454045487392,121.42418901929977,3367.5482445954949,-33.662502529463296,-1986.5260075347533,868.67192422740095,2351.3511584802654,-732.32679818999475,2519.4187379379737,-2519.4187379379737,732.32679818999475,4628.4905278176029,0.0
613296.95196600363,3750566.251970998,-37500.0,-58.560160017592722,410.08640467699308,3261.3854379013524,-181.59562536322105,-1933.5129170927603,847.72892729117382,2307.7011285415597,-501.36773377109432,2463.8985376241017,-2463.8985376241017,501.36773377109432,4544.6043073201863,0.0
618296.95196600363,3750566.251970998,-37500.0,7.4407866932270501,675.86672417584271,3070.6888467589201,-319.02015551623236,-1839.4055989225778,811.15072173103454,2235.5947986746969,-241.62843272087753,2330.3663591045924,-2330.3663591045924,241.62843272087753,4403.7964729627502,0.0
598296.95196600363,3550566.251970998,-42500.0,176.54373063452172,974.86934707490127,2234.6654831379856,540.24693750859581,1635.7889399633459,851.32992170781858,1983.0186739682742,250.05632103665289,1691.0291091061495,-1691.0291091061495,-250.05632103665289,3880.275347708513,0.0
603296.95196600363,3550566.251970998,-42500.0,63.696916716051994,795.90487402731878,2513.0560216055383,430.85370999892592,1793.8226023305333,921.98685520122183,2087.4476159377855,-1.4497199121167341,1914.2631372984204,-1914.2631372984204,1.4497199121167341,4091.9993178643986,0.0
608296.95196600363,3550566.251970998,-42500.0,-23.997878558340158,573.88139904610739,2734.8658398306998,299.06822444265532,1919.6030595507557,978.34578955412451,2172.7736994657198,-252.88900191552989,2082.7347121145658,-2082.7347121145658,252.88900191552989,4261.6504988294337,0.0
613296.95196600363,3550566.251970998,-42500.0,-78.096236204431378,320.28773088804718,2887.3072702971172,150.87540654862244,2006.4810868832037,1017.6087751370251,2234.0325429301429,-488.51160459423818,2185.450672721669,-2185.450672721669,488.51160459423818,4381.6574327716517,0.0
618296.95196600363,3550566.251970998,-42500.0,-93.219740321165546,49.532395741013481,2962.0818335719437,-6.3127210031315037,2050.1038197932553,1037.9240793302445,2267.6690653484475,-693.57030171842746,2216.0681136264138,-2216.0681136264138,693.57030171842746,4446.8669304921268,0.0
623296.95196600363,3550566.251970998,-42500.0,-67.772769856177689,-222.50887905836015,2956.2930455389942,-164.35332791143816,2048.8660008858178,1038.5700739532931,2271.9186999491953,-855.93362504438937,2173.6485274303727,-2173.6485274303727,855.93362504438937,4454.9340389665094,0.0
628296.95196600363,3550566.251970998,-42500.0,-4.116768376906597,-480.16151384866305,2872.6891555635721,-315.17215195053365,2004.0410535544411,1020.0132296005205,2246.8386582474795,-967.35095610707992,2062.713285310012,-2062.713285310012,967.35095610707992,4406.4542047937066,0.0
633296.95196600363,3550566.251970998,-42500.0,91.827521045316047,-709.55582666239036,2719.1906743347449,-451.53730271278312,1919.5662491492953,983.82839863221352,2194.1563073729917,-1024.155881529598,1892.5878627787774,-1892.5878627787774,1024.155881529598,4304.8068994670884,0.0
638296.95196600363,3550566.251970998,-42500.0,211.45948625354987,-899.91083522695669,2507.8135367739405,-567.69047262886818,1801.5339804492551,932.50179867256099,2117.01838253705,-1027.3207675909509,1676.1745076731538,-1676.1745076731538,1027.3207675909509,4155.7533020232795,0.0
643296.95196600363,3550566.251970998,-42500.0,344.67537479978023,-1044.3139084714335,2253.1951762238914,-659.74760079914927,1657.4808176123488,869.15001069876018,2019.6720994060706,-981.90301787555291,1428.3878119212077,-1428.3878119212077,981.90301787555291,3966.8444056947133,0.0
648296.95196600363,3550566.251970998,-42500.0,481.11739782944579,-1139.9330671332941,1970.989555063283,-725.83577885349712,1495.5997114248,797.20419434534597,1907.0989103108495,-896.04197711380198,1164.5313323460352,-1164.5313323460352,896.04197711380198,3746.7334315506359,0.0
583296.95196600363,3555566.251970998,-42500.0,662.76047421707699,1322.7851275776309,1190.2175342304615,810.28467103817354,1132.2531056145938,671.74844776001305,1760.6306614980322,1019.3869064522216,797.19318473624048,-797.19318473624048,-1019.3869064522216,3367.270032953646,0.0
588296.95196600363,3555566.251970998,-42500.0,520.7205648493333,1312.9694596837485,1587.7617014864479,786.97625037554019,1375.135012776454,786.66225339644575,1912.3647822648863,834.41317638543092,1136.3120887537837,-1136.3120887537837,-834.41317638543092,3691.6366586650743,0.0
593296.95196600363,3555566.251970998,-42500.0,367.89517480508107,1240.3297340208462,1982.0451126982018,728.64895703940783,1612.9641048322187,898.43593550902187,2061.1593452385405,601.95560194206757,1469.8136922865388,-1469.8136922865388,-601.95560194206757,4005.4440765454183,0.0
598296.95196600363,3555566.251970998,-42500.0,217.20195798557384,1102.5758768692065,2352.2274512404401,634.57176929318166,1834.2040382971084,1001.9721065850476,2201.006560706222,333.28200710669296,1777.7780350487501,-1777.7780350487501,-333.28200710669296,4294.9588840413053,0.0
603296.95196600363,3555566.251970998,-42500.0,82.641962746927277,902.84448671138455,2676.7260494889042,506.81250854293569,2027.0576990284671,1092.092841992594,2325.1524643745838,44.087659837342699,2039.9659944033885,-2039.9659944033885,-44.087659837342699,4546.7035166230989,0.0
608296.95196600363,3555566.251970998,-42500.0,-22.396867125754095,650.02099448073727,2935.4411044136741,350.3672557828171,2180.6153261638101,1164.0227171810964,2426.5221128863686,-246.85501591251523,2238.0611926318293,-2238.0611926318293,246.85501591251523,4748.501144881353,0.0
613296.95196600363,3555566.251970998,-42500.0,-86.945069329897493,358.2439766755902,3112.0582436677851,172.8924575792073,2286.030618993555,1213.8812718101772,2498.8103641631683,-519.67216972598283,2357.9163353020253,-2357.9163353020253,519.67216972598283,4890.49314594109,0.0
618296.95196600363,3555566.251970998,-42500.0,-104.02529401748079,45.580570784531368,3196.0238252032641,-15.96256229363928,2337.5272475260008,1239.1045576171141,2537.5289398097689,-755.6926868988005,2391.3907101077375,-2391.3907101077375,755.6926868988005,4965.9868684884032,0.0
623296.95196600363,3555566.251970998,-42500.0,-71.665900101403636,-267.94938725225762,3183.8200572636097,-205.53783570105236,2333.0562373253983,1238.7244280478335,2540.5101047430771,-939.67409013140013,2337.413583538671,-2337.413583538671,939.67409013140013,4972.015342536718,0.0
628296.95196600363,3555566.251970998,-42500.0,6.8644030056840295,-562.6611259238673,3079.2809952196917,-385.29905479429328,2274.4739177757178,1213.4506152840361,2507.9635398458377,-1061.530815524359,2202.0464184776483,-2202.0464184776483,1061.530815524359,4909.5093467587412,0.0
633296.95196600363,3555566.251970998,-42500.0,123.64425046603738,-821.39361864654575,2892.9057931506813,-545.93418043464305,2167.2198635303953,1165.5478851618327,2442.2844522988926,-1117.2565832332277,1997.5419940419558,-1997.5419940419558,1117.2565832332277,4783.0732419690703,0.0
638296.95196600363,3555566.251970998,-42500.0,267.36645560252526,-1031.2114080972078,2640.3138850662976,-680.2238040376285,2019.5538636515953,1098.5272093660924,2347.6931413860011,-1108.9070727092414,1740.5971693420499,-1740.5971693420499,1108.9070727092414,4600.3809111158535,0.0
643296.95196600363,3555566.251970998,-42500.0,424.99800859088782,-1184.3708245833652,2340.201777161391,-783.5637795919688,1841.5330437736661,1016.7267067537451,2229.7877575407688,-1043.7386790259143,1450.1870284075344,-1450.1870284075344,1043.7386790259143,4371.3520207199581,0.0
648296.95196600363,3555566.251970998,-42500.0,583.493877692909,-1278.4692461000254,2012.152344686285,-854.09208796043106,1643.8865825825746,924.84027758627417,2094.9981987631927,-932.74104630478087,1145.3613795706278,-1145.3613795706278,932.74104630478087,4107.173598553175,0.0
653296.95196600363,3555566.251970998,-42500.0,731.26141762890404,-1315.8820913299212,1674.6895086246668,-892.46216051560339,1436.9923793402984,827.48128525081836,1949.9385426226081,-788.9107337691778,843.38307341949417,-843.38307341949417,788.9107337691778,3819.3563270962177,0.0
658296.95196600363,3555566.251970998,-42500.0,859.17646114707543,-1302.7042816677249,1343.8139242794566,-901.35849147570968,1230.0744084875387,728.83012181240565,1800.6453944711582,-625.5866544552797,558.42470249133623,-558.42470249133623,625.5866544552797,3518.9117971630603,0.0
573296.95196600363,3560566.251970998,-42500.0,1013.3424032764677,1256.901560292697,307.97277783558621,856.79359469464941,664.2639456654357,489.10099528651023,1592.1570788557351,1394.1337465348456,23.190898917499339,-23.190898917499339,-1394.1337465348456,2944.1503959228112,0.0
578296.95196600363,3560566.251970998,-42500.0,918.44248901404251,1380.8934207281757,695.50097830182597,910.12205695387252,925.10546008113135,621.62637861169776,1753.9115088645181,1329.2368508636923,353.68009387221792,-353.68009387221792,-1329.2368508636923,3293.1226547526126,0.0
583296.95196600363,3560566.251970998,-42500.0,786.45178291225966,1453.2624474828067,1123.2364205599351,931.45269436403032,1206.0221133559737,762.4797114235223,1926.1267534724693,1197.9942684156617,720.5856037022495,-720.5856037022495,-1197.9942684156617,3663.9142431002606,0.0
588296.95196600363,3560566.251970998,-42500.0,625.45772859280214,1460.7319451960636,1574.6216444094548,914.01382864872039,1496.8026023203417,906.78136890263886,2103.3808506773062,1000.4339809897242,1107.5643145685808,-1107.5643145685808,-1000.4339809897242,4042.4948060088154,0.0
593296.95196600363,3560566.251970998,-42500.0,447.93550442850267,1393.5698659229197,2027.8729189546029,853.09055239466511,1784.4977138316369,1048.4681766612377,2279.0690772254457,742.84702573348045,1493.3405183187699,-1493.3405183187699,-742.84702573348045,4412.5656192428423,0.0
598296.95196600363,3560566.251970998,-42500.0,269.86392400993958,1247.5407111584132,2457.3965102643874,747.00092512055483,2054.2422399862166,1180.669620612566,2445.4700935203018,438.2036473328094,1853.2572853205838,-1853.2572853205838,-438.2036473328094,4756.6045513413246,0.0
603296.95196600363,3560566.251970998,-42500.0,109.04642055419369,1025.3995078212167,2836.1126573449264,597.82248556526133,2290.5389989971977,1296.2796412867256,2593.8082995504024,105.56524000529225,2161.7127377351089,-2161.7127377351089,-105.56524000529225,5057.1695335674103,0.0
608296.95196600363,3560566.251970998,-42500.0,-17.18202256451794,737.51101262006989,3138.4323622701877,411.66670029642586,2478.8636585485579,1388.6607479897505,2714.9285309528245,-231.61248859261536,2395.1875758919323,-2395.1875758919323,231.61248859261536,5298.3459100310938,0.0
613296.95196600363,3560566.251970998,-42500.0,-94.475171088093887,401.31392476972979,3343.4281635921434,198.37005298087024,2607.3546679498436,1452.3809549515577,2800.7279203979679,-548.12468889022375,2535.3658829243705,-2535.3658829243705,548.12468889022375,5467.1845684163854,0.0
618296.95196600363,3560566.251970998,-42500.0,-113.71290877475087,39.576704333737609,3437.6027563053012,-29.420187607256064,2668.2861741760903,1483.8571256387743,2845.4868147330981,-820.19259198314808,2571.733490775021,-2571.733490775021,820.19259198314808,5554.9209165762149,0.0
623296.95196600363,3560566.251970998,-42500.0,-72.449991322196666,-322.30943679683116,3416.6747259216304,-257.64337563448555,2659.0264302149326,1481.7782693644358,2846.5268578141668,-1028.5594096102502,2503.0835752549492,-2503.0835752549492,1028.5594096102502,5557.7671464458426,0.0
628296.95196600363,3560566.251970998,-42500.0,24.764716086679616,-659.49985417734047,3286.0042660121226,-472.46065762508312,2582.2929337257219,1447.2303255925037,2804.3089813934607,-1160.8782199321861,2337.5920326245405,-2337.5920326245405,1160.8782199321861,5477.1597098126713,0.0
633296.95196600363,3560566.251970998,-42500.0,167.26521071114277,-950.70270057355094,3059.5684316765219,-661.82103045320673,2445.6481179498451,1383.4942593848364,2722.1656276913072,-1212.9168734581742,2091.4417830032116,-2091.4417830032116,1212.9168734581742,5319.4022295848863,0.0
638296.95196600363,3560566.251970998,-42500.0,340.11012660912559,-1180.450268479018,2757.7612628298357,-816.67410669844878,2260.3717001768105,1295.5734412254255,2605.8006561294578,-1188.4092860090175,1786.3385267357451,-1786.3385267357451,1188.4092860090175,5094.808059332544,0.0
643296.95196600363,3560566.251970998,-42500.0,526.44182021757763,-1340.271155120507,2404.5021830823503,-931.64088950193025,2039.9422872156699,1189.5424957530779,2462.6167596306595,-1097.7015522945742,1446.4635317377658,-1446.4635317377658,1097.7015522945742,4816.4725984250599,0.0
648296.95196600363,3560566.251970998,-42500.0,709.8443380613553,-1428.6925772926559,2024.2666002685955,-1005.0952365691934,1798.4437727915542,1071.8515046882019,2300.9248726129927,-955.60894766130411,1095.4969138477404,-1095.4969138477404,955.60894766130411,4498.9178198558029,0.0
653296.95196600363,3560566.251970998,-42500.0,876.26225423078245,-1450.2635476361186,1639.5434027515132,-1038.7361916184991,1549.1571859078422,948.69620979787601,2129.0114383521409,-778.99750320277337,754.20904711840069,-754.20904711840069,778.99750320277337,4156.7935932518212,0.0
658296.95196600363,3560566.251970998,-42500.0,1015.2208667427477,-1413.957039320072,1269.048788679539,-1036.8177440938973,1303.5197452037851,825.53544808767276,1954.1578400552903,-584.56318302454281,438.91063480693856,-438.91063480693856,584.56318302454281,3803.7934271703925,0.0
663296.95196600363,3560566.251970998,-42500.0,1120.2933436129533,-1331.353278707802,926.80304316166166,-1005.2326393405608,1070.5248669998402,706.79358513745728,1782.0243925243467,-387.13220805867786,160.814372384508,-160.814372384508,387.13220805867786,3451.8785410967107,0.0
668296.95196600363,3560566.251970998,-42500.0,1188.9240191568208,-1214.9424967747073,621.98616842241813,-950.62252043657008,856.53737253185886,595.74331512837159,1616.6833433576012,-198.61860380521796,-73.827169132440375,73.827169132440375,198.61860380521796,3110.8293802313183,0.0
568296.95196600363,3565566.251970998,-42500.0,1214.8442312093498,1117.9153568311549,-239.52896220632502,848.27815549464754,369.25105843935575,377.9431806481391,1561.7843957402499,1551.8866764481077,-462.42503195017719,462.42503195017719,-1551.8866764481077,2813.4336771176368,0.0
573296.95196600363,3565566.251970998,-42500.0,1171.1167863428873,1318.6695776078702,116.85632712819852,951.86354978953977,635.1492861477642,523.22941806223309,1724.6853139959567,1576.6952255124502,-163.67416260926655,163.67416260926655,-1576.6952255124502,3161.2064133016811,0.0
578296.95196600363,3565566.251970998,-42500.0,1076.9974627288536,1481.7270157857313,538.07651373949329,1028.6675163716166,937.81156384679753,685.46908235157298,1907.3064091592501,1530.4777652385201,195.59506648874833,-195.59506648874833,-1530.4777652385201,3554.1826668149611,0.0
583296.95196600363,3565566.251970998,-42500.0,935.16671295809476,1588.0714934262801,1013.1116887891613,1068.1579487697111,1269.3011965174153,860.47519865977472,2105.3152671198959,1404.8425760415532,604.30444110606436,-604.30444110606436,-1404.8425760415532,3979.9057862646891,0.0
588296.95196600363,3565566.251970998,-42500.0,754.19071892526733,1619.9029319796057,1523.4290913844904,1060.7799973224164,1617.4111009677631,1042.0882997742385,2312.3470090169012,1197.5764537231084,1044.0043145119844,-1044.0043145119844,-1197.5764537231084,4421.450663307558,0.0
593296.95196600363,3565566.251970998,-42500.0,548.67082952122655,1563.3478275896803,2043.2890815968447,999.41252317839235,1965.9535843357069,1222.3429761705715,2520.2025391493485,914.4584839851143,1489.3436369175663,-1489.3436369175663,-914.4584839851143,4858.4360802777264,0.0
598296.95196600363,3565566.251970998,-42500.0,338.30771443474674,1411.2523260516007,2541.3454856211561,880.8314386590057,2295.7584112809955,1391.9522159021583,2718.9402834643524,570.15761041907592,1909.8657154790089,-1909.8657154790089,-570.15761041907592,5268.4281360631358,0.0
603296.95196600363,3565566.251970998,-42500.0,145.77855663810533,1165.4554476014498,2983.5851673137236,706.86852343802298,2586.3833225956064,1541.1055698760865,2897.0748613854748,187.74257916632314,2273.1312586905933,-2273.1312586905933,-187.74257916632314,5628.7121275440031,0.0
608296.95196600363,3565566.251970998,-42500.0,-6.3629163917154532,837.90854084532157,3337.3153873007473,484.94667009714431,2818.3683147103188,1660.5026007583604,3042.6323940170314,-203.4172663707443,2548.8148212786764,-2548.8148212786764,203.4172663707443,5918.3236684933545,0.0
613296.95196600363,3565566.251970998,-42500.0,-99.227563813024133,450.15257631015282,3575.5550547001135,227.75015848343597,2975.6856410642522,1742.4685277893577,3145.0789051549641,-571.2022776047404,2713.0677627751829,-2713.0677627751829,571.2022776047404,6120.1042911373142,0.0
618296.95196600363,3565566.251970998,-42500.0,-120.8019810900407,31.021184527508083,3680.9396521459089,-48.030338789078037,3047.9109168661321,1781.94285263134,3197.0440574094464,-885.14798061672786,2752.2194347120339,-2752.2194347120339,885.14798061672786,6222.461221237626,0.0
623296.95196600363,3565566.251970998,-42500.0,-68.044048000344716,-387.09812564564373,3648.2581438618704,-323.70568072642641,3031.6489209105594,1777.1370936275,3195.2007168828636,-1120.7960567914697,2664.9402983666596,-2664.9402983666596,1120.7960567914697,6220.5241920965027,0.0
628296.95196600363,3565566.251970998,-42500.0,52.679611241173646,-772.69470501620344,3485.016511423576,-580.96732292206707,2930.8910123346463,1729.7191898796464,3140.406299870479,-1263.0199712087142,2462.3210691812164,-2462.3210691812164,1263.0199712087142,6116.4810395184277,0.0
633296.95196600363,3565566.251970998,-42500.0,226.91482531720439,-1099.3008226576824,3209.9187228199385,-804.14935313209673,2756.2368383901699,1644.4900445127871,3037.332428030034,-1307.6062030432679,2165.8579264704504,-2165.8579264704504,1307.6062030432679,5919.0437843576738,0.0
638296.95196600363,3565566.251970998,-42500.0,434.82385845069723,-1348.5256516930406,2849.6690392916626,-981.923542092361,2523.1769185490757,1528.6314716135821,2893.7232312464789,-1260.8446662316489,1803.8615975001346,-1803.8615975001346,1260.8446662316489,5642.1509562306865,0.0
643296.95196600363,3565566.251970998,-42500.0,654.5610030549999,-1511.4479238458564,2434.9061893020485,-1108.1523284836851,2249.8604051721154,1390.7082907945849,2719.4169580983703,-1137.4197571799577,1407.180894275421,-1407.180894275421,1137.4197571799577,5303.2056615308074,0.0
648296.95196600363,3565566.251970998,-42500.0,865.52180987340978,-1588.3095485222809,1996.140518973928,-1181.8456567642959,1954.799252496796,1239.6170171663962,2525.1722517947915,-957.2595091211615,1005.1558369955285,-1005.1558369955285,957.2595091211615,4921.124499221959,0.0
653296.95196600363,3565566.251970998,-42500.0,1050.8351177786874,-1586.8798016414912,1560.4667574376576,-1206.3919745823107,1654.9437508651204,1083.6809214809393,2321.3632927374424,-742.15566883300335,622.54041045712074,-622.54041045712074,742.15566883300335,4514.5639604873486,0.0
658296.95196600363,3565566.251970998,-42500.0,1198.7717522099103,-1520.0674058856721,1149.4466670630986,-1188.3444172524223,1364.3580420768446,929.99803205922183,2116.7597692889344,-512.82871528501278,277.73169055831102,-277.73169055831102,512.82871528501278,4100.5043236569054,0.0
663296.95196600363,3565566.251970998,-42500.0,1303.068799921296,-1403.3841734255661,778.23137165004835,-1136.0722963601215,1093.5642151403263,784.08364952493025,1917.9327843173969,-286.85275068072838,-17.708661555771158,17.708661555771158,286.85275068072838,3693.3057497373152,0.0
668296.95196600363,3565566.251970998,-42500.0,1362.3997630677507,-1252.7253299007948,455.72443878885593,-1058.529521732275,849.47712356079353,649.78407350934583,1729.4406543094033,-77.558395046509673,-258.51485993061158,258.51485993061158,77.558395046509673,3304.2428565807995,0.0
673296.95196600363,3565566.251970998,-42500.0,1379.3255283744788,-1082.7245360747186,185.44604627151907,-964.29179667994367,635.76350973471972,529.39414080576739,1554.282695525982,106.20208834881871,-444.5498709598005,444.5498709598005,-106.20208834881871,2941.437561459581,0.0
678296.95196600363,3565566.251970998,-42500.0,1359.0517610461043,-905.74957318239638,-33.252441682669577,-860.9178370712757,453.44266125216706,423.90032041551024,1394.2361328619468,259.66663796517804,-579.38522644319937,579.38522644319937,-259.66663796517804,2610.0804785532787,0.0
558296.95196600363,3570566.251970998,-42500.0,1266.3943829225964,592.26238733359719,-991.31799049907738,601.787219426663,-168.28910370115753,104.17552006834789,1414.2938287012671,1406.6568143817776,-1090.0948874234573,1090.0948874234573,-1406.6568143817776,2459.2261760572496,0.0
563296.95196600363,3570566.251970998,-42500.0,1344.7664417606593,851.63909669978455,-783.31009340209187,758.26873683514543,27.674513885855525,225.59789092813787,1538.3373455998772,1579.9977871776762,-935.12776954881906,935.12776954881906,-1579.9977871776762,2702.3417944050134,0.0
568296.95196600363,3570566.251970998,-42500.0,1375.5411771556876,1114.116072799515,-496.29359393538857,910.46565585252574,275.14883037028591,373.39203149028327,1688.7048714520533,1707.7963831899851,-705.71070014468478,705.71070014468478,-1707.7963831899851,3011.6338327860703,0.0
573296.95196600363,3570566.251970998,-42500.0,1349.6255799600613,1361.7375189912746,-125.92828834673819,1047.1149868461259,575.06175597541448,547.46001010371901,1866.778912977378,1771.5327877689174,-397.5520842311231,397.5520842311231,-1771.5327877689174,3388.4384277406393,0.0
578296.95196600363,3570566.251970998,-42500.0,1261.9078033346675,1572.6050784824711,325.76210532433907,1154.9976286604572,924.18552734589935,745.58251675944598,2071.2650751214637,1754.0098529079778,-12.808559561363836,12.808559561363836,-1754.0098529079778,3826.6539307554526,0.0
583296.95196600363,3570566.251970998,-42500.0,1113.2840270705287,1722.5576453321332,848.35503699239905,1219.9941384691588,1314.053789091352,962.93733869306777,2297.8718204417005,1642.1887007076616,437.92014119853729,-437.92014119853729,-1642.1887007076616,4312.7652382463775,0.0
588296.95196600363,3570566.251970998,-42500.0,912.26863284816261,1787.9219702722362,1421.6659041650748,1228.7018433925286,1730.319859525649,1191.8426314374135,2539.3285084663671,1430.3190947543198,934.34701110086735,-934.34701110086735,-1430.3190947543198,4826.631640463298,0.0
593296.95196600363,3570566.251970998,-42500.0,675.62545537306676,1749.1423459360535,2015.6553574742802,1170.4880817969738,2152.8802718236207,1421.8703545929056,2785.542741180303,1122.7513005428668,1446.6127744820437,-1446.6127744820437,-1122.7513005428668,5342.8340224304438,0.0
598296.95196600363,3570566.251970998,-42500.0,427.49890588513085,1594.7459740601889,2592.1148105780917,1039.6711474196406,2557.0238846761808,1640.4421393674545,3023.6948722734946,735.63021769444197,1937.2494463151634,-1937.2494463151634,-735.63021769444197,5832.5588705046339,0.0
603296.95196600363,3570566.251970998,-42500.0,196.78844518177823,1324.7950575441853,3108.3336766162984,837.36957898037429,2915.6940981075309,1833.939510075932,3238.6523634096893,296.70500083666911,2365.1358944847402,-2365.1358944847402,-296.70500083666911,6266.0470280668742,0.0
608296.95196600363,3570566.251970998,-42500.0,12.962536606376528,952.82638843531561,3522.4303667731588,572.49205590990857,3202.6610953354188,1989.227489263837,3414.5966252512203,-157.21108155743332,2691.0368241877313,-2691.0368241877313,157.21108155743332,6615.4621497897933,0.0
613296.95196600363,3570566.251970998,-42500.0,-98.943599403087276,505.45898179946033,3799.4542313897973,261.44334513459535,3396.0945711214417,2095.3549542765413,3537.6694363991419,-585.00459429140938,2883.7291615445206,-2883.7291615445206,585.00459429140938,6857.8496841959841,0.0
618296.95196600363,3570566.251970998,-42500.0,-122.98169444158292,19.376832175843074,3916.9435888443959,-73.598017583420798,3481.805787969518,2145.0978983943342,3598.2630099852754,-947.41800979182847,2925.3254619136324,-2925.3254619136324,947.41800979182847,6977.7217103604471,0.0
623296.95196600363,3570566.251970998,-42500.0,-55.356986724273725,-463.87676201118273,3868.5591473164432,-407.59466592297576,3455.3916012146356,2135.9944943940659,3592.2123541695587,-1213.2236825071091,2814.410123432031,-2814.410123432031,1213.2236825071091,6968.7587307907816,0.0
628296.95196600363,3570566.251970998,-42500.0,94.965494115836123,-904.15278627440512,3664.842051937821,-716.15300272459274,3322.7476228091336,2070.625160270552,3520.9997069061096,-1363.9022804740925,2566.1198803148118,-2566.1198803148118,1363.9022804740925,6834.284605830102,0.0
633296.95196600363,3570566.251970998,-42500.0,308.27362643021934,-1268.5178358402079,3330.9299650116322,-978.8262193035639,3098.8427796550482,1956.0815865953073,3391.2142383126939,-1395.711705262157,2209.1538571567085,-2209.1538571567085,1395.711705262157,6586.4375621860372,0.0
638296.95196600363,3570566.251970998,-42500.0,558.11647511366073,-1535.3120678266794,2901.8840406369727,-1181.4953147456936,2805.0849318798023,1802.7604755764394,3213.4411017943094,-1318.8049420029863,1780.5477603765173,-1780.5477603765173,1318.8049420029863,6244.2034118450492,0.0
643296.95196600363,3570566.251970998,-42500.0,816.1650279587077,-1695.7283620787944,2416.926225049021,-1317.4216455706676,2465.9947500905332,1622.8071610893685,3000.8070217897939,-1153.9326146003259,1319.6299723215284,-1319.6299723215284,1153.9326146003259,5830.8267207446452,0.0
648296.95196600363,3570566.251970998,-42500.0,1056.688556695533,-1752.9270386158089,1913.9088937574363,-1386.936289935617,2105.9067546735728,1428.5294357439841,2767.2663766066735,-927.81147905838327,862.54594366691379,-862.54594366691379,927.81147905838327,5371.0249473656677,0.0
653296.95196600363,3570566.251970998,-42500.0,1259.7415692051122,-1719.3564452190324,1425.1092518550086,-1396.0932551669798,1746.3466542443741,1231.0943032566665,2525.7974055680984,-668.41380441862316,438.38554319296918,-438.38554319296918,668.41380441862316,4888.5451074101693,0.0
658296.95196600363,3570566.251970998,-42500.0,1412.6830322222831,-1613.2200487724858,974.82755355197003,-1354.7709272493805,1404.3917599804988,1039.6624327072002,2286.9209126413457,-401.14326271453501,67.290454472177032,-67.290454472177032,401.14326271453501,4404.3309247214765,0.0
663296.95196600363,3570566.251970998,-42500.0,1510.1545822939047,-1454.9846020280097,578.74695041251834,-1274.7071819457121,1092.0428686278783,860.99399472524919,2058.1815114717301,-146.39909581180564,-239.62935872911589,239.62935872911589,146.39909581180564,3935.4218548831705,0.0
668296.95196600363,3570566.251970998,-42500.0,1552.9616679707751,-1264.5441019277662,244.64190306980021,-1167.823294683986,816.41617451024422,699.45377630065173,1844.5385986447654,81.436476342700104,-479.09001455694431,479.09001455694431,-81.436476342700104,3494.5343458305215,0.0
673296.95196600363,3570566.251970998,-42500.0,1546.3955479797289,-1059.3126052520461,-26.116327871056036,-1045.0175850564808,580.46572253923148,557.29073401693574,1648.9716781390694,273.86817918675069,-653.75500248615242,653.75500248615242,-273.86817918675069,3090.1746030891045,0.0
678296.95196600363,3570566.251970998,-42500.0,1498.4621130295179,-853.23847112097292,-236.76270886013288,-915.45778536003684,383.95259632371796,435.06287320832308,1472.9267794557304,427.4253220881526,-770.21104091352277,770.21104091352277,-427.4253220881526,2727.1013354916954,0.0
683296.95196600363,3570566.251970998,-42500.0,1418.3301133661867,-656.56246963814772,-393.41929222492416,-786.30114482875672,224.43892867570096,332.10018806563323,1316.6425594387808,542.46316995183884,-837.15585016244609,837.15585016244609,-542.46316995183884,2406.970032340244,0.0
553296.95196600363,3575566.251970998,-42500.0,1202.5398041287638,203.77647293642369,-1371.4496405870664,398.39720851508974,-478.54239605090919,-66.344880467585753,1442.1101905194712,1195.9806486620987,-1390.6336266485932,1390.6336266485932,-1195.9806486620987,2501.4272434109716,0.0
558296.95196600363,3575566.251970998,-42500.0,1359.3035051476134,471.50543721091213,-1263.6039974675887,577.44336911962182,-331.56402099782065,38.884337788399648,1543.9032517564433,1446.4564594010913,-1334.7730787844453,1334.7730787844453,-1446.4564594010913,2675.236806299783,0.0
563296.95196600363,3575566.251970998,-42500.0,1478.86199485563,766.46699073589673,-1078.06661277841,767.32495875517577,-127.72611808393484,175.79670971523709,1670.5467682530546,1674.117911620644,-1206.2934874417633,1206.2934874417633,-1674.117911620644,2912.3423117924472,0.0
568296.95196600363,3575566.251970998,-42500.0,1546.2865810759586,1074.7472376536944,-802.10123403387843,958.05660047616334,139.58813853963369,347.26721256001002,1827.7439235767592,1857.5698424944444,-992.32638489589044,992.32638489589044,-1857.5698424944444,3227.092665244159,0.0
573296.95196600363,3575566.251970998,-42500.0,1548.164759122162,1376.1334443113622,-427.10756273279526,1136.0532910310105,473.75351195812772,554.31281212117142,2019.2234439628276,1973.1400135859035,-684.24117614304987,684.24117614304987,-1973.1400135859035,3626.6682196243328,0.0
578296.95196600363,3575566.251970998,-42500.0,1475.2292411848125,1644.5041865733892,48.42393574655754,1284.5470875646076,873.11580628952811,795.21171688112281,2245.4644977071971,1997.4474498569753,-280.65940905652781,280.65940905652781,-1997.4474498569753,4108.3213061518918,0.0
583296.95196600363,3575566.251970998,-42500.0,1325.2919357978999,1849.5570076373995,615.89024124246725,1384.7823730636183,1329.2580315760417,1064.6806522678405,2502.8865679554747,1911.0595773295568,209.52489528375293,-209.52489528375293,-1911.0595773295568,4658.596537419613,0.0
588296.95196600363,3575566.251970998,-42500.0,1105.8669858615056,1960.1181816483827,1254.1933510207652,1418.0922675220438,1825.7441787784085,1353.3174442312202,2783.570237781184,1702.8551018225844,764.87196979119017,-764.87196979119017,-1702.8551018225844,5254.1128011905685,0.0
593296.95196600363,3575566.251970998,-42500.0,835.64249573707752,1948.9192780955757,1928.8958265601868,1368.7550115087843,2337.860665773258,1647.5567125168179,3075.2611414477242,1374.2882172087197,1350.8008550558993,-1350.8008550558993,-1374.2882172087197,5863.3511747827379,0.0
598296.95196600363,3575566.251970998,-42500.0,543.92558613048175,1798.1886600234413,2593.7883378465917,1227.2330780452694,2833.8355452302199,1930.3578284476202,3361.4343449926446,942.37918184130137,1921.5377919787898,-1921.5377919787898,-942.37918184130137,6449.2447619075811,0.0
603296.95196600363,3575566.251970998,-42500.0,267.49901264215879,1504.8548977219032,3195.3492020902108,993.10914455442366,3277.7740602297667,2182.7256055915477,3622.0279550391797,440.17747390135685,2425.0192626708854,-2425.0192626708854,-440.17747390135685,6972.5801228469063,0.0
608296.95196600363,3575566.251970998,-42500.0,44.998196363898451,1083.8249614798133,3679.8345992947402,676.86603698956299,3634.1183727708576,2385.9593737559198,3835.9339524511097,-86.190189672152201,2810.3535223659892,-2810.3535223659892,86.190189672152201,7396.0831244718738,0.0
613296.95196600363,3575566.251970998,-42500.0,-90.18506605590747,567.96119039222856,4001.7933195037594,299.76174584156348,3872.9031907400217,2524.2755480683968,3984.7057415990921,-583.89391461443597,3036.465526578826,-3036.465526578826,583.89391461443597,7688.746550415025,0.0
618296.95196600363,3575566.251970998,-42500.0,-116.71303252128496,4.1309483399023881,4132.0253817043213,-108.53294580700245,3974.6417529215773,2587.2435459398243,4055.6613552356876,-1002.0630599404967,3079.8091463614442,-3079.8091463614442,1002.0630599404967,7829.6536125677685,0.0
623296.95196600363,3575566.251970998,-42500.0,-29.844064817027402,-554.09120511541255,4062.8415594005996,-514.20575432705095,3933.5986878333556,2571.4436420606953,4043.54323184652,-1300.6309496652448,2938.9674437315034,-2938.9674437315034,1300.6309496652448,7810.5307326147249,0.0
628296.95196600363,3575566.251970998,-42500.0,157.71893492667803,-1055.3384029251474,3809.0865214066207,-884.5261541313962,3758.5358142916593,2480.9006471638122,3950.8101900497577,-1456.981386807942,2634.7197856148141,-2634.7197856148141,1456.981386807942,7636.427142724282,0.0
633296.95196600363,3575566.251970998,-42500.0,418.92722698431459,-1458.6481589386246,3404.6649568913172,-1192.7201763091959,3470.7498326715217,2326.1927707450641,3786.8142406425368,-1468.6380123693009,2205.5531447024741,-2205.5531447024741,1468.6380123693009,7324.3919724348079,0.0
638296.95196600363,3575566.251970998,-42500.0,718.38934692870339,-1738.8926181054146,2895.6854496369206,-1421.3335514303906,3100.0070228809413,2122.5037661435636,3566.1313007168196,-1351.5479948533673,1700.0108760043638,-1700.0108760043638,1351.5479948533673,6900.5016628724652,0.0
643296.95196600363,3575566.251970998,-42500.0,1019.406271149927,-1888.412662992301,2332.2371721022714,-1563.4572948495841,2679.5213125266823,1887.1514094166916,3306.3530643075387,-1134.9058696220116,1168.1023349447266,-1168.1023349447266,1134.9058696220116,6395.9604952166073,0.0
648296.95196600363,3575566.251970998,-42500.0,1290.1202786924027,-1915.091163023237,1760.9074492565028,-1621.882463060635,2241.2204387293978,1637.1908204597462,3025.6068980154382,-854.34816126397413,653.94284138691228,-653.94284138691228,854.34816126397413,5843.127586108385,0.0
653296.95196600363,3575566.251970998,-42500.0,1507.4876576003519,-1838.0413436096892,1219.5086424955798,-1606.7848382598711,1812.2081792598592,1387.5449564084824,2740.0899618461208,-545.4330481046261,191.0094671108952,-191.0094671108952,545.4330481046261,5272.1469185258493,0.0
658296.95196600363,3575566.251970998,-42500.0,1658.7098433131375,-1682.4473504915595,734.56200077276128,-1532.7844348064255,1412.8367105086379,1149.8980724128219,2462.3221643362244,-238.77181988911317,-199.62906432561104,199.62906432561104,238.77181988911317,4708.6320409124592,0.0
663296.95196600363,3575566.251970998,-42500.0,1740.5170923938292,-1474.8433219673909,321.2232845503375,-1416.1177219161298,1056.2758301966117,932.32707088239192,2200.7834584417928,42.656312627230022,-508.61263311227299,508.61263311227299,-42.656312627230022,4172.447662843033,0.0
668296.95196600363,3575566.251970998,-42500.0,1757.112499671734,-1239.6097587512679,-15.110338358961044,-1272.4125334245662,749.19483670819977,739.51333889434613,1960.6079530955342,284.16872655018835,-736.03569202153619,736.03569202153619,-284.16872655018835,3677.4646299637502,0.0
673296.95196600363,3575566.251970998,-42500.0,1717.6111367976559,-996.90765560402463,-276.37825424122718,-1115.2474265943692,493.06286660492464,573.30625763774583,1744.424951780094,478.59514804085347,-888.58049530337644,888.58049530337644,-478.59514804085347,3232.001488109453,0.0
678296.95196600363,3575566.251970998,-42500.0,1633.6089293617431,-761.88420485723555,-469.31899282676585,-955.4518829213107,285.64172600303266,433.42961187142146,1552.9832014561607,624.70913056387315,-976.74743502393687,976.74743502393687,-624.70913056387315,2839.6631411377844,0.0
683296.95196600363,3575566.251970998,-42500.0,1517.2403107738394,-544.79767756792512,-603.25696086035509,-800.98004372132357,122.37922847985335,318.17869048195513,1385.6310905577493,725.43157247750673,-1012.5880484860347,1012.5880484860347,-725.43157247750673,2500.3402169253841,0.0
688296.95196600363,3575566.251970998,-42500.0,1379.8431948539976,-351.68284502555707,-688.4096742499346,-657.15557806076731,-2.452432867622675,225.01787656006925,1240.7379348118898,786.17465530702498,-1008.0837462990323,1008.0837462990323,-786.17465530702498,2211.2081637692795,0.0
548296.95196600363,3580566.251970998,-42500.0,1000.1591600747233,-226.8704393726608,-1626.0851522515381,127.98792287381779,-755.95532893372376,-246.90804416131238,1510.628233140967,842.52391143081104,-1556.9162141408583,1556.9162141408583,-842.52391143081104,2663.6800370374062,0.0
553296.95196600363,3580566.251970998,-42500.0,1225.1109034095787,14.350492527516385,-1624.2307033498082,309.45081267649363,-672.49328236422571,-169.2251126310413,1594.6397086861368,1142.0538786900026,-1604.8201301610559,1604.8201301610559,-1142.0538786900026,2781.1184376274487,0.0
558296.95196600363,3580566.251970998,-42500.0,1432.2706249477799,302.77335594961852,-1557.7892427850236,516.87315126043018,-534.129762804503,-57.805256931562717,1695.7526198080782,1447.0502661000639,-1594.0910478054609,1594.0910478054609,-1447.0502661000639,2939.0033244864239,0.0
563296.95196600363,3580566.251970998,-42500.0,1603.976536096623,631.84666857059676,-1408.2025248319749,743.95016709871277,-329.13571953989828,93.385999086901649,1822.1152713924553,1737.9557093094904,-1505.8577332817822,1505.8577332817822,-1737.9557093094904,3160.3804260157481,0.0
568296.95196600363,3580566.251970998,-42500.0,1720.7595698225664,987.96163767509017,-1157.5785106418423,979.83515400837848,-47.087301282150499,289.38343111911371,1982.3416015641592,1989.5737898611758,-1321.9006217646695,1321.9006217646695,-1989.5737898611758,3468.2517685245703,0.0
573296.95196600363,3580566.251970998,-42500.0,1763.6467880503385,1349.2147317301844,-791.63762729459029,1208.5893585047359,319.09860247880778,533.11235059142575,2183.6398481308488,2172.3573371461644,-1027.7276557199475,1027.7276557199475,-2172.3573371461644,3879.1758942113865,0.0
578296.95196600363,3580566.251970998,-42500.0,1717.5276018790103,1685.2130065966223,-303.57136556609123,1409.3309756982108,770.64466493033956,824.06456803940944,2429.6704709179508,2255.2556249911659,-616.56471036770085,616.56471036770085,-2255.2556249911659,4397.4412608531129,0.0
583296.95196600363,3580566.251970998,-42500.0,1575.2666131134488,1958.5957226832543,301.63815026832765,1557.4529874400289,1300.2336025561228,1156.9396014151589,2718.806948260506,2210.2655289453905,-93.749019474201305,93.749019474201305,-2210.2655289453905,5012.1279975530379,0.0
588296.95196600363,3580566.251970998,-42500.0,1341.8056844497685,2128.8241108187003,1003.3366533243448,1627.18935433212,1889.7593538937947,1520.5616925935587,3043.1766859018408,2018.3744621963833,519.45024950309733,-519.45024950309733,-2018.3744621963833,5697.3240634717686,0.0
593296.95196600363,3580566.251970998,-42500.0,1037.0309879804522,2158.3202908503936,1763.0644157269028,1595.5159137420324,2509.3158490230767,1897.4772184445014,3388.2557930471453,1675.887352802039,1183.968080913166,-1183.968080913166,-1675.887352802039,6414.4236019151977,0.0
598296.95196600363,3580566.251970998,-42500.0,695.98575527292417,2020.2521331784935,2525.5945842530505,1446.9185030958904,3118.2621062037051,2264.6397223254908,3732.7947356708796,1199.4646857183466,1844.4836594215813,-1844.4836594215813,-1199.4646857183466,7115.7411269168633,0.0
603296.95196600363,3580566.251970998,-42500.0,365.31585163529132,1706.3259125788888,3224.1617509920998,1178.0393899119658,3668.9375341168802,2595.4534263315118,4050.0505850865179,627.86439550675163,2435.30912773826,-2435.30912773826,-627.86439550675163,7749.3339377033844,0.0
608296.95196600363,3580566.251970998,-42500.0,95.792104015016818,1232.2249487071888,3789.800575407146,800.81898156599334,4112.9011999146614,2863.0860581958641,4311.58845167651,18.748941580087376,2890.3633363342451,-2890.3633363342451,-18.748941580087376,8264.8741093330136,0.0
613296.95196600363,3580566.251970998,-42500.0,-67.788851450557161,638.39268772496825,4163.2338181522182,342.81175224668345,4408.7016238945844,3044.5448257977041,4492.5508260920878,-559.79559242911068,3155.3946896719035,-3155.3946896719035,559.79559242911068,8620.0327606494775,0.0
618296.95196600363,3580566.251970998,-42500.0,-96.657944412717711,-15.077616149700768,4306.3511317245493,-156.02368716162181,4529.3355467734573,3124.5871967124967,4575.9784113422365,-1041.5099607362904,3199.2459195182905,-3199.2459195182905,1041.5099607362904,8786.2444339502763,0.0
623296.95196600363,3580566.251970998,-42500.0,15.112182742365283,-658.75259383921707,4209.8824683784514,-649.65163264963485,4467.3044604236065,3098.4162868218909,4555.1709530341559,-1374.760268564949,3020.6653764841249,-3020.6653764841249,1374.760268564949,8752.5735419681569,0.0
628296.95196600363,3580566.251970998,-42500.0,249.4074493151098,-1226.687872204204,3894.7824070797965,-1093.8490904934479,4235.7154309191774,2972.3679562184848,4434.109677820984,-1532.0696102489874,2648.3317069972627,-2648.3317069972627,1532.0696102489874,8526.7064569471859,0.0
633296.95196600363,3580566.251970998,-42500.0,568.89864802179386,-1668.0622388200325,3406.9120967039266,-1453.4880748840994,3865.1073393185757,2762.3967328068825,4226.1775770240674,-1513.5801563833234,2134.0539940856843,-2134.0539940856843,1513.5801563833234,8132.8297044241308,0.0
638296.95196600363,3580566.251970998,-42500.0,926.11862121717286,-1954.4042518869276,2806.8867298839118,-1707.2866358944775,3397.0777326501848,2490.8638593496257,3951.5824820519069,-1343.8565094808264,1541.4674726980788,-1541.4674726980788,1343.8565094808264,7607.0214718025018,0.0
643296.95196600363,3580566.251970998,-42500.0,1273.6902151347435,-2080.9821415026272,2158.3531316954932,-1849.0972307250588,2876.6755365487998,2182.5888850604119,3634.0118223650834,-1063.7621729748253,933.82323250444392,-933.82323250444392,1063.7621729748253,6991.3792969237938,0.0
648296.95196600363,3580566.251970998,-42500.0,1572.7036364687931,-2063.0383479029433,1517.9336863728688,-1886.0186099124469,2345.5928605034155,1861.1974761120148,3297.022226536496,-720.4660683197867,364.18654689460504,-364.18654689460504,720.4660683197867,6328.2720472054752,0.0
653296.95196600363,3580566.251970998,-42500.0,1797.4689265821603,-1928.9784534668654,928.85104365576797,-1834.4874759011529,1837.5087708473832,1546.4877713808369,2960.7305484567869,-358.53592379814035,-130.10798237919266,130.10798237919266,358.53592379814035,5655.7673056338081,0.0
658296.95196600363,3580566.251970998,-42500.0,1936.433576224485,-1712.9448551868754,418.66624073449566,-1715.7647556280967,1376.0034116236034,1253.0883263631331,2639.8073183948018,-13.951811314068493,-528.62023317889066,528.62023317889066,13.951811314068493,5004.7639108339781,0.0
663296.95196600363,3580566.251970998,-42500.0,1990.2042803487748,-1448.6031923922392,0.31766531387184493,-1551.9454024336787,974.66424839170122,990.27130040506961,2343.4297714585687,288.52400512716099,-825.69947000814545,825.69947000814545,-288.52400512716099,4397.7982976784133,0.0
668296.95196600363,3580566.251970998,-42500.0,1968.0703754117728,-1165.0284805494716,-324.88192710335716,-1363.1132425986568,638.63090930587612,762.57934379354401,2076.4504775107389,535.21236619449701,-1026.6641131665781,1026.6641131665781,-535.21236619449701,3849.2026427808792,0.0
673296.95196600363,3580566.251970998,-42500.0,1884.2633212272158,-884.71481936601401,-563.58857161653043,-1165.7474808525956,366.76874224209917,570.85981541053013,1840.6020887169202,721.66675571115138,-1143.6385992853388,1143.6385992853388,-721.66675571115138,3366.0972703751254,0.0
678296.95196600363,3580566.251970998,-42500.0,1754.7651863131209,-623.25633449130396,-727.01267039273807,-972.18720878134081,153.872159074032,413.39267992202718,1635.3970396547111,850.11765721984364,-1191.9348781886483,1191.9348781886483,-850.11765721984364,2949.8020532234159,0.0
683296.95196600363,3580566.251970998,-42500.0,1595.014308166775,-390.07870631412158,-828.21555165506811,-790.82009746922233,-7.4617131727953856,286.90337059104928,1458.8274932388479,926.94488875177285,-1187.3726296110726,1187.3726296110726,-926.94488875177285,2597.3417559454115,0.0
688296.95196600363,3580566.251970998,-42500.0,1418.5244906538846,-189.66985196408166,-880.23724157707068,-626.67222870213084,-125.42723813271765,187.36507605724904,1307.9574897328798,960.57928745096956,-1144.5721208843086,1144.5721208843086,-960.57928745096956,2302.8658315840516,0.0
693296.95196600363,3580566.251970998,-42500.0,1236.2548684204958,-22.91463525028389,-894.97170617633321,-482.14836863681097,-208.06862281760513,110.57122691991755,1179.4177551720836,959.97382275106111,-1076.060389834905,1076.060389834905,-959.97382275106111,2058.8971627358637,0.0
543296.95196600363,3585566.251970998,-42500.0,661.82217024836837,-647.69647458988459,-1732.7978251579223,-188.03727634436129,-972.72295134877231,-422.303164635435,1611.3610282120967,377.15209495509976,-1567.6456957010737,1567.6456957010737,-377.15209495509976,2918.3283745001631,0.0
548296.95196600363,3585566.251970998,-42500.0,930.25410553819404,-464.29736763667432,-1825.7650007438631,-27.215719331330121,-958.63069776779093,-381.11247071838932,1690.4862697433366,687.09104848126253,-1706.2091542055132,1706.2091542055132,-687.09104848126253,3017.7854362163193,0.0
553296.95196600363,3585566.251970998,-42500.0,1205.4465113614956,-222.74384165024162,-1876.1589351114474,171.25999836206535,-899.00906518192733,-308.29840493143018,1776.6629614923463,1030.0484659764688,-1809.3877646388923,1809.3877646388923,-1030.0484659764688,3128.0085576368656,0.0
558296.95196600363,3585566.251970998,-42500.0,1471.3719660635031,79.069864763518495,-1863.9165304014271,406.44376759905651,-779.03711937298056,-195.2739974418827,1876.5753116261062,1392.864946367954,-1856.8093470839422,1856.8093470839422,-1392.864946367954,3267.7446736006218,0.0
563296.95196600363,3585566.251970998,-42500.0,1707.2278397433297,437.46675376973036,-1766.124515310252,673.09012667170066,-582.76187395014722,-33.141634588981582,1999.7944706167684,1754.9340135232192,-1825.0309204208102,1825.0309204208102,-1754.9340135232192,3464.1395353288544,0.0
568296.95196600363,3585566.251970998,-42500.0,1888.4752748575256,840.49941524654469,-1558.9313023918717,960.18280165976955,-294.72080661271792,186.29666974585891,2158.0737661734906,2087.6409280534517,-1689.5650377507982,1689.5650377507982,-2087.6409280534517,3749.6232202845995,0.0
573296.95196600363,3585566.251970998,-42500.0,1989.2896952816534,1265.7035611584934,-1220.8703132085798,1249.7400274798147,97.521827445210846,469.04822167243532,2363.2960016544857,2355.1619236616543,-1428.3922960248008,1428.3922960248008,-2355.1619236616543,4154.0512129596264,0.0
578296.95196600363,3585566.251970998,-42500.0,1986.6599608593299,1678.8948588207666,-737.67614596587498,1516.4035442560403,599.94596634329901,816.9979690696066,2624.2984285330554,2517.3200432836493,-1027.0121822293524,1027.0121822293524,-2517.3200432836493,4694.4512412625199,0.0
583296.95196600363,3585566.251970998,-42500.0,1865.9519585862395,2035.0494861866155,-108.21712627446938,1728.4320305308054,1208.080644980158,1225.7397452906207,2943.5658299478355,2534.9842859493979,-484.58015529123213,484.58015529123213,-2534.9842859493979,5367.3471766731236,0.0
588296.95196600363,3585566.251970998,-42500.0,1627.0751828563834,2282.3010426876549,649.5226645411301,1850.6776610786524,1903.2115604556946,1682.6039622155552,3314.8066461114031,2377.9143199867058,180.05567919262035,-180.05567919262035,-2377.9143199867058,6146.6523380671097,0.0
593296.95196600363,3585566.251970998,-42500.0,1289.5712281016879,2369.5638347965128,1494.2268389158562,1849.7690419247167,2649.9942478392231,2165.5225798070528,3721.5387694191313,2033.9266499709647,924.37362977970872,-924.37362977970872,-2033.9266499709647,6986.1827701774491,0.0
598296.95196600363,3585566.251970998,-42500.0,894.38896215050158,2257.1932097588192,2361.0520149163945,1701.0475716342803,3396.9151431330292,2643.4824582582223,4136.62756538965,1517.0862308805301,1682.5997085403553,-1682.5997085403553,-1517.0862308805301,7824.8097301003227,0.0
603296.95196600363,3585566.251970998,-42500.0,500.27044916609202,1928.5297358612934,3167.3677349757804,1395.8689586600135,4080.7595104787592,3079.1491500888887,4524.258441451173,871.77227827872866,2372.4010644541327,-2372.4010644541327,-871.77227827872866,8593.4119373521808,0.0
608296.95196600363,3585566.251970998,-42500.0,173.97554596292156,1398.7903828164999,3824.883662467621,947.08022101744973,4635.2810289239251,3433.7324227871786,4845.7698816211496,169.69843842693899,2908.0588012896624,-2908.0588012896624,-169.69843842693899,9223.4640576817164,0.0
613296.95196600363,3585566.251970998,-42500.0,-24.096435584245338,717.4574041391071,4256.2114230507441,390.32991876530866,5002.7297953604848,3673.3691880048773,5067.2539667273286,-501.23865990939134,3217.7412078437419,-3217.7412078437419,501.23865990939134,9656.5635797373307,0.0
618296.95196600363,3585566.251970998,-42500.0,-54.87201265771612,-38.219177723532269,4411.4871670892162,-220.23073475852175,5145.3489050725593,3775.4886121526938,5165.7088934206322,-1054.3579678510002,3260.0512981206493,-3260.0512981206493,1054.3579678510002,9853.2224886720705,0.0
623296.95196600363,3585566.251970998,-42500.0,89.047585553300252,-777.86715117537108,4279.6627168635832,-821.40617937987463,5053.3148366370906,3733.2938795465038,5132.509775962787,-1422.8816322907635,3034.2146653111013,-3034.2146653111013,1422.8816322907635,9798.8510210102486,0.0
628296.95196600363,3585566.251970998,-42500.0,381.66976762137415,-1416.6331726283784,3890.367767224885,-1353.0448270931565,4746.3744581385554,3556.8672795181305,4974.0197107901704,-1573.7344443368831,2579.9965890292324,-2579.9965890292324,1573.7344443368831,9505.2081920383516,0.0
633296.95196600363,3585566.251970998,-42500.0,771.21678012181633,-1891.8069867978677,3305.7051989484148,-1769.0471448991459,4268.6451891738925,3270.5539977902813,4709.5543794122777,-1511.9102974357588,1967.3016894956895,-1967.3016894956895,1511.9102974357588,9006.9504562619495,0.0
638296.95196600363,3585566.251970998,-42500.0,1193.9784793016424,-2172.3419920358447,2605.1377729198248,-2044.0638751936513,3678.5022398181418,2907.5712174020646,4367.3351699077166,-1274.6840557850207,1279.3665252674812,-1279.3665252674812,1274.6840557850207,8354.3734091750721,0.0
643296.95196600363,3585566.251970998,-42500.0,1589.2153744190657,-2259.3475898090546,1868.8078923436572,-2174.5176016654036,3036.9896891373319,2503.6297863170898,3979.3832272507193,-918.85322103806539,595.42954796672825,-595.42954796672825,918.85322103806539,7604.4800200462405,0.0
648296.95196600363,3585566.251970998,-42500.0,1910.4110029099174,-2179.1795739490362,1164.237477308003,-2174.7594752191899,2398.0911287748768,2091.3689733291753,3576.277209986994,-506.138985946817,-22.080423403754452,22.080423403754452,506.138985946817,6812.6556585214466,0.0
653296.95196600363,3585566.251970998,-42500.0,2130.536078265116,-1972.849598517249,539.04076828876293,-2070.545543483322,1802.8009057006227,1696.7225137729101,3182.7507953664663,-91.258949244438185,-533.52033647036217,533.52033647036217,91.258949244438185,6026.5077575599789,0.0
658296.95196600363,3585566.251970998,-42500.0,2241.6534446881406,-1685.574770302494,19.656375507356532,-1892.221432155362,1277.2747399373372,1337.4811797563636,2815.5335669404385,285.01046257728211,-921.69546307738028,921.69546307738028,-285.01046257728211,5282.5197950427082,0.0
663296.95196600363,3585566.251970998,-42500.0,2250.8001279481391,-1358.9080955622107,-385.66843243404253,-1669.2480245383724,834.0746310130146,1023.6100808532336,2483.9049700223072,597.78025990280844,-1187.4243112200777,1187.4243112200777,-597.78025990280844,4605.1727344281726,0.0
668296.95196600363,3585566.251970998,-42500.0,2174.4606449922098,-1026.2794177041671,-681.86694136162214,-1426.7639747805811,475.1352521057342,758.64130028104171,2191.6137985151449,836.40559153018091,-1343.5108182329488,1343.5108182329488,-836.40559153018091,4007.8776201398368,0.0
673296.95196600363,3585566.251970998,-42500.0,2033.3637267427891,-711.52392175840419,-881.84576477879818,-1184.0661089232226,195.19723435443046,541.46229373775225,1938.6493593354912,1001.0282260453477,-1409.0058490021322,1409.0058490021322,-1001.0282260453477,3494.8753129193433,0.0
678296.95196600363,3585566.251970998,-42500.0,1848.5232886034851,-429.45178455226568,-1002.1453233819802,-954.51103495657094,-15.092025102365611,368.03945318543288,1722.5436106880372,1098.7455389564527,-1404.7470968690802,1404.7470968690802,-1098.7455389564527,3063.4978183617559,0.0
683296.95196600363,3585566.251970998,-42500.0,1638.744855046237,-187.48167079528483,-1059.8561345018898,-746.25606100178459,-166.78295379539057,232.83006806425169,1539.3692169088799,1140.2770462803912,-1350.4308135891408,1350.4308135891408,-1140.2770462803912,2706.4058770079578,0.0
688296.95196600363,3585566.251970998,-42500.0,1419.402686302702,12.404629148120131,-1070.7386013267258,-563.35804887503434,-270.99648146467638,129.80645484548273,1384.5341902432033,1137.4851607242042,-1263.0306349050481,1263.0306349050481,-1137.4851607242042,2413.6033289028533,0.0
693296.95196600363,3585566.251970998,-42500.0,1202.1333804234389,171.83577503882881,-1048.2897923519699,-406.90958316983244,-337.95808220008723,53.119529018093253,1253.3844630628173,1101.7673949533119,-1156.2069180206063,1156.2069180206063,-1101.7673949533119,2174.126425393054,0.0
698296.95196600363,3585566.251970998,-42500.0,995.09021079504475,294.56190659166236,-1003.4576767774156,-276.03754602456627,-376.52644316793271,-2.5256018377138054,1141.6094666210959,1043.1680778866173,-1040.3439840499097,1040.3439840499097,-1043.1680778866173,1977.3352805464749,0.0
538296.95196600363,3590566.251970998,-42500.0,213.49577144287497,-1006.647546099354,-1693.063145047425,-520.08470800521218,-1109.5972856792157,-577.46616300149492,1724.9179571655209,-149.19657647189172,-1426.9592982506992,1426.9592982506992,149.19657647189172,3208.9987100239709,0.0
543296.95196600363,3590566.251970998,-42500.0,490.7618598330094,-901.43000847901351,-1855.4079976464113,-401.2316901405315,-1160.6175028395946,-577.47706043486187,1814.0445030699454,130.30212987536606,-1628.0455183021766,1628.0455183021766,-130.30212987536606,3331.8411107633247,0.0
548296.95196600363,3590566.251970998,-42500.0,798.63301196083944,-738.40750231235052,-2000.6534429425687,-239.27360048987995,-1181.0133557624249,-552.11729263514906,1903.0540518439147,463.2479223723351,-1820.5335397796678,1820.5335397796678,-463.2479223723351,3445.4700892497935,0.0
553296.95196600363,3590566.251970998,-42500.0,1126.7513707034716,-508.14016437872351,-2111.7428851455584,-29.551753716414183,-1155.7606740007423,-491.57839327968117,1994.6381537202492,845.5472569736138,-1987.368401102804,1987.368401102804,-845.5472569736138,3556.7502063737306,0.0
558296.95196600363,3590566.251970998,-42500.0,1458.5616018074388,-204.14562441869541,-2166.4869970932236,229.73976802263743,-1066.5756610009153,-384.34648195618672,2094.5758815451454,1266.1202330848487,-2105.9598107204761,2105.9598107204761,-1266.1202330848487,3681.4093083359712,0.0
563296.95196600363,3590566.251970998,-42500.0,1770.6869167717055,174.32735614366348,-2137.883336957213,535.63191086531162,-892.57980301732971,-217.7600666228993,2212.7843865158143,1704.7513729071516,-2148.5097608743927,2148.5097608743927,-1704.7513729071516,3847.1845460112331,0.0
568296.95196600363,3590566.251970998,-42500.0,2033.406416735065,618.87372362701001,-1995.7088622885285,878.14947975151256,-611.95035077245598,20.839193606617009,2363.6157535000657,2130.4862264768444,-2083.7173932987062,2083.7173932987062,-2130.4862264768444,4094.0486916604268,0.0
573296.95196600363,3590566.251970998,-42500.0,2212.9237142369939,1108.3452499877214,-1709.9556738289418,1238.149452023315,-204.89163702392375,342.20174208631136,2564.3929890187637,2501.457322419677,-1880.4590791919468,1880.4590791919468,-2501.457322419677,4467.6882444909834,0.0
578296.95196600363,3590566.251970998,-42500.0,2276.0236747219833,1606.083747600047,-1256.5045521726745,1585.906073157681,341.90036474224365,752.45609260185972,2831.5543224511239,2767.2499059391303,-1513.8275232138676,1513.8275232138676,-2767.2499059391303,5005.2437674359899,0.0
583296.95196600363,3590566.251970998,-42500.0,2197.2610266189495,2059.4740152713107,-624.90095289905219,1881.4148207882752,1029.5090139134861,1249.7661919293339,3175.141813039791,2874.8568327291537,-973.31532180135207,973.31532180135207,-2874.8568327291537,5719.396128413875,0.0
588296.95196600363,3590566.251970998,-42500.0,1967.8650272302241,2403.5612933983807,172.88072967227245,2077.4819509204722,1840.70304084247,1820.9079211470441,3593.5010144066537,2778.6128728346621,-271.85933613135853,271.85933613135853,-2778.6128728346621,6589.6477005940069,0.0
593296.95196600363,3590566.251970998,-42500.0,1604.2136970020088,2570.0537872771943,1095.0542358309153,2126.336104292689,2735.1983715264159,2438.7500057923939,4069.4946166129976,2453.103191744337,546.86204413089331,-546.86204413089331,-2453.103191744337,7563.3313925447319,0.0
598296.95196600363,3590566.251970998,-42500.0,1152.4793421395366,2501.5593392662563,2067.4360565596303,1989.520736593897,3648.630699145941,3061.9446686800347,4568.9597253992524,1906.050378999008,1406.5168186233032,-1406.5168186233032,-1906.050378999008,8562.8043948769991,0.0
603296.95196600363,3590566.251970998,-42500.0,685.77615566417114,2168.4582966898852,2989.0617134193571,1649.270224996264,4497.4987082635571,3638.0569570044677,5043.7988482226601,1186.4022622820121,2205.0462215619555,-2205.0462215619555,-1186.4022622820121,9495.8167331454697,0.0
608296.95196600363,3590566.251970998,-42500.0,291.73904628643106,1583.2139317103104,3747.5487051094738,1117.9488404913295,5191.0085918218429,4110.617201047824,5440.9793546346436,382.54493629287958,2831.6965861146309,-2831.6965861146309,-382.54493629287958,10268.299432598023,0.0
613296.95196600363,3590566.251970998,-42500.0,52.110056127476447,805.77285067794651,4242.0352949946791,441.4364214018176,5648.2006246249302,4429.1772566864538,5713.6661388908569,-392.07373873376355,3191.338706334514,-3191.338706334514,392.07373873376355,10798.774251774836,0.0
618296.95196600363,3590566.251970998,-42500.0,20.310299480089281,-64.444403470821086,4407.2995295499877,-306.46096862527645,5815.8518486736421,4559.8461637883329,5830.2134164587724,-1023.6992251987715,3228.8720521011664,-3228.8720521011664,1023.6992251987715,11031.988842375798,0.0
623296.95196600363,3590566.251970998,-42500.0,205.53300092098746,-909.44982783229682,4230.437524035764,-1038.2851952939097,5681.0929198142057,4492.88233893909,5779.3933779679919,-1425.7824202558395,2944.5608192071177,-2944.5608192071177,1425.7824202558395,10948.283186082335,0.0
628296.95196600363,3590566.251970998,-42500.0,570.2607692789885,-1619.9989746131025,3753.352502086997,-1671.7102441905638,5273.889247179487,4244.5305639593171,5571.3161762910113,-1559.1230452096825,2393.7255797737862,-2393.7255797737862,1559.1230452096825,10565.77268946297,0.0
633296.95196600363,3590566.251970998,-42500.0,1042.3922194723962,-2119.4708377179468,3060.0112737133741,-2146.3846379564911,4658.3973527026874,3852.4037572362927,5234.1124836399531,-1437.1748122724603,1670.6957764443032,-1670.6957764443032,1437.1748122724603,9934.625674586463,0.0
638296.95196600363,3590566.251970998,-42500.0,1536.5620187346001,-2376.1754433931533,2253.8925283999679,-2433.3051570255561,3916.7416269613018,3366.2684155157067,4807.4784104808541,-1115.7489355208988,883.71883909665985,-883.71883909665985,1115.7489355208988,9125.4605598001199,0.0
643296.95196600363,3590566.251970998,-42500.0,1975.8354102866629,-2401.6463812341444,1434.4053086056626,-2534.7782405314279,3131.2993528116726,2837.6253890776002,4334.8198450618502,-672.99924717052124,130.51165131721007,-130.51165131721007,672.99924717052124,8215.6285624808734,0.0
648296.95196600363,3590566.251970998,-42500.0,2306.438162600446,-2238.4704825986596,679.76399997867156,-2476.9733597420468,2370.9704770707972,2311.2606794223689,3855.6446992847596,-188.31267618807709,-517.96007069315783,517.96007069315783,188.31267618807709,7277.1478712445169,0.0
653296.95196600363,3590566.251970998,-42500.0,2502.7415783807305,-1944.1646993293482,39.489992054585187,-2299.1994943218092,1684.0975936833984,1820.4538077127695,3399.8250651675544,273.14334257080446,-1022.9172208320558,1022.9172208320558,-273.14334257080446,6368.6196887306187,0.0
658296.95196600363,3590566.251970998,-42500.0,2564.1285042074951,-1576.9057591871065,-464.58550431487828,-2043.8265708616684,1097.6945478625184,1385.8506003878413,2985.5390112856708,667.65486238434073,-1374.4236342901747,1374.4236342901747,-667.65486238434073,5531.6504776958327,0.0
663296.95196600363,3590566.251970998,-42500.0,2507.4762281812377,-1186.1408976077698,-832.22035877129531,-1749.1027706704626,620.84859537501359,1016.9199065819305,2620.9590754678779,973.08188415146594,-1583.3510396559409,1583.3510396559409,-973.08188415146594,4790.8826650240826,0.0
668296.95196600363,3590566.251970998,-42500.0,2358.8604857885307,-808.41193470641849,-1077.0475806006646,-1445.3846878584768,249.88950239671632,714.6779747574717,2307.3666291493255,1184.6863666378829,-1672.4633921607931,1672.4633921607931,-1184.6863666378829,4156.3054464788647,0.0
673296.95196600363,3590566.251970998,-42500.0,2146.7289108400773,-467.11601485661197,-1219.6228487533717,-1154.1522950820886,-26.482353604995261,474.61851704632898,2041.7806302059589,1309.4523373891147,-1668.9834177729358,1668.9834177729358,-1309.4523373891147,3626.6050504380291,0.0
678296.95196600363,3590566.251970998,-42500.0,1897.3666120321996,-174.50752086466753,-1282.2952512804954,-888.78281690268295,-223.06591382480184,289.2265175388809,1818.8264860219683,1360.77138228493,-1599.5141897107978,1599.5141897107978,-1360.77138228493,3192.7199871439625,0.0
683296.95196600363,3590566.251970998,-42500.0,1632.5304908007124,65.462237558919227,-1286.018230502832,-656.15481574371495,-355.2974672345714,149.84161392895282,1632.0974563235577,1354.3691630112967,-1487.2076066407731,1487.2076066407731,-1354.3691630112967,2841.1574101968195,0.0
688296.95196600363,3590566.251970998,-42500.0,1368.7021431265368,254.35940436770431,-1248.7408263033981,-458.43408305469853,-437.53518583489534,47.877498723636464,1475.13503544633,1305.6364200688076,-1350.6331550414438,1350.6331550414438,-1305.6364200688076,2556.8134311987455,0.0
693296.95196600363,3590566.251970998,-42500.0,1117.3451503850758,396.96838001212205,-1184.8859317493373,-294.67867328787236,-482.21301941931222,-24.483908007042778,1342.0596767768934,1228.1544572537553,-1203.7307264196791,1203.7307264196791,-1228.1544572537553,2325.1093822383345,0.0
698296.95196600363,3590566.251970998,-42500.0,885.66556077757434,499.59945697646515,-1105.4721967870867,-162.11427666289217,-499.57312757986227,-73.974742053223864,1227.8901889334122,1133.0811141371353,-1056.339890123493,1056.339890123493,-1133.0811141371353,2133.3365738900029,0.0
533296.95196600363,3595566.251970998,-42500.0,-299.77574925141801,-1262.912057011454,-1530.9865173976621,-835.94043702907766,-1159.4882855532976,-700.18049739346986,1829.4770400465945,-675.96944824552588,-1163.2737192432289,1163.2737192432289,675.96944824552588,3478.1734240009318,0.0
538296.95196600363,3595566.251970998,-42500.0,-50.495620287710636,-1240.9848744522124,-1729.619254699699,-774.23662819138849,-1262.42736337819,-740.97675357517323,1939.4244764092855,-460.77647790360612,-1390.7301316028042,1390.7301316028042,460.77647790360612,3651.9095242931976,0.0
543296.95196600363,3595566.251970998,-42500.0,246.81690332153079,-1171.7311230484597,-1934.0576349194332,-671.38900370902752,-1351.8787400518629,-765.760228459215,2047.377346135414,-182.98763300401004,-1633.4330532911099,1633.4330532911099,182.98763300401004,3811.4435526615657,0.0
548296.95196600363,3595566.251970998,-42500.0,589.62383110373753,-1041.7262549573143,-2133.3077964843337,-518.463006088464,-1415.3900676077881,-765.18328225274809,2152.3829850565039,162.19252025474088,-1880.9800132015102,1880.9800132015102,-162.19252025474088,3953.8324941730207,0.0
553296.95196600363,3595566.251970998,-42500.0,969.80125608880519,-837.31010258319316,-2310.8632242182985,-307.24030154895138,-1436.1305024873407,-727.1565882524643,2255.0571510195559,574.9778265424402,-2117.0113902523985,2117.0113902523985,-574.9778265424402,4080.3361290690318,0.0
558296.95196600363,3595566.251970998,-42500.0,1371.7450126317995,-546.62636734371404,-2443.6375964020708,-31.914210253285543,-1392.4638712773644,-636.755134548613,2359.030759581095,1048.2286251143937,-2318.0112392701367,2318.0112392701367,-1048.2286251143937,4200.5171548346752,0.0
563296.95196600363,3595566.251970998,-42500.0,1770.7879207914075,-162.80590029919441,-2501.5182068401455,308.46590885859086,-1258.1772185059212,-476.59686874001682,2472.8387018994126,1564.2596086434003,-2452.7938494316322,2452.7938494316322,-1564.2596086434003,4337.7209346333848,0.0
568296.95196600363,3595566.251970998,-42500.0,2132.6607897250433,311.65255380198784,-2448.2384610865911,706.846105917567,-1003.8830812550901,-227.99843227251716,2611.7120058838791,2091.8075165830983,-2483.4416379018598,2483.4416379018598,-2091.8075165830983,4533.9858584622343,0.0
573296.95196600363,3595566.251970998,-42500.0,2415.0259413143162,859.67048028778981,-2244.4614048496969,1144.6648665690068,-600.20057508576224,126.76080934538614,2797.896566686125,2584.2451268616992,-2368.6561778359678,2368.6561778359678,-2584.2451268616992,4849.0651038604001,0.0
578296.95196600363,3595566.251970998,-42500.0,2572.2254768966736,1444.6147342977044,-1853.950053078044,1588.8167205133361,-23.236324495043984,600.81194655561808,3057.5184556642648,2980.6586284264858,-2070.4339391098829,2070.4339391098829,-2980.6586284264858,5346.6858415684519,0.0
583296.95196600363,3595566.251970998,-42500.0,2564.0097064859624,2007.5411600312871,-1253.184549282629,1990.4809593107227,737.56577036958481,1197.7440551177931,3413.01702695016,3211.6563823016254,-1564.3729158141164,1564.3729158141164,-3211.6563823016254,6068.8606914957491,0.0
588296.95196600363,3595566.251970998,-42500.0,2367.8278244773751,2469.3913699292953,-443.54267693362311,2287.641196115022,1670.0816453016992,1905.9208106907888,3872.9985666913644,3211.253713473327,-852.5220779932074,852.5220779932074,-3211.253713473327,7012.822290539465,0.0
593296.95196600363,3595566.251970998,-42500.0,1992.1990557799538,2740.8034595268609,536.80125856866641,2412.9783840165046,2730.9538587503098,2693.4697385482004,4423.1090081418715,2934.3963112722104,24.442519663883104,-24.442519663883104,-2934.3963112722104,8124.5506286756008,0.0
598296.95196600363,3595566.251970998,-42500.0,1486.2786687582507,2740.4775305431972,1606.1692553771452,2307.5850589516599,3841.5201048728873,3506.1381200695423,5021.551628350242,2376.580147044654,981.07041527534682,-981.07041527534682,-2376.580147044654,9307.490084274119,0.0
603296.95196600363,3595566.251970998,-42500.0,939.40747264931883,2419.3608020659412,2643.5827826520722,1938.4467696087861,4892.3796590953434,4270.4590418117323,5603.7275429635465,1588.5874633060807,1893.0134834780624,-1893.0134834780624,-1588.5874633060807,10438.496352294182,0.0
608296.95196600363,3595566.251970998,-42500.0,466.04802400093917,1783.2879948483787,3507.523365249644,1314.5231227785507,5759.1499359605677,4903.7371568122126,6096.3014000963194,677.7796141472943,2618.3517837102117,-2618.3517837102117,-677.7796141472943,11387.458905068126,0.0
613296.95196600363,3595566.251970998,-42500.0,177.02536388568075,903.7779074363026,4067.3379972254929,494.27256287026967,6327.8507157932609,5329.9534996402826,6433.797965669427,-209.84670382088757,3031.5319105304961,-3031.5319105304961,209.84670382088757,12039.482671335216,0.0
618296.95196600363,3595566.251970998,-42500.0,145.76149724188295,-91.348740763773407,4238.1111542746521,-421.23447718460858,6522.949930528418,5497.4506791835647,6572.0310776887209,-924.83721138273995,3059.3400110318612,-3059.3400110318612,924.83721138273995,12316.28580568952,0.0
623296.95196600363,3595566.251970998,-42500.0,383.56723450955388,-1047.8740300669024,4005.3290772088503,-1310.0233911102443,6327.6841373429916,5392.1098118483287,6496.2323017773942,-1355.0383254967983,2704.0890594549014,-2704.0890594549014,1355.0383254967983,12191.155508420341,0.0
628296.95196600363,3595566.251970998,-42500.0,836.018684674621,-1825.465612640613,3428.0935792747341,-2058.8293446679372,5787.82099710079,5040.4663126636087,6222.4360560891992,-1455.1807506726238,2042.8145877160416,-2042.8145877160416,1455.1807506726238,11692.215939555139,0.0
633296.95196600363,3595566.251970998,-42500.0,1402.504297112878,-2332.0547023627787,2619.2733459669298,-2589.1615264331126,4997.120793882822,4501.3886215689163,5791.9778269628405,-1252.871145529708,1202.365117496724,-1202.365117496724,1252.871145529708,10892.811517827753,0.0
638296.95196600363,3595566.251970998,-42500.0,1969.2546774064322,-2539.2067898931605,1711.9240216817093,-2870.1972356888746,4071.0715221428591,3850.0254204981306,5261.0403472194193,-830.50633273089022,321.93205560766262,-321.93205560766262,830.50633273089022,9892.683029341817,0.0
643296.95196600363,3595566.251970998,-42500.0,2440.7352474451791,-2475.7570562436904,826.42039807413005,-2915.9278814280706,3119.8290790644137,3160.6176924657971,4688.4754365292492,-294.02375053577964,-480.98052316405335,480.98052316405335,294.02375053577964,8796.7258550988681,0.0
648296.95196600363,3595566.251970998,-42500.0,2758.0931857268047,-2207.0964738269113,49.389213873456647,-2771.2103605123325,2229.3229917285248,2493.836917470931,4124.8177357796922,257.06201082002923,-1129.9948908012582,1129.9948908012582,-257.06201082002923,7697.6233153066987,0.0
653296.95196600363,3595566.251970998,-42500.0,2902.0430305425289,-1811.2722911688011,-572.40488276081646,-2494.4505276541036,1453.7710277067888,1890.9769449983651,3605.0127094603063,748.61997443428481,-1592.7251091523303,1592.7251091523303,-748.61997443428481,6665.6184504120047,0.0
658296.95196600363,3595566.251970998,-42500.0,2884.6590295450137,-1360.3708400711023,-1026.7632556889175,-2143.1852952613658,817.64404592887331,1374.1373342546494,3147.0825219565268,1137.8645716311075,-1872.0978052283162,1872.0978052283162,-1137.8645716311075,5745.4149822818854,0.0
663296.95196600363,3595566.251970998,-42500.0,2736.806824027135,-910.34682109204073,-1325.3961697934917,-1765.2992082299868,322.79033110624704,949.96226488187915,2755.8864056339685,1409.8050196916636,-1993.1839381096399,1993.1839381096399,-1409.8050196916636,4958.1649836624802,0.0
668296.95196600363,3595566.251970998,-42500.0,2496.4632516970346,-498.31048114609297,-1492.9484173193453,-1395.6428599030555,-43.209002915258843,614.55785183583521,2428.1492538233924,1569.2554088271781,-1990.9072511296245,1990.9072511296245,-1569.2554088271781,4306.1904364035845,0.0
673296.95196600363,3595566.251970998,-42500.0,2200.4249868594588,-144.5207444478952,-1558.4218476375979,-1056.3789622762945,-299.85118167565258,358.02452068849101,2156.3315951291465,1632.3984305956933,-1901.1664205846905,1901.1664205846905,-1632.3984305956933,3778.6595915505413,0.0
678296.95196600363,3595566.251970998,-42500.0,1879.7213144915679,143.58118628227942,-1549.6957995202574,-759.23971668534716,-468.58777295759,167.91475170411266,1931.221617624371,1620.0176418658925,-1755.7023462928437,1755.7023462928437,-1620.0176418658925,3357.1699010050756,0.0
683296.95196600363,3595566.251970998,-42500.0,1557.9328831761782,367.10233168388373,-1490.7138335719585,-508.34902745174594,-569.71781867052994,31.517765017749173,1743.6325897136976,1552.9929625795166,-1579.9285827177869,1579.9285827177869,-1552.9929625795166,3020.5915354052995,0.0
688296.95196600363,3595566.251970998,-42500.0,1251.3454372489784,532.10242109396734,-1400.5249284825445,-302.83924436250248,-620.84028762685227,-62.835832247710989,1585.4067159472861,1449.8070718828099,-1392.6689420371713,1392.6689420371713,-1449.8070718828099,2748.6928263386176,0.0
693296.95196600363,3595566.251970998,-42500.0,970.03178285666854,646.95544156393476,-1293.4135401690039,-138.93853983743602,-636.34152533278939,-125.17157194858193,1449.8596898926048,1325.5097579259718,-1206.9037064375434,1206.9037064375434,-1325.5097579259718,2524.2978433140784,0.0
698296.95196600363,3595566.251970998,-42500.0,719.24383492931645,720.6129522728811,-1179.5527197834897,-11.472849641241213,-627.48199047429046,-163.71582595738491,1331.8260051033305,1191.5894691053645,-1030.9066247836572,1030.9066247836572,-1191.5894691053645,2334.0801746718212,0.0
703296.95196600363,3595566.251970998,-42500.0,500.76262934800712,761.579837277759,-1065.8250549103282,85.142994268264289,-602.77590414848407,-184.99243871727901,1227.4766098943319,1056.3267275821729,-869.41371180563692,869.41371180563692,-1056.3267275821729,2168.3951318261452,0.0
528296.95196600363,3600566.251970998,-42500.0,-823.42555390574591,-1394.9246204454396,-1286.1479604604899,-1106.9602702530597,-1127.9259662398001,-783.05567391547902,1907.4869805729654,-1145.8731328463214,-821.68379023258376,821.68379023258376,1145.8731328463214,3683.0150646779011,0.0
533296.95196600363,3600566.251970998,-42500.0,-632.86838721384925,-1446.4063539416081,-1488.4067790760255,-1108.6953057012968,-1264.0056238955081,-859.41987951369879,2042.5418788616976,-1015.0541912933618,-1040.0832311204113,1040.0832311204113,1015.0541912933618,3917.4568964770851,0.0
538296.95196600363,3600566.251970998,-42500.0,-386.75788324109919,-1467.180749573736,-1712.3654118207328,-1077.8076782195023,-1402.3896191749213,-930.50970258023801,2178.3654439337815,-824.32186383401563,-1289.7579602688782,1289.7579602688782,824.32186383401563,4144.2799153558053,0.0
543296.95196600363,3600566.251970998,-42500.0,-80.206300360672827,-1443.7536371563599,-1953.8193852692884,-1003.4654986149872,-1534.9548048699937,-988.95275297938633,2312.2125350916931,-562.65890557488058,-1567.7865271124697,1567.7865271124697,562.65890557488058,4356.1414504944787,0.0
548296.95196600363,3600566.251970998,-42500.0,288.25994191861781,-1360.0439665211557,-2204.3137227953966,-873.51594262305161,-1649.3214609454296,-1024.2632019151063,2441.2967787743628,-220.43443555270233,-1866.6921782933928,1866.6921782933928,220.43443555270233,4545.6696731883885,0.0
553296.95196600363,3600566.251970998,-42500.0,714.45437706527684,-1198.1678592083836,-2449.4554409924017,-675.42762078159524,-1727.6588356057987,-1022.1536138558521,2563.607987107272,208.29313082533611,-2172.5325456024748,2172.5325456024748,-208.29313082533611,4707.6005357660215,0.0
558296.95196600363,3600566.251970998,-42500.0,1185.8123372980176,-940.261746742333,-2667.1168935726223,-398.05859530006438,-1745.6174317371331,-964.02378838609638,2679.4229049349597,722.46718490645026,-2462.8635785947376,2462.8635785947376,-722.46718490645026,4842.8154643920861,0.0
563296.95196600363,3600566.251970998,-42500.0,1678.576445547805,-571.7978135937758,-2825.9744661975215,-34.525276710230393,-1671.8163795521639,-826.92687815296608,2793.7606544463351,1309.7542479986455,-2705.0803260643188,2705.0803260643188,-1309.7542479986455,4965.0481129922937,0.0
568296.95196600363,3600566.251970998,-42500.0,2155.7009734019252,-86.741627410616246,-2885.1911030237638,413.67616205783986,-1468.5722859394064,-584.45786825092284,2919.7272478324958,1941.7567803401712,-2856.0412204493764,2856.0412204493764,-1941.7567803401712,5110.0184264495629,0.0
573296.95196600363,3600566.251970998,-42500.0,2566.8464591644342,505.49852105984792,-2796.4744753515592,931.47440797734362,-1094.8289401073594,-209.15253232194866,3081.715838185818,2569.8863872658194,-2864.3371415371957,2864.3371415371957,-2569.8863872658194,5343.0590066868835,0.0
578296.95196600363,3600566.251970998,-42500.0,2852.323207950431,1172.2710566179321,-2510.0161965871393,1484.795933477013,-512.35054966353323,322.99450839805195,3315.5598245554079,3124.0203264225338,-2676.8345324740549,2676.8345324740549,-3124.0203264225338,5754.3977136779276,0.0
583296.95196600363,3600566.251970998,-42500.0,2952.7850654566701,1851.3799319496879,-1985.5131138508573,2016.7301769774785,304.12487704578632,1025.5524917043333,3661.3558897842631,3516.8906556303691,-2250.7251653704225,2250.7251653704225,-3516.8906556303691,6430.0595480141583,0.0
588296.95196600363,3600566.251970998,-42500.0,2825.2606269440753,2450.2231692641776,-1208.0971070773928,2448.162114943008,1353.2618220579197,1892.6373079457574,4147.2712046660208,3657.1353468483176,-1570.7230199581265,1570.7230199581265,-3657.1353468483176,7406.8471043327054,0.0
593296.95196600363,3600566.251970998,-42500.0,2463.182383728385,2855.0764579943234,-206.19379542367389,2686.1706242522368,2592.7381451023912,2889.6413650677791,4769.5389663261485,3471.9822766099874,-667.91824753288483,667.91824753288483,-3471.9822766099874,8643.7035912123065,0.0
598296.95196600363,3600566.251970998,-42500.0,1913.8710281299,2953.6382783699814,935.29867051117014,2642.247414788706,3929.567211998105,3947.2103263509757,5480.0050754518297,2936.0405636952273,367.11034943276422,-367.11034943276422,-2936.0405636952273,10026.100391166361,0.0
603296.95196600363,3600566.251970998,-42500.0,1283.4530449710899,2668.7845885193224,2075.5871471325495,2258.6240440412857,5222.3979795985606,4963.1032475314805,6192.3318743722193,2096.5291901542923,1386.743906159373,-1386.743906159373,-2096.5291901542923,11390.532422507775,0.0
608296.95196600363,3600566.251970998,-42500.0,720.00176493396032,1993.6305683892908,3039.6590252129122,1535.2867277361629,6301.5987052193823,5815.7509648273735,6804.4392093504375,1080.9894995931825,2211.7490549110535,-2211.7490549110535,-1080.9894995931825,12555.975523586003,0.0
613296.95196600363,3600566.251970998,-42500.0,373.59226570097638,1011.5706655882033,3660.4348579493358,545.45172325294493,7006.542742178397,6389.3595832136134,7223.7484524647571,76.023119610061485,2677.8856771474866,-2677.8856771474866,-76.023119610061485,13358.787833331568,0.0
618296.95196600363,3600566.251970998,-42500.0,345.42142692004796,-113.76000326455292,3828.6961185406249,-572.04516739359269,7229.6867074200263,6604.0187488910915,7387.7070311886891,-722.41939449925508,2688.632155982119,-2688.632155982119,722.41939449925508,13686.799116564194,0.0
623296.95196600363,3600566.251970998,-42500.0,649.13217905110764,-1181.214038291419,3529.2628938523326,-1645.9514298592103,6949.5193348607536,6439.0408149986215,7276.6943933280891,-1169.5953682634495,2250.1373955075446,-2250.1373955075446,1169.5953682634495,13503.452386209357,0.0
628296.95196600363,3600566.251970998,-42500.0,1205.5116092026508,-2011.7296648091854,2844.8833158136381,-2519.9121151127133,6236.2879573528635,5938.418363744232,6916.1677516927875,-1215.5065251717165,1469.3743926516859,-1469.3743926516859,1215.5065251717165,12852.776155903699,0.0
633296.95196600363,3600566.251970998,-42500.0,1874.2929508070501,-2497.6851002747126,1925.3543925848087,-3093.1944552924961,5227.2535799070529,5195.4656510327532,6367.3394719236494,-910.62427008983968,515.36977143695844,-515.36977143695844,910.62427008983968,11842.913487407024,0.0
638296.95196600363,3600566.251970998,-42500.0,2505.4984507037798,-2620.8997853022124,938.0184209544343,-3337.812396415095,4083.9609619917669,4324.3357989965689,5710.0331814200208,-374.49469561803994,-436.41743400028315,436.41743400028315,374.49469561803994,10615.210191796281,0.0
643296.95196600363,3600566.251970998,-42500.0,2984.2417196797714,-2437.217194114543,23.160341318945733,-3289.1782103255628,2951.2561645626242,3431.5163255829566,5023.7246345647145,252.52102139765316,-1250.2768803019578,1250.2768803019578,-252.52102139765316,9311.1962554349266,0.0
648296.95196600363,3600566.251970998,-42500.0,3252.0226547759626,-2042.4342448655652,-729.94779516176743,-3020.6832103370502,1932.4161671954432,2597.3578571730573,4371.7979669405004,850.46014760248431,-1851.3131709112843,1851.3131709112843,-850.46014760248431,8047.9009448351608,0.0
653296.95196600363,3600566.251970998,-42500.0,3303.9149200799015,-1538.2078331537462,-1284.7551366298435,-2616.4562273878955,1083.3599921071054,1870.2909725931406,3792.814932398408,1340.8909128788125,-2222.0467682804097,2222.0467682804097,-1340.8909128788125,6905.7605976944978,0.0
658296.95196600363,3600566.251970998,-42500.0,3171.7751396915387,-1009.4082973558724,-1645.0506158163032,-2151.7783828134448,420.25036897149056,1270.4538069986329,3301.2502093775324,1688.5676824814811,-2385.2011442515532,2385.2011442515532,-1688.5676824814811,5927.5202809159191,0.0
663296.95196600363,3600566.251970998,-42500.0,2904.8146806883956,-514.94732096136863,-1838.3672625869872,-1683.6159588058056,-67.494375648793266,797.63233365109716,2894.9921987039052,1891.5910453267443,-2383.9706377404927,2383.9706377404927,-1891.5910453267443,5124.0716157747629,0.0
668296.95196600363,3600566.251970998,-42500.0,2554.3940756784305,-88.362475471357072,-1901.7098835233842,-1249.0789769824157,-404.67909730279735,439.51496923663336,2563.3568287801977,1968.2923361649719,-2266.477714750089,2266.477714750089,-1968.2923361649719,4483.3881316972393,0.0
673296.95196600363,3600566.251970998,-42500.0,2165.0575496434767,256.76621869493806,-1872.0488600260176,-868.32331175053173,-621.00137017093323,178.26126531082204,2292.627385370025,1945.9063216831914,-2076.3581555275714,2076.3581555275714,-1945.9063216831914,3980.1194107570586,0.0
678296.95196600363,3600566.251970998,-42500.0,1770.8727072529987,520.27847577196485,-1781.3301534932825,-549.01987038228435,-745.29953506716004,-5.1095186624397622,2069.3219277255566,1852.8405144411565,-1848.5723984973272,1848.5723984973272,-1852.8405144411565,3584.1820000277289,0.0
683296.95196600363,3600566.251970998,-42500.0,1395.2099687669429,709.74488637340357,-1654.70387884405,-290.69255710783534,-802.66370343522055,-128.21588192025411,1881.8805455602269,1714.3822921578451,-1608.6474730316615,1608.6474730316615,-1714.3822921578451,3267.1103691920403,0.0
688296.95196600363,3600566.251970998,-42500.0,1052.2713315967753,836.29465110547596,-1510.6273394967729,-88.196676818850477,-813.44492898981207,-206.15988235629581,1721.2554020001073,1550.9240895462308,-1373.7203261764394,1373.7203261764394,-1550.9240895462308,3005.5693606948735,0.0
693296.95196600363,3600566.251970998,-42500.0,749.21134562007273,911.91778635995377,-1361.8403757747274,65.809333106715741,-793.34152451210741,-251.21612189471972,1580.8114406068639,1377.7290925379912,-1154.2612800929737,1154.2612800929737,-1377.7290925379912,2782.3348893493421,0.0
698296.95196600363,3600566.251970998,-42500.0,488.20729541705293,947.9231506918868,-1216.600105447437,179.26914932694942,-753.9946523268444,-272.9827409294835,1455.8976936400245,1205.4866608209543,-955.84545413109731,955.84545413109731,-1205.4866608209543,2585.6734379681939,0.0
703296.95196600363,3600566.251970998,-42500.0,268.19338132719423,954.19404751112938,-1079.8561922852234,259.79743490981394,-703.74922752875318,-278.74306923431453,1343.3403504347052,1041.170683020247,-780.68078470392163,780.68078470392163,-1041.170683020247,2408.072169415409,0.0
708296.95196600363,3600566.251970998,-42500.0,86.183602244372722,938.94231517206867,-954.23464553383872,314.20562733833128,-648.39770016758712,-273.88880264534993,1240.9913422872601,888.92655898900716,-628.8028043928839,628.8028043928839,-888.92655898900716,2244.9429038769395,0.0
523296.95196600363,3605566.251970998,-42500.0,-1304.8653501138522,-1402.6538956844886,-1003.3804664604158,-1312.965143263086,-1030.4740199633188,-824.25983868364767,1948.5085551653713,-1515.8827953302268,-452.82930290399986,452.82930290399986,1515.8827953302268,3799.5467978376255,0.0
528296.95196600363,3605566.251970998,-42500.0,-1191.7661111461916,-1506.9784621657416,-1183.7031840226591,-1375.217559007011,-1179.6212820294252,-927.53562485521923,2106.964677086949,-1473.3444892498826,-634.83478907983749,634.83478907983749,1473.3444892498826,4090.0970228923279,0.0
533296.95196600363,3605566.251970998,-42500.0,-1025.7710968372103,-1598.3280131508468,-1393.0025404230178,-1417.5047294302844,-1342.8265237258881,-1035.7941041798263,2271.5767411618372,-1382.6200140450032,-854.50771976191436,854.50771976191436,1382.6200140450032,4385.5152645480475,0.0
538296.95196600363,3605566.251970998,-42500.0,-796.98661532041251,-1666.1269905971765,-1632.5191176483554,-1429.6207652517221,-1516.6405345324165,-1144.5599415003808,2439.6216030388759,-1230.2597062177992,-1114.9314201300817,1114.9314201300817,1230.2597062177992,4678.5139248717542,0.0
543296.95196600363,3605566.251970998,-42500.0,-496.27726196990125,-1696.304588372677,-1901.2456332355969,-1398.7482653766074,-1694.4230705530617,-1246.5710197739129,2607.4292392117331,-1001.4877543403647,-1416.9002108443676,1416.9002108443676,1001.4877543403647,4959.615345340414,0.0
548296.95196600363,3605566.251970998,-42500.0,-116.98969232259032,-1670.9706083575782,-2194.4240652923972,-1309.5168881534885,-1864.9337116308159,-1330.7645070681558,2770.4965548357541,-681.40534720874007,-1757.1995954990623,1757.1995954990623,681.40534720874007,5217.5003941641553,0.0
553296.95196600363,3605566.251970998,-42500.0,342.48268542421675,-1568.6390170788011,-2501.5221777171741,-1144.6260145705548,-2010.6166265113075,-1381.1240423913264,2923.9898934267312,-257.1987771877682,-2126.2806933899519,2126.2806933899519,257.1987771877682,5440.3462014383103,0.0
558296.95196600363,3605566.251970998,-42500.0,875.21732962416684,-1365.4996706890238,-2803.7532004016048,-886.42397484612491,-2105.7451990459922,-1375.5508543734743,3063.9839487633294,278.28347924176069,-2505.404534562515,2505.404534562515,-278.28347924176069,5619.0542559637597,0.0
563296.95196600363,3605566.251970998,-42500.0,1461.5649828375094,-1038.4177117601794,-3071.4691450298819,-519.92837725597849,-2114.8414193422905,-1285.090968389612,3189.9484480333722,921.33731556215764,-2863.6413333317159,2863.6413333317159,-921.33731556215764,5753.7296969892695,0.0
568296.95196600363,3605566.251970998,-42500.0,2064.9753330791777,-570.41343877607437,-3262.226885363616,-37.766344611467069,-1992.1804599114821,-1074.1073922072251,3309.0598862338034,1650.738334613387,-3155.6426005198805,3155.6426005198805,-1650.738334613387,5864.9073046959975,0.0
573296.95196600363,3605566.251970998,-42500.0,2629.4465718821461,40.880220446138622,-3321.0119797673433,552.75938218431997,-1683.7172030389172,-702.30788287356813,3442.422279426175,2420.6138775760814,-3321.8702331311656,3321.8702331311656,-2420.6138775760814,6009.1123450026089,0.0
578296.95196600363,3605566.251970998,-42500.0,3081.2397184910051,772.22660565251522,-3184.8114172678024,1221.0569149691678,-1133.2353373310598,-129.79573804320481,3631.1050611125665,3155.290820060472,-3293.7331208824612,3293.7331208824612,-3155.290820060472,6290.3292377449125,0.0
583296.95196600363,3605566.251970998,-42500.0,3338.1747657523761,1563.6287142957888,-2793.9525673668163,1905.1430678778906,-294.50960474848307,673.7465701190107,3935.1459120498348,3750.3023670989833,-3006.2657214209366,3006.2657214209366,-3750.3023670989833,6844.5067456555644,0.0
588296.95196600363,3605566.251970998,-42500.0,3329.0194921205057,2312.1511977655414,-2111.4234009224315,2508.1657601911884,849.95731813416637,1715.4755320924414,4414.8952263752117,4084.7942356014482,-2419.5256112229672,2419.5256112229672,-4084.7942356014482,7778.28049553236,0.0
593296.95196600363,3605566.251970998,-42500.0,3021.8534389744841,2878.2563602004066,-1147.8203759620708,2905.379507696844,2266.220735860667,2963.2422753316678,5093.0612144096094,4049.0749095862329,-1545.7827582474572,1545.7827582474572,-4049.0749095862329,9095.5628800222057,0.0
598296.95196600363,3605566.251970998,-42500.0,2453.495732589477,3111.5481273185455,16.239013928225077,2966.8209355150452,3849.7335766039068,4332.0438354501484,5921.6958190326213,3585.0716234918082,-473.08769994838076,473.08769994838076,-3585.0716234918082,10675.218393130446,0.0
603296.95196600363,3605566.251970998,-42500.0,1744.6996458969006,2896.2246053227027,1223.7853351509359,2595.8231080890027,5421.7985214213268,5681.4575384676164,6787.1200693648707,2727.2673968940057,629.91703898126298,-629.91703898126298,-2727.2673968940057,12303.945273268888,0.0
608296.95196600363,3605566.251970998,-42500.0,1083.9923935643592,2203.8931467886546,2264.5133312808798,1773.5508768202167,6753.4713479019974,6832.6984449834472,7546.6395326707998,1622.2680046443459,1542.1070043563848,-1542.1070043563848,-1622.2680046443459,13729.194877257989,0.0
613296.95196600363,3605566.251970998,-42500.0,673.44772708199548,1128.6650306185247,2929.7187961869458,589.20643138628031,7619.4591571854271,7607.9087831380684,8068.1078189246773,505.66157499473945,2052.324040093537,-2052.324040093537,-505.66157499473945,14716.083238044643,0.0
618296.95196600363,3605566.251970998,-42500.0,652.35024169220947,-121.85053167901013,3082.3220598765643,-766.41332683620908,7867.0928195957904,7881.8774328647442,8261.9208077922049,-367.465411716522,2035.5465360274907,-2035.5465360274907,367.465411716522,15102.431533597535,0.0
623296.95196600363,3605566.251970998,-42500.0,1036.5067901886725,-1287.2321157761478,2708.8511292165822,-2051.8097796166039,7469.7546023021614,7624.1215209663524,8101.8535058342713,-812.27260694347774,1504.9064620138472,-1504.9064620138472,812.27260694347774,14838.093353170934,0.0
628296.95196600363,3605566.251970998,-42500.0,1710.5808001459263,-2142.1746239019894,1923.3942594928551,-3051.1876698826031,6535.3753124983286,6908.6145781048972,7628.3534286814547,-777.89734747191096,607.59877743963784,-607.59877743963784,777.89734747191096,13992.426506836819,0.0
633296.95196600363,3605566.251970998,-42500.0,2480.1449970725535,-2566.5188799884572,920.05382372708721,-3638.4119222604691,5264.0740685442115,5884.8449782010703,6932.5058236618806,-350.4031676852959,-435.2020993249364,435.2020993249364,350.4031676852959,12725.72660591949,0.0
638296.95196600363,3605566.251970998,-42500.0,3151.3109763837879,-2563.7505442267675,-98.404490620682566,-3798.1834839904573,3878.8243500070998,4726.5344353436722,6127.6733474184375,300.90670259340141,-1409.5894565662113,1409.5894565662113,-300.90670259340141,11238.055281434707,0.0
643296.95196600363,3605566.251970998,-42500.0,3592.9850065565051,-2229.1617974055807,-978.30308735152096,-3602.8399928241338,2564.649633476919,3584.4637414757754,5319.9614327129448,996.47150066769871,-2168.8521180547141,2168.8521180547141,-996.47150066769871,9717.969567664406,0.0
648296.95196600363,3605566.251970998,-42500.0,3757.6202382586616,-1696.0909289877306,-1638.4967322778577,-3167.3860382075636,1438.4740084793748,2560.9811575932431,4586.0118455329448,1600.2297777612168,-2651.8387350355324,2651.8387350355324,-1600.2297777612168,8308.2860856372918,0.0
653296.95196600363,3605566.251970998,-42500.0,3666.3251724954989,-1089.9482585355861,-2062.8534316731734,-2608.2865939188027,549.5606817784477,1707.4040236401886,3963.5964073146924,2038.9585300074905,-2867.4204994490501,2867.4204994490501,-2038.9585300074905,7093.4716273765143,0.0
658296.95196600363,3605566.251970998,-42500.0,3378.8967262806782,-503.68080725472953,-2277.6963416834815,-2019.0576516596375,-102.7440626169231,1035.2107695345896,3457.3143473730665,2294.6386558694817,-2865.1610980997661,2865.1610980997661,-2294.6386558694817,6103.7009068391935,0.0
663296.95196600363,3605566.251970998,-42500.0,2966.2217885379623,7.1946452570755781,-2328.7068253261455,-1462.5571894130069,-547.64496961624445,531.0534672859834,3052.7308875507088,2385.2624855422878,-2708.5157996824669,2708.5157996824669,-2385.2624855422878,5328.1696931388751,0.0
668296.95196600363,3605566.251970998,-42500.0,2492.549640246938,418.34272455429732,-2264.4136682209692,-973.75381878673693,-825.7025065555174,169.59235493358199,2728.7689797831945,2345.8967626762264,-2457.4116195808442,2457.4116195808442,-2345.8967626762264,4731.7632217272321,0.0
673296.95196600363,3605566.251970998,-42500.0,2007.5829747585485,726.7487251690228,-2127.2515856615369,-566.74822637587317,-977.93438674616561,-77.781383515697613,2464.910953473212,2215.2097275910696,-2160.0865482806425,2160.0865482806425,-2215.2097275910696,4270.8469310420269,0.0
678296.95196600363,3605566.251970998,-42500.0,1545.2017072879676,941.63701953265968,-1950.2622375815895,-242.10234612672662,-1040.2899856293157,-238.00765078584143,2244.355783958325,2027.9337835311451,-1851.2224926121723,1851.2224926121723,-2027.9337835311451,3904.7984605571178,0.0
683296.95196600363,3605566.251970998,-42500.0,1125.5887368691242,1077.778721393817,-1757.0800803323978,7.2364887950907315,-1041.7034997374944,-334.11205479976559,2054.7485723399777,1811.774084789377,-1553.377185103895,1553.377185103895,-1811.774084789377,3601.8173909223487,0.0
688296.95196600363,3605566.251970998,-42500.0,758.5128039015151,1151.2459421635865,-1563.3990803921834,191.79118278123701,-1004.1359080906965,-384.59734739084939,1887.6617165800913,1586.9899302297902,-1279.6278002717429,1279.6278002717429,-1586.9899302297902,3339.9243357062896,0.0
693296.95196600363,3605566.251970998,-42500.0,446.55228924101414,1177.0705418571904,-1378.8405486634606,322.95630111387982,-943.51961553016247,-403.69622541402043,1737.636070775593,1367.2869065303814,-1036.2825321225234,1036.2825321225234,-1367.2869065303814,3105.321125703073,0.0
698296.95196600363,3605566.251970998,-42500.0,187.75226784116779,1168.179949805763,-1208.6916044910133,411.53954991515644,-870.9729935303302,-401.9948969131292,1601.2380369596963,1161.1684042345491,-825.16766573193854,825.16766573193854,-1161.1684042345491,2890.0030878285693,0.0
703296.95196600363,3605566.251970998,-42500.0,-22.399656076090828,1135.0989909638472,-1055.3162165407032,467.06178787987022,-793.96752816315757,-387.15060752689715,1476.3160578671923,973.29286681745293,-645.36162677716379,645.36162677716379,-973.29286681745293,2689.6366270472581,0.0
708296.95196600363,3605566.251970998,-42500.0,-189.61019358170498,1086.0605193621905,-919.21181816384956,497.52025491772287,-717.31675213396238,-364.56421633282059,1361.4818994204434,805.6377531412877,-494.41804149235008,494.41804149235008,-805.6377531412877,2502.0136365398494,0.0
523296.95196600363,3610566.251970998,-42500.0,-1672.270700138921,-1436.4212490330169,-866.44162508010561,-1557.081482997253,-1032.9253650647086,-946.93841374433612,2125.0003173641062,-1798.8675029033272,-232.39216973027146,232.39216973027146,1798.8675029033272,4153.9384030005285,0.0
528296.95196600363,3610566.251970998,-42500.0,-1598.8337579142305,-1570.3429870782184,-1038.5123861495888,-1663.4157486279728,-1198.1879055859022,-1080.2072125803566,2313.2358874810798,-1802.5372784645185,-398.23142900355128,398.23142900355128,1802.5372784645185,4505.3397115745929,0.0
533296.95196600363,3610566.251970998,-42500.0,-1471.1350530635325,-1699.5871281002101,-1243.6322858777307,-1755.8444733849237,-1384.4289115345732,-1225.361699324912,2512.0133612149093,-1761.7255674896264,-606.09646773365921,606.09646773365921,1761.7255674896264,4870.4144410766912,0.0
538296.95196600363,3610566.251970998,-42500.0,-1276.0980337137219,-1814.6525683141849,-1485.6731374968233,-1823.7130794549655,-1590.2561488570072,-1379.018741725268,2718.6278165805579,-1661.1077576872301,-862.1922060629438,862.1922060629438,1661.1077576872301,5241.7905962300756,0.0
543296.95196600363,3610566.251970998,-42500.0,-1000.0788918102398,-1902.0255802324896,-1767.1803989635989,-1852.8497102987253,-1811.3575229303285,-1534.8050130294105,2928.9536430874559,-1482.6546121287329,-1171.5013045886762,1171.5013045886762,1482.6546121287329,5608.8765213326706,0.0
548296.95196600363,3610566.251970998,-42500.0,-630.4056550561005,-1943.3410971877563,-2087.9550940696449,-1825.1567963185264,-2038.870297853608,-1682.008354947623,3137.2333683150882,-1206.3610866906083,-1536.1327293920554,1536.1327293920554,1206.3610866906083,5957.5034878885863,0.0
553296.95196600363,3610566.251970998,-42500.0,-157.98475964911185,-1914.883170386026,-2442.9300961632607,-1718.6750497290614,-2257.2010386405095,-1803.8851270449925,3336.1185596678088,-812.02588599840271,-1952.8296477350141,1952.8296477350141,812.02588599840271,6270.2396187298427,0.0
558296.95196600363,3610566.251970998,-42500.0,418.71487643962155,-1787.9625938114975,-2819.2327511357689,-1508.6042392908423,-2441.3394264738226,-1875.7201073760771,3517.314183714625,-282.65518922420074,-2409.5116537509894,2409.5116537509894,282.65518922420074,6528.2449379752388,0.0
563296.95196600363,3610566.251970998,-42500.0,1088.1789449170938,-1531.0308869257535,-3192.5389782342804,-1169.9886435762367,-2553.9619170862698,-1862.9320350464884,3673.456154354054,389.89008068397447,-2880.9814792653542,2880.9814792653542,-389.89008068397447,6716.2251092966699,0.0
568296.95196600363,3610566.251970998,-42500.0,1819.2798681972092,-1114.7239753919046,-3523.3236703975172,-682.98638619391988,-2543.133440933449,-1719.8958607788586,3802.2880718311189,1196.6109334882387,-3324.5100666617327,3324.5100666617327,-1196.6109334882387,6833.0511170445197,0.0
573296.95196600363,3610566.251970998,-42500.0,2555.1484317581758,-521.09395204883833,-3754.5076172256831,-41.585168227953389,-2342.2203525972609,-1390.7047598809756,3914.5465998202117,2100.9120967211911,-3677.0526595625752,3677.0526595625752,-2100.9120967211911,6911.0298542993623,0.0
578296.95196600363,3610566.251970998,-42500.0,3210.7498582022063,242.42207017510205,-3813.2562846013307,734.05981693878687,-1874.6685850835972,-813.80481809769844,4046.192388822521,3028.2700457259953,-3857.279168216005,3857.279168216005,-3028.2700457259953,7042.8112004259092,0.0
583296.95196600363,3610566.251970998,-42500.0,3679.3438236868556,1125.9960583905902,-3620.7762313183598,1583.4092094574985,-1067.0453223559514,67.066167795469795,4270.2866855091315,3861.2565814443783,-3776.8023555735585,3776.8023555735585,-3861.2565814443783,7396.6989140375745,0.0
588296.95196600363,3610566.251970998,-42500.0,3853.5021179151508,2023.2750243664905,-3113.5338374306793,2394.6478324318668,126.99605387409326,1283.7160980871674,4689.3608428501211,4448.1398717395132,-3364.3852819733629,3364.3852819733629,-4448.1398717395132,8171.4088615724504,0.0
593296.95196600363,3610566.251970998,-42500.0,3662.6977514487571,2771.0701814625868,-2275.4024030716628,3006.4591934914552,1693.1237482335184,2816.9848107612524,5380.169972757285,4633.4406437150701,-2602.2484966741631,2602.2484966741631,-4633.4406437150701,9471.3895632078948,0.0
598296.95196600363,3610566.251970998,-42500.0,3119.4981885399075,3175.6763759549031,-1171.8251776281743,3233.4384767023071,3522.4393955346768,4569.6536505744789,6314.8471725528507,4311.9046482117037,-1563.8502069681774,1563.8502069681774,-4311.9046482117037,11206.443034423955,0.0
603296.95196600363,3610566.251970998,-42500.0,2352.4498572992857,3071.2956404567917,32.870956050706212,2920.2212243564672,5396.1542969503253,6353.097206862416,7349.4714659966585,3491.5441696158246,-431.30579739667473,431.30579739667473,-3491.5441696158246,13111.160627433628,0.0
608296.95196600363,3610566.251970998,-42500.0,1595.8251527304171,2396.798106491276,1096.907193182223,2013.0407873181196,7011.0384564311316,7905.777697293418,8284.6124715540518,2333.0649232867818,532.18001435653093,-532.18001435653093,-2333.0649232867818,14834.67130509147,0.0
613296.95196600363,3610566.251970998,-42500.0,1118.4129075535268,1253.7825799813722,1769.7667567570743,616.0580852215943,8055.4185306218042,8953.641102415615,8930.3703410669077,1128.157253314381,1063.1001288247874,-1063.1001288247874,-1128.157253314381,16038.55837460066,0.0
618296.95196600363,3610566.251970998,-42500.0,1110.3149716391242,-98.441852866832193,1886.9748247979117,-1009.4631630367686,8315.5800863096229,9299.1211466137138,9157.370012226118,204.00096413770376,1004.8428358042067,-1004.8428358042067,-204.00096413770376,16487.345651761814,0.0
623296.95196600363,3610566.251970998,-42500.0,1588.3015476770167,-1328.052798695873,1441.758225422883,-2522.9984659219258,7761.2457846744101,8897.656527819312,8930.5980424271638,-208.33684295845262,382.91859819888384,-382.91859819888384,208.33684295845262,16112.660463413144,0.0
628296.95196600363,3610566.251970998,-42500.0,2385.2211097596519,-2158.7883326581477,587.00303438842502,-3628.7161130911841,6557.2697920194805,7875.0158051407925,8314.2058256788896,-65.514229178373739,-603.9869704117192,603.9869704117192,65.514229178373739,15023.997023269709,0.0
633296.95196600363,3610566.251970998,-42500.0,3235.201963886911,-2466.7128767506324,-436.18254184091052,-4175.5638844406412,4991.3323077237874,6471.8854055879192,7443.6273234029359,493.6095329221796,-1675.715333680864,1675.715333680864,-493.6095329221796,13458.770614546695,0.0
638296.95196600363,3610566.251970998,-42500.0,3895.7314947861933,-2293.6266391492854,-1396.9676951878864,-4179.5390270590842,3363.1820279814569,4950.9931469057365,6478.5698586321778,1237.6947824250392,-2585.5558529277596,2585.5558529277596,-1237.6947824250392,11697.530223810423,0.0
643296.95196600363,3610566.251970998,-42500.0,4230.1192821064315,-1787.635709782945,-2143.7018833947063,-3772.7813459835538,1898.0434112274586,3520.3172587408371,5557.2684002195138,1949.2724349681614,-3192.1593477718079,3192.1593477718079,-1949.2724349681614,9985.0654440274484,0.0
648296.95196600363,3610566.251970998,-42500.0,4219.440066198018,-1122.9572860781054,-2619.7622925205351,-3127.0215495222869,715.60415160204911,2301.6956783586324,4765.9628940453604,2488.7279458854769,-3466.477358261684,3466.477358261684,-2488.7279458854769,8484.7362314823185,0.0
653296.95196600363,3610566.251970998,-42500.0,3925.6658600271903,-443.05540184561289,-2840.6551569053104,-2395.0011513006798,-155.13946054111261,1338.9398433915958,4131.5656429385908,2803.6150876466868,-3456.3448894626258,3456.3448894626258,-2803.6150876466868,7269.1693848798059,0.0
658296.95196600363,3610566.251970998,-42500.0,3443.7650709623395,160.71408018014699,-2859.3597491514124,-1684.4232924184903,-742.21412061974456,623.5940495535508,3638.5041482504412,2904.9760795622628,-3242.5739829380341,3242.5739829380341,-2904.9760795622628,6336.3108398572922,0.0
663296.95196600363,3610566.251970998,-42500.0,2866.5080040398111,645.27357242092557,-2738.2514028612341,-1056.8313737521255,-1099.1550513927359,120.61500461874313,3254.1415300103808,2836.4675827644619,-2906.8959526008698,2906.8959526008698,-2836.4675827644619,5638.0336858791397,0.0
668296.95196600363,3610566.251970998,-42500.0,2267.1573765723892,1001.6975115084687,-2533.0444699088712,-538.13045765723996,-1283.9363457450443,-213.5052249198321,2946.1260339068785,2650.5873092523179,-2515.8733653438303,2515.8733653438303,-2650.5873092523179,5110.0262241070368,0.0
673296.95196600363,3610566.251970998,-42500.0,1695.3920315015607,1240.702291810632,-2286.6265067730715,-131.21392198497577,-1348.1012150542351,-420.55407912542182,2689.3588401727125,2395.1551742276424,-2116.5745172735969,2116.5745172735969,-2395.1551742276424,4693.5883301058848,0.0
678296.95196600363,3610566.251970998,-42500.0,1180.1342177784218,1381.7738787057899,-2028.7206241887382,173.66067603432865,-1332.843104210808,-536.09895171632411,2466.8611120517871,2107.828308737136,-1738.4579351990194,1738.4579351990194,-2107.828308737136,4345.4396832958264,0.0
683296.95196600363,3610566.251970998,-42500.0,734.72141012030602,1446.3953101148415,-1778.0932328931224,391.75743806573524,-1268.8702093893075,-588.31013543506242,2268.1708649214097,1815.3630936000607,-1397.4705292139854,1397.4705292139854,-1815.3630936000607,4038.1693296431031,0.0
688296.95196600363,3610566.251970998,-42500.0,362.02655197573904,1454.4650805655076,-1545.3904451108781,539.56523927965463,-1177.9145440387797,-598.43065259314608,2087.2705245185571,1535.0931315562475,-1100.2435837952694,1100.2435837952694,-1535.0931315562475,3756.4572696702539,0.0
693296.95196600363,3610566.251970998,-42500.0,58.581796009324421,1422.7791836793979,-1335.6973214031962,632.50583321757779,-1074.6816736019489,-581.892584889874,1920.8500186264462,1277.0837121106197,-847.52558110642678,847.52558110642678,-1277.0837121106197,3492.7262185490686,0.0
698296.95196600363,3610566.251970998,-42500.0,-182.44986778510071,1364.694661061433,-1150.5407447207353,683.91562122557809,-968.68695542348541,-549.56060706409141,1767.1057775318268,1046.2201242942924,-636.69020963635705,636.69020963635705,-1046.2201242942924,3243.7683673252009,0.0
703296.95196600363,3610566.251970998,-42500.0,-369.30272779181843,1290.3819380311852,-989.32622597055388,704.76619878850636,-865.77023735722628,-508.86356512679242,1624.997379978297,843.93165887843656,-463.42811128831477,463.42811128831477,-843.93165887843656,3008.5532239890276,0.0
708296.95196600363,3610566.251970998,-42500.0,-510.39433971428707,1207.3141734875755,-850.30778047040178,703.77194920216391,-769.25650599877281,-464.72810411536619,1493.8251978689541,669.49272722176488,-322.81481615267887,322.81481615267887,-669.49272722176488,2786.9559102319799,0.0
518296.95196600363,3615566.251970998,-42500.0,-2038.2172636763669,-1265.4982449066081,-576.68692521062337,-1651.0389071166469,-850.77415661016857,-924.59166079426939,2095.9694668241086,-1980.2755177581012,122.2747940949962,-122.2747940949962,1980.2755177581012,4111.2444768022569,0.0
523296.95196600363,3615566.251970998,-42500.0,-2053.7684461765798,-1413.330898537034,-702.06460074073959,-1805.4801309881077,-1000.5229842400263,-1070.1998258255526,2299.3156547714725,-2059.3202944048471,19.154419999567494,-19.154419999567494,2059.3202944048471,4498.8825226673189,0.0
528296.95196600363,3615566.251970998,-42500.0,-2030.165255685796,-1569.7850622881549,-856.2031095103639,-1961.6141383728234,-1175.2676790329563,-1235.8958932936978,2519.7980225846486,-2113.0796347426408,-119.21198360240953,119.21198360240953,2113.0796347426408,4914.9604918506147,0.0
533296.95196600363,3615566.251970998,-42500.0,-1954.1382007790694,-1730.2885697098832,-1044.8649159923687,-2112.5391708954912,-1377.2331699477897,-1421.8832394895066,2756.5212844574075,-2128.9356926183018,-301.02178050242821,301.02178050242821,2128.9356926183018,5355.9856698437079,0.0
538296.95196600363,3615566.251970998,-42500.0,-1809.924801014261,-1887.2610656071843,-1274.199429087301,-2248.0411816546662,-1607.4384539416487,-1626.5842533414129,3007.3272905145882,-2090.6381597176528,-535.26658042130168,535.26658042130168,2090.6381597176528,5815.5224055628159,0.0
543296.95196600363,3615566.251970998,-42500.0,-1579.6421320518339,-2028.9793437997869,-1550.1504499720922,-2353.634467822952,-1864.5909061527034,-1845.495363274101,3268.3138551595957,-1977.9218780675919,-831.04765107099877,831.04765107099877,1977.9218780675919,6283.1952904419359,0.0
548296.95196600363,3615566.251970998,-42500.0,-1244.3768131706236,-2138.2738371654195,-1877.3415204854148,-2409.5927483441983,-2143.3942827946121,-2069.5525469017302,3533.2932358453313,-1766.5794868964965,-1196.2479219411455,1196.2479219411455,1766.5794868964965,6743.6433770438589,0.0
553296.95196600363,3615566.251970998,-42500.0,-786.4442872237023,-2191.2628121207727,-2257.1762416434021,-2390.2350673430083,-2432.0846457774392,-2282.9046332040025,3793.3045191390825,-1429.467383035098,-1635.2379009450956,1635.2379009450956,1429.467383035098,7175.7390099546947,0.0
558296.95196600363,3615566.251970998,-42500.0,-193.38478112448615,-2156.5971329941658,-2684.8604359417809,-2263.9641014547574,-2709.049639429792,-2460.0475868462727,4036.4410710731527,-939.17815736724833,-2145.260808103913,2145.260808103913,939.17815736724833,7552.7518032887692,0.0
563296.95196600363,3615566.251970998,-42500.0,535.73053470197226,-1996.1350260163463,-3145.148552253524,-1994.9427076195498,-2938.5922783530364,-2562.4691601927984,4248.5829760129463,-273.38975899401476,-2711.2590718150855,2711.2590718150855,273.38975899401476,7844.9118426908872,0.0
568296.95196600363,3615566.251970998,-42500.0,1381.4749523087121,-1668.5799020785043,-3607.0135649932354,-1547.7781052010885,-3066.4173586658762,-2535.3726656825625,4416.2261463776531,576.01125596130828,-3299.3857719926009,3299.3857719926009,-576.01125596130828,8027.1811798232848,0.0
573296.95196600363,3615566.251970998,-42500.0,2293.6529043268874,-1138.198356012774,-4018.3983391903389,-897.00740190898284,-3016.4750974954404,-2305.8758275781574,4533.649409343464,1589.4774536622635,-3850.5956590374662,3850.5956590374662,-1589.4774536622635,8097.0929212991241,0.0
578296.95196600363,3615566.251970998,-42500.0,3182.6286478723314,-390.64742531788551,-4303.9411851756677,-42.974649030507003,-2692.5252054087564,-1785.4273805786161,4617.9634807832208,2703.4154511920574,-4277.7833165416505,4277.7833165416505,-2703.4154511920574,8108.5783473321462,0.0
583296.95196600363,3615566.251970998,-42500.0,3919.3739114233599,544.10665830661549,-4370.7993164279296,966.25154547809416,-1989.8153953914621,-880.8303159684649,4734.5416218460141,3796.3992979866421,-4472.5789197962577,4472.5789197962577,-3796.3992979866421,8218.3688427679026,0.0
588296.95196600363,3615566.251970998,-42500.0,4354.3595961672281,1567.3211357813223,-4128.8394470445992,2012.3133721183647,-822.95924273145408,480.99141270087324,5019.3295617520544,4689.3884316338635,-4329.2103747919764,4329.2103747919764,-4689.3884316338635,8698.1941528033112,0.0
593296.95196600363,3615566.251970998,-42500.0,4363.4002262753002,2499.7878203434607,-3528.1880304772544,2896.8595752319143,827.87170336572024,2312.1627646823958,5635.53057133112,5175.1549075392359,-3788.7964135996558,3788.7964135996558,-5175.1549075392359,9812.0098441650352,0.0
598296.95196600363,3615566.251970998,-42500.0,3915.4502011551981,3104.0176309268718,-2606.1791804019299,3364.9585991038562,2862.2493614540303,4514.1494317020979,6623.2891503396158,5085.9220413277781,-2894.2369026650331,2894.2369026650331,-5085.9220413277781,11586.440987356413,0.0
603296.95196600363,3615566.251970998,-42500.0,3133.2888259057913,3155.1292324925789,-1519.4285741929111,3177.2512502398322,5023.9289509086584,6842.0640367316091,7819.7981970193159,4385.3524450848072,-1826.4695314661167,1826.4695314661167,-4385.3524450848072,13730.533856338403,0.0
608296.95196600363,3615566.251970998,-42500.0,2298.0938000563733,2547.5746590612607,-527.84024506827279,2221.1679232612,6923.1341982217464,8918.4350897283603,8949.4661663618881,3238.2563075180342,-882.61933084837415,882.61933084837415,-3238.2563075180342,15766.54692696432,0.0
613296.95196600363,3615566.251970998,-42500.0,1759.906498691257,1385.2640992072788,86.921133927332264,611.03795939711506,8140.3110621929582,10323.53874571843,9738.4676035817483,1995.6975089216739,-376.14030691869459,376.14030691869459,-1995.6975089216739,17208.500030986099,0.0
618296.95196600363,3615566.251970998,-42500.0,1773.1619535343423,-15.831985750393663,142.71464983271366,-1298.7342460311479,8385.7665804866974,10747.125475840838,9999.4497337623197,1066.484794823733,-492.07397209141254,492.07397209141254,-1066.484794823733,17715.701556706128,0.0
623296.95196600363,3615566.251970998,-42500.0,2351.9640399194759,-1245.1388400037154,-351.52022290069999,-3031.8634553427851,7631.7848389894889,10126.53014975288,9686.2466761767828,728.46195968305176,-1183.8803527707005,1183.8803527707005,-728.46195968305176,17196.838145361267,0.0
628296.95196600363,3615566.251970998,-42500.0,3257.1602620357667,-1978.8319300952044,-1200.8913074867507,-4190.1301199234786,6125.7572597930484,8676.3424316204892,8899.8294105922723,1001.8596520580894,-2192.6145586062512,2192.6145586062512,-1001.8596520580894,15823.854064872985,0.0
633296.95196600363,3615566.251970998,-42500.0,4134.4592702835716,-2106.8648274801026,-2126.9340362771682,-4607.0477587807336,4268.9445611481897,6781.8276298961991,7839.6000801755181,1674.9190092708939,-3182.4572393096405,3182.4572393096405,-1674.9190092708939,13944.632955196394,0.0
638296.95196600363,3615566.251970998,-42500.0,4696.6924779888705,-1729.8379335277552,-2893.5147927622188,-4361.4469531019722,2445.8326429879648,4832.2794110556788,6725.8986580128203,2448.3556291435025,-3894.2039764830088,3894.2039764830088,-2448.3556291435025,11943.564439063508,0.0
643296.95196600363,3615566.251970998,-42500.0,4824.1449530595892,-1057.7937808497281,-3377.7198767634832,-3674.9890103765251,909.67384196420664,3101.073875507042,5730.0612685401111,3080.912058207221,-4220.0914764592071,4220.0914764592071,-3080.912058207221,10122.405829572461,0.0
648296.95196600363,3615566.251970998,-42500.0,4551.6738135949745,-299.89206353706174,-3567.0809702207671,-2788.9172132686786,-238.03833059080588,1716.3726781014541,4934.4939879769281,3453.5047877848774,-4185.4202937654763,4185.4202937654763,-3453.5047877848774,8643.3770754563102,0.0
653296.95196600363,3615566.251970998,-42500.0,3997.1209961879472,396.8346549222573,-3516.3835377271171,-1888.6865860973774,-1006.4321172222609,694.87323895357702,4335.9320292145776,3555.1362788568103,-3886.0727418132838,3886.0727418132838,-3555.1362788568103,7533.8368874375137,0.0
658296.95196600363,3615566.251970998,-42500.0,3293.1663117666194,957.24164227091592,-3302.8962333521117,-1084.6634838405155,-1460.5836752208543,-7.8793903039888367,3886.2694273246279,3436.6163471952468,-3431.6290317477624,3431.6290317477624,-3436.6163471952468,6731.2237544678756,0.0
663296.95196600363,3615566.251970998,-42500.0,2548.9129231070601,1360.7304422867307,-2998.1836667896282,-425.08243777751869,-1680.6726832582776,-458.18663981451243,3533.4049467224313,3168.7295438908309,-2913.6182138301397,2913.6182138301397,-3168.7295438908309,6140.2838598206818,0.0
668296.95196600363,3615566.251970998,-42500.0,1838.2819323572385,1618.5633068558313,-2656.6781322267861,82.112909329286083,-1740.0374918057405,-721.83641523695303,3238.9961182768789,2817.4231199704964,-2395.6828351348686,2395.6828351348686,-2817.4231199704964,5675.7292699752288,0.0
673296.95196600363,3615566.251970998,-42500.0,1203.1983193511885,1756.0773826681309,-2314.5819651898751,450.48639641648464,-1697.0187481478706,-854.54033627023614,2979.7733678665059,2433.8111563588864,-1915.7773386347874,1915.7773386347874,-2433.8111563588864,5279.2280901834583,0.0
678296.95196600363,3615566.251970998,-42500.0,661.88132429261418,1801.749661422582,-1993.1943609227919,702.49043670868286,-1594.2593797449583,-899.59591306228299,2743.3692372252003,2052.8917490048216,-1492.5898320473084,1492.5898320473084,-2052.8917490048216,4917.9437460290483,0.0
683296.95196600363,3615566.251970998,-42500.0,217.16616762248842,1781.6685741154183,-1703.2016631917888,862.20931962623627,-1461.0933775153212,-888.84790732613351,2523.9616252579171,1696.0702143798567,-1132.0946529168864,1132.0946529168864,-1696.0702143798567,4576.5435559635453,0.0
688296.95196600363,3615566.251970998,-42500.0,-136.97678572139696,1717.3772025138528,-1448.4075315833682,951.74362540650941,-1316.6734024666914,-844.77515685411129,2319.1546477127313,1374.6542272932288,-832.72053766231681,832.72053766231681,-1374.6542272932288,4249.5986032252595,0.0
693296.95196600363,3615566.251970998,-42500.0,-410.93523384835117,1625.5476985655569,-1228.5245341869945,989.77344013079801,-1172.8521365059603,-782.70265630044071,2128.118412079813,1093.0874189349986,-588.95319726357252,588.95319726357252,-1093.0874189349986,3936.4485218574596,0.0
698296.95196600363,3615566.251970998,-42500.0,-616.60984534763759,1518.480701358026,-1041.0638846851803,991.29019953598015,-1036.4774826347116,-712.72555311824306,1950.5823842517927,851.4848201066784,-393.62660035772183,393.62660035772183,-851.4848201066784,3638.2384716629122,0.0
703296.95196600363,3615566.251970998,-42500.0,-765.76087009895616,1404.8945118724614,-882.53768124943622,967.89321623323178,-911.09598760573579,-641.24206463857979,1786.3558273965255,647.45913810057618,-239.27675434086814,239.27675434086814,-647.45913810057618,3356.427857711009,0.0
708296.95196600363,3615566.251970998,-42500.0,-869.14508074809191,1290.730130588624,-749.17670396383687,928.30565772195257,-798.15625246226716,-572.10879704650722,1635.134487092459,477.35390762610439,-118.87196758484018,118.87196758484018,-477.35390762610439,3092.1441116156534,0.0
713296.95196600363,3615566.251970998,-42500.0,-936.14552633718358,1179.8578870536021,-637.32973169434285,878.93078665037194,-697.83013584982143,-507.4801592642234,1496.4521716225584,337.03160434768972,-26.154034575338756,26.154034575338756,-337.03160434768972,2845.9805820405554,0.0
518296.95196600363,3620566.251970998,-42500.0,-2364.2007069359656,-1170.6109085137336,-419.08690091721871,-1848.9966295381523,-781.34862904142551,-1017.2928704587135,2233.200678065059,-2157.0794806970989,358.0121062960327,-358.0121062960327,2157.0794806970989,4379.1108407987294,0.0
523296.95196600363,3620566.251970998,-42500.0,-2431.1952950379791,-1324.2272521386833,-520.17232971851297,-2047.0890657300888,-928.76515356016262,-1188.7691498916474,2464.0762543297283,-2277.59832180783,289.40785137285945,-289.40785137285945,2277.59832180783,4820.9537552699949,0.0
528296.95196600363,3620566.251970998,-42500.0,-2465.0160933982793,-1492.2805897827541,-647.69760864790703,-2256.3372121888378,-1104.0383371288301,-1387.8201761360654,2717.8220584309256,-2380.9350365269556,188.64016399373168,-188.64016399373168,2380.9350365269556,5302.449277253435,0.0
533296.95196600363,3620566.251970998,-42500.0,-2451.6404742811851,-1672.289468536005,-808.20027080063653,-2471.4316059146281,-1311.1203419247013,-1616.7276006700279,2994.6106233847704,-2455.206076693441,46.460935013231619,-46.460935013231619,2455.206076693441,5822.0730180012843,0.0
538296.95196600363,3620566.251970998,-42500.0,-2373.5153561736984,-1859.1930243881579,-1009.3502317105638,-2683.6486424453183,-1553.4646489154998,-1876.4375338096859,3293.4006798520663,-2484.3614496323421,-148.11567015949458,148.11567015949458,2484.3614496323421,6375.3745050202024,0.0
543296.95196600363,3620566.251970998,-42500.0,-2209.3890905450407,-2044.1114353696253,-1259.7356894298073,-2879.5604772595061,-1833.10685662996,-2165.3883171051866,3611.3173300433891,-2447.3095660252698,-407.57718503451781,407.57718503451781,2447.3095660252698,6953.6763454195288,0.0
548296.95196600363,3620566.251970998,-42500.0,-1934.7153262113261,-2212.7404406021587,-1568.2335983701171,-3039.5055405965231,-2149.1254469001451,-2477.7234011521559,3942.8451331852443,-2317.2519732490582,-745.13927770019131,745.13927770019131,2317.2519732490582,7542.4685806272491,0.0
553296.95196600363,3620566.251970998,-42500.0,-1523.1370193730879,-2343.4490692071317,-1942.6645667364903,-3135.9689114652024,-2495.1889644813687,-2800.6578495801077,4278.8455180477758,-2061.6591647282498,-1173.050716543537,1173.050716543537,2061.6591647282498,8119.6166917132259,0.0
558296.95196600363,3620566.251970998,-42500.0,-949.83626875207597,-2405.3856026882549,-2387.3038605239039,-3132.2860169032738,-2855.8440559833261,-3110.7568291833777,4605.5246174526928,-1643.676856282988,-1699.431136915432,1699.431136915432,1643.676856282988,8653.8118800956527,0.0
563296.95196600363,3620566.251970998,-42500.0,-197.80440486093568,-2357.3808454043919,-2898.7521816593853,-2982.5586478009755,-3201.2631104483021,-3368.9703400461735,4903.7398241308338,-1026.2551043515828,-2323.0082991559011,2323.0082991559011,1026.2551043515828,9104.3515320686802,0.0
568296.95196600363,3620566.251970998,-42500.0,731.87332787470575,-2149.2768786560018,-3459.8283135677725,-2634.4810666541352,-3480.5574404585404,-3514.623489644498,5149.6350943619118,-180.83580486108531,-3025.3160420788354,3025.3160420788354,180.83580486108531,9424.7299831742657,0.0
573296.95196600363,3620566.251970998,-42500.0,1805.4084388767699,-1728.4855714930734,-4031.9119879066388,-2037.8815350351965,-3614.8663650572566,-3459.5255325704061,5318.8837847029208,897.45286205009711,-3760.8692861467671,3760.8692861467671,-897.45286205009711,9575.1960788385477,0.0
578296.95196600363,3620566.251970998,-42500.0,2939.715838921938,-1055.5364171195884,-4548.0699010664011,-1162.6769112357688,-3493.7807494276985,-3085.4459747358756,5399.4007312940694,2167.6033471727696,-4448.2277381044159,4448.2277381044159,-2167.6033471727696,9553.6289135530933,0.0
583296.95196600363,3620566.251970998,-42500.0,3991.7341621883666,-131.38010631820796,-4912.6092433461963,-28.912207617325361,-2982.392298494673,-2251.704828351908,5421.5156686721957,3517.9236404241965,-4969.0540725721421,4969.0540725721421,-3517.9236404241965,9455.8140061883696,0.0
588296.95196600363,3620566.251970998,-42500.0,4769.0081296349335,966.81341785738607,-5016.1200597102643,1254.5415340368581,-1949.7107195635242,-823.33228778084367,5512.4883071359345,4752.4168773773645,-5186.6318290196641,5186.6318290196641,-4752.4168773773645,9551.5004460017262,0.0
593296.95196600363,3620566.251970998,-42500.0,5079.637146927209,2057.8081754408768,-4774.0005527005187,2459.7979486030745,-326.98877424846955,1270.58988893435,5920.396090328466,5612.3291087706211,-4994.0129860495317,4994.0129860495317,-5612.3291087706211,10258.964448138458,0.0
598296.95196600363,3620566.251970998,-42500.0,4825.1376639588625,2867.7578316574131,-4184.0781953510668,3252.1824485742809,1811.3402699643555,3952.3687307300265,6830.7358593247345,5854.791152791242,-4386.3453348864878,4386.3453348864878,-5854.791152791242,11845.242504736549,0.0
603296.95196600363,3620566.251970998,-42500.0,4101.2134161607328,3110.5693443364485,-3374.8719378816027,3280.2202222972892,4181.9142081428217,6918.9197364853835,8121.2066393232035,5379.7854335554757,-3521.4672711674971,3521.4672711674971,-5379.7854335554757,14094.9782714546,0.0
608296.95196600363,3620566.251970998,-42500.0,3230.0276314136208,2628.8498654569999,-2598.3062958279947,2341.8525728402064,6304.9777912232112,9638.2114705301974,9431.800108488369,4341.7343320790123,-2710.0382748249694,2710.0382748249694,-4341.7343320790123,16395.942847925027,0.0
613296.95196600363,3620566.251970998,-42500.0,2652.8425408285825,1523.5962241632706,-2138.7960277574698,552.67162758255517,7641.2498957068601,11480.0719368665,10368.280634138595,3147.4576046871939,-2298.481081197539,2298.481081197539,-3147.4576046871939,18061.648481316097,0.0
618296.95196600363,3620566.251970998,-42500.0,2698.1219290884114,166.07795062781634,-2170.730829650689,-1614.5671971528716,7821.093232607971,11969.001839662882,10659.059848619991,2286.8265460630155,-2484.9696884176128,2484.9696884176128,-2286.8265460630155,18606.590664331106,0.0
623296.95196600363,3620566.251970998,-42500.0,3368.6504185357717,-960.2640015213924,-2656.2566223048598,-3507.559218674327,6835.6876704100196,11025.778539539948,10244.651960649357,2072.1864187386846,-3189.9566806792991,3189.9566806792991,-2072.1864187386846,17914.232182783115,0.0
628296.95196600363,3620566.251970998,-42500.0,4330.8587655785041,-1503.7276198099503,-3367.4796674032523,-4609.9474209214368,5043.1231378853718,9012.97875029639,9281.2316032078706,2475.6710088498389,-4095.4798391585587,4095.4798391585587,-2475.6710088498389,16250.197392417942,0.0
633296.95196600363,3620566.251970998,-42500.0,5133.2351607833289,-1396.2625107073061,-4021.3347274362663,-4766.8540274566403,2973.1729548791368,6532.636607944597,8055.2403694391251,3195.9489132263889,-4834.2642501539376,4834.2642501539376,-3195.9489132263889,14110.705291049786,0.0
638296.95196600363,3620566.251970998,-42500.0,5465.4120798233062,-814.98968525355485,-4419.9882677932592,-4166.3021032820543,1081.7613061364825,4137.3061927655626,6857.3030039119976,3877.3470427246607,-5175.8264567316692,5175.8264567316692,-3877.3470427246607,11997.233583677189,0.0
643296.95196600363,3620566.251970998,-42500.0,5262.3342148133515,-27.226350770222204,-4504.2216960328051,-3149.6325692980636,-381.66907038784927,2157.295131751529,5877.5852698415129,4289.3517650023268,-5083.8551346643735,5083.8551346643735,-4289.3517650023268,10242.125652524001,0.0
648296.95196600363,3620566.251970998,-42500.0,4641.4791848507011,744.13583389854091,-4320.6733421055787,-2028.823609671897,-1363.9443735642803,695.99328082187003,5161.3150087825779,4368.8226753223898,-4656.3745292464409,4656.3745292464409,-4368.8226753223898,8950.8442824323338,0.0
653296.95196600363,3620566.251970998,-42500.0,3785.1823491195833,1372.1211110916322,-3960.2045919714487,-1004.727158342175,-1928.8180922465749,-286.63958022189007,4648.2778235503265,4166.4786709653654,-4035.2807855702649,4035.2807855702649,-4166.4786709653654,8054.2233027830953,0.0
658296.95196600363,3620566.251970998,-42500.0,2856.7225610876226,1814.180375522385,-3511.7585472967648,-169.6365764994209,-2181.4099308807881,-889.00674660941309,4255.6637108670211,3776.4197429885639,-3345.4689711763099,3345.4689711763099,-3776.4197429885639,7414.1191121997681,0.0
663296.95196600363,3620566.251970998,-42500.0,1968.2512927695068,2079.4176078357932,-3042.0384485492273,457.12235726477252,-2223.6744464684029,-1215.6712947377544,3924.7228886620715,3289.8487421224945,-2672.6812138862351,2672.6812138862351,-3289.8487421224945,6908.0381514116025,0.0
668296.95196600363,3620566.251970998,-42500.0,1181.7932144740807,2199.8420559838096,-2592.9108167992986,894.32527012556386,-2136.8968576649359,-1355.0730872271101,3624.4879557106142,2776.1340010230724,-2065.0616927967867,2065.0616927967867,-2776.1340010230724,6459.4515650836047,0.0
673296.95196600363,3620566.251970998,-42500.0,522.46852254342309,2212.5721457558361,-2186.4074157023902,1175.4825725300525,-1979.2734613578039,-1374.3196548557305,3341.928146966261,2280.4599575362045,-1543.2137925694192,1543.2137925694192,-2280.4599575362045,6031.7431166303777,0.0
678296.95196600363,3620566.251970998,-42500.0,-7.6091966077445257,2151.2150904559758,-1831.175141525805,1336.127658374196,-1789.5495313183726,-1321.1976030543717,3073.1671228159107,1828.2841055627425,-1110.5504659583614,1110.5504659583614,-1828.2841055627425,5612.6504615146059,0.0
683296.95196600363,3620566.251970998,-42500.0,-418.75614597799006,2042.8237737436064,-1527.8368378470964,1408.048240930877,-1591.9862224170859,-1228.2437140921297,2818.1759363782435,1431.1528242708987,-761.12104931720796,761.12104931720796,-1431.1528242708987,5201.7295130642879,0.0
688296.95196600363,3620566.251970998,-42500.0,-726.78912803276694,1907.6727500211855,-1272.755577283762,1417.3467107560671,-1400.8089757142179,-1116.77718484928,2578.0895036572197,1091.7365964878913,-484.731783604491,484.731783604491,-1091.7365964878913,4802.9478522939125,0.0
693296.95196600363,3620566.251970998,-42500.0,-948.92131958277344,1760.1717122001903,-1060.4026914250032,1384.3484433249682,-1223.6179636765451,-1000.2085608660836,2354.0018061059759,807.53423258786938,-269.96669304418793,269.96669304418793,-807.53423258786938,4420.965830603518,0.0
698296.95196600363,3620566.251970998,-42500.0,-1101.5563347889545,1610.0993021937679,-884.74248521348306,1324.2981637622745,-1063.8250096329457,-886.55564013881053,2146.5433083491353,573.37943946872622,-105.81274030439693,105.81274030439693,-573.37943946872622,4059.599184349097,0.0
703296.95196600363,3620566.251970998,-42500.0,-1199.255524316028,1463.7708048937473,-739.97056519880118,1248.2880261969458,-922.30715594648882,-780.26154741715948,1955.8092306926285,383.02411781045009,17.577328164384568,-17.577328164384568,-383.02411781045009,3721.3648519523927,0.0
708296.95196600363,3620566.251970998,-42500.0,-1254.387331175119,1325.012074459172,-620.86127341759743,1164.1691023688652,-798.4923569433987,-683.46945990175846,1781.4349701441843,230.07896837405673,108.61765181613617,-108.61765181613617,-230.07896837405673,3407.5242265779739,0.0
713296.95196600363,3620566.251970998,-42500.0,-1277.1467852040764,1195.9171095797703,-522.89048891831544,1077.3432661405534,-691.05043915951251,-596.89314394256098,1622.715358741588,108.52909757231608,174.28792439038108,-174.28792439038108,-108.52909757231608,3118.3125006296582,0.0
518296.95196600363,3625566.251970998,-42500.0,-2662.8120791090696,-1016.7616167247008,-261.6288484019139,-2028.16307874262,-679.01322305635176,-1100.4874102280412,2353.9112377882052,-2277.8068404507767,590.87359121785573,-590.87359121785573,2277.8068404507767,4613.0290841810729,0.0
523296.95196600363,3625566.251970998,-42500.0,-2782.4762413037611,-1164.059164815232,-334.35831913876206,-2268.849523672553,-815.51234255596216,-1296.5452143055729,2610.9361403039698,-2433.4937397697586,561.50462635598387,-561.50462635598387,2433.4937397697586,5105.5709614976349,0.0
528296.95196600363,3625566.251970998,-42500.0,-2876.9941015679706,-1329.4584275083548,-429.10959846025861,-2531.060771260712,-980.53024819234099,-1527.8596101382932,2896.8770874987677,-2580.4352528179616,505.51916735453415,-505.51916735453415,2580.4352528179616,5649.3610895450147,0.0
533296.95196600363,3625566.251970998,-42500.0,-2932.5008855821306,-1512.4839054165911,-552.38267192106866,-2811.7637095086652,-1179.3023539485064,-1799.1272351341308,3213.2903907961554,-2708.1792506151742,413.53134879192339,-413.53134879192339,2708.1792506151742,6245.4035551807283,0.0
538296.95196600363,3625566.251970998,-42500.0,-2930.8080521624411,-1710.7377799158526,-712.32697392217028,-3104.7464404751354,-1417.2943136718657,-2114.3971641783355,3560.7510097895988,-2801.9281133911518,273.69924658964533,-273.69924658964533,2801.9281133911518,6892.1248591410595,0.0
543296.95196600363,3625566.251970998,-42500.0,-2848.669396149106,-1918.7289468531635,-918.90565504441406,-3399.1201383226066,-1699.5822321995699,-2476.016279962952,3938.1866692837248,-2841.2696285554093,71.485084859429662,-71.485084859429662,2841.2696285554093,7583.9357012446353,0.0
548296.95196600363,3625566.251970998,-42500.0,-2657.3564580876837,-2126.2103361067252,-1183.8275667252071,-3677.3394631143383,-2029.6732960743607,-2882.8925682800477,4341.9205070768548,-2798.829140456397,-210.25626942074814,210.25626942074814,2798.829140456397,8309.2717329813022,0.0
553296.95196600363,3625566.251970998,-42500.0,-2323.0266058398279,-2315.9441018939901,-1519.9749050020905,-3912.7319856910276,-2407.4141121157672,-3327.7337338819389,4764.339523878587,-2639.1535631244606,-590.48930631897883,590.48930631897883,2639.1535631244606,9048.0547280539322,0.0
558296.95196600363,3625566.251970998,-42500.0,-1808.7510194998417,-2460.9648855543255,-1939.8734371397991,-4066.7215383621738,-2825.4820500612677,-3792.788935643885,5192.1410065589462,-2318.5182254728993,-1087.893475403685,1087.893475403685,2318.5182254728993,9768.6852162426021,0.0
563296.95196600363,3625566.251970998,-42500.0,-1079.6374188146494,-2521.816252382891,-2452.5228369869205,-4086.4034100786107,-3263.8247428115419,-4243.5077325333368,5604.2564849242954,-1787.0215804679235,-1716.5102185429071,1716.5102185429071,1787.0215804679235,10425.145768390399,0.0
568296.95196600363,3625566.251970998,-42500.0,-113.09900177402544,-2445.1371181641189,-3057.7658125691978,-3904.152725775954,-3681.5158978593226,-4619.6139122313562,5970.01367266344,-995.34508237146179,-2477.9982351682274,2477.9982351682274,995.34508237146179,10955.982128161382,0.0
573296.95196600363,3625566.251970998,-42500.0,1083.6060749545509,-2166.6095722381283,-3737.6837026209364,-3442.8217360244557,-4006.3292917177691,-4823.8676874203247,6249.281107888929,90.389505066353877,-3349.7346159769313,3349.7346159769313,-90.389505066353877,11289.602177462435,0.0
578296.95196600363,3625566.251970998,-42500.0,2448.5104171883618,-1623.4732359642746,-4446.0588826509693,-2632.6859926348347,-4124.8968251921242,-4711.3681956423952,6399.1700288106495,1462.4299011641979,-4270.0757367619299,4270.0757367619299,-1462.4299011641979,11365.698060951785,0.0
583296.95196600363,3625566.251970998,-42500.0,3839.570629453779,-782.81997379347149,-5100.7128653302971,-1447.7327343257214,-3881.7153195798464,-4088.138862422963,6398.2604006114743,3035.1199995497291,-5127.2832195014598,5127.2832195014598,-3035.1199995497291,11190.649196719543,0.0
588296.95196600363,3625566.251970998,-42500.0,5028.7299615302782,312.99664330283787,-5589.260744156999,36.448161976569168,-3102.7458369340707,-2736.8522544300063,6311.3185681143723,4612.5069844420832,-5766.707903043367,5766.707903043367,-4612.5069844420832,10943.952452067289,0.0
593296.95196600363,3625566.251970998,-42500.0,5747.5665815179609,1499.4707115454287,-5801.6306578566082,1581.0881783510049,-1661.802843924341,-492.96051577289234,6397.4898916812517,5893.273255213333,-6035.1479539448501,6035.1479539448501,-5893.273255213333,11080.82035796363,0.0
598296.95196600363,3625566.251970998,-42500.0,5805.4415187927307,2483.5257234398205,-5691.5097899717985,2770.7651959930449,410.09747950153775,2621.638018114144,7015.5522571963975,6554.2576736554311,-5866.4261665527301,5866.4261665527301,-6554.2576736554311,12155.332965496304,0.0
603296.95196600363,3625566.251970998,-42500.0,5243.5616361601069,2927.8909031280095,-5337.3588198195175,3117.0042026254469,2820.281851844436,6253.8999932875804,8199.7073017440798,6416.281803684722,-5368.8239517363872,5368.8239517363872,-6416.281803684722,14226.514726839625,0.0
608296.95196600363,3625566.251970998,-42500.0,4410.5441763911267,2627.0569902677153,-4944.4459357615806,2296.7371649964389,5011.5942130964031,9679.0201875388557,9587.8851879916092,5608.0302763258815,-4832.7934691241344,4832.7934691241344,-5608.0302763258815,16626.386866806344,0.0
613296.95196600363,3625566.251970998,-42500.0,3838.1547451901065,1677.9180901786826,-4750.6559493679251,417.43384454445174,6338.2270983135504,11985.69895812695,10637.453011481688,4579.7319737029657,-4601.3565719497756,4601.3565719497756,-4579.7319737029657,18428.678991298319,0.0
618296.95196600363,3625566.251970998,-42500.0,3926.2486876089329,495.15197801150453,-4879.4703963299098,-1905.723021675265,6374.7831594957079,12482.297776776511,10948.722374780878,3883.0894976735813,-4854.4757268031899,4854.4757268031899,-3883.0894976735813,18963.999511993137,0.0
623296.95196600363,3625566.251970998,-42500.0,4649.0367480159766,-395.27705837050456,-5251.7765754599768,-3814.1707279092152,5163.6626245516991,11093.757131080218,10444.258564778249,3831.3425353914263,-5468.0238247330526,5468.0238247330526,-3831.3425353914263,18096.164253814666,0.0
628296.95196600363,3625566.251970998,-42500.0,5561.0355847324745,-657.35925156922201,-5639.0569712974457,-4681.9665798448959,3191.3451555492966,8414.5899451851401,9356.8824688671248,4316.1224522887569,-6087.7119809379619,6087.7119809379619,-4316.1224522887569,16222.138179943993,0.0
633296.95196600363,3625566.251970998,-42500.0,6126.8820749383358,-298.43799961034881,-5816.5575858224738,-4419.5894354012507,1096.4410712958213,5339.4072384937372,8076.4134051233868,4947.027336009688,-6369.2224054544231,6369.2224054544231,-4947.027336009688,14011.879476881841,0.0
638296.95196600363,3625566.251970998,-42500.0,6060.7772094612619,426.97834514594086,-5683.9565876997867,-3378.3958316417147,-644.8287256036366,2595.3240317915916,6948.4261808169158,5354.6543680497834,-6170.4907242476384,6170.4907242476384,-5354.6543680497834,12053.312059266769,0.0
643296.95196600363,3625566.251970998,-42500.0,5401.7091390640835,1223.6531135945784,-5274.9176049156067,-2033.7152244052993,-1838.9663041569609,527.14031448217804,6129.4950087450643,5376.0838948418459,-5561.5174533133795,5561.5174533133795,-5376.0838948418459,10618.530635195453,0.0
648296.95196600363,3625566.251970998,-42500.0,4371.5981406092378,1892.4704697777345,-4692.5316920662908,-745.12187953716852,-2510.2555937190664,-838.58194340724833,5573.0332262556194,5041.930446885839,-4714.3414807795216,4714.3414807795216,-5041.930446885839,9663.9940044872601,0.0
653296.95196600363,3625566.251970998,-42500.0,3210.4773808477071,2353.2042429972571,-4043.8135443853002,306.03299645327229,-2781.0794633442947,-1632.049549674992,5156.6079541055451,4473.5070881527299,-3797.0268999409095,3797.0268999409095,-4473.5070881527299,9002.3659606966557,0.0
658296.95196600363,3625566.251970998,-42500.0,2092.0185099910923,2606.8092703198595,-3407.1040236614526,1072.9419883383976,-2786.1348793835191,-2017.5254858049248,4793.2981920754291,3797.7424792640954,-2925.4214023877726,2925.4214023877726,-3797.7424792640954,8465.0714378578868,0.0
663296.95196600363,3625566.251970998,-42500.0,1111.3346939854018,2691.5876255490639,-2827.3202874158987,1579.9890083824539,-2634.8696506059669,-2136.5577231891316,4445.4203082052172,3109.544006309829,-2160.3383529400712,2160.3383529400712,-3109.544006309829,7957.3941986686214,0.0
668296.95196600363,3625566.251970998,-42500.0,304.41206778911493,2654.5181477472875,-2323.6222699342711,1877.668624709195,-2404.1582469337682,-2093.8402595252828,4103.3043477501333,2466.7544544880925,-1522.8430164026065,1522.8430164026065,-2466.7544544880925,7443.9061016864598,0.0
673296.95196600363,3625566.251970998,-42500.0,-328.28347578544981,2537.7005237971625,-1899.0647570586871,2018.9929685146369,-2143.2925582393223,-1960.8935841127793,3768.62973664738,1898.145878786597,-1010.7561240679868,1010.7561240679868,-1898.145878786597,6920.8507308293329,0.0
678296.95196600363,3625566.251970998,-42500.0,-804.04848390438269,2374.0384572714274,-1548.1630619776192,2049.8965027889831,-1881.6239466910904,-1784.1689945203711,3446.1549394818858,1413.3835329581193,-610.65267427329411,610.65267427329411,-1413.3835329581193,6396.9484597695446,0.0
683296.95196600363,3625566.251970998,-42500.0,-1146.9742481448766,2187.2568798082743,-1261.7663646617953,2006.7309278108605,-1635.2295283195845,-1592.5716797557748,3140.3682456651391,1010.9965165850817,-305.12815370408612,305.12815370408612,-1010.9965165850817,5883.5104388750951,0.0
688296.95196600363,3625566.251970998,-42500.0,-1381.9673978494459,1993.4751321900374,-1029.8323188990666,1916.7616223145492,-1411.8166912888312,-1403.2226564225416,2854.433584723447,683.78212034088847,-76.676345115487095,76.676345115487095,-683.78212034088847,5390.3032743732838,0.0
693296.95196600363,3625566.251970998,-42500.0,-1531.8637561510723,1803.0545299048631,-842.83616643374501,1799.6747602603259,-1214.0585193630361,-1225.5598246516856,2590.088276058153,422.14853447705764,90.505997883367257,-90.505997883367257,-422.14853447705764,4924.3119483945266,0.0
698296.95196600363,3625566.251970998,-42500.0,-1616.2900811952766,1622.2268147179984,-692.37621079800238,1669.2303573914505,-1041.757561565948,-1064.1511897905605,2347.8742217554941,216.03837925889513,209.86877372932702,-209.86877372932702,-216.03837925889513,4489.7629491634516,0.0
703296.95196600363,3625566.251970998,-42500.0,-1651.4483033986271,1454.3788366471952,-571.34458332423662,1534.7384738027567,-893.20447205268624,-920.58191448596244,2127.44887738834,55.950246173852776,292.45030614259065,-292.45030614259065,-55.950246173852776,4088.6111157796145,0.0
708296.95196600363,3625566.251970998,-42500.0,-1650.3460794152802,1301.00542965611,-473.88131850808929,1402.2638136077182,-766.00330450380659,-794.6929119363881,1927.8724360594579,-66.586837215224818,347.09228099816545,-347.09228099816545,66.586837215224818,3721.1188986584152,0.0
713296.95196600363,3625566.251970998,-42500.0,-1623.2122871862334,1162.3896702565037,-395.23414502606647,1275.561082909898,-657.55408804387241,-685.37587527234518,1747.8400236401328,-158.85585112800453,380.75647010308336,-380.75647010308336,158.85585112800453,3386.3807287060881,0.0
513296.95196600363,3630566.251970998,-42500.0,-2738.7640072260479,-695.23384993766786,-85.696812271639118,-1929.3739568684241,-450.2712519222323,-987.69390093410732,2203.1361647397466,-2152.734302182439,780.82240922033338,-780.82240922033338,2152.734302182439,4322.6195667176989,0.0
518296.95196600363,3630566.251970998,-42500.0,-2914.4445262799827,-805.82079721581624,-117.2976585151234,-2177.7300559593023,-545.23626595382575,-1169.4208918235367,2451.6214399284618,-2328.500054883154,804.51871462687382,-804.51871462687382,2328.500054883154,4801.6106162473006,0.0
523296.95196600363,3630566.251970998,-42500.0,-3083.219436874992,-933.55037952362704,-160.85063245559277,-2456.6434014445385,-661.81476347952628,-1387.0296414291763,2731.515764793201,-2508.5676549781274,815.23625438299246,-815.23625438299246,2508.5676549781274,5337.9998865699035,0.0
528296.95196600363,3630566.251970998,-42500.0,-3235.8770795244527,-1080.0464530530896,-220.62496692790634,-2767.3473440079933,-804.90097584118257,-1647.1132557814549,3046.1228010158343,-2687.284427661677,806.56422873263648,-806.56422873263648,2687.284427661677,5936.5919555201517,0.0
533296.95196600363,3630566.251970998,-42500.0,-3359.5186167125121,-1246.3377200121413,-302.32695849859226,-3109.5026863907406,-980.26460008426773,-1956.8792204765548,3398.5354476413445,-2855.9744069340845,769.86129844736979,-769.86129844736979,2855.9744069340845,6601.1764644489795,0.0
538296.95196600363,3630566.251970998,-42500.0,-3436.4746886681819,-1432.2578245915302,-413.51072277430995,-3480.1457209597656,-1194.4925356205438,-2323.7506736685418,3791.247188959891,-3001.7720515521996,693.65493630059291,-693.65493630059291,3001.7720515521996,7333.5877079322781,0.0
543296.95196600363,3630566.251970998,-42500.0,-3443.0751976007318,-1635.4908065918366,-564.03255264927793,-3872.1475478265756,-1454.7103460861888,-2754.5720798516918,4225.5344675617116,-3106.1201454110123,562.99799293772276,-562.99799293772276,3106.1201454110123,8132.3004286736477,0.0
548296.95196600363,3630566.251970998,-42500.0,-3348.4118444497581,-1850.1031323251411,-766.47338411272995,-4272.0064880758546,-1767.8877692659482,-3254.1632054934526,4700.4958050754622,-3142.9314245292762,358.90218942835099,-358.90218942835099,3142.9314245292762,8990.3831637212115,0.0
553296.95196600363,3630566.251970998,-42500.0,-3113.4483855690787,-2064.3696233242126,-1036.3494129508258,-4656.773381189184,-2139.3873412368735,-3822.8085684691828,5211.5815493841337,-3076.5493489789087,58.121100875876664,-58.121100875876664,3076.5493489789087,9892.5911015342863,0.0
558296.95196600363,3630566.251970998,-42500.0,-2691.2612920316628,-2257.7381562153673,-1391.7461405712597,-4989.9720456768682,-2570.1955551841074,-4452.0196156982302,5748.3994532461193,-2859.9774307948719,-366.16934139182263,366.16934139182263,2859.9774307948719,10811.404395108333,0.0
563296.95196600363,3630566.251970998,-42500.0,-2029.9783318633336,-2397.0139573680058,-1851.7099051806942,-5216.6917834362957,-3051.9701666299416,-5117.5242573762362,6291.5750169293615,-2434.5611347444228,-941.78534644852016,941.78534644852016,2434.5611347444228,11702.023087830539,0.0
568296.95196600363,3630566.251970998,-42500.0,-1081.2182575597287,-2432.5905819502159,-2432.3451991964785,-5259.0282303481154,-3558.7771930702174,-5768.0231383284581,6808.6706971925905,-1733.6589103172648,-1691.419814074801,1691.419814074801,1733.6589103172648,12497.140696532826,0.0
573296.95196600363,3630566.251970998,-42500.0,181.83535841898421,-2297.3035446785329,-3139.3348753984592,-5015.4850730143125,-4034.6589991519909,-6308.3424541900104,7250.0577405195963,-694.8773891011125,-2620.9457714319383,2620.9457714319383,694.8773891011125,13104.621184843088,0.0
578296.95196600363,3630566.251970998,-42500.0,1732.9772367894222,-1913.6390922126982,-3956.2950036018333,-4372.5805566131867,-4378.2854122947474,-6577.9380984429063,7548.205349352078,712.86739344803527,-3701.0712502741858,3701.0712502741858,-712.86739344803527,13416.730144792909,0.0
583296.95196600363,3630566.251970998,-42500.0,3451.0052312493399,-1218.5024302577499,-4831.4981808389593,-3242.5388030680397,-4432.1951688651498,-6333.7943451673036,7630.3260204407552,2443.7499073522472,-4846.1737933010209,4846.1737933010209,-2443.7499073522472,13350.243813286677,0.0
588296.95196600363,3630566.251970998,-42500.0,5088.8373181901679,-213.03020436559416,-5672.3041690610344,-1639.8449756878131,-3995.877582622772,-5263.7980115778055,7470.8213498354571,4321.578478481475,-5905.2564733048603,5905.2564733048603,-4321.578478481475,12949.037957815779,0.0
593296.95196600363,3630566.251970998,-42500.0,6302.367851307753,973.18507134294839,-6363.7872834381087,215.56497484175446,-2892.1412709108686,-3075.4112060197795,7242.8855305605157,6019.6482671958574,-6692.3338182188972,6692.3338182188972,-6019.6482671958574,12556.589397727643,0.0
598296.95196600363,3630566.251970998,-42500.0,6789.0072677506387,2053.0504260052421,-6821.8728591769641,1840.0633493689445,-1100.3098656623665,308.32508449826543,7426.7660769689546,7140.2072215433718,-7075.2052740463123,7075.2052740463123,-7140.2072215433718,12863.984763618519,0.0
603296.95196600363,3630566.251970998,-42500.0,6507.2112663100979,2663.2031403471169,-7056.7088173074762,2594.6789216821562,1098.6212835265155,4502.7600641424242,8190.5336641891518,7419.6866266394109,-7086.9467397282488,7086.9467397282488,-7419.6866266394109,14349.406675291608,0.0
608296.95196600363,3630566.251970998,-42500.0,5811.3023254248847,2570.4018001331215,-7181.4105762430154,2014.5781714468601,3103.7696576775925,8560.5386885282587,9310.9520273911039,6951.2518363953322,-6955.1429134535201,6955.1429134535201,-6951.2518363953322,16522.27460196563,0.0
613296.95196600363,3630566.251970998,-42500.0,5307.5512371629484,1873.7930432891192,-7325.477304272652,198.91972941722088,4216.4165056314851,11235.84376190731,10335.805297263905,6208.7806414947681,-6967.8405186838027,6967.8405186838027,-6208.7806414947681,18265.181734248265,0.0
618296.95196600363,3630566.251970998,-42500.0,5442.588755644796,1005.579976073333,-7513.5884134493162,-2077.0387430823303,4023.3529618259427,11606.649537382531,10672.937192969966,5762.5228153304643,-7246.1048344450237,7246.1048344450237,-5762.5228153304643,18715.202002091948,0.0
623296.95196600363,3630566.251970998,-42500.0,6134.3590984661596,472.86439181438914,-7628.9852020756534,-3752.4501056316622,2663.8489403559424,9664.6474814650628,10179.353367870073,5869.5819168084354,-7621.2719485528587,7621.2719485528587,-5869.5819168084354,17739.303199782702,0.0
628296.95196600363,3630566.251970998,-42500.0,6826.0912793016696,532.17319950600904,-7504.7705694651477,-4148.4946894458662,734.91981695236495,6331.2886632828231,9160.857259844679,6313.404149618972,-7755.6780424814015,7755.6780424814015,-6313.404149618972,15894.258521385391,0.0
633296.95196600363,3630566.251970998,-42500.0,6949.2807752869176,1079.8539544218902,-7055.1038945907831,-3321.0460272868145,-1095.3416700797409,2830.2050485693781,8074.0171027869183,6650.6053293617124,-7406.5694063082874,7406.5694063082874,-6650.6053293617124,13985.351901914531,0.0
638296.95196600363,3630566.251970998,-42500.0,6315.950609992904,1816.7992084057366,-6325.4013734621813,-1823.3697017459256,-2421.4425055635152,10.952790647890392,7241.5331183232192,6576.3933288124526,-6576.8095774675594,6576.8095774675594,-6576.3933288124526,12542.708698852395,0.0
643296.95196600363,3630566.251970998,-42500.0,5114.382138779004,2475.2196715734385,-5442.0971364650068,-240.08998112592872,-3159.8551671024134,-1853.6702014173516,6699.311084404384,6060.2711283245017,-5451.7940536117085,5451.7940536117085,-6060.2711283245017,11616.455091042575,0.0
648296.95196600363,3630566.251970998,-42500.0,3670.2681792654648,2921.7634509143027,-4535.4538048478198,1076.477897284062,-3419.8486747896595,-2875.2616879824823,6294.6833210369741,5247.3041561683513,-4251.236378544254,4251.236378544254,-5247.3041561683513,10983.608243603254,0.0
653296.95196600363,3630566.251970998,-42500.0,2253.5267845295862,3139.0200009597361,-3695.657654076057,2011.3765491204313,-3362.8013990315098,-3295.2141541640767,5907.8894853889406,4315.1709427616397,-3134.0145259846863,3134.0145259846863,-4315.1709427616397,10430.406730193583,0.0
658296.95196600363,3630566.251970998,-42500.0,1017.6151717644243,3168.4373304048518,-2967.1849492724823,2588.301869348702,-3127.4138742030395,-3338.5598039801093,5501.3046121780044,3397.2506163999492,-2179.8644815725124,2179.8644815725124,-3397.2506163999492,9851.5716271931888,0.0
663296.95196600363,3630566.251970998,-42500.0,19.243722820918123,3066.6104464364103,-2361.3265123601523,2882.5494173742618,-2810.0676782623027,-3169.5073686273336,5078.037713755908,2568.9225740709426,-1409.9731970525104,1409.9731970525104,-2568.9225740709426,9223.5142772576564,0.0
668296.95196600363,3630566.251970998,-42500.0,-742.61109664779144,2884.1194742919138,-1870.7909557879825,2974.1187881999567,-2470.0373450068537,-2894.8658272433199,4652.1214160758545,1861.2924258340008,-813.12579039480181,813.12579039480181,-1861.2924258340008,8559.8303933705611,0.0
673296.95196600363,3630566.251970998,-42500.0,-1295.8670616225493,2659.2202054469444,-1480.2665633923821,2930.0503237151211,-2140.4857553191619,-2579.7316129856927,4236.9304656432314,1278.6989214704492,-364.51810826004265,364.51810826004265,-1278.6989214704492,7884.1959759218589,0.0
678296.95196600363,3630566.251970998,-42500.0,-1677.0561129763873,2418.2474580272255,-1172.5274721288474,2801.0524329223399,-1838.0091624673867,-2261.795783930977,3842.1295930080059,811.79143872560962,-36.343174407414153,36.343174407414153,-811.79143872560962,7218.5709865809331,0.0
683296.95196600363,3630566.251970998,-42500.0,-1922.2367596409156,2178.1222984578471,-931.41932223772403,2623.4004046227979,-1569.3354798942064,-1961.52816304149,3473.6496180308418,445.54270303480354,197.23381129234514,-197.23381129234514,-445.54270303480354,6579.5117183329166,0.0
688296.95196600363,3630566.251970998,-42500.0,-2063.1916318173662,1948.9770004233769,-743.01928800270889,2422.054737142947,-1335.609425711076,-1688.8364126575182,3134.4484380650174,163.62166743081121,358.23103968728157,-358.23103968728157,-163.62166743081121,5977.8693987256256,0.0
693296.95196600363,3630566.251970998,-42500.0,-2126.3202502487211,1736.317358486112,-595.87627565216928,2213.6029514599004,-1135.0295417892198,-1447.3234536659108,2825.3636415939409,-49.432311348579248,464.53700810616454,-464.53700810616454,49.432311348579248,5419.733667213487,0.0
698296.95196600363,3630566.251970998,-42500.0,-2132.7633694221754,1542.6167367738121,-480.82780757718348,2008.6313726975977,-964.41170030173237,-1236.9716573554726,2545.8133767305208,-207.27624463745107,530.2605383957391,-530.2605383957391,207.27624463745107,4907.6076303676018,0.0
703296.95196600363,3630566.251970998,-42500.0,-2099.028532506285,1368.439903242559,-390.66629731765016,1813.5311855730474,-820.09042161985917,-1055.8219208346929,2294.3319162511248,-321.48816444850098,566.30870197741967,-566.30870197741967,321.48816444850098,4441.4886097760673,0.0
708296.95196600363,3630566.251970998,-42500.0,-2037.7572068486036,1213.2073715811371,-319.7811786987665,1631.8264978978675,-698.4134396256942,-901.00264587184665,2068.9539320687704,-401.6230961858862,580.99091029418412,-580.99091029418412,401.6230961858862,4019.7349433266818,0.0
713296.95196600363,3630566.251970998,-42500.0,-1958.4733212193721,1075.7022874300624,-263.83229915642892,1465.1312343142406,-595.99255244239373,-769.34237604344924,1867.4812977789331,-455.42030522709285,580.56572934074973,-580.56572934074973,455.42030522709285,3639.7179452082059,0.0
513296.95196600363,3635566.251970998,-42500.0,-2891.2952523457452,-463.77580808062135,11.035412022444213,-2015.4745577825581,-313.36112722200176,-1025.4885096532728,2258.1874129815146,-2117.1613717157616,928.40579975105879,-928.40579975105879,2117.1613717157616,4428.976476699524,0.0
518296.95196600363,3635566.251970998,-42500.0,-3100.0565609894088,-545.0025997535131,0.64439107076528579,-2287.3453801985643,-384.24260290604229,-1219.5844395398447,2520.6149104216929,-2299.0202843915595,982.01092240225944,-982.01092240225944,2299.0202843915595,4934.5311222222581,0.0
523296.95196600363,3635566.251970998,-42500.0,-3309.1211691466133,-640.3664884243783,-16.738666029033784,-2596.6279801067244,-472.46131923604003,-1453.9246786965828,2818.2452723187303,-2488.8246761449273,1029.0343637257479,-1029.0343637257479,2488.8246761449273,5504.617835439908,0.0
528296.95196600363,3635566.251970998,-42500.0,-3510.6533264450445,-751.76117610470101,-44.27120497974704,-2946.629466243518,-582.37726145371198,-1736.7394964022901,3155.4987549470411,-2682.2113562881304,1064.3159261366204,-1064.3159261366204,2682.2113562881304,6146.0810406815017,0.0
533296.95196600363,3635566.251970998,-42500.0,-3693.2006028910637,-880.88406605304328,-86.386474430308212,-3339.6930968276215,-719.34767478974152,-2077.5155227829941,3536.9311407096729,-2872.1376058869146,1080.5637696679328,-1080.5637696679328,2872.1376058869146,6865.3458798096817,0.0
538296.95196600363,3635566.251970998,-42500.0,-3840.4372674615952,-1028.8482169835811,-149.26204772465348,-3776.2850490692231,-889.83866004728304,-2486.8545475142555,3966.9491863477815,-3047.73333825175,1067.6300176108498,-1067.6300176108498,3047.73333825175,7667.6372167567206,0.0
543296.95196600363,3635566.251970998,-42500.0,-3929.5841536355665,-1195.5168469226694,-241.42110244686452,-4253.572727613614,-1101.4341587655831,-2976.0353476066161,4449.3152472144202,-3192.7378069462402,1011.6102675773307,-1011.6102675773307,3192.7378069462402,8555.7497978342817,0.0
548296.95196600363,3635566.251970998,-42500.0,-3929.5210081062378,-1378.3984696810264,-374.45938693776083,-4763.2435330311391,-1362.6056760346248,-3556.0482408193679,4986.3106549505192,-3283.4255732713673,893.79520874841546,-893.79520874841546,3283.4255732713673,9528.154223684036,0.0
553296.95196600363,3635566.251970998,-42500.0,-3798.7575887625781,-1570.8726385165551,-563.83119182523433,-5288.1980191144849,-1681.9803366809278,-4235.6932521343006,5577.340798086404,-3285.988920779876,689.60427458769141,-689.60427458769141,3285.988920779876,10576.120614152216,0.0
558296.95196600363,3635566.251970998,-42500.0,-3483.8140216420948,-1759.4559779620442,-829.48973385146405,-5797.6372873199061,-2066.6123425164806,-5017.9903006794166,6216.6335289394247,-3153.5755470548775,367.86830628074063,-367.86830628074063,3153.5755470548775,11679.41975112492,0.0
563296.95196600363,3635566.251970998,-42500.0,-2919.4215832619111,-1919.8748814505791,-1195.9105153391067,-6240.0983748285526,-2518.3782219925947,-5893.5088596771284,6889.5195921905824,-2823.8163087189891,-108.69266495404327,108.69266495404327,2823.8163087189891,12800.097122200497,0.0
568296.95196600363,3635566.251970998,-42500.0,-2033.664479752156,-2012.1589477108485,-1690.5634491646667,-6534.669432839486,-3027.0755933881683,-6828.1807978237457,7566.716406310411,-2219.1469337440003,-780.08471154223696,780.08471154223696,2219.1469337440003,13874.139005993173,0.0
573296.95196600363,3635566.251970998,-42500.0,-763.85078860055683,-1976.4315820059037,-2339.2986992414849,-6563.1407073645069,-3558.4459555017902,-7742.083354412347,8196.5083597584144,-1254.9970565964393,-1679.8580366070089,1679.8580366070089,1254.9970565964393,14802.527825667205,0.0
578296.95196600363,3635566.251970998,-42500.0,908.92005671374125,-1734.4542495049134,-3156.8320995380686,-6172.1944728417902,-4036.4462438419828,-8476.6435909360407,8696.8100496512889,135.42270669389336,-2816.6683400514366,2816.6683400514366,-135.42270669389336,15448.346618423984,0.0
583296.95196600363,3635566.251970998,-42500.0,2902.6950238470454,-1207.293336333933,-4131.9814671807499,-5205.6695996821218,-4324.797823386315,-8756.6711812943286,8955.0468181859615,1950.4362340873706,-4146.178534210314,4146.178534210314,-1950.4362340873706,15658.509267422412,0.0
588296.95196600363,3635566.251970998,-42500.0,4973.5386338639828,-361.88977285800547,-5212.810380322444,-3594.2874826405205,-4227.0893144267684,-8179.690831161086,8858.6457044609306,4047.5729027587877,-5544.673545862106,5544.673545862106,-4047.5729027587877,15347.319569459502,0.0
593296.95196600363,3635566.251970998,-42500.0,6714.044229988358,715.94344165998837,-6306.077698047884,-1505.6095927363042,-3543.3061502909168,-6305.46742621049,8426.993033364839,6094.3235131343317,-6816.1024870808542,6816.1024870808542,-6094.3235131343317,14680.565070047031,0.0
598296.95196600363,3635566.251970998,-42500.0,7701.7000197140242,1772.2945116958529,-7306.8503523394493,533.72487273619504,-2212.4925180929663,-2921.3887252272657,8177.2566193830862,7635.1249018818189,-7769.0408281996397,7769.0408281996397,-7635.1249018818189,14269.985139230708,0.0
603296.95196600363,3635566.251970998,-42500.0,7791.7746855298537,2456.2519285188687,-8146.6371769984498,1738.6160925585305,-486.55869842147388,1576.6445924720513,8561.8498007723465,8332.3507147143373,-8342.7036764177301,8342.7036764177301,-8332.3507147143373,14882.190968834679,0.0
608296.95196600363,3635566.251970998,-42500.0,7324.6966279385206,2543.0647003575964,-8805.0645624576318,1504.9895384156821,1045.4857274490009,6003.8339602539118,8982.5009596573291,8245.9781710570078,-8660.8706852595078,8660.8706852595078,-8245.9781710570078,16434.242021242273,0.0
613296.95196600363,3635566.251970998,-42500.0,6952.3481114802926,2144.8746688552151,-9252.2853298768059,-56.011162966322566,1728.4118647528744,8774.9653458551402,9321.6850590409958,7851.0607325033698,-8908.2478559585761,8908.2478559585761,-7851.0607325033698,17838.722466808253,0.0
618296.95196600363,3635566.251970998,-42500.0,7120.2969980463631,1670.452092844246,-9394.1963999338659,-2003.6989269883329,1263.8170627862819,8805.2895963738156,9907.4714310154741,7674.9284692905585,-9120.6994577952119,9120.6994577952119,-7674.9284692905585,18127.378487998463,0.0
623296.95196600363,3635566.251970998,-42500.0,7658.1858400344217,1527.2638140989145,-9115.9370571353793,-3136.0363058173293,-80.105550791742331,6272.0787678539837,9756.7137279027629,7854.1067332679786,-9112.1570094496765,9112.1570094496765,-7854.1067332679786,17220.998447044167,0.0
628296.95196600363,3635566.251970998,-42500.0,7929.8894732875551,1836.36260898259,-8389.3912096740441,-2834.6626101140764,-1675.2415987081763,2487.6976498343674,9106.0738156656971,8064.2688385723795,-8635.1708549470732,8635.1708549470732,-8064.2688385723795,15803.975462894281,0.0
633296.95196600363,3635566.251970998,-42500.0,7420.9507473096155,2415.8770190324599,-7322.2800399556118,-1381.7134208584,-2957.8133482143835,-1056.449233180896,8439.7128164003479,7887.8505961813871,-7616.0643410055391,7616.0643410055391,-7887.8505961813871,14619.427510730027,0.0
638296.95196600363,3635566.251970998,-42500.0,6116.6076957180985,2990.3762632304329,-6102.7321099693509,478.3892634551292,-3686.8087920585203,-3523.70736450287,8015.3319246540723,7176.2185362161854,-6218.2835808350355,6218.2835808350355,-7176.2185362161854,13883.117475887693,0.0
643296.95196600363,3635566.251970998,-42500.0,4370.0313808502906,3379.2523243884102,-4907.0099851307814,2125.4308492915939,-3905.86213327716,-4822.217463582544,7695.7497471070674,6070.8032106064784,-4709.757656812144,4709.757656812144,-6070.8032106064784,13373.920414800796,0.0
648296.95196600363,3635566.251970998,-42500.0,2578.9457321568157,3536.6006774637231,-3846.4091241058682,3287.3516591427474,-3777.3497282349294,-5241.7059471365928,7314.1277547718701,4815.1762754721058,-3310.9097492978672,3310.9097492978672,-4815.1762754721058,12843.09558585283,0.0
653296.95196600363,3635566.251970998,-42500.0,1001.1732378970415,3499.4202274678323,-2965.366959282243,3955.5733999013573,-3460.0885552378113,-5125.2317119807931,6841.9791181247756,3605.0518913129099,-2136.9731424186448,2136.9731424186448,-3605.0518913129099,12188.51074698447,0.0
658296.95196600363,3635566.251970998,-42500.0,-259.65793933749916,3330.1754810148327,-2263.7421459871148,4234.4630595780854,-3065.9347959278489,-4731.9162474880459,6311.833548704908,2546.4533965221117,-1215.8375147521335,1215.8375147521335,-2546.4533965221117,11415.637195059968,0.0
663296.95196600363,3635566.251970998,-42500.0,-1199.12928308952,3085.6824989884285,-1719.6744268885823,4245.0245404622883,-2661.0708646920734,-4223.5557903239496,5762.2314192243448,1674.7216962245921,-526.71714134004469,526.71714134004469,-1674.7216962245921,10569.421760677713,0.0
668296.95196600363,3635566.251970998,-42500.0,-1858.4893079548788,2807.6295016560157,-1304.6223457471763,4087.128994552575,-2279.8938460922627,-3691.1853883015551,5221.8083787204787,985.13965702064172,-30.224391463876714,30.224391463876714,-985.13965702064172,9697.2460886484514,0.0
673296.95196600363,3635566.251970998,-42500.0,-2292.086839624164,2523.2330129131196,-991.02312817901304,3832.9073853694395,-1937.6595496348898,-3182.2364298276043,4708.3501223254025,455.46317766570627,315.13133587423573,-315.13133587423573,-455.46317766570627,8836.3170824414574,0.0
678296.95196600363,3635566.251970998,-42500.0,-2552.0696640260639,2248.79101457348,-755.30415403066058,3531.0982481387427,-1638.9828790401514,-2719.041765381503,4231.4823396386828,58.516919391439416,545.97716264900077,-545.97716264900077,-58.516919391439416,8012.0033651048871,0.0
683296.95196600363,3635566.251970998,-42500.0,-2682.8516903688192,1993.1777799316601,-578.51748739371271,3213.2709752858941,-1382.9319726609911,-2309.9014226978597,3795.4015702619158,-231.89471069525038,692.13264821051291,-692.13264821051291,231.89471069525038,7239.7243682205344,0.0
688296.95196600363,3635566.251970998,-42500.0,-2720.1013417852541,1760.4967323083174,-445.95215375691924,2899.0780462123435,-1165.9284317427789,-1955.4579621029088,3400.885457083763,-438.69096391962159,776.84421294540186,-776.84421294540186,438.69096391962159,6527.4570100308238,0.0
693296.95196600363,3635566.251970998,-42500.0,-2691.5136596520642,1551.9187199309945,-346.41940646574676,2600.1240483362653,-983.36048616120934,-1652.3808049895567,3046.6579188412416,-580.94535620573288,817.77037793800673,-817.77037793800673,580.94535620573288,5877.982948040637,0.0
698296.95196600363,3635566.251970998,-42500.0,-2618.1083301157946,1366.8908004866198,-271.51163889363613,2322.6724266375518,-830.44767101339255,-1395.5016929984736,2730.2760644826703,-674.06673636613107,828.09444684791754,-828.09444684791754,674.06673636613107,5290.63713740406,0.0
703296.95196600363,3635566.251970998,-42500.0,-2515.5576421921401,1203.9154574383199,-214.9559239230415,2069.5132543192017,-702.68099279793296,-1179.0455405190312,2448.7072092301623,-730.26131396276105,817.53084878819413,-817.53084878819413,730.26131396276105,4762.6069725234092,0.0
708296.95196600363,3635566.251970998,-42500.0,-2395.3605662755103,1061.0410668534003,-172.08978766639171,1841.2396387406261,-596.02096823916634,-997.31531823828709,2198.6979522695642,-759.06148640593847,793.15844460854419,-793.15844460854419,759.06148640593847,4289.8564038487093,0.0
713296.95196600363,3635566.251970998,-42500.0,-2265.8179461011573,936.1624326429129,-139.45339226412096,1637.11149000967,-506.96034572619124,-845.04532822793976,1977.0042669371887,-767.82939303146452,760.08072907525877,-760.08072907525877,767.82939303146452,3867.7602411812227,0.0
718296.95196600363,3635566.251970998,-42500.0,-2132.8141394532327,827.19815443601772,-114.47960505299791,1455.6327463984944,-432.51514846608296,-717.55603405357203,1780.5290548328392,-762.19863646270187,721.93561699486395,-721.93561699486395,762.19863646270187,3491.5245934493882,0.0
513296.95196600363,3640566.251970998,-42500.0,-2973.4246108814787,-203.1224611105894,75.384716249840878,-2061.7989339491023,-161.19163632695916,-1045.6602868264904,2285.5899908984861,-2010.9763175252997,1031.7035830406471,-1031.7035830406471,2010.9763175252997,4482.0638902409,0.0
518296.95196600363,3640566.251970998,-42500.0,-3203.3704929694368,-246.89355312319171,80.370342634230695,-2348.247667979264,-202.98880610250322,-1247.191776977284,2556.4722098498833,-2184.8276565590877,1107.8128003974887,-1107.8128003974887,2184.8276565590877,5003.5276644893156,0.0
523296.95196600363,3640566.251970998,-42500.0,-3438.9275208302083,-299.38541820499137,82.351799567510682,-2676.8360127265623,-256.06097358172082,-1491.8354704973249,2865.1357059096836,-2367.2682847394271,1182.6462567469976,-1182.6462567469976,2367.2682847394271,5594.3069456857538,0.0
528296.95196600363,3640566.251970998,-42500.0,-3673.5028796522915,-362.02156987842721,79.230074446383952,-3052.470466805305,-323.55224270303182,-1788.9949066155446,3216.8424726008507,-2554.6407608214704,1252.2910195790582,-1252.2910195790582,2554.6407608214704,6262.7697241031101,0.0
533296.95196600363,3640566.251970998,-42500.0,-3897.0809786821901,-436.21485570152089,67.880902355365137,-3479.6447007338402,-409.45628619807724,-2149.8408869218979,3617.2884305027856,-2740.9084467406801,1310.9317541435903,-1310.9317541435903,2740.9084467406801,7017.3802503103698,0.0
538296.95196600363,3640566.251970998,-42500.0,-4094.9009889089448,-523.15323179957386,43.708575840090184,-3961.7032060586994,-518.79428507632292,-2587.4078089969189,4072.4299332964056,-2916.5862663295648,1350.1017297083445,-1350.1017297083445,2916.5862663295648,7866.0972816850899,0.0
543296.95196600363,3640566.251970998,-42500.0,-4245.6953946915364,-623.40332080699466,0.03001067485075426,-4499.6287068807978,-657.77552148132531,-3116.5104709860625,4588.13759141439,-3067.2383100965217,1357.6813794639293,-1357.6813794639293,3067.2383100965217,8815.3791865285748,0.0
548296.95196600363,3640566.251970998,-42500.0,-4319.3974346025252,-736.2059752444128,-72.751479934206444,-5090.0676907931947,-833.86760232499739,-3753.3068357884999,5169.5491856176541,-3171.3924867996298,1316.5973423405271,-1316.5973423405271,3171.3924867996298,9868.5786523737024,0.0
553296.95196600363,3640566.251970998,-42500.0,-4274.2992403353937,-858.26678623978501,-188.20322638480184,-5722.123128318316,-1055.6153732705518,-4514.1645484988685,5819.8876019818299,-3197.7261273806153,1203.2222318457079,-1203.2222318457079,3197.7261273806153,11023.372671088639,0.0
558296.95196600363,3640566.251970998,-42500.0,-4053.924137890067,-981.75062732836602,-365.10311318500067,-6372.1647488217268,-1331.8659609635677,-5413.1112792010636,6538.3186511810172,-3101.5061088532429,985.63053934461232,-985.63053934461232,3101.5061088532429,12267.646179926531,0.0
563296.95196600363,3640566.251970998,-42500.0,-3584.6874096925744,-1091.133441459182,-628.64342995355901,-6995.6274646701877,-1669.7075801209157,-6456.33371766646,7316.1280753969477,-2820.7759129146521,622.27020961214657,-622.27020961214657,2820.7759129146521,13572.956897919192,0.0
568296.95196600363,3640566.251970998,-42500.0,-2777.3449577141514,-1158.746349337368,-1011.0133908716095,-7514.9431289914573,-2069.8404517364861,-7630.5748871735495,8130.1497776723554,-2274.1888881317618,62.505548988584223,-62.505548988584223,2274.1888881317618,14884.558766283404,0.0
573296.95196600363,3640566.251970998,-42500.0,-1538.9509765725779,-1139.8138523195057,-1550.1164486863845,-7804.8724048076501,-2517.3986830667245,-8879.8689050878074,8932.3891159344403,-1365.5015740345225,-747.88396194073209,747.88396194073209,1365.5015740345225,16107.909575573871,0.0
578296.95196600363,3640566.251970998,-42500.0,193.09960292847796,-970.58240249669927,-2284.2898334590946,-7683.7420636884353,-2966.3827786467232,-10063.817066475822,9636.3011865220869,-4.8227167957315942,-1851.1847538639381,1851.1847538639381,4.8227167957315942,17096.065870494534,0.0
583296.95196600363,3640566.251970998,-42500.0,2383.5432352618154,-578.61787459173888,-3240.5081488830747,-6934.9532563811399,-3319.909647237494,-10898.506637198741,10105.598462385042,1839.6898918054856,-3247.5178778000563,3247.5178778000563,-1839.6898918054856,17654.868958816016,0.0
588296.95196600363,3640566.251970998,-42500.0,4809.1381400081191,80.590964714651122,-4415.6925386001285,-5401.470277102866,-3421.8019095935497,-10914.79977217389,10164.196849593203,4057.0872078750403,-4854.8169358211426,4854.8169358211426,-4057.0872078750403,17605.748287814156,0.0
593296.95196600363,3640566.251970998,-42500.0,7019.2882579345269,956.50111595427495,-5757.6551871364736,-3178.5622845251792,-3097.4129491042704,-9535.7478932455106,9676.9935646856466,6320.3857876868387,-6488.8954141053964,6488.8954141053964,-6320.3857876868387,16959.749520756683,0.0
598296.95196600363,3640566.251970998,-42500.0,8482.1167379100516,1848.5198545128846,-7159.6380978876896,-809.18250641391501,-2282.4374883080636,-6407.5287442729159,8958.6844975445274,8140.4008868072851,-7914.461143849363,7914.461143849363,-8140.4008868072851,16165.080306382333,0.0
603296.95196600363,3640566.251970998,-42500.0,8949.4775819019615,2464.4650622056583,-8473.9800113262936,798.99276415535246,-1191.5077305908255,-1932.8881991481899,9188.5022607260216,9135.7365350260879,-8971.3631266493721,8971.3631266493721,-9135.7365350260879,16024.647429870573,0.0
608296.95196600363,3640566.251970998,-42500.0,8740.7852499461169,2632.8897045215908,-9525.0315426898997,935.87137721508111,-327.6791362069639,2469.1490515860214,9570.7391906392695,9353.3986321801513,-9656.2769082320319,9656.2769082320319,-9353.3986321801513,16797.706303508516,0.0
613296.95196600363,3640566.251970998,-42500.0,8523.3318727190817,2483.2072627002822,-10113.533854056655,-232.54802081164351,-183.29349952545996,4939.2259837520296,9652.6161599133047,9251.2783972712296,-10032.556125896494,10032.556125896494,-9251.2783972712296,17667.599133255444,0.0
618296.95196600363,3640566.251970998,-42500.0,8687.0795285828426,2348.4874344046057,-10064.515879568675,-1612.1152371557926,-854.08765558147661,4390.9706290892618,9963.0521015505656,9253.7151686896741,-10066.136968076715,10066.136968076715,-9253.7151686896741,17777.831970945812,0.0
623296.95196600363,3640566.251970998,-42500.0,8953.6663791659121,2471.0232546401849,-9337.6227346829819,-1970.918851483118,-1972.6871169850976,1329.6526785807046,9896.3354362113223,9337.4403308244546,-9607.4878957947149,9607.4878957947149,-9337.4403308244546,17172.353305957753,0.0
628296.95196600363,3640566.251970998,-42500.0,8667.0965922355845,2831.4427778851496,-8090.3093098709987,-881.33653401114225,-3015.8986604556371,-2564.773228951095,9495.6180907977032,9114.8446494163236,-8554.3105684562415,8554.3105684562415,-9114.8446494163236,16505.058366363643,0.0
633296.95196600363,3640566.251970998,-42500.0,7454.1292425546217,3236.8397275365146,-6603.6086494662968,1115.9776083368702,-3649.9646270896314,-5703.1969810330702,9284.8226571827563,8288.4930240133453,-7009.0598305301992,7009.0598305301992,-8288.4930240133453,16152.625862468305,0.0
638296.95196600363,3640566.251970998,-42500.0,5507.3696290641547,3509.5879681465835,-5142.1013356064468,3157.3466699973196,-3827.6894024250682,-7429.4147971570246,9198.0573153330843,6921.2660558229745,-5250.4095596163115,5250.4095596163115,-6921.2660558229745,15931.524364638013,0.0
643296.95196600363,3640566.251970998,-42500.0,3314.9784547271774,3583.1215329588026,-3868.5647555570381,4679.3301919108853,-3672.1387520679382,-7902.8915783978682,8924.6111403168943,5311.2737707657961,-3569.2754482296132,3569.2754482296132,-5311.2737707657961,15540.859981409072,0.0
648296.95196600363,3640566.251970998,-42500.0,1296.7110996562822,3481.5746248328442,-2841.7423078562974,5542.5761834648474,-3335.5856103054534,-7580.5350192468732,8428.5672081681041,3750.2534130394347,-2147.1873753647674,2147.1873753647674,-3750.2534130394347,14869.336157207448,0.0
653296.95196600363,3640566.251970998,-42500.0,-336.68151593467894,3263.6169676842915,-2054.0371244671833,5854.9315619345844,-2931.2932074421169,-6867.432205260161,7791.9903427483732,2407.0476263982082,-1042.9300411328834,1042.9300411328834,-2407.0476263982082,13962.667762720539,0.0
658296.95196600363,3640566.251970998,-42500.0,-1544.8566843513113,2984.9939768495296,-1468.6198250509976,5790.4214001576265,-2525.2086338131135,-6021.0945557930354,7098.4322341044117,1335.3856529794684,-236.88246817342008,236.88246817342008,-1335.3856529794684,12916.319711504195,0.0
663296.95196600363,3640566.251970998,-42500.0,-2375.3406989058963,2685.7480305298236,-1042.2659308185557,5500.571467044465,-2149.4812814557977,-5177.7908133683331,6405.0892198289966,522.22602690137114,323.07476823370848,-323.07476823370848,-522.22602690137114,11816.771416018732,0.0
668296.95196600363,3640566.251970998,-42500.0,-2903.7832943556227,2390.5845531514806,-735.82196199239718,5092.8477567052169,-1816.6875217916513,-4400.1380059233097,5744.7737945781382,-72.270569148310415,693.83880775261252,-693.83880775261252,72.270569148310415,10725.68002074289,0.0
673296.95196600363,3640566.251970998,-42500.0,-3204.4302535244628,2113.0664817112311,-517.51488637107116,4636.3386751542566,-1529.2790384937778,-3711.7224566471236,5133.7441678925752,-492.7565842737003,925.19212303009635,-925.19212303009635,492.7565842737003,9681.841390929656,0.0
678296.95196600363,3640566.251970998,-42500.0,-3339.6491619018657,1859.6322937688883,-362.98745515480061,4172.9838276854762,-1284.8906926015445,-3116.8079226581372,4578.327863479637,-779.48548598228092,1056.6971379873598,-1056.6971379873598,779.48548598228092,8707.2246616841949,0.0
683296.95196600363,3640566.251970998,-42500.0,-3358.300514523783,1632.4657437530295,-254.15921517090896,3727.0005603241243,-1079.1187111114059,-2610.5324981589606,4079.2497022698321,-965.65529406540179,1118.2997536429061,-1118.2997536429061,965.65529406540179,7812.4002043082592,0.0
688296.95196600363,3640566.251970998,-42500.0,-3297.3104663320187,1431.3339886528531,-177.86386731496435,3311.4009140442481,-906.93595178741987,-2184.0781367962604,3634.2121173785267,-1077.4861974984951,1132.0600988151346,-1132.0600988151346,1077.4861974984951,7000.531548611727,0.0
693296.95196600363,3640566.251970998,-42500.0,-3183.9862571297949,1254.712039368251,-124.62588527802804,2932.217238719008,-763.39598286871353,-1827.3219472651324,3239.3876984921967,-1135.2024395760657,1113.9524822702267,-1113.9524822702267,1135.2024395760657,6270.1371513964468,0.0
698296.95196600363,3640566.251970998,-42500.0,-3038.1978313815216,1100.4572734203614,-87.675618852476063,2591.2067044734895,-643.96392553676662,-1530.2070584984608,2890.2851544928144,-1154.1737518008597,1075.3959680481596,-1075.3959680481596,1154.1737518008597,5616.974365797123,0.0
703296.95196600363,3640566.251970998,-42500.0,-2874.175920817976,966.20410182418414,-62.198651739579645,2287.5748757764645,-544.64538408976387,-1283.4195316217304,2582.2416591238002,-1145.9487967822283,1024.4533542193726,-1024.4533542193726,1145.9487967822283,5035.2869395645002,0.0
708296.95196600363,3640566.251970998,-42500.0,-2701.9513244249952,849.59673806023795,-44.780958907207385,2019.1017107947091,-462.01333669723641,-1078.6943455103742,2310.7248261108666,-1119.1269010362103,966.74799413912854,-966.74799413912854,1119.1269010362103,4518.6696281557897,0.0
713296.95196600363,3640566.251970998,-42500.0,-2528.4444965375878,748.41130980605089,-33.006021353151802,1782.8449442002391,-393.1760543271256,-908.89037859651432,2071.4827124949234,-1080.0498369122381,906.13935485634181,-906.13935485634181,1080.0498369122381,4060.5910956440562,0.0
718296.95196600363,3640566.251970998,-42500.0,-2358.3035253774051,660.61836504915118,-25.165608996991836,1575.5905200209577,-335.72218530199535,-767.95316718253059,1860.6256207053621,-1033.3499375199499,845.22397414529667,-845.22397414529667,1033.3499375199499,3654.7331732701209,0.0
513296.95196600363,3645566.251970998,-42500.0,-2976.6382679293852,72.805601952514692,100.92996012732588,-2063.9795520245084,-0.98684159410523575,-1046.4067742896025,2283.4694777558734,-1836.5952967751355,1081.6172702708373,-1081.6172702708373,1836.5952967751355,4478.0286245048283,0.0
518296.95196600363,3645566.251970998,-42500.0,-3213.0529407253212,71.345409263513744,113.2479202340492,-2354.3756122831783,-10.735906184565223,-1249.6403553163741,2556.5718527454551,-1988.2151491068771,1169.8995377818687,-1169.8995377818687,1988.2151491068771,5003.322423885169,0.0
523296.95196600363,3645566.251970998,-42500.0,-3457.4828389839222,68.205096496857621,124.74520283385704,-2688.7957797048571,-24.529314423093698,-1496.9718548323547,2868.5004208513078,-2145.7726043680477,1260.086253444244,-1260.086253444244,2145.7726043680477,5599.7850620433319,0.0
528296.95196600363,3645566.251970998,-42500.0,-3704.0736790722476,63.000874826527806,133.99304521658374,-3072.9454783157707,-43.801090426084855,-1798.311082807912,3224.941051434248,-2305.5369526979766,1349.1187867136546,-1349.1187867136546,2305.5369526979766,6276.5347066399027,0.0
533296.95196600363,3645566.251970998,-42500.0,-3943.729643714762,55.375855944000648,138.73742673133498,-3512.4511012705707,-70.464056236383286,-2165.5982294043179,3632.1923333005784,-2461.5460373818091,1432.2458733505368,-1432.2458733505368,2461.5460373818091,7043.0929984180393,0.0
538296.95196600363,3645566.251970998,-42500.0,-4162.7947554284619,45.103947785938281,135.50042578673958,-4012.261122171959,-107.04954564591173,-2613.0464710408569,4097.0733399676619,-2604.6229682018293,1502.298881527355,-1502.298881527355,2604.6229682018293,7908.9180978440254,0.0
543296.95196600363,3645566.251970998,-42500.0,-4341.2437276231722,32.289568534264454,119.00837261751968,-4575.6169161019752,-156.86504195191856,-3157.2929215308527,4626.694698329864,-2720.9836996031313,1548.6853760041772,-1548.6853760041772,2720.9836996031313,8882.602518469299,0.0
548296.95196600363,3645566.251970998,-42500.0,-4450.2251998876382,17.733832326136543,81.386504188728367,-5202.3052215296357,-224.14294245420635,-3817.3378794772634,5227.9775032150355,-2790.2769734509839,1556.011565241648,-1556.011565241648,2790.2769734509839,9970.5392985821782,0.0
553296.95196600363,3645566.251970998,-42500.0,-4448.8146979027088,3.58680817696243,11.054422301922022,-5885.6796615406165,-314.10470877638022,-4614.0097990287122,5906.69164893994,-2782.8736230327686,1502.250414474636,-1502.250414474636,2782.8736230327686,11174.711166546342,0.0
558296.95196600363,3645566.251970998,-42500.0,-4280.0246418890547,-5.5328611342291856,-108.72627926183554,-6607.5583451203102,-432.76104428272947,-5568.3279905084028,6665.5669250785104,-2656.3041973964555,1356.4552673536052,-1356.4552673536052,2656.3041973964555,12488.986077792444,0.0
563296.95196600363,3645566.251970998,-42500.0,-3866.829030893025,-0.71047141511232281,-301.62113779977392,-7329.5890059917383,-586.04468997829076,-6697.2414188526282,7500.6507751376394,-2351.1670433094978,1076.3224073024942,-1076.3224073024942,2351.1670433094978,13892.873059006952,0.0
568296.95196600363,3645566.251970998,-42500.0,-3110.920670110243,33.965640617869994,-600.05838269985668,-7979.4179178747927,-777.47344474855106,-8003.2614834793794,8394.5546551491934,-1788.15404545925,606.71729646734627,-606.71729646734627,1788.15404545925,15341.238831865669,0.0
573296.95196600363,3645566.251970998,-42500.0,-1901.2253033748316,124.59732139738344,-1046.3598360364149,-8431.5817304672019,-1002.9829475139464,-9451.0760504733316,9304.8839819895366,-871.01324174719662,-117.95116523807712,117.95116523807712,871.01324174719662,16748.861371661045,0.0
578296.95196600363,3645566.251970998,-42500.0,-145.97228248182714,309.00425490609626,-1691.3566761243007,-8490.4651492219346,-1241.4309488079973,-10920.985448807369,10147.182114049365,494.0871836443647,-1161.7778709820473,1161.7778709820473,-494.0871836443647,17972.520221470131,0.0
583296.95196600363,3645566.251970998,-42500.0,2154.4163192596939,630.60893943886981,-2587.034531519369,-7901.8236655713235,-1441.6482264209999,-12135.040810764571,10776.753069605958,2347.2711735741445,-2558.1426736969083,2558.1426736969083,-2347.2711735741445,18805.894980827379,0.0
588296.95196600363,3645566.251970998,-42500.0,4796.8897783206721,1114.5497109018086,-3768.3190411117339,-6447.1154809949412,-1516.1000222313141,-12590.104942760583,10985.812428702755,4586.0005365199495,-4261.8296897926439,4261.8296897926439,-4586.0005365199495,19028.015716444435,0.0
593296.95196600363,3645566.251970998,-42500.0,7305.5422946574945,1722.0063872792375,-5220.8318471065895,-4166.6833321208424,-1368.2947093898927,-11622.330841111219,10549.422920338688,6883.725385353855,-6106.6968406954566,6106.6968406954566,-6883.725385353855,18565.375546322026,0.0
598296.95196600363,3645566.251970998,-42500.0,9073.0023872962793,2313.945376973089,-6840.6805205442633,-1613.7951088246741,-982.8802134569213,-8792.2025785689202,9395.8504284592964,8745.3227962176134,-7827.5105948254859,7827.5105948254859,-8745.3227962176134,17744.966592754528,0.0
603296.95196600363,3645566.251970998,-42500.0,9784.6601903025166,2702.4099994902153,-8408.1818837909195,219.91629610908461,-536.37801696154679,-4548.4408159993372,9526.6001618540613,9800.3858318081475,-9177.4666874587092,9177.4666874587092,-9800.3858318081475,17279.314142327312,0.0
608296.95196600363,3645566.251970998,-42500.0,9758.6204856188979,2812.0007378955643,-9608.1700372790583,587.28583936404232,-363.24311366293841,-523.15026392029256,10106.875164932426,10127.044742315551,-10039.694056505467,10039.694056505467,-10127.044742315551,17516.137693370172,0.0
613296.95196600363,3645566.251970998,-42500.0,9659.581361279108,2778.4333180227313,-10122.578408773916,-232.24704704789966,-687.75939673008986,1284.7938398379911,10297.754045803702,10158.936995596931,-10388.575480474297,10388.575480474297,-10158.936995596931,17903.615739616707,0.0
618296.95196600363,3645566.251970998,-42500.0,9784.143135033748,2807.0498672298522,-9781.0974848910373,-1019.4150781648818,-1387.959571228281,-12.552605050266816,10322.0584545782,10178.736691256185,-10176.035294593388,10176.035294593388,-10178.736691256185,17878.329955412693,0.0
623296.95196600363,3645566.251970998,-42500.0,9750.5124909962797,2957.2373620134326,-8675.2305655902892,-624.49633709978127,-2107.5299165067613,-3500.5725212596817,10025.204034891261,10007.468963563177,-9334.7422299121718,9334.7422299121718,-10007.468963563177,17654.14869231874,0.0
628296.95196600363,3645566.251970998,-42500.0,8937.9300054755313,3127.3414390860912,-7118.6925950740078,1119.951762569882,-2563.857482723216,-7258.5254433263945,9888.4440885584336,9260.484157922072,-7898.1563641369448,7898.1563641369448,-9260.484157922072,17689.083941514597,0.0
633296.95196600363,3645566.251970998,-42500.0,7144.3419766132129,3197.7840513330766,-5474.5001960216496,3463.0668707540972,-2694.6580184448017,-9790.1393358108726,10246.242461307185,7814.3199805081795,-6078.5471279032181,6078.5471279032181,-7814.3199805081795,17909.712410357824,0.0
638296.95196600363,3645566.251970998,-42500.0,4733.123217767672,3126.9449157779018,-4001.0068898804284,5516.2968335644473,-2585.7938959144199,-10707.475667612489,10335.98305019701,5927.0528973515457,-4192.5374792130397,4192.5374792130397,-5927.0528973515457,17903.012569815259,0.0
643296.95196600363,3645566.251970998,-42500.0,2265.5591032988618,2941.8083127300479,-2811.1618001457373,6823.3910872719689,-2351.14394722103,-10398.1930742151,9992.3608737910199,3993.0526719161944,-2508.7492028172101,2508.7492028172101,-3993.0526719161944,17437.767023536202,0.0
648296.95196600363,3645566.251970998,-42500.0,144.75252759245043,2691.6772062714017,-1912.8957163774726,7372.7850027518907,-2072.8839068320012,-9428.1216502573552,9347.3929556482763,2298.7969046677536,-1162.9951116743291,1162.9951116743291,-2298.7969046677536,16549.200170744207,0.0
653296.95196600363,3645566.251970998,-42500.0,-1472.4905590224878,2418.3667191005839,-1264.0645885292838,7360.6694903232519,-1795.820265953676,-8220.8651550790564,8553.0713159493134,960.46854160084217,-172.36397222268101,172.36397222268101,-960.46854160084217,15386.660056120965,0.0
658296.95196600363,3645566.251970998,-42500.0,-2598.4236762206338,2148.3971927745315,-809.45092072976036,7004.6043918558908,-1540.0243895551723,-7011.8455511211096,7718.2982707761348,-24.541574773698045,510.77236723485703,-510.77236723485703,24.541574773698045,14097.14554697803,0.0
663296.95196600363,3645566.251970998,-42500.0,-3317.9338077249918,1895.6670201631152,-498.1818772075801,6470.1918055608985,-1312.6041589840593,-5906.1944409992911,6906.8750343481579,-711.62762233445983,953.85861062557547,-953.85861062557547,711.62762233445983,12786.240352956089,0.0
668296.95196600363,3645566.251970998,-42500.0,-3729.0007118498561,1666.1087525339683,-289.30019511831864,5864.3825830218884,-1114.6385395302095,-4939.1112004408224,6150.8164349579147,-1167.3959453800189,1220.5727847492267,-1220.5727847492267,1167.3959453800189,11518.953350877424,0.0
673296.95196600363,3645566.251970998,-42500.0,-3917.57820477835,1461.2650329385717,-151.97182149920377,5250.2020663176827,-944.57415119237692,-4113.3545034373783,5463.1792831431676,-1451.5457657239372,1362.628952849097,-1362.628952849097,1451.5457657239372,10331.10589216388,0.0
678296.95196600363,3645566.251970998,-42500.0,-3951.3034759160796,1280.4593732047049,-63.845274455541322,4662.3368685777414,-799.7808573080157,-3418.2320093244462,4846.7355085447516,-1611.8712866590538,1419.1085052437727,-1419.1085052437727,1611.8712866590538,9239.8071147920127,0.0
683296.95196600363,3645566.251970998,-42500.0,-3880.7522137210194,1121.9810098214703,-9.0931485343062377,4118.3055814884783,-677.27303524745867,-2838.3390629713454,4299.0344434489625,-1684.7062523799468,1418.451549068262,-1418.451549068262,1684.7062523799468,8250.7238354405017,0.0
688296.95196600363,3645566.251970998,-42500.0,-3742.7441460694426,983.70292848323959,23.31671314292376,3625.4913131100229,-574.06469741487274,-2357.4329213575388,3815.1585386593647,-1696.9734471863014,1380.9060531139969,-1380.9060531139969,1696.9734471863014,7362.7007390407625,0.0
693296.95196600363,3645566.251970998,-42500.0,-3563.6353080463236,863.40239750028741,40.984776954113286,3185.3978921881157,-487.35248283019172,-1960.136170459499,3389.1961598284579,-1668.3399094756301,1320.6713989391565,-1320.6713989391565,1668.3399094756301,6570.6695142933004,0.0
698296.95196600363,3645566.251970998,-42500.0,-3362.0138637022824,758.92407209668932,49.097618472422504,2796.2069286393871,-414.60443013777075,-1632.6420899289171,3015.0159351617986,-1613.0250226207845,1247.5701367719544,-1247.5701367719544,1613.0250226207845,5867.472681375416,0.0
703296.95196600363,3645566.251970998,-42500.0,-3150.7818540010348,668.26360253153416,51.163899618621954,2454.3413981443682,-353.59501451435943,-1362.948791447363,2686.6848276801911,-1541.2134274386576,1168.2975532072142,-1168.2975532072142,1541.2134274386576,5245.0406396964827,0.0
708296.95196600363,3645566.251970998,-42500.0,-2938.7049780758853,589.60348136417792,49.535907608795121,2155.4117720410213,-302.40507369097071,-1140.8436744926125,2398.6727045743905,-1460.1183601066646,1087.3296523713861,-1087.3296523713861,1460.1183601066646,4695.1133326356758,0.0
713296.95196600363,3645566.251970998,-42500.0,-2731.570390463296,521.3250282528586,45.774432463375554,1894.7953196131034,-259.4033535526799,-957.7704921500158,2145.9515043071538,-1374.7802276830698,1007.5816623912607,-1007.5816623912607,1374.7802276830698,4209.6928563305391,0.0
718296.95196600363,3645566.251970998,-42500.0,-2533.0391039040305,462.00463462230385,40.901728202501651,1667.9750623658103,-223.21754755185924,-806.64011743142953,1924.024799430071,-1288.6593115940175,930.87994619662163,-930.87994619662163,1288.6593115940175,3781.2989193867093,0.0
513296.95196600363,3650566.251970998,-42500.0,-2897.6393201139958,347.98654349880309,84.823198107122096,-2020.3262358803697,159.01307731348402,-1027.0354959680578,2251.6559694377775,-1601.8905524042189,1073.2002445136741,-1073.2002445136741,1601.8905524042189,4415.8271281092266,0.0
518296.95196600363,3650566.251970998,-42500.0,-3124.4652788376352,389.5940782506583,95.291665619579263,-2303.2504391184821,181.77026427704521,-1225.8751324184595,2520.5082114511924,-1718.6647476782828,1161.5909101179009,-1161.5909101179009,1718.6647476782828,4932.3260432677889,0.0
523296.95196600363,3650566.251970998,-42500.0,-3358.252701911807,437.01806630033644,104.83455201028315,-2628.858761561316,208.027916508782,-1467.7180948448231,2827.555033230974,-1835.7449554308448,1252.2711629781213,-1252.2711629781213,1835.7449554308448,5518.6487934671086,0.0
528296.95196600363,3650566.251970998,-42500.0,-3593.1428234173641,491.13080106876924,112.08397127859556,-3002.6570767426656,238.23924853726228,-1762.196296744323,3178.4093644157256,-1948.5821973300287,1342.3624044417591,-1342.3624044417591,1948.5821973300287,6183.7488164404849,0.0
533296.95196600363,3650566.251970998,-42500.0,-3820.1011362157674,552.94449521925367,114.8889339021502,-3430.0813463372965,272.8477930657192,-2120.9135243330575,3579.3129981552052,-2050.3720991255509,1427.3588120248514,-1427.3588120248514,2050.3720991255509,6937.0061077291803,0.0
538296.95196600363,3650566.251970998,-42500.0,-4025.6292457679856,623.64631640712241,109.9344677285157,-3915.9310425159802,312.24283173929086,-2557.6894425386176,4037.0664617020479,-2131.1401327664817,1500.4184128912059,-1500.4184128912059,2131.1401327664817,7787.7990884141682,0.0
543296.95196600363,3650566.251970998,-42500.0,-4189.9895433444781,704.65563236612707,92.191425122943457,-4463.3960709681633,356.69513142019957,-3088.7295521283536,4558.840045801413,-2176.4692832653068,1551.3684262645818,-1551.3684262645818,2176.4692832653068,8744.7743955605947,0.0
548296.95196600363,3650566.251970998,-42500.0,-4284.7738606908733,797.71669906978207,54.132948852579673,-5072.3979831465149,406.27265546710345,-3732.6200365892128,5151.7608757763019,-2165.741357040798,1565.3225179739545,-1565.3225179739545,2165.741357040798,9814.6387740973078,0.0
553296.95196600363,3650566.251970998,-42500.0,-4269.6424613484287,905.05117864214571,-15.360492577171202,-5736.7335980554026,460.75178382633766,-4509.914588279913,5822.0595104993245,-2069.749608264166,1520.7968645167566,-1520.7968645167566,2069.749608264166,11000.154444095355,0.0
558296.95196600363,3650566.251970998,-42500.0,-4088.2231900663828,1029.5924711637731,-132.48524367202847,-6439.1101434971924,519.56665772062524,-5441.7308636918506,6573.345556490649,-1847.6442723940131,1387.2668020032552,-1387.2668020032552,1847.6442723940131,12296.764461196482,0.0
563296.95196600363,3650566.251970998,-42500.0,-3663.8312121496715,1175.3040715407251,-320.42619754345316,-7142.5750965285361,581.89633756615967,-6545.8678677713788,7403.1841043938139,-1443.6139851014723,1122.3577763267176,-1122.3577763267176,1443.6139851014723,13686.828494437059,0.0
568296.95196600363,3650566.251970998,-42500.0,-2897.6345838372076,1347.4837222609581,-611.57935011001916,-7776.4639612847095,647.07211705397162,-7826.9004884025953,8296.5738706081229,-785.03636285045536,669.62726770990935,-669.62726770990935,785.03636285045536,15129.960487452952,0.0
573296.95196600363,3650566.251970998,-42500.0,-1676.3828897972576,1552.6621139620431,-1049.5290587663601,-8216.4146215731562,715.53485601503667,-9252.9599894715029,9214.4870655366522,213.0667147442573,-40.306067672995837,40.306067672995837,-213.0667147442573,16548.218322995937,0.0
578296.95196600363,3650566.251970998,-42500.0,95.748043815188765,1797.0442324317346,-1689.1354524474198,-8265.5737025619856,790.32506689653917,-10708.055973012992,10076.567736933415,1627.1009082692337,-1079.3042694278085,1079.3042694278085,-1627.1009082692337,17808.580229604697,0.0
583296.95196600363,3650566.251970998,-42500.0,2421.9898998445328,2081.4257475248342,-2590.8220169983988,-7664.6862496192607,877.8296595280143,-11914.592542874821,10742.24929137654,3473.2386014693752,-2492.8228618891976,2492.8228618891976,-3473.2386014693752,18717.64643888202,0.0
588296.95196600363,3650566.251970998,-42500.0,5095.8422137809257,2390.4492294467163,-3801.6979502963177,-6190.1165792421489,983.26405052445443,-12362.317840375465,11007.879311973637,5622.7982547371012,-4247.8605027020403,4247.8605027020403,-5622.7982547371012,19068.683491626743,0.0
593296.95196600363,3650566.251970998,-42500.0,7624.4759414568089,2679.4435236977642,-5314.6822949126818,-3892.1620343247423,1092.7408234076875,-11381.824288147047,10660.701881673769,7736.4275501454085,-6178.5990960274576,6178.5990960274576,-7736.4275501454085,18796.356411301047,0.0
598296.95196600363,3650566.251970998,-42500.0,9382.5773015961859,2877.7315089930057,-7007.7468640733205,-1364.1493092671708,1141.8033419126309,-8574.621279414323,9743.3929295388152,9348.8158991440014,-7992.9955131064617,7992.9955131064617,-9348.8158991440014,18196.628034495763,0.0
603296.95196600363,3650566.251970998,-42500.0,10073.921447190207,2936.3143415320696,-8600.4222901726425,367.74398589614947,1008.8126851995133,-4532.7486728788344,9891.2556812448711,10179.080673729995,-9390.5664996774049,9390.5664996774049,-10179.080673729995,17850.506690093451,0.0
608296.95196600363,3650566.251970998,-42500.0,10069.675835414773,2896.5942974920472,-9701.104185621034,627.23357981775348,603.71285488940134,-1062.8048171499063,10336.863434106202,10398.411642769641,-10203.301076345278,10203.301076345278,-10398.411642769641,17948.885512667384,0.0
613296.95196600363,3650566.251970998,-42500.0,10027.974026059001,2868.9785346902581,-9977.7152006449833,-124.06453580714745,17.497592631386055,-120.99942152145206,10406.894418667556,10416.47341231652,-10395.824656555405,10395.824656555405,-10416.47341231652,18025.877585701804,0.0
618296.95196600363,3650566.251970998,-42500.0,10134.008082524682,2892.8092983508468,-9348.3065819516632,-576.0943900752327,-484.0750711871982,-2237.0963205067333,10188.004260078556,10356.595992585482,-9965.7394543535393,9965.7394543535393,-10356.595992585482,17843.50686613383,0.0
623296.95196600363,3650566.251970998,-42500.0,9918.1636860380131,2872.6433542628533,-8025.1399003690649,276.04774765676888,-695.17918138455116,-6123.4751232803737,9525.2088388654447,9909.8936515930618,-8921.9324213612963,8921.9324213612963,-9909.8936515930618,17829.497833240617,0.0
628296.95196600363,3650566.251970998,-42500.0,8809.86954699737,2702.1574102446116,-6378.549424887563,2367.3363677341781,-640.74258986690199,-9792.6963021186639,9941.4181747253151,8732.7952748064235,-7356.8811518516886,7356.8811518516886,-8732.7952748064235,18279.75450082351,0.0
633296.95196600363,3650566.251970998,-42500.0,6731.1601901109407,2386.0073028245506,-4750.551863136262,4837.9561682027179,-483.74418724130152,-11941.986393440033,10767.321278921261,6856.7326300473651,-5495.5428583536886,5495.5428583536886,-6856.7326300473651,18817.943573192919,0.0
638296.95196600363,3650566.251970998,-42500.0,4127.3589106822783,2011.5745744473179,-3350.0614074445407,6836.1759966582404,-352.40753830090915,-12402.987447266647,10924.900831664563,4665.0520273117254,-3631.6359023932218,3631.6359023932218,-4665.0520273117254,18928.063672805849,0.0
643296.95196600363,3650566.251970998,-42500.0,1570.6914004356474,1661.0635104889068,-2251.1533495180129,7992.1652084989628,-284.04164245949369,-11685.668495367503,10541.164263801988,2586.6533016529665,-2002.8419720509673,2002.8419720509673,-2586.6533016529665,18434.136122692194,0.0
648296.95196600363,3650566.251970998,-42500.0,-561.97579344830694,1372.2466801587648,-1441.5679453399423,8362.082087785644,-262.67010184391211,-10391.844434085451,9826.3589391795394,879.43839793775487,-722.5647386188557,722.5647386188557,-879.43839793775487,17446.579741165482,0.0
653296.95196600363,3650566.251970998,-42500.0,-2144.9374447123546,1147.8545003546167,-871.51950682003041,8178.0435567285949,-262.45306430418418,-8940.2685870220121,8958.962825182778,-387.38801814378155,203.91670979210517,-203.91670979210517,387.38801814378155,16163.29047845198,0.0
658296.95196600363,3650566.251970998,-42500.0,-3213.7460695420182,975.83361393845007,-484.11971316532322,7671.6269998825264,-265.83739463519248,-7550.1550968894016,8057.4841424188799,-1256.8496016591841,829.0832648227431,-829.0832648227431,1256.8496016591841,14755.42017139392,0.0
663296.95196600363,3650566.251970998,-42500.0,-3867.7960276956796,842.1319351737626,-229.11805305148792,7011.3649750240911,-264.90828087883864,-6310.7764995608704,7188.6021502235344,-1811.7258927253606,1221.749828433839,-1221.749828433839,1811.7258927253606,13338.40899223268,0.0
668296.95196600363,3650566.251970998,-42500.0,-4213.1916024163311,735.45856464860299,-66.884213422902661,6302.5219886165214,-257.78310293286387,-5244.7464184642604,6384.4304186970976,-2134.7758455279345,1445.4709189520706,-1445.4709189520706,2134.7758455279345,11980.004933006781,0.0
673296.95196600363,3650566.251970998,-42500.0,-4340.0419645349275,647.92635111436482,31.981140094864806,5604.9451412430471,-245.33170173618569,-4345.4868573459971,5657.0777549559371,-2294.1993399493513,1551.273591917969,-1551.273591917969,2294.1993399493513,10715.625953788896,0.0
678296.95196600363,3650566.251970998,-42500.0,-4317.8382829317507,574.33865604435277,88.492880261942133,4949.9661285589573,-229.26105125757951,-3595.5144179661838,5008.0744496903835,-2341.6327810809321,1577.3862087254056,-1577.3862087254056,2341.6327810809321,9560.7781333690982,0.0
683296.95196600363,3650566.251970998,-42500.0,-4197.7305847075477,511.32042899909698,117.30256067937803,4352.0613556479402,-211.23627493892013,-2974.4973154916192,4433.7490362510562,-2314.6026710730011,1551.3953862426549,-1551.3953862426549,2314.6026710730011,8519.2159698152918,0.0
688296.95196600363,3650566.251970998,-42500.0,-4016.4327753370562,456.64721960885618,128.43679260494733,3816.0279040203909,-192.57511335765662,-2462.6102448723273,3928.1041736277411,-2239.8031696643225,1492.7631163504057,-1492.7631163504057,2239.8031696643225,7587.9482692026841,0.0
693296.95196600363,3650566.251970998,-42500.0,-3799.8525340409365,408.79914914046304,128.65115116803491,3341.2356217373172,-174.20447628868061,-2041.8575403674549,3484.3134393415321,-2135.9663585351987,1414.9931233500888,-1414.9931233500888,2135.9663585351987,6760.2778095908379,0.0
698296.95196600363,3650566.251970998,-42500.0,-3565.9889889498845,366.68625220700375,122.43091334671401,2924.1421901219078,-156.71673416789807,-1696.5153147731296,3095.4963742144469,-2016.0817301831221,1327.3101824855953,-1327.3101824855953,2016.0817301831221,6027.6735776396335,0.0
703296.95196600363,3650566.251970998,-42500.0,-3327.1114131919894,329.48450202629772,112.7075338995778,2559.7840325369202,-140.4500343798035,-1413.1679821302787,2755.1060326606812,-1889.0287840438975,1235.9009369156936,-1235.9009369156936,1889.0287840438975,5380.9159625140228,0.0
708296.95196600363,3650566.251970998,-42500.0,-3091.3813932048388,296.54086258682815,101.36162204762383,2242.6739299623882,-125.56320083900575,-1180.5625902385714,2457.1239593253549,-1760.7678002451589,1144.8182867814012,-1144.8182867814012,1760.7678002451589,4810.8159331649822,0.0
713296.95196600363,3650566.251970998,-42500.0,-2864.025437448598,267.31731626076805,89.56991172689672,1967.3145527133856,-112.09543939448982,-989.36990450368887,2196.1256600421948,-1635.1885030050887,1056.6242950224557,-1056.6242950224557,1635.1885030050887,4308.6118929106615,0.0
718296.95196600363,3650566.251970998,-42500.0,-2648.2049500368057,241.35892687894665,78.043045750156438,1728.4964997260834,-100.01093044182299,-831.92585922522778,1967.2966848150288,-1514.7289361142771,972.85376304886449,-972.85376304886449,1514.7289361142771,3866.2048628091175,0.0
513296.95196600363,3655566.251970998,-42500.0,-2738.9802689389262,605.93305159779584,28.329543498347959,-1932.1318286948558,310.33871234693055,-988.08476081849267,2191.8638571091428,-1319.6279376817627,1006.445417519368,-1006.445417519368,1319.6279376817627,4297.4601227655839,0.0
518296.95196600363,3655566.251970998,-42500.0,-2940.6016887281276,686.99642628833544,27.970795969152785,-2196.447935614442,363.40873627715155,-1176.5822247482895,2450.3365831116248,-1392.1485767503182,1082.7026876099385,-1082.7026876099385,1392.1485767503182,4792.9957461447693,0.0
523296.95196600363,3655566.251970998,-42500.0,-3144.7254655497977,780.51077912577796,24.302198461580659,-2498.9341111577764,426.89357411117288,-1404.9457574541109,2744.7643707412949,-1457.2686522042318,1158.7203998890145,-1158.7203998890145,1457.2686522042318,5353.9219661198467,0.0
528296.95196600363,3655566.251970998,-42500.0,-3344.7312351132387,888.38137522638783,15.38593184262051,-2843.8948427402697,502.93462711444067,-1681.7499683879951,3080.2034799887233,-1509.1523734763282,1231.0573665341904,-1231.0573665341904,1509.1523734763282,5988.1374330583631,0.0
533296.95196600363,3655566.251970998,-42500.0,-3530.7530255916408,1012.7078693477112,-1.6357215536118397,-3235.2324709567229,594.06647279823301,-2017.1540231863687,3462.1898213050235,-1539.5980465271048,1294.5269996736317,-1294.5269996736317,1539.5980465271048,6703.7039378692043,0.0
538296.95196600363,3655566.251970998,-42500.0,-3688.4366207058683,1155.736718357685,-30.948633922037271,-3675.7943414508859,703.24533845111773,-2422.993131183599,3896.6293825480498,-1537.2001516812043,1341.474527231207,-1341.474527231207,1537.2001516812043,7508.3591725708047,0.0
543296.95196600363,3655566.251970998,-42500.0,-3797.260437383246,1319.7602065841477,-78.644816528706514,-4166.3000394768133,833.84931670894184,-2912.7305591148724,4389.5628401611502,-1486.2353670781094,1360.7769638565637,-1360.7769638565637,1486.2353670781094,8408.7247388163451,0.0
548296.95196600363,3655566.251970998,-42500.0,-3828.2931400529865,1506.9204667378476,-153.52859228209152,-4703.5800703110535,989.62245716234918,-3501.1380796138151,4946.7033049310048,-1365.2075282312601,1336.4757273767411,-1336.4757273767411,1365.2075282312601,9409.0482639457987,0.0
553296.95196600363,3655566.251970998,-42500.0,-3741.2889881193919,1718.8485214989091,-268.21615549517497,-5277.6508800605479,1174.5167088883993,-4203.429812886603,5572.5485628501474,-1145.0210874461111,1245.9530707277283,-1245.9530707277283,1145.0210874461111,10509.207555250643,0.0
558296.95196600363,3655566.251970998,-42500.0,-3481.2351930916138,1956.0069939973537,-440.58081581297461,-5866.8035818341368,1392.3376407458532,-5033.2118292482473,6268.6762745020342,-786.9294711003738,1057.6379207948096,-1057.6379207948096,786.9294711003738,11701.499488359683,0.0
563296.95196600363,3655566.251970998,-42500.0,-2975.2100866961691,2216.5090543777033,-695.52418304673586,-6429.4335201489876,1645.9909587616103,-5997.7288211483647,7030.4983796219749,-240.95010804530898,728.5192401172319,-728.5192401172319,240.95010804530898,12965.431836822696,0.0
568296.95196600363,3655566.251970998,-42500.0,-2132.4248260055174,2494.071623923151,-1066.8384883346034,-6891.2236185583661,1935.8889955569132,-7086.9780976920438,7841.3070508451328,553.17826741289684,202.56698225839219,-202.56698225839219,-553.17826741289684,14259.510648288173,0.0
573296.95196600363,3655566.251970998,-42500.0,-854.67577912657578,2774.762195217058,-1598.3627800751258,-7128.1961945927897,2256.6159307195871,-8250.0332261578242,8662.2771512926392,1657.5707783003609,-586.96327849990519,586.96327849990519,-1657.5707783003609,15509.769694814502,0.0
578296.95196600363,3655566.251970998,-42500.0,928.91281224961506,3032.7801845480917,-2342.3644356380109,-6954.2380520562101,2590.365126984791,-9349.4297897212327,9418.5556056212572,3111.3148710521077,-1705.1336658228179,1705.1336658228179,-3111.3148710521077,16599.090193347176,0.0
583296.95196600363,3655566.251970998,-42500.0,3186.5767211920552,3227.6230383574798,-3350.6701354945835,-6141.8392384437284,2895.8372619893416,-10092.997716383148,9987.9878638215796,4879.4915678198186,-3183.8203921399718,3183.8203921399718,-4879.4915678198186,17373.764040294569,0.0
588296.95196600363,3655566.251970998,-42500.0,5676.2704767990654,3309.3651643371672,-4651.0463172437967,-4531.8084617752938,3095.1220572665634,-9986.9177157060276,10217.157984379292,6784.0040525898858,-4967.6193300055911,4967.6193300055911,-6784.0040525898858,17704.155695011621,0.0
593296.95196600363,3655566.251970998,-42500.0,7896.6035651292596,3242.3032233741915,-6202.2031056711367,-2268.9250357905275,3072.9790800803707,-8450.7155565774392,10040.738559070927,8478.3505845953478,-6861.6920009803025,6861.6920009803025,-8478.3505845953478,17630.789954949738,0.0
598296.95196600363,3655566.251970998,-42500.0,9279.8283868092003,3047.1904619316888,-7837.264014759623,-25.128462410493029,2719.0118074586303,-5279.0529332071246,9869.0560751295616,9583.4720024847138,-8550.3723121755011,8550.3723121755011,-9583.4720024847138,17486.773282569939,0.0
603296.95196600363,3655566.251970998,-42500.0,9658.4711257004237,2826.3008524047905,-9244.860315286247,1205.0940474278059,2030.8651910771582,-1305.4449045008291,10157.093067873804,9991.9135170471709,-9737.2031102001929,9737.2031102001929,-9991.9135170471709,17634.70386659199,0.0
608296.95196600363,3655566.251970998,-42500.0,9519.7006855572236,2708.5331873003179,-10059.140108136218,939.88210572273169,1214.3921625521843,1568.9286652010821,10276.693086486926,10010.991595084997,-10302.543962547199,10302.543962547199,-10010.991595084997,17887.473805500533,0.0
613296.95196600363,3655566.251970998,-42500.0,9509.4301652962549,2719.2035606407685,-10048.510869259217,-125.97568833852043,633.50040086233969,1615.9595877011329,10167.303666756214,10009.214382683125,-10290.113344021685,10290.113344021685,-10009.214382683125,17716.480606044301,0.0
618296.95196600363,3655566.251970998,-42500.0,9691.1970260269554,2711.4492368853334,-9249.1680407775384,-631.15756933713226,563.82011257309478,-1276.4192901672154,9888.7437755703868,9937.5367057557742,-9763.8641362257877,9763.8641362257877,-9937.5367057557742,17190.113712955954,0.0
623296.95196600363,3655566.251970998,-42500.0,9516.1580458092049,2482.3325286925829,-7914.9361710180647,275.71396910935164,961.68088362211824,-5581.9829824008548,9209.0244193854669,9375.9258706704986,-8748.3644671921993,8748.3644671921993,-9375.9258706704986,17032.564652307323,0.0
628296.95196600363,3655566.251970998,-42500.0,8439.5219347770399,1971.4616398248431,-6358.5864405318052,2381.4134159039045,1512.0175449018541,-9396.0297504406626,9599.2766134838857,8014.2768801266802,-7297.3948203936698,7297.3948203936698,-8014.2768801266802,17569.58885018943,0.0
633296.95196600363,3655566.251970998,-42500.0,6424.3661097255363,1309.3234145574656,-4833.6551870678895,4814.7033434194773,1901.0859388666177,-11609.296052664029,10484.284361795668,5972.8076847699085,-5570.8938476912608,5570.8938476912608,-5972.8076847699085,18288.305917467995,0.0
638296.95196600363,3655566.251970998,-42500.0,3906.1331429428501,685.13336015181073,-3496.7770058639112,6779.3716419562006,2007.5269626948314,-12151.437005067048,10718.161270113804,3684.1198239863411,-3809.7108360831621,3809.7108360831621,-3684.1198239863411,18578.327292207567,0.0
643296.95196600363,3655566.251970998,-42500.0,1423.982691557158,215.96976973477101,-2415.3862489212147,7935.0278086944481,1880.5113797861179,-11530.420837331123,10407.864701510674,1577.9544606206521,-2231.7425109686928,2231.7425109686928,-1577.9544606206521,18233.581300617861,0.0
648296.95196600363,3655566.251970998,-42500.0,-662.74977912327483,-77.103012702587463,-1592.6472285259174,8330.2777086053484,1627.6187780905709,-10320.845236944475,9754.2665317419323,-106.30383637379305,-957.67369454156324,957.67369454156324,106.30383637379305,17358.234996623974,0.0
653296.95196600363,3655566.251970998,-42500.0,-2225.994006835926,-227.96731162124334,-995.86452192602121,8179.0849890552672,1338.6566725758203,-8927.9213164783687,8932.1589434098423,-1318.2867603128889,-10.137791448683743,10.137791448683743,1318.2867603128889,16152.32158929039,0.0
658296.95196600363,3655566.251970998,-42500.0,-3291.0173905727293,-283.71002658294196,-579.37471704757479,7700.7821864466014,1065.6631882517058,-7571.9237424621424,8061.0273298154125,-2115.180449868838,647.81994835485648,-647.81994835485648,2115.180449868838,14793.308642994407,0.0
663296.95196600363,3655566.251970998,-42500.0,-3947.926020192273,-283.92915272569451,-298.37366564982926,7059.5763326438282,830.7246185724141,-6348.9277662903014,7210.697460250406,-2589.5903563024904,1075.1074912340107,-1075.1074912340107,2589.5903563024904,13404.164830578924,0.0
668296.95196600363,3655566.251970998,-42500.0,-4297.1871369380688,-255.8497188870945,-115.04538577224511,6361.1093038823583,638.65946187204202,-5288.3580280526048,6416.7225734432313,-2830.8590958171412,1330.3170565640962,-1330.3170565640962,2830.8590958171412,12059.399496533944,0.0
673296.95196600363,3655566.251970998,-42500.0,-4426.3679971379142,-216.14196577889939,-0.0040996384366662753,5667.3121092016972,486.27103726132054,-4388.5786991964778,5694.0657481135559,-2911.3916016760186,1462.6560651312493,-1462.6560651312493,2911.3916016760186,10799.614180259794,0.0
678296.95196600363,3655566.251970998,-42500.0,-4404.2659515384094,-174.16749054435894,68.459438801004893,5011.727207909571,367.52890248297649,-3635.1946854380594,5046.3333043815546,-2885.2963411598935,1510.1773861500146,-1510.1773861500146,2885.2963411598935,9643.9287998788295,0.0
683296.95196600363,3655566.251970998,-42500.0,-4282.2136851293117,-134.72524366538462,105.8581219248959,4410.6021021967135,276.04032754952328,-3009.6383057348585,4471.2563617097248,-2791.3482806189304,1501.0076863805807,-1501.0076863805807,2791.3482806189304,8598.4737196947881,0.0
688296.95196600363,3655566.251970998,-42500.0,-4097.4153114745459,-99.943512285960537,123.01833245590957,3869.9813548494494,206.05695828523716,-2493.0222399484551,3963.7414049996778,-2656.6650763855591,1455.3724566893065,-1455.3724566893065,2656.6650763855591,7661.756610685833,0.0
693296.95196600363,3655566.251970998,-42500.0,-3876.3021256413599,-70.467866326131841,127.35901428616998,3390.0474565370378,152.77805726829644,-2067.8102977234239,3517.5259824277218,-2499.8787575179304,1387.5344924995561,-1387.5344924995561,2499.8787575179304,6827.9969683152058,0.0
698296.95196600363,3655566.251970998,-42500.0,-3637.3231501519886,-46.170754873867196,123.88472681232551,2967.7576753834869,112.3492436096296,-1718.4751835288273,3126.0741424889152,-2333.573593227306,1307.3842389389943,-1307.3842389389943,2333.573593227306,6089.2113823401532,0.0
703296.95196600363,3655566.251970998,-42500.0,-3393.0877680429035,-26.560971209258156,115.91978275752365,2598.4312698099052,81.745830581161911,-1431.6559587207084,2783.0381289421416,-2166.0621727237744,1221.6547683631175,-1221.6547683631175,2166.0621727237744,5436.4849392514952,0.0
708296.95196600363,3655566.251970998,-42500.0,-3152.0017880137002,-11.011070401533477,105.63569546710723,2276.7288837855917,58.627278453835096,-1196.0856227927923,2482.5126479836572,-2002.6778385529274,1134.8344182304622,-1134.8344182304622,2002.6778385529274,4860.7923880704457,0.0
713296.95196600363,3655566.251970998,-42500.0,-2919.4565648822072,1.1210735572635349,94.421450703600755,1997.2169799916157,41.19808461340827,-1002.3897252847303,2219.1330286408665,-1846.682227969558,1049.8252451416738,-1049.8252451416738,1846.682227969558,4353.4495484029694,0.0
513296.95196600363,3660566.251970998,-42500.0,-2508.9504230813,831.47240773115527,-63.232841537136309,-1803.6196055694816,445.14511402895238,-931.30266010950743,2107.6280470796946,-1006.2078559695151,886.39706244818285,-886.39706244818285,1006.2078559695151,4127.9121524289167,0.0
518296.95196600363,3660566.251970998,-42500.0,-2671.9705919266999,944.41505479023556,-81.845600927304602,-2039.5418595116171,523.90365515576173,-1104.1652848686992,2350.4903643772373,-1029.4220931989551,939.73371134906415,-939.73371134906415,1029.4220931989551,4591.7672785003806,0.0
523296.95196600363,3660566.251970998,-42500.0,-2830.3022311980299,1074.4018818394663,-107.91275725741335,-2306.4366733945353,618.5031329838414,-1311.9907087278516,2625.7455613742832,-1036.7710680157159,987.86706711900524,-987.86706711900524,1036.7710680157159,5113.9853336633278,0.0
528296.95196600363,3660566.251970998,-42500.0,-2976.0317377345641,1223.760610267605,-144.37761790435152,-2606.6050305828717,732.23543709155751,-1561.6472656671376,2937.517666707246,-1021.1044424349889,1026.2279215694236,-1026.2279215694236,1021.1044424349889,5700.7145629235529,0.0
533296.95196600363,3660566.251970998,-42500.0,-3097.8742208636504,1394.8735141154787,-195.33815741670097,-2941.3622925830177,868.97414519356334,-1860.940157173316,3290.1428727690636,-972.86673290406225,1048.2715117071875,-1048.2715117071875,972.86673290406225,6357.8043941627602,0.0
538296.95196600363,3660566.251970998,-42500.0,-3180.017378150992,1589.986276122846,-266.49157180621171,-3310.2233484947128,1033.182962231384,-2218.4355999923405,3687.9812351347332,-879.40008434426124,1044.7414475511616,-1044.7414475511616,879.40008434426124,7090.2034414125883,0.0
543296.95196600363,3660566.251970998,-42500.0,-3200.6345772395675,1810.8737927890081,-365.73615162967951,-3709.6404348106034,1229.8433473621064,-2643.0231690434875,4135.0843907640283,-724.09908953489003,1002.6912509544354,-1002.6912509544354,724.09908953489003,7901.0404369935131,0.0
548296.95196600363,3660566.251970998,-42500.0,-3130.0319902801584,2058.2727288953124,-503.96566655942689,-4131.0515856112661,1464.2263393657088,-3143.0255860085122,4634.6268151764434,-485.44727365144456,904.21598924898751,-904.21598924898751,485.44727365144456,8790.2567096439088,0.0
553296.95196600363,3660566.251970998,-42500.0,-2928.4909341406328,2330.9375223234647,-696.07586481720909,-4557.840468084034,1741.3729985044583,-3724.4929167190335,5187.9280280940638,-136.06367265892789,724.88451246145542,-724.88451246145542,136.06367265892789,9752.5884346326966,0.0
558296.95196600363,3660566.251970998,-42500.0,-2544.1947043581213,2624.0963179156165,-962.14244297093978,-4960.6019509260523,2065.0257685995434,-4387.9559431217658,5792.7666511729349,357.84027225615051,432.00857114150239,-432.00857114150239,-357.84027225615051,10774.62878150337,0.0
563296.95196600363,3660566.251970998,-42500.0,-1912.4957282045073,2927.0008896421905,-1328.5722269328517,-5289.9486892479745,2435.5137067359674,-5122.1169975325201,6440.4918860296129,1035.5613087563297,-16.716967502965758,16.716967502965758,-1035.5613087563297,11830.666241291161,0.0
568296.95196600363,3660566.251970998,-42500.0,-959.7947839457363,3219.3031605001765,-1828.6639777535613,-5466.5523342434117,2845.6628737785854,-5891.4601370807295,7111.3077199690251,1937.2123606822297,-672.71873557316667,672.71873557316667,-1937.2123606822297,12877.344372658627,0.0
573296.95196600363,3660566.251970998,-42500.0,380.93691744611078,3466.5529982613698,-2501.2594117460262,-5370.8538806000297,3273.2263356845338,-6612.7931150177001,7767.5861299714034,3090.7371197361963,-1590.8308161707155,1590.8308161707155,-3090.7371197361963,13848.943195906944,0.0
578296.95196600363,3660566.251970998,-42500.0,2131.5505131998079,3617.1037632830248,-3384.8515969867203,-4843.3206452748445,3668.2588262288523,-7116.0955227955546,8347.7779797778712,4484.3897451237735,-2812.3341368459237,2812.3341368459237,-4484.3897451237735,14660.41838801441,0.0
583296.95196600363,3660566.251970998,-42500.0,4198.2578147726663,3607.2719674399877,-4502.9434560534137,-3723.3285590769997,3936.7711258718577,-7097.7274703405492,8772.5032694609545,6022.7652492177021,-4329.964054713093,4329.964054713093,-6022.7652492177021,15236.233330751578,0.0
588296.95196600363,3660566.251970998,-42500.0,6290.7608496396069,3387.259807743942,-5836.6668950196436,-1970.0724974987845,3933.0221885044098,-6117.8851022316003,8997.7030794973834,7487.1528280663606,-6037.7896068776681,6037.7896068776681,-7487.1528280663606,15589.553406942858,0.0
593296.95196600363,3660566.251970998,-42500.0,7927.7156430931045,2975.7210945799143,-7288.0341050863462,130.25495273716066,3493.9372934398289,-3768.2011123088,9165.4341354371863,8566.6877826481086,-7700.0694135776603,7700.0694135776603,-8566.6877826481086,15924.503361504567,0.0
598296.95196600363,3660566.251970998,-42500.0,8676.1462979728458,2513.4861073056877,-8656.8968372846102,1839.3988514444527,2555.733206010651,-123.02943076728015,9557.5292779345837,9038.376108300532,-9008.8356606700891,9008.8356606700891,-9038.376108300532,16554.205014824471,0.0
603296.95196600363,3660566.251970998,-42500.0,8573.7527425448534,2228.1756782723728,-9674.4252246148553,2283.5208619515329,1318.7651039091247,3759.5797677006326,9921.487791136009,9015.4392739575287,-9754.1721310481717,9754.1721310481717,-9015.4392739575287,17437.818174350487,0.0
608296.95196600363,3660566.251970998,-42500.0,8236.6694826286475,2256.6607052322606,-10112.199387269569,1251.9445738983595,276.41572368400483,6042.2836743086418,9719.0189872043738,8922.1162722135214,-9959.9885157473527,9959.9885157473527,-8922.1162722135214,17928.766986452381,0.0
613296.95196600363,3660566.251970998,-42500.0,8274.2429696006657,2471.7834368023573,-9901.3393689935583,-357.07276660218093,-53.561502705122507,5354.0100759526786,9437.7525897298328,9040.0805266580137,-9794.0422781505367,9794.0422781505367,-9040.0805266580137,17450.583645105005,0.0
618296.95196600363,3660566.251970998,-42500.0,8633.7306682271537,2543.7321953678984,-9150.2931916732705,-1197.134209539317,487.80410673890572,1921.3851909180053,9353.7292066684549,9143.0742467833006,-9354.3219218676641,9354.3219218676641,-9143.0742467833006,16321.1379586031,0.0
623296.95196600363,3660566.251970998,-42500.0,8702.8020752532193,2206.595611592435,-8048.9170284155553,-549.16878931684414,1586.346062149951,-2685.9810808269235,8888.6550558403105,8715.3565709566574,-8603.8697039917897,8603.8697039917897,-8715.3565709566574,15575.757172113965,0.0
628296.95196600363,3660566.251970998,-42500.0,7933.3051985522952,1460.832021348373,-6772.1690665100668,1318.8243501913203,2706.4837705849768,-6751.5743433727148,8858.4415012069439,7453.8128059088958,-7487.3160770167924,7487.3160770167924,-7453.8128059088958,15796.951893229974,0.0
633296.95196600363,3660566.251970998,-42500.0,6260.9940804238131,535.46229590953408,-5458.0568708918963,3595.0720619177855,3443.8221863734693,-9321.4437555550212,9490.4405833985602,5500.5643639049949,-6059.6972511127269,6059.6972511127269,-5500.5643639049949,16515.164665312135,0.0
638296.95196600363,3660566.251970998,-42500.0,4048.8746894736482,-305.31644236115511,-4218.2937437084893,5543.8863642571578,3684.0989552142146,-10319.973523999101,9806.2414767383034,3282.2720567613678,-4496.3270582072755,4496.3270582072755,-3282.2720567613678,17006.517053693362,0.0
643296.95196600363,3660566.251970998,-42500.0,1775.0415451973047,-909.007563201533,-3134.0856906072204,6813.2530622978338,3529.1924656234996,-10163.106661083088,9658.1456071085759,1216.9672850539068,-3000.875804935506,3000.875804935506,-1216.9672850539068,16944.579038995274,0.0
648296.95196600363,3660566.251970998,-42500.0,-213.39154942076178,-1252.0500256215882,-2245.9448337815211,7393.006664748902,3148.7371751265314,-9349.8279676701768,9172.7231938928744,-453.53984143169907,-1717.131941815453,1717.131941815453,453.53984143169907,16353.948063337117,0.0
653296.95196600363,3660566.251970998,-42500.0,-1763.6283120303972,-1384.7069191478251,-1556.2117942347559,7439.908025020055,2684.5268167099625,-8258.8375388210698,8496.5119702268676,-1666.3276923467979,-703.59223113413134,703.59223113413134,1666.3276923467979,15395.030526075678,0.0
658296.95196600363,3660566.251970998,-42500.0,-2866.2487011058606,-1376.2716092338342,-1042.5510434516555,7139.3772760057373,2224.120945659457,-7117.7523628810623,7741.2665604872973,-2466.2842002368898,45.470237548962814,-45.470237548962814,2466.2842002368898,14233.385052033929,0.0
663296.95196600363,3660566.251970998,-42500.0,-3583.1352838753355,-1286.4344818531595,-672.39310556520286,6643.0842012867306,1810.1581594556171,-6042.263746344951,6978.6300666126135,-2938.8657794757173,568.29798130550216,-568.29798130550216,2938.8657794757173,12994.77139438417,0.0
668296.95196600363,3660566.251970998,-42500.0,-3997.0278501925086,-1157.4304383014235,-412.72788214669794,6056.4961115812503,1457.3494807622051,-5081.309301577433,6249.3068045263863,-3171.1513703325295,912.36102681387365,-912.36102681387365,3171.1513703325295,11761.940151728884,0.0
673296.95196600363,3660566.251970998,-42500.0,-4186.3440331761567,-1015.8266026561406,-234.88831284506736,5446.4641884177008,1165.8702645273074,-4248.5075728342354,5573.7258024329803,-3236.1940613676661,1122.1884832323733,-1122.1884832323733,3236.1940613676661,10584.37012949028,0.0
678296.95196600363,3660566.251970998,-42500.0,-4216.1657224983182,-876.85109715176077,-115.98931682671372,4852.5353474442682,929.51099958398447,-3540.2258563884784,4960.1140915638598,-3189.9161809351153,1234.8121801553405,-1234.8121801553405,3189.9161809351153,9488.7692615484284,0.0
683296.95196600363,3660566.251970998,-42500.0,-4137.0602632412174,-748.36483184382769,-38.669482761590643,4296.3796368735557,740.0026633630589,-2945.1619696102434,4409.7611071630854,-3073.0521481756223,1279.1285309579252,-1279.1285309579252,3073.0521481756223,8487.1761556123456,0.0
688296.95196600363,3660566.251970998,-42500.0,-3986.8533113812791,-633.75262888936516,9.816990405877867,3788.4024373721795,589.0763177293768,-2449.2526500015038,3920.1911327226708,-2914.3707231945741,1276.8471469459341,-1276.8471469459341,2914.3707231945741,7582.4959865720857,0.0
693296.95196600363,3660566.251970998,-42500.0,-3793.1256583063864,-533.82731267611098,38.621050324504168,3332.1087232804111,469.32420157218513,-2038.1586531036719,3487.0304673500036,-2733.7239332806103,1243.8729041218667,-1243.8729041218667,2733.7239332806103,6772.1605881445157,0.0
698296.95196600363,3660566.251970998,-42500.0,-3575.5695385055742,-448.01663948647325,54.207625666810188,2926.9142056225346,374.46773892480644,-1698.4776902531412,3105.0915279025426,-2544.5094387181512,1191.6365577325164,-1191.6365577325164,2544.5094387181512,6050.5079318982689,0.0
703296.95196600363,3660566.251970998,-42500.0,-3347.9530679853201,-375.07602946483195,61.086998075145381,2569.9411002697789,299.35113434851559,-1418.2753538360655,2768.9979774559492,-2355.5347268245919,1128.2148385824212,-1128.2148385824212,2355.5347268245919,5410.3172527572833,0.0
708296.95196600363,3660566.251970998,-42500.0,-3119.6703641570593,-313.50184251433308,62.372101390651885,2257.1532994634113,239.82134488329143,-1187.2431432560384,2473.5358959601035,-2172.3852108236156,1059.2159639853444,-1059.2159639853444,2172.3852108236156,4843.7815638342981,0.0
713296.95196600363,3660566.251970998,-42500.0,-2896.9340640338664,-261.76154992637731,60.189276249138572,1984.0649190622592,192.57367208400416,-996.65905846057581,2213.8436214244621,-1998.41472652023,988.45719361153124,-988.45719361153124,1998.41472652023,4343.1127049934839,0.0
513296.95196600363,3665566.251970998,-42500.0,-2220.7125021190695,1012.3636080039963,-181.16219901457595,-1641.5295522537515,556.99168909665991,-859.48344892832358,2003.8183606554107,-679.90670983286714,722.5444174097247,-722.5444174097247,679.90670983286714,3914.7965602930681,0.0
518296.95196600363,3665566.251970998,-42500.0,-2335.3994961175504,1146.6572098987481,-222.82841231220618,-1841.5086571263371,654.93768415246711,-1012.5005400807602,2227.1719271371608,-653.59508852347892,745.01545155553379,-745.01545155553379,653.59508852347892,4338.5551667479322,0.0
523296.95196600363,3665566.251970998,-42500.0,-2436.6289939555013,1299.7656036376268,-276.94796720731944,-2063.4223583862126,772.05261955948481,-1194.283011660347,2478.4977160609283,-603.63705237869362,755.85368574196536,-755.85368574196536,603.63705237869362,4811.868424320237,0.0
528296.95196600363,3665566.251970998,-42500.0,-2515.0586656358942,1473.6162842058309,-347.55667089519875,-2307.1201939450975,912.02707940050095,-1409.5727797923855,2760.7967106806882,-522.00643382703834,749.16281745237393,-749.16281745237393,522.00643382703834,5338.7682929789726,0.0
533296.95196600363,3665566.251970998,-42500.0,-2557.9364147920896,1669.8063114040156,-440.0305346360127,-2570.7965741588187,1079.029218828369,-1663.264721162255,3076.9811824961489,-398.46015853138289,716.87964686132409,-716.87964686132409,398.46015853138289,5922.481651387754,0.0
538296.95196600363,3665566.251970998,-42500.0,-2548.1196968286431,1889.2046800036271,-561.51007035143766,-2850.0214371296861,1277.5730694106676,-1959.9239916933243,3429.6129238409462,-220.09163743364854,648.08933609464032,-648.08933609464032,220.09163743364854,6564.739532812132,0.0
543296.95196600363,3665566.251970998,-42500.0,-2462.9312550484983,2131.3190521580095,-721.4258796741658,-3136.326669291554,1512.2026610740163,-2302.9150223276879,3820.4939758996165,29.0854497127456,528.18556445234321,-528.18556445234321,-29.0854497127456,7264.7949274596112,0.0
548296.95196600363,3665566.251970998,-42500.0,-2272.9431116929522,2393.3103773210414,-932.10922158586561,-3415.1650806512594,1786.85288199451,-2692.9002927328283,4250.0426716716138,368.38496630637383,337.90573737399609,-337.90573737399609,-368.38496630637383,8018.0847658310495,0.0
553296.95196600363,3665566.251970998,-42500.0,-1940.9605853086,2668.4930531290065,-1209.4173506397199,-3662.9901341119189,2103.6487188591727,-3125.2939388049153,4716.3509042194955,820.23472849998234,52.366480548997345,-52.366480548997345,-820.23472849998234,8814.4915643165205,0.0
558296.95196600363,3665566.251970998,-42500.0,-1421.9094346820903,2944.1251900856851,-1573.1751674977666,-3843.1842435275921,2460.733324730455,-3585.9341410908296,5213.7892101576972,1408.8879515721196,-359.53976847047988,359.53976847047988,-1408.8879515721196,9636.2846444534807,0.0
563296.95196600363,3665566.251970998,-42500.0,-665.25497818064821,3198.3551634467326,-2046.9835813896543,-3900.7807670614757,2848.43880059515,-4043.6590513048673,5731.0589442141272,2156.851158247724,-934.52394263162955,934.52394263162955,-2156.851158247724,10456.206783918904,0.0
568296.95196600363,3665566.251970998,-42500.0,376.64957829315279,3396.5858879999796,-2656.474603489748,-3756.9939849856228,3242.7492574230819,-4437.6434053491148,6248.9302465992378,3076.8686939937597,-1711.2093069256671,1711.2093069256671,-3076.8686939937597,11237.285148134333,0.0
573296.95196600363,3665566.251970998,-42500.0,1728.3555530603383,3488.8142108621551,-3424.3788693104498,-3307.8836860502947,3594.8865967199758,-4657.0112893099868,6739.2715571026511,4156.4141433296572,-2720.0071342758447,2720.0071342758447,-4156.4141433296572,11938.71301170548,0.0
578296.95196600363,3665566.251970998,-42500.0,3352.2160758902992,3412.593773899865,-4360.0891449040055,-2439.1188003932762,3817.261171048282,-4513.5498139849633,7171.1482153287625,5332.833896376248,-3961.9863483890394,3961.9863483890394,-5332.833896376248,12537.403097262228,0.0
583296.95196600363,3665566.251970998,-42500.0,5091.6629499932878,3111.2611502135719,-5442.045846575118,-1080.1570254742073,3772.2021419011267,-3723.2639969483153,7539.2734426471989,6465.9263485175743,-5374.8840271941935,5374.8840271941935,-6465.9263485175743,13078.098753271903,0.0
588296.95196600363,3665566.251970998,-42500.0,6630.476075151726,2579.0090879350914,-6596.1980749360337,678.49269022173485,3284.923026116378,-1948.5807520712929,7932.6097157194254,7337.3624203249101,-6798.6752960648455,6798.6752960648455,-7337.3624203249101,13739.716679396781,0.0
593296.95196600363,3665566.251970998,-42500.0,7557.3279231228425,1926.8785689478391,-7685.6176261867085,2435.2192668289908,2220.2446241746829,1007.5732358921671,8545.3510702815784,7732.2804012316064,-7982.418716043594,7982.418716043594,-7732.2804012316064,14802.940305488986,0.0
598296.95196600363,3665566.251970998,-42500.0,7623.4824131474643,1410.0902614807469,-8537.4666448875378,3465.8951439870566,643.76653910079676,4826.0158201522054,9378.2954669799328,7624.6014038404455,-8687.6469979347676,8687.6469979347676,-7624.6014038404455,16341.298474995197,0.0
603296.95196600363,3665566.251970998,-42500.0,7067.3164361157724,1313.6064800381023,-9016.6816743818417,3100.6210074514815,-1027.1672707890184,8382.1556768086029,10056.43582043413,7321.0893147615716,-8864.0000198876442,8864.0000198876442,-7321.0893147615716,17853.714598524064,0.0
608296.95196600363,3665566.251970998,-42500.0,6572.1516883146751,1701.1966907951817,-9098.1288431931462,1382.8862455254605,-2111.6841727043711,10097.054733893994,10112.545989403065,7285.5932946972407,-8715.4738600000182,8715.4738600000182,-7285.5932946972407,18466.613570704863,0.0
613296.95196600363,3665566.251970998,-42500.0,6673.5177657445674,2274.4403838654066,-8860.5716624373017,-710.85829262940183,-2074.2390311031127,8989.9839607725517,9487.0155676415707,7673.8504296095889,-8512.3161857261439,8512.3161857261439,-7673.8504296095889,17680.518697614949,0.0
618296.95196600363,3665566.251970998,-42500.0,7237.3246871887741,2561.379732298205,-8402.8263610339745,-1943.8098989828711,-915.02678333875883,5447.6885361455697,8863.7599959281579,8112.7111768202276,-8333.5908178337031,8333.5908178337031,-8112.7111768202276,15917.159101189689,0.0
623296.95196600363,3665566.251970998,-42500.0,7632.625182938169,2264.2598157970351,-7772.8814704042406,-1702.2333546358966,850.87099487356238,877.5606346133319,8260.8390883315442,8021.7769256477904,-8035.1757037511497,8035.1757037511497,-8021.7769256477904,14322.733591259474,0.0
628296.95196600363,3665566.251970998,-42500.0,7304.1199873641335,1428.9114122437418,-6976.2460654681281,-226.32902620162528,2560.4904811383353,-3268.1476742693171,7924.9639104798025,7085.203248240894,-7429.6883690598443,7429.6883690598443,-7085.203248240894,13808.447355292456,0.0
633296.95196600363,3665566.251970998,-42500.0,6126.0574702836057,343.26691015900388,-6033.8260377412043,1784.7987854340956,3759.2729744930598,-6163.6688945411443,8186.1702756682571,5419.1226970809985,-6458.9419131667328,6458.9419131667328,-5419.1226970809985,14204.397791803254,0.0
638296.95196600363,3665566.251970998,-42500.0,4357.7661655468428,-679.02814701669502,-5013.686514280781,3670.0931904714184,4319.7670224178764,-7678.0236648024256,8501.4362967374182,3408.1456688498206,-5225.9417816290043,5225.9417816290043,-3408.1456688498206,14753.463269638823,0.0
643296.95196600363,3665566.251970998,-42500.0,2397.0770422711721,-1446.3227799661188,-4009.6467408932272,5060.3295734400172,4349.9233021763275,-8093.1346282538379,8515.9290198787749,1448.7902022082922,-3912.4267935491948,3912.4267935491948,-1448.7902022082922,14958.095301798734,0.0
648296.95196600363,3665566.251970998,-42500.0,571.24051580103401,-1909.8471658922624,-3101.6980973959803,5872.0336326189936,4041.7215428968207,-7800.4873180814238,8235.3103624791875,-204.01412669195133,-2681.8188814488053,2681.8188814488053,204.01412669195133,14704.383264545571,0.0
653296.95196600363,3665566.251970998,-42500.0,-939.78987849481359,-2111.287875976318,-2334.4490586128572,6187.2499140409282,3568.5777378394855,-7130.8592304900894,7754.3542618198426,-1455.1654700007484,-1631.8983037317812,1631.8983037317812,1455.1654700007484,14073.486328502206,0.0
658296.95196600363,3665566.251970998,-42500.0,-2083.1900301657147,-2124.4296959675103,-1718.4336052744486,6142.255056336021,3049.3153486152592,-6308.1344222922307,7165.2831700909446,-2317.9551585854338,-796.18441095888318,796.18441095888318,2317.9551585854338,13196.239858170999,0.0
663296.95196600363,3665566.251970998,-42500.0,-2882.2337650624222,-2019.9240696058057,-1242.0642539698174,5865.9108491111474,2551.3797280023805,-5464.2883170305558,6536.0615444356781,-2856.1940535338181,-166.02886868011888,166.02886868011888,2856.1940535338181,12189.659324445276,0.0
668296.95196600363,3665566.251970998,-42500.0,-3392.9998892364206,-1852.0513502776171,-883.63283909337633,5458.1328627668772,2106.3597627370068,-4668.8189242692897,5910.5815091824552,-3145.6876449478409,287.45985546003612,-287.45985546003612,3145.6876449478409,11140.032111992672,0.0
673296.95196600363,3665566.251970998,-42500.0,-3678.3621715860195,-1657.6712258988853,-619.35365970660496,4988.773153252705,1724.5651024683341,-3953.4119862151333,5314.5730346638666,-3255.4600728277537,598.87986423257917,-598.87986423257917,3255.4600728277537,10104.659023526641,0.0
678296.95196600363,3665566.251970998,-42500.0,-3795.7005594605534,-1459.6787009001193,-427.51072866359937,4503.4713385575806,1405.1165325487555,-3328.3367363883654,4761.5326737290579,-3241.413671231172,800.98215267990167,-800.98215267990167,3241.413671231172,9118.5397424469902,0.0
683296.95196600363,3665566.251970998,-42500.0,-3792.6324000622431,-1271.1250177273823,-290.02009921592139,4030.3463336883738,1142.0096004693821,-2792.3747046880776,4257.2168161085319,-3146.0269164224455,921.63920170192318,-921.63920170192318,3146.0269164224455,8200.987891867504,0.0
688296.95196600363,3665566.251970998,-42500.0,-3706.6125445561834,-1098.6240066337855,-192.60565357164654,3585.5104235477393,927.44485747800695,-2338.5945346992262,3802.683138292376,-3000.3133244099472,983.21053160801,-983.21053160801,3000.3133244099472,7360.8106889461151,0.0
693296.95196600363,3665566.251970998,-42500.0,-3566.0954868885378,-944.80605470809542,-124.36756317886821,3177.134670786601,753.52355946951866,-1957.6552146012655,3396.2610021324294,-2826.265654470852,1002.9832517918312,-1002.9832517918312,2826.265654470852,6600.051535224331,0.0
698296.95196600363,3665566.251970998,-42500.0,-3392.1417233692318,-809.96399374689474,-77.163393923368901,2808.2999874615371,613.02629955018881,-1639.6521430762095,3034.7993526292303,-2639.0867751302685,993.98758291837498,-993.98758291837498,2639.0867751302685,5916.5878068807124,0.0
703296.95196600363,3665566.251970998,-42500.0,-3199.9903838281175,-693.1101736401547,-45.000417542880847,2478.9462262526445,499.70263583506113,-1375.1034717056575,2714.4474635683273,-2449.0082046630682,965.85691210072264,-965.85691210072264,2449.0082046630682,5305.8939417588645,0.0
708296.95196600363,3665566.251970998,-42500.0,-3000.4206026524184,-592.6305541391373,-23.513353991824125,2187.1775772312494,408.31124914669647,-1155.4259885258582,2431.1327992277629,-2262.6912176054129,925.59793073169328,-925.59793073169328,2262.6912176054129,4762.208360143155,0.0
713296.95196600363,3665566.251970998,-42500.0,-2800.8645363832184,-506.67753633618264,-9.5468915029295562,1930.1217566634225,334.54528080788606,-973.11475150648323,2180.8472102941578,-2084.276508727819,878.22873722751444,-878.22873722751444,2084.276508727819,4279.290974523291,0.0
513296.95196600363,3670566.251970998,-42500.0,-1890.8338444928868,1140.4754535051923,-314.52724609910689,-1454.4097281200141,641.42186549242092,-776.18625338238007,1885.793276611485,-358.92021279282551,527.60766454122586,-527.60766454122586,358.92021279282551,3667.7509692243761,0.0
518296.95196600363,3670566.251970998,-42500.0,-1951.986930511476,1284.0566938900611,-380.8224885033178,-1613.7003447663476,750.9611146152273,-906.5132952237434,2087.2965512081832,-287.43786147171591,514.99435100509356,-514.99435100509356,287.43786147171591,4045.8967855782726,0.0
523296.95196600363,3670566.251970998,-42500.0,-1990.7097943822662,1445.1693642186738,-464.35749876540814,-1785.0792620831282,880.63765766071697,-1058.6993128792133,2312.0462633699917,-186.46447076199212,484.07420100009159,-484.07420100009159,186.46447076199212,4464.0176939436597,0.0
528296.95196600363,3670566.251970998,-42500.0,-1996.5386625238218,1624.5414815199165,-569.96341514876258,-1965.9153703097547,1033.7470825353078,-1235.21670501622,2561.9504585424547,-47.884882319751227,427.85862259328087,-427.85862259328087,47.884882319751227,4924.0652815220574,0.0
533296.95196600363,3670566.251970998,-42500.0,-1955.786138417554,1821.9994751321944,-703.8043493001062,-2151.3486993532065,1213.6822175488412,-1437.9140327318471,2838.5929008817407,138.13786329878667,337.19776593893653,-337.19776593893653,-138.13786329878667,5426.8137050274381,0.0
538296.95196600363,3670566.251970998,-42500.0,-1850.8559755186243,2035.8498761239928,-873.67205129500996,-2333.2570655011614,1423.5692469249284,-1667.2690622055759,3142.9519606897811,383.24941365450093,200.2663365070085,-200.2663365070085,-383.24941365450093,5971.1943825302023,0.0
543296.95196600363,3670566.251970998,-42500.0,-1659.611892599663,2261.9678976010332,-1089.2699407098451,-2498.8479691978478,1665.5969752365647,-1921.1744692443328,3475.0105668947494,700.76129607506937,2.0434675380969338,-2.0434675380969338,-700.76129607506937,6553.4528849049066,0.0
548296.95196600363,3670566.251970998,-42500.0,-1355.0231677803395,2492.4901975209477,-1362.3957503019103,-2628.7896317509903,1939.8436746585362,-2193.0057628996506,3833.2417966584899,1105.0508243381601,-276.08297172887563,276.08297172887563,-1105.0508243381601,7166.1843733899677,0.0
553296.95196600363,3670566.251970998,-42500.0,-905.55093292334175,2714.0153556870409,-1706.8372091879176,-2694.8375114205965,2242.2981279261676,-2468.5891677751579,4213.9893833714104,1610.1080056488825,-656.30583178189704,656.30583178189704,-1610.1080056488825,7797.4672495863942,0.0
558296.95196600363,3670566.251970998,-42500.0,-277.19609575161974,2905.2933413728069,-2137.6230630638747,-2657.0824986447101,2561.6150145016086,-2721.4810716970342,4610.8628799801527,2226.5603814280216,-1163.4115493173849,1163.4115493173849,-2226.5603814280216,8430.680204997574,0.0
563296.95196600363,3670566.251970998,-42500.0,561.0649317656339,3034.6768919551259,-2668.9945103679865,-2461.4745061447857,2873.9712446672415,-2905.7097068697558,5014.5633348692463,2956.1330607624104,-1821.7399850794309,1821.7399850794309,-2956.1330607624104,9046.4034916618839,0.0
568296.95196600363,3670566.251970998,-42500.0,1625.5645803623481,3058.4057309782934,-3310.0950892930332,-2039.6828819569505,3135.3691369219305,-2945.0536496804757,5414.3611209001092,3782.2159350497031,-2648.2663869823955,2648.2663869823955,-3782.2159350497031,9629.4519996219606,0.0
573296.95196600363,3670566.251970998,-42500.0,2896.2089261753727,2922.5885952689605,-4057.1389799251474,-1316.4796627276339,3271.4580429412772,-2718.9936046320254,5804.3824744356743,4655.810583789219,-3639.3256019598152,3639.3256019598152,-4655.810583789219,10186.57603830791,0.0
578296.95196600363,3670566.251970998,-42500.0,4283.192139499005,2574.8581810929195,-4881.4793972403404,-235.1369946755442,3167.9535920295484,-2050.3477019439733,6201.3873593215558,5479.7133520733914,-4749.3885533307384,4749.3885533307384,-5479.7133520733914,10780.69854177205,0.0
583296.95196600363,3670566.251970998,-42500.0,5592.2584636488409,1994.5046361582406,-5716.2769639470444,1184.5582917142435,2672.5812898199856,-712.88810085291527,6679.959371129431,6103.6726588295096,-5866.3092530306749,5866.3092530306749,-6103.6726588295096,11571.846306387408,0.0
588296.95196600363,3670566.251970998,-42500.0,6526.0743375725442,1245.0600570309468,-6452.1973841991849,2752.5397247963024,1632.611830811345,1500.2710700284888,7389.6263967551859,6358.9903121312809,-6802.8952973940877,6802.8952973940877,-6358.9903121312809,12800.164356708219,0.0
593296.95196600363,3670566.251970998,-42500.0,6787.635920159626,526.42715646495924,-6961.5595394141947,4029.0684378847936,-2.5924387953724324,4599.1957877717969,8431.3898283375438,6163.0610664830438,-7343.7198576508581,7343.7198576508581,-6163.0610664830438,14603.832685761696,0.0
598296.95196600363,3670566.251970998,-42500.0,6310.9473555220211,154.59148860464526,-7163.4296173349358,4398.8207136997353,-2025.7885252048115,8139.8146348676983,9651.1204456001105,5664.9487896981309,-7372.676049244189,7372.676049244189,-5664.9487896981309,16732.556933498505,0.0
603296.95196600363,3670566.251970998,-42500.0,5462.031504729327,392.01161014983819,-7097.4748685260565,3426.4727135932931,-3886.9443035770478,11116.353962274714,10637.165458435629,5275.8070418256193,-7013.2714420205175,7013.2714420205175,-5275.8070418256193,18486.109241036411,0.0
608296.95196600363,3670566.251970998,-42500.0,4898.0555420313685,1196.6560461180025,-6923.0137942292213,1320.8028395837964,-4869.6357044805236,12327.430141080213,10928.372808252974,5414.8762261072279,-6607.9511486198699,6607.9511486198699,-5414.8762261072279,19063.735537150813,0.0
613296.95196600363,3670566.251970998,-42500.0,5053.3245349049093,2150.1462009982506,-6804.1966088733034,-1008.8257310748082,-4514.7801983697136,11131.245060258108,10322.191697165148,6114.6427593675426,-6468.8593518514217,6468.8593518514217,-6114.6427593675426,18102.024515784087,0.0
618296.95196600363,3670566.251970998,-42500.0,5762.7454307231637,2712.2256820000143,-6779.3908867952196,-2517.3792868741443,-2935.5266995569618,7910.1551010075691,9096.3360501013631,6923.8464431519842,-6627.6102148461923,6627.6102148461923,-6923.8464431519842,15993.176901328716,0.0
623296.95196600363,3670566.251970998,-42500.0,6437.8202234302053,2573.4854657920873,-6744.8967175702664,-2680.8318881569567,-721.10207581343786,3774.7147411789338,7883.5953797472293,7246.7412053945682,-6843.9970964351651,6843.9970964351651,-7246.7412053945682,13738.930699891709,0.0
628296.95196600363,3670566.251970998,-42500.0,6540.2175329346665,1790.6444541379879,-6552.4943202529403,-1659.6936508297622,1438.5908991152903,-130.47109793521895,7133.7511114902882,6750.6174200823389,-6822.0419854384472,6822.0419854384472,-6750.6174200823389,12356.026441642693,0.0
633296.95196600363,3670566.251970998,-42500.0,5881.3161454052079,663.93145582591228,-6117.9886473276847,-4.4141968476510431,3072.2490168992185,-3105.0381735282749,6988.7316213731465,5496.6992700580922,-6403.7814269403043,6403.7814269403043,-5496.6992700580922,12105.638787811411,0.0
638296.95196600363,3670566.251970998,-42500.0,4609.5215528694525,-473.17075415547765,-5460.4908851139598,1720.912548928854,4022.6139271035167,-4960.8176453816368,7161.5739645829663,3802.2705262205427,-5616.7996369846705,5616.7996369846705,-3802.2705262205427,12438.796895967924,0.0
643296.95196600363,3670566.251970998,-42500.0,3030.3441147034814,-1395.6910245135291,-4670.1985377825367,3149.8573108332162,4365.6131916328422,-5844.9055888857492,7252.6431053938923,2027.2817052274536,-4605.5458174777814,4605.5458174777814,-2027.2817052274536,12747.885107353752,0.0
648296.95196600363,3670566.251970998,-42500.0,1435.1501547986068,-2017.7291230101025,-3852.1524385644484,4139.3295807748827,4277.6266255795135,-6030.2520939583028,7139.0753802664985,434.37684320368862,-3535.781574188662,3535.781574188662,-434.37684320368862,12756.412818623476,0.0
653296.95196600363,3670566.251970998,-42500.0,17.872846175796166,-2353.421960539421,-3087.2961585497392,4699.1790548563513,3937.1021952291962,-5780.623304260248,6845.0289303014952,-846.21752575486721,-2533.7155367629721,2533.7155367629721,846.21752575486721,12434.801118757819,0.0
658296.95196600363,3670566.251970998,-42500.0,-1131.1119858454886,-2463.7490717647192,-2420.8365197806256,4910.5672330829502,3480.6483900767921,-5297.3598591574719,6430.0999384503139,-1788.0318807607948,-1669.592114468938,1669.592114468938,1788.0318807607948,11855.109800521725,0.0
663296.95196600363,3670566.251970998,-42500.0,-1995.8108329502329,-2418.5323579099813,-1867.9328833091356,4870.7112464838847,2996.6996382741895,-4715.0951705779325,5950.0693236324987,-2423.7361131538078,-967.53621022439393,967.53621022439393,2423.7361131538078,11109.392566166856,0.0
668296.95196600363,3670566.251970998,-42500.0,-2601.5879755537603,-2277.8336008434417,-1424.6906374889966,4666.1448340034849,2535.2197062448481,-4115.9272015201877,5446.8695328140793,-2809.7232209212325,-422.70482833262326,422.70482833262326,2809.7232209212325,10277.492393161598,0.0
673296.95196600363,3670566.251970998,-42500.0,-2990.9795850899632,-2086.4917272317616,-1077.7779860134347,4364.243415400364,2120.2585537038913,-3545.7902923556326,4948.6898086678239,-3005.2061482781533,-15.88860922154845,15.88860922154845,3005.2061482781533,9418.933801955016,0.0
678296.95196600363,3670566.251970998,-42500.0,-3209.5284290108284,-1875.0523932797119,-810.79104004392866,4013.4967067098173,1760.2133589665777,-3027.5063718972638,4472.9218102902159,-3062.5356540034545,276.94768402942123,-276.94768402942123,3062.5356540034545,8574.2308728354947,0.0
683296.95196600363,3670566.251970998,-42500.0,-3298.8544393095572,-1662.8323548266521,-607.73868672703657,3646.8486291963563,1454.8518649444288,-2569.8517596041552,4029.2651802232026,-3024.1029985424348,479.44092065409791,-479.44092065409791,3024.1029985424348,7768.8512179196305,0.0
688296.95196600363,3670566.251970998,-42500.0,-3294.0229619987613,-1461.1238525188899,-454.60483212233527,3285.5107969425098,1199.6853993365173,-2173.4877526064902,3622.2444631407707,-2922.4568334588812,612.44768400304019,-612.44768400304019,2922.4568334588812,7017.2896464992446,0.0
693296.95196600363,3670566.251970998,-42500.0,-3223.1416710655189,-1275.824620404929,-339.81105913805254,2942.2801202109749,988.51228479997587,-1834.7040420754502,3253.0425288735282,-2781.6829180500313,693.28220563151172,-693.28220563151172,2781.6829180500313,6326.4304045738309,0.0
698296.95196600363,3670566.251970998,-42500.0,-3107.9785439609504,-1109.3823878774142,-254.13489584393614,2624.1461225606167,814.81209100532908,-1547.7241935754257,2920.7834999023621,-2619.0927433409724,735.77229775974024,-735.77229775974024,2619.0927433409724,5698.1109093008281,0.0
703296.95196600363,3670566.251970998,-42500.0,-2964.9466886755035,-962.1443297479891,-190.40087801489537,2334.2241733162682,672.44822643202144,-1306.0746725846209,2623.3989001809227,-2446.8000399028929,750.67040944338532,-750.67040944338532,2446.8000399028929,5130.9723131129913,0.0
708296.95196600363,3670566.251970998,-42500.0,-2806.1359034487646,-833.25646286799599,-143.11291984003074,2073.1396521919173,555.9744350999373,-1103.3585839697871,2358.1997208164657,-2273.0426530962077,746.17255273496244,-746.17255273496244,2273.0426530962077,4621.7532000182982,0.0
713296.95196600363,3670566.251970998,-42500.0,-2640.2568518393323,-721.24351902626586,-108.1052788009597,1839.9967823618338,460.72405612828589,-933.66010020522708,2122.2499323859224,-2103.2346348379342,728.42899360290562,-728.42899360290562,2103.2346348379342,4166.1785245642195,0.0
513296.95196600363,3675566.251970998,-42500.0,-1537.4772493537928,1212.3470251945002,-451.57947146559434,-1251.7348676196204,696.2583608698144,-685.38310394514599,1758.7431619666434,-59.543284162269856,315.95239871177051,-315.95239871177051,59.543284162269856,3397.6690329978833,0.0
518296.95196600363,3675566.251970998,-42500.0,-1544.6003109622552,1353.1534072767918,-540.82656593654065,-1368.5754515345784,809.57027604417658,-791.65081196058372,1937.607754932003,49.078949416807916,268.00894750552203,-268.00894750552203,-49.078949416807916,3727.8659534495064,0.0
523296.95196600363,3675566.251970998,-42500.0,-1521.4203593793673,1507.4778883643473,-650.91274214946225,-1487.8828656698809,941.73164132755767,-912.76503870252168,2135.2179969472954,190.27896875256008,196.03015901553366,-196.03015901553366,-190.27896875256008,4088.7450627966086,0.0
528296.95196600363,3675566.251970998,-42500.0,-1457.0125822414002,1674.2861050691824,-786.87202126988984,-1604.8956377691109,1094.9740080351421,-1049.0511691597121,2352.6177165816739,371.34264289016812,92.531505281891327,-92.531505281891327,-371.34264289016812,4480.6032562476794,0.0
533296.95196600363,3675566.251970998,-42500.0,-1337.711177869221,1851.025024246391,-954.79416971273963,-1712.2870902206041,1271.0662858491219,-1199.5657864370567,2590.4378124128998,600.5058753235719,-51.833958481028503,51.833958481028503,-600.5058753235719,4902.4791720685553,0.0
538296.95196600363,3675566.251970998,-42500.0,-1146.823403531338,2032.8466750677826,-1161.8777950496515,-1799.2033154299163,1470.6956018425456,-1361.1875826515766,2848.6820178932626,886.63299399094615,-248.49518052537303,248.49518052537303,-886.63299399094615,5351.6897048796991,0.0
543296.95196600363,3675566.251970998,-42500.0,-864.62687899392756,2211.5507268389765,-1416.3257567304045,-1850.0644946943453,1692.4454322026008,-1527.2363269186203,3126.4922151603564,1238.4968038469451,-511.00218421538477,511.00218421538477,-1238.4968038469451,5823.4064276898471,0.0
548296.95196600363,3675566.251970998,-42500.0,-468.96949521573123,2374.2099083830849,-1726.9224115436296,-1843.1659626418732,1931.1604026708701,-1685.4153014563863,3421.9579518739406,1663.400590927881,-854.66324543447467,854.66324543447467,-1663.400590927881,6310.5068145872965,0.0
553296.95196600363,3675566.251970998,-42500.0,62.966402106451881,2501.5236609866802,-2102.0234835682013,-1749.2492275091922,2175.4097725660895,-1814.8102322201755,3732.1379894473803,2164.7600089565071,-1295.3885750924533,1295.3885750924533,-2164.7600089565071,6804.2312106221434,0.0
558296.95196600363,3675566.251970998,-42500.0,750.80079194630434,2566.1578123269219,-2547.5342455337536,-1530.5155670213617,2403.6940494305791,-1881.6261986346283,4053.6778400882222,2738.1346438550463,-1847.0863960436493,1847.0863960436493,-2738.1346438550463,7296.727102568233,0.0
563296.95196600363,3675566.251970998,-42500.0,1603.5658935236249,2531.8215464507666,-3063.2829731169072,-1141.2147953516765,2579.0826073085905,-1833.4063207621048,4384.8579902346846,3365.1783617649903,-2516.6138873980813,2516.6138873980813,-3365.1783617649903,7787.483701780222,0.0
568296.95196600363,3675566.251970998,-42500.0,2607.0130743301347,2354.8313901742013,-3637.1596206511749,-532.25001002088027,2642.3947522287258,-1591.9634734079405,4730.7313279769787,4005.4104418982015,-3295.0325881762319,3295.0325881762319,-4005.4104418982015,8296.6423880218135,0.0
573296.95196600363,3675566.251970998,-42500.0,3704.6091287789454,1991.6037525497666,-4236.9157029398893,335.5769235489845,2505.5059284970876,-1047.0069679898841,5114.0207994447665,4587.4256705642447,-4144.3787418861275,4144.3787418861275,-4587.4256705642447,8887.1011567419409,0.0
578296.95196600363,3675566.251970998,-42500.0,4775.4664095924099,1417.3978584933166,-4801.5073940041229,1462.7850449807629,2050.0367512420298,-57.040431159064617,5592.963625236056,5005.5104016939167,-4981.8432744196889,4981.8432744196889,-5005.5104016939167,9687.3618987151276,0.0
583296.95196600363,3675566.251970998,-42500.0,5623.6480427343486,660.92034055396607,-5238.4463531994979,2761.794373129308,1143.4850792974289,1527.0504120995174,6271.9293313674698,5135.1994806121329,-5670.464470017283,5670.464470017283,-5135.1994806121329,10880.497350541182,0.0
588296.95196600363,3675566.251970998,-42500.0,6010.6272200192534,-150.82607084908855,-5440.0697084213016,3997.683717330377,-308.26552870916169,3791.2038824736264,7253.3169547239104,4886.8550829308506,-6037.1146674634101,6037.1146674634101,-4886.8550829308506,12606.669260158957,0.0
593296.95196600363,3675566.251970998,-42500.0,5766.7416032279152,-769.85216816475634,-5332.3204084783692,4769.3579574600963,-2260.5549251215111,6626.1960580317618,8510.7190566351255,4301.3608279878245,-5943.3423127037131,5943.3423127037131,-4301.3608279878245,14792.418550048209,0.0
598296.95196600363,3675566.251970998,-42500.0,4963.3199837299553,-888.3516122448201,-4947.9935050028507,4620.6028581012779,-4416.3500731304148,9584.541246920613,9811.5496527042869,3633.9244133963939,-5403.7158208893989,5403.7158208893989,-3633.9244133963939,17038.839621837964,0.0
603296.95196600363,3675566.251970998,-42500.0,4004.4386543125192,-317.64722977151433,-4468.8488015519742,3319.2603947807743,-6211.5705170900119,11881.32432929047,10778.903707976573,3302.8381072514239,-4667.0976777521455,4667.0976777521455,-3302.8381072514239,18700.027745611045,0.0
608296.95196600363,3675566.251970998,-42500.0,3452.6119663137251,813.07972299098105,-4160.7960824417551,1139.8175054440876,-7015.6413183152908,12689.759893964139,11055.407993246605,3634.6421128158086,-4132.0657098286392,4132.0657098286392,-3634.6421128158086,19161.251978949487,0.0
613296.95196600363,3675566.251970998,-42500.0,3636.2591040282987,2047.150206015473,-4210.1484606629356,-1164.0709592278276,-6480.9382166338291,11616.806953618159,10495.838515908496,4575.3049445397492,-4095.6882376112544,4095.6882376112544,-4575.3049445397492,18180.187641056804,0.0
618296.95196600363,3675566.251970998,-42500.0,4398.8251309384777,2852.0437918647435,-4594.9852070502084,-2772.0299723232843,-4761.2606109357866,8960.3556133677648,9275.4390498609991,5670.4186443095823,-4547.2463530607656,4547.2463530607656,-5670.4186443095823,16068.150000483309,0.0
623296.95196600363,3675566.251970998,-42500.0,5240.042545158034,2924.1447915023523,-5109.087478678558,-3246.3183455809458,-2405.3768301612786,5510.480564141465,7840.9519305480899,6360.1316763755012,-5200.0976785353405,5200.0976785353405,-6360.1316763755012,13586.815556525498,0.0
628296.95196600363,3675566.251970998,-42500.0,5671.8558475102309,2299.7195536394511,-5501.3300227027803,-2658.3039258273898,-45.424505164342065,2108.5648257450712,6702.7239758022606,6306.4750266269493,-5701.6578057797178,5701.6578057797178,-6306.4750266269493,11610.162445877637,0.0
633296.95196600363,3675566.251970998,-42500.0,5464.5395223036439,1248.4483350797861,-5606.2178009229838,-1401.5911531742584,1865.3881760660688,-677.99522698942462,6145.0235427898278,5506.4621926097598,-5823.6707631476884,5823.6707631476884,-5506.4621926097598,10644.160439293439,0.0
638296.95196600363,3675566.251970998,-42500.0,4667.5804499301639,91.231552229034349,-5389.731581111746,73.365847283527842,3139.7854931808865,-2631.2776566152575,6055.011655915574,4195.2157870322217,-5522.7866801549762,5522.7866801549762,-4195.2157870322217,10518.16702481824,0.0
643296.95196600363,3675566.251970998,-42500.0,3492.1001960138569,-930.46305105734734,-4918.3989864469941,1430.4589596164317,3802.8757468980743,-3790.9615990633106,6097.1826093618465,2679.1982734067651,-4892.5516842556844,4892.5516842556844,-2679.1982734067651,10707.325303193385,0.0
648296.95196600363,3675566.251970998,-42500.0,2178.4366707149525,-1695.8700173343723,-4299.8520885009557,2494.1193689187658,3989.3907879287181,-4321.7056523215715,6064.1779739464646,1212.7355764430902,-4079.7050082442138,4079.7050082442138,-1212.7355764430902,10823.391923313246,0.0
653296.95196600363,3675566.251970998,-42500.0,915.33634271698088,-2183.6956396420878,-3635.1622033416452,3218.22892792108,3858.193901183794,-4413.4568891933523,5905.0596897034739,-49.261956237515051,-3219.6657219465969,3219.6657219465969,49.261956237515051,10718.580188008833,0.0
658296.95196600363,3675566.251970998,-42500.0,-183.95960037539569,-2430.1518065135429,-2996.5268295944561,3632.82591302427,3545.5944459253765,-4230.3786130994531,5636.8516384978666,-1043.5857894160354,-2407.5176977531187,2407.5176977531187,1043.5857894160354,10388.749752043832,0.0
663296.95196600363,3675566.251970998,-42500.0,-1071.5689272259858,-2493.0362368591623,-2424.8339843903777,3799.8239913051916,3150.4450669567573,-3895.2420794950822,5294.5768462432752,-1769.2197435019634,-1695.7137748382534,1695.7137748382534,1769.2197435019634,9885.3865207830477,0.0
668296.95196600363,3675566.251970998,-42500.0,-1743.6423187388921,-2430.0206524490941,-1936.6348497428955,3785.9951623939783,2736.4246597468868,-3491.7577013468672,4911.8308272196127,-2258.0952366929641,-1104.0026299057872,1104.0026299057872,2258.0952366929641,9270.1736377572397,0.0
673296.95196600363,3675566.251970998,-42500.0,-2220.641138245895,-2289.014378374352,-1532.9586414086521,3650.1386608853322,2340.3680910044172,-3072.9979023883961,4514.9430909521207,-2554.4057885408938,-631.48720399964986,631.48720399964986,2554.4057885408938,8596.9084970153835,0.0
678296.95196600363,3675566.251970998,-42500.0,-2533.3695769811566,-2105.8407347052184,-1206.5300723690852,3438.8818510489177,1980.8795851903064,-2670.1883341234443,4122.459068408205,-2702.7086058551267,-266.37186964203829,266.37186964203829,2702.7086058551267,7906.5688844515171,0.0
683296.95196600363,3675566.251970998,-42500.0,-2714.569389303952,-1905.361672464978,-946.61205450510022,3186.7813302275717,1665.1679732284331,-2299.8970802050821,3746.3945661148241,-2742.3174351003527,7.5299374415708371,-7.5299374415708371,2742.3174351003527,7227.7791538720194,0.0
688296.95196600363,3675566.251970998,-42500.0,-2794.5394592406928,-1703.7546240785173,-741.83732214730628,2918.1363612417163,1393.836832000509,-1969.3260645007399,3393.8308566822589,-2705.4270904910072,206.99368615155709,-206.99368615155709,2705.4270904910072,6579.0491850934477,0.0
693296.95196600363,3675566.251970998,-42500.0,-2799.2744898235828,-1510.8356472870798,-581.65371467463649,2649.210320468057,1163.9962980220785,-1679.9858069514337,3068.3418899235676,-2617.1568867304977,347.4425063217675,-347.4425063217675,2617.1568867304977,5971.2622109937811,0.0
698296.95196600363,3675566.251970998,-42500.0,-2750.0247223806473,-1332.0093692278995,-456.92513933585053,2390.2932341113938,971.17370182503328,-1430.148206297479,2771.1242885536635,-2496.4269628460825,442.14491222189713,-442.14491222189713,2496.4269628460825,5409.8575414113802,0.0
703296.95196600363,3675566.251970998,-42500.0,-2663.5753968242566,-1169.7557532812586,-360.06576514293261,2147.4061951248059,810.42349344415618,-1216.4245435682526,2501.8353516239717,-2357.0843016576991,502.04803907487144,-502.04803907487144,2357.0843016576991,4896.5580431687786,0.0
708296.95196600363,3675566.251970998,-42500.0,-2552.8338965219482,-1024.701431129844,-284.94445932982939,1923.6231916100676,676.93155373981483,-1034.7435875814729,2259.1914767482158,-2208.9987721035586,535.92846044938074,-535.92846044938074,2208.9987721035586,4430.6643196253881,0.0
513296.95196600363,3680566.251970998,-42500.0,-1178.5648287312256,1229.0896219361894,-581.15754594867974,-1042.998873703579,721.59130904407414,-591.09297291607368,1627.5314534675185,205.23043214132031,101.9291430495723,-101.9291430495723,-205.23043214132031,3115.8730040810619,0.0
518296.95196600363,3680566.251970998,-42500.0,-1135.3903023057096,1356.43008334774,-688.91614804678579,-1118.4172353083584,831.42948747669789,-673.34394085607278,1784.360756192011,340.59896409667147,22.011863763038122,-22.011863763038122,-340.59896409667147,3398.9172216703628,0.0
523296.95196600363,3680566.251970998,-42500.0,-1056.1290336511984,1491.2962800534465,-819.24776688887573,-1187.772590630178,956.97806369313457,-763.85518970714156,1956.0818607542594,508.59822088051641,-85.810817642820155,85.810817642820155,-508.59822088051641,3704.5955980419908,0.0
528296.95196600363,3680566.251970998,-42500.0,-930.23066733475412,1630.6893282517244,-976.6710274702009,-1244.7874912151954,1098.9757343506944,-861.1349476423112,2143.234570967908,714.86676138452276,-228.73236715585602,228.73236715585602,-714.86676138452276,4032.2839062236503,0.0
533296.95196600363,3680566.251970998,-42500.0,-745.15695458844141,1769.5896187853264,-1166.2322710598544,-1280.581932537069,1257.0948727626176,-961.98636531262184,2346.0371206651057,965.07161454904349,-415.22196508641287,415.22196508641287,-965.07161454904349,4380.3987232549071,0.0
538296.95196600363,3680566.251970998,-42500.0,-486.53946656277179,1900.1480504942049,-1393.2545051691086,-1282.9132002555352,1429.1195296923288,-1060.561825620091,2564.3243035628234,1264.2191157010068,-654.87488864057923,654.87488864057923,-1264.2191157010068,4746.3242298102223,0.0
543296.95196600363,3680566.251970998,-42500.0,-138.80582565760804,2010.6877109144677,-1662.7929430695447,-1235.3550189982132,1609.6881549763004,-1147.0103776462877,2797.5825759149966,1615.4813865304079,-957.91034256152102,957.91034256152102,-1615.4813865304079,5126.6667098529088,0.0
548296.95196600363,3680566.251970998,-42500.0,313.37415299851114,2084.5822993772726,-1978.6058568280071,-1116.5656824271414,1788.4286391049889,-1205.5966621719801,3045.2231399370398,2018.319292538808,-1334.0508047302824,1334.0508047302824,-2018.319292538808,5518.2453559595624,0.0
553296.95196600363,3680566.251970998,-42500.0,882.29386895354833,2099.2281756362386,-2341.368436298997,-899.97501596052462,1947.2968900490632,-1212.1797658232131,3307.3640432841439,2465.6530411956574,-1790.3814606616515,1790.3814606616515,-2465.6530411956574,5920.5557324887041,0.0
558296.95196600363,3680566.251970998,-42500.0,1572.3372796773906,2025.6308207778511,-2745.7913949643621,-554.55550591932649,2056.989004546153,-1131.0251397098928,3586.6066972081658,2939.8915600354121,-2327.6391796318403,2327.6391796318403,-2939.8915600354121,6340.8740902478685,0.0
563296.95196600363,3680566.251970998,-42500.0,2372.2054266096879,1829.6802089183288,-3176.3451040875798,-47.92166569640284,2072.5598518376073,-911.1940523845999,3891.5696106082696,3407.9478667302865,-2934.3176559611038,2934.3176559611038,-3407.9478667302865,6803.3527533044344,0.0
568296.95196600363,3680566.251970998,-42500.0,3243.8123564171428,1477.0695363544526,-3601.6641522342225,646.11205825732191,1929.1298424068345,-483.48410003386505,4243.0426292452694,3816.2786994847911,-3578.2867414445009,3578.2867414445009,-3816.2786994847911,7362.0906432279453,0.0
573296.95196600363,3680566.251970998,-42500.0,4109.1786152064442,944.82286119314574,-3968.8555645984684,1532.4446816695272,1540.2649341435881,239.43997300890794,4682.4593872226014,4089.0127171203962,-4196.9490687560428,4196.9490687560428,-4089.0127171203962,8112.3431495911145,0.0
578296.95196600363,3680566.251970998,-42500.0,4841.1581213544887,242.50731854039705,-4201.4359032651446,2569.2314780077577,804.75268696684498,1353.9245831211636,5276.8546731004035,4135.6880107449042,-4690.2994091401733,4690.2994091401733,-4135.6880107449042,9182.4739864548519,0.0
583296.95196600363,3680566.251970998,-42500.0,5271.7569353219315,-557.3652125666116,-4208.4676950535504,3633.8728270749389,-368.52278914939956,2937.2832058429499,6101.5847835953409,3878.5852359438336,-4927.1302232946609,4927.1302232946609,-3878.5852359438336,10683.987155355469,0.0
588296.95196600363,3680566.251970998,-42500.0,5238.66687102982,-1291.6953395765538,-3914.9027959677965,4496.138394076228,-2007.4191943245839,4990.4160685061133,7181.0403047649379,3306.9252291218672,-4779.9716970217924,4779.9716970217924,-3306.9252291218672,12622.103330502508,0.0
593296.95196600363,3680566.251970998,-42500.0,4680.7394562410145,-1712.9709788763175,-3316.2518634585599,4836.2738957116626,-3998.3384077171172,7355.4430461812717,8420.2943449641698,2544.8401828671936,-4198.04367309381,4198.04367309381,-2544.8401828671936,14813.070756167752,0.0
598296.95196600363,3680566.251970998,-42500.0,3746.2625582812357,-1568.8793981548729,-2535.5465345998396,4353.3700158597467,-6022.6633196708108,9652.9032655511692,9595.578413872403,1879.3909489059279,-3294.1879754713618,3294.1879754713618,-1879.3909489059279,16867.453239794097,0.0
603296.95196600363,3680566.251970998,-42500.0,2811.8895968760912,-755.02182327721698,-1827.8186770251623,2956.4016263729864,-7586.5284129024058,11325.29747334461,10415.009630416796,1672.6040796309806,-2371.1453264938782,2371.1453264938782,-1672.6040796309806,18278.459485718038,0.0
608296.95196600363,3680566.251970998,-42500.0,2320.8226791560805,552.67595732606753,-1484.7988863796543,916.34044901885625,-8197.0760019967856,11841.397489215202,10627.69120515686,2151.3542162539875,-1811.5203029343054,1811.5203029343054,-2151.3542162539875,18610.947358260368,0.0
613296.95196600363,3680566.251970998,-42500.0,2509.013395796394,1924.7847774479553,-1675.4052015214252,-1188.6219164185418,-7611.4993732178382,10970.300901371449,10139.983400648543,3217.8372203494628,-1865.5692701692251,1865.5692701692251,-3217.8372203494628,17710.616524268862,0.0
618296.95196600363,3680566.251970998,-42500.0,3247.0316543882036,2887.6776355523566,-2342.7174555434967,-2747.923982308092,-5974.7717382210767,8916.3175300887633,9073.9656347972305,4465.5973499670881,-2499.5180151466207,2499.5180151466207,-4465.5973499670881,15806.295584981985,0.0
623296.95196600363,3680566.251970998,-42500.0,4138.9484485607145,3159.8952715021069,-3242.6518693250041,-3408.4908184576275,-3735.0655681139278,6202.793460555723,7732.91116505223,5406.1348697020976,-3431.485125198501,3431.485125198501,-5406.1348697020976,13440.325376887318,0.0
628296.95196600363,3680566.251970998,-42500.0,4770.3804755987903,2744.2289466907114,-4082.0648322422726,-3173.1351507336849,-1418.309819792609,3414.1038310445902,6495.0599900084489,5715.9893793038527,-4306.3512317572395,4306.3512317572395,-5715.9893793038527,11270.867547418577,0.0
633296.95196600363,3680566.251970998,-42500.0,4900.4337710817217,1853.8636574871132,-4647.3084095163704,-2298.066156478093,571.06542899595445,985.86562739527892,5662.030322330651,5337.0349369971218,-4862.832057096376,4862.832057096376,-5337.0349369971218,9810.2008056575305,0.0
638296.95196600363,3680566.251970998,-42500.0,4504.7153851880357,770.29959312570634,-4856.3158308226757,-1119.34095909554,2030.8345266439255,-867.46532372439788,5289.4646604753107,4421.337444013292,-5001.7099844928725,5001.7099844928725,-4421.337444013292,9171.2487286966953,0.0
643296.95196600363,3680566.251970998,-42500.0,3709.3482980866156,-270.05556176164168,-4738.8106808810417,78.048276552747751,2936.7941205403326,-2116.9598200541095,5184.4967613207464,3210.5526688974833,-4761.4641568462093,4761.4641568462093,-3210.5526688974833,9066.8088607831705,0.0
648296.95196600363,3680566.251970998,-42500.0,2696.1293858675031,-1124.2006408800414,-4384.5871631605833,1113.6911619022542,3372.5527729226806,-2843.4034935660061,5136.4946454169003,1933.0451484464065,-4253.6330658109691,4253.6330658109691,-1933.0451484464065,9123.2587988242085,0.0
653296.95196600363,3680566.251970998,-42500.0,1631.8903733712118,-1738.3323353894459,-3895.5772054975018,1907.3116074653888,3462.0334765645662,-3169.4519387633454,5040.7398726770434,751.67250958146406,-3603.3716926100983,3603.3716926100983,-751.67250958146406,9110.5685813577729,0.0
658296.95196600363,3680566.251970998,-42500.0,635.94078563445123,-2119.6988261629213,-3357.3232399249291,2449.0787507450573,3325.6749258489417,-3216.9771675775437,4871.0503361261235,-244.4314584838819,-2914.4668488787038,2914.4668488787038,244.4314584838819,8947.5743269469458,0.0
663296.95196600363,3680566.251970998,-42500.0,-223.71293684129043,-2306.7178010537386,-2829.1136658197274,2768.0419582235509,3060.4998384934283,-3087.4760768200349,4636.4425799248593,-1024.7198939149437,-2257.5566266548021,2257.5566266548021,1024.7198939149437,8635.7969742663463,0.0
668296.95196600363,3680566.251970998,-42500.0,-920.00152719807636,-2347.3023396825229,-2345.5012099885666,2908.7051911197996,2735.9298598355176,-2857.1347997685598,4356.8404325607253,-1596.0985601568527,-1672.3683823693054,1672.3683823693054,1596.0985601568527,8209.1577447239397,0.0
673296.95196600363,3680566.251970998,-42500.0,-1453.0105102169437,-2286.6234142155649,-1922.3646398660524,2917.0155850923265,2397.2465232129866,-2579.053879332801,4052.4030148246507,-1984.8594950252318,-1175.473978400174,1175.473978400174,1984.8594950252318,7707.983278925255,0.0
678296.95196600363,3680566.251970998,-42500.0,-1838.0771516609741,-2161.8878142290441,-1563.3990323701325,2833.5128562395475,2071.4309369647181,-2287.9558145635788,3739.6939722292723,-2224.3247234798864,-768.49308731907081,768.49308731907081,2224.3247234798864,7168.0925753502552,0.0
683296.95196600363,3680566.251970998,-42500.0,-2097.3141938045287,-2001.2457301509116,-1265.3220543993064,2690.9173027703905,1772.7873711842644,-2005.0556639155795,3430.9016758906937,-2347.6491416540616,-444.65080392435004,444.65080392435004,2347.6491416540616,6617.4277920797049,0.0
688296.95196600363,3680566.251970998,-42500.0,-2254.3124850861086,-1824.680097841888,-1021.4665509830078,2514.0770233607332,1507.4249470897137,-1742.1874454527936,3134.2645134601562,-2384.2839467955359,-193.29637858686056,193.29637858686056,2384.2839467955359,6076.0120153326634,0.0
693296.95196600363,3680566.251970998,-42500.0,-2331.2153546960412,-1645.5958056526581,-824.00956474230156,2320.9713917966637,1276.490176305831,-1504.9767193579032,2854.8653873864096,-2358.6930996560795,-2.6985526498206127,2.6985526498206127,2358.6930996560795,5557.1567102887029,0.0
698296.95196600363,3680566.251970998,-42500.0,-2347.3574863324807,-1472.4549900022657,-665.2233785713205,2124.0431390204508,1078.3483742963951,-1295.1357850681807,2595.4374678932386,-2290.2993484300123,138.39893679970169,-138.39893679970169,2290.2993484300123,5068.9567135192719,0.0
703296.95196600363,3680566.251970998,-42500.0,-2318.8418660807984,-1310.1870908788155,-538.09508835470638,1931.497759902373,909.98167451933125,-1112.0494886084523,2357.0506525448072,-2194.0107293907949,240.02594891368256,-240.02594891368256,2194.0107293907949,4615.6729372716709,0.0
708296.95196600363,3680566.251970998,-42500.0,-2258.6353875043874,-1161.2991319531623,-436.56681560789735,1748.4260118514501,767.84258073223464,-953.83272500852331,2139.653741220548,-2080.9591420094034,310.72042761601142,-310.72042761601142,2080.9591420094034,4198.8782084774812,0.0
518296.95196600363,3685566.251970998,-42500.0,-743.72978375973798,1301.2707117194402,-813.76553359180707,-874.24122588615853,819.80590151252807,-556.53965895310353,1633.2208554471708,577.32487924972281,-207.35544077105445,207.35544077105445,-577.32487924972281,3072.8016299379328,0.0
523296.95196600363,3685566.251970998,-42500.0,-618.02009035953404,1407.3436748082479,-955.84558161629263,-898.65944251400083,931.4269828338023,-618.52571970756719,1781.72667000776,758.01946920126591,-342.55221395523733,342.55221395523733,-758.01946920126591,3328.8495332022344,0.0
528296.95196600363,3685566.251970998,-42500.0,-443.70047569721544,1509.1475887151016,-1123.4324242734974,-903.10318014560869,1053.4587825340759,-680.15532841682227,1942.6324977731658,972.05341855865129,-513.30176889529218,513.30176889529218,-972.05341855865129,3600.8210336722132,0.0
533296.95196600363,3685566.251970998,-42500.0,-210.33417948443301,1599.6025225429685,-1319.7184711432599,-878.14690117649673,1183.4151537836678,-736.66182225958084,2116.3053033558786,1222.0010952812454,-726.22794970992697,726.22794970992697,-1222.0010952812454,3887.7859488528484,0.0
538296.95196600363,3685566.251970998,-42500.0,93.023106733195135,1668.6448012027945,-1547.203201808946,-811.52910450289971,1316.3024120454013,-780.49700813256834,2303.1733488502114,1508.6283874056355,-987.94001726885858,987.94001726885858,-1508.6283874056355,4188.9652732917339,0.0
543296.95196600363,3685566.251970998,-42500.0,476.69118200037138,1702.4894885357296,-1806.7802813419544,-687.78706070701321,1443.3032201024996,-800.16349965055099,2504.0588423716426,1829.4918727764593,-1304.0611805551744,1304.0611805551744,-1829.4918727764593,4504.7614395652899,0.0
548296.95196600363,3685566.251970998,-42500.0,948.3566651827249,1683.0206497273314,-2096.2849768284955,-488.22307598317855,1549.9704975965171,-778.71700468080542,2720.8725211847081,2176.9523128087426,-1677.5517988678785,1677.5517988678785,-2176.9523128087426,4838.8317023398367,0.0
553296.95196600363,3685566.251970998,-42500.0,1509.8023438902983,1587.6620030140543,-2408.3151864800807,-191.59950983228774,1613.8862366055446,-691.96993971335587,2957.9129619932041,2535.5520956560445,-2106.0221193572629,2106.0221193572629,-2535.5520956560445,5201.7951676735574,0.0
558296.95196600363,3685566.251970998,-42500.0,2151.9878487030223,1390.3922783031878,-2727.1972542068661,223.7653085420115,1601.9057330738722,-506.58710409081942,3224.0664945942467,2878.9242431721182,-2577.7376059277435,2577.7376059277435,-2878.9242431721182,5617.0169555574948,0.0
563296.95196600363,3685566.251970998,-42500.0,2848.339395783139,1065.0209012194173,-3025.2171100958872,775.46006441840655,1467.5000562951325,-178.60191355804221,3536.0675500144589,3166.9076484367502,-3066.2363297979814,3066.2363297979814,-3166.9076484367502,6127.7746072991085,0.0
568296.95196600363,3685566.251970998,-42500.0,3546.9334340060127,592.34994076911323,-3258.8902738123516,1468.599527779345,1149.524515585035,346.44916498005767,3922.2906059418247,3344.5446965131759,-3524.1804859054337,3524.1804859054337,-3344.5446965131759,6802.0300716264228,0.0
573296.95196600363,3685566.251970998,-42500.0,4164.2007488023391,-27.004754993394364,-3367.3718473845051,2282.264361526396,575.16566516086243,1129.4174415596681,4424.6032571242904,3346.2483787245974,-3878.6768296468153,3878.6768296468153,-3346.2483787245974,7726.4889145428915,0.0
578296.95196600363,3685566.251970998,-42500.0,4586.2176701569597,-753.65641796559294,-3277.1787950117691,3150.9711086363541,-328.2647181766614,2225.5346500535175,5091.9758237317919,3110.1892432829118,-4033.1208541754841,4033.1208541754841,-3110.1892432829118,8980.8666464418366,0.0
583296.95196600363,3685566.251970998,-42500.0,4687.5835407850927,-1488.4734564579646,-2919.2974692713146,3946.1643951716046,-1606.8786481466752,3659.6830402821447,5956.5171217166335,2607.8068756539378,-3883.8386893901743,3883.8386893901743,-2607.8068756539378,10592.996663130623,0.0
588296.95196600363,3685566.251970998,-42500.0,4377.5772228347168,-2062.8480623890791,-2263.3488989700195,4471.7813576889093,-3236.50870581657,5387.0921924676677,6993.6079736236079,1886.8094385832244,-3359.6624971256151,3359.6624971256151,-1886.8094385832244,12490.260697370515,0.0
593296.95196600363,3685566.251970998,-42500.0,3669.5892127741886,-2263.1724234555136,-1363.5276445157872,4496.8778201352152,-5071.994523209265,7249.322707244467,8094.2746655895917,1108.805284938674,-2481.7074360372017,2481.7074360372017,-1108.805284938674,14469.655771963877,0.0
598296.95196600363,3685566.251970998,-42500.0,2738.2812456659244,-1908.1744545146887,-391.07781302037455,3842.0782858952739,-6822.0302223751296,8955.7843300969289,9075.2883526097248,541.32736724067649,-1414.8773065521314,1414.8773065521314,-541.32736724067649,16209.114944968327,0.0
603296.95196600363,3685566.251970998,-42500.0,1901.3186828691735,-961.93791678809248,387.24205312066942,2498.0954771290335,-8095.3775135814758,10132.564533319242,9725.1754754976173,466.94121274342723,-458.19060846204098,458.19060846204098,-466.94121274342723,17338.148725720566,0.0
608296.95196600363,3685566.251970998,-42500.0,1489.69975123007,389.06064621614149,705.37577731751276,699.20822983842277,-8534.5759477295214,10451.157342848408,9874.4095419900605,1029.5828915363272,61.163002657121694,-61.163002657121694,-1029.5828915363272,17561.016858962026,0.0
613296.95196600363,3685566.251970998,-42500.0,1667.4613963211821,1776.1309573404853,427.33698851811567,-1130.549851951143,-7978.1959767220405,9778.5853322902149,9464.7286405732011,2119.1355033180162,-52.084669433344288,52.084669433344288,-2119.1355033180162,16782.14016102389,0.0
618296.95196600363,3685566.251970998,-42500.0,2335.2385260809824,2805.6254243672552,-379.20806151271523,-2551.3008689562057,-6542.9124449065166,8246.3813263159227,8581.5534585365494,3398.3235569171461,-757.64032017820637,757.64032017820637,-3398.3235569171461,15163.325199541847,0.0
623296.95196600363,3685566.251970998,-42500.0,3194.3680433792747,3229.9074766872277,-1479.8286572880443,-3287.8492900876568,-4566.006038578309,6187.5399229045088,7431.6120135812098,4463.9920491198372,-1809.7005113281489,1809.7005113281489,-4463.9920491198372,13079.367952641589,0.0
628296.95196600363,3685566.251970998,-42500.0,3911.0571882752001,3021.9070354174364,-2587.556932677498,-3303.270036618972,-2455.9514628695028,3992.8181771762102,6280.027224275249,5024.7701616430741,-2887.9995990471025,2887.9995990471025,-5024.7701616430741,10999.801881391775,0.0
633296.95196600363,3685566.251970998,-42500.0,4258.2925716352838,2332.5190500749877,-3474.1377403349516,-2750.0933840785265,-550.77064315540952,1981.4655580538504,5366.7399548967442,4986.8000454274734,-3731.9477966927843,3731.9477966927843,-4986.8000454274734,9342.9136081177348,0.0
638296.95196600363,3685566.251970998,-42500.0,4166.5966097428636,1389.5240637200632,-4024.0492911345304,-1864.2664760361652,952.11712507614618,341.49354188607572,4806.1616084415373,4430.9401947486094,-4208.4234522948118,4208.4234522948118,-4430.9401947486094,8326.2482488627702,0.0
643296.95196600363,3685566.251970998,-42500.0,3694.8374674346783,405.94031410963993,-4228.7288399877907,-871.45023769053466,1993.4918154878062,-864.82717687971024,4536.05850844823,3532.7042103590015,-4307.701205795056,4307.701205795056,-3532.7042103590015,7882.8489500508613,0.0
648296.95196600363,3685566.251970998,-42500.0,2968.059028986137,-469.22252661297841,-4148.4982095198566,63.330926343927509,2610.3674662378112,-1662.5241127571664,4409.9088246257907,2482.2777869018855,-4099.9255803757715,4099.9255803757715,-2482.2777869018855,7761.9890407786934,0.0
653296.95196600363,3685566.251970998,-42500.0,2121.3621805313901,-1159.5018895617645,-3870.8129908815163,846.03181799306799,2887.5133405923539,-2121.4766764495494,4313.1427903339527,1434.364671752661,-3686.4797260719743,3686.4797260719743,-1434.364671752661,7725.1443015166924,0.0
658296.95196600363,3685566.251970998,-42500.0,1266.260780861601,-1646.0044080696052,-3480.5258487092128,1441.0052472545028,2920.625824153984,-2324.5081978029052,4190.220529668879,490.32402805669676,-3165.1795323350379,3165.1795323350379,-490.32402805669676,7637.3186723583449,0.0
663296.95196600363,3685566.251970998,-42500.0,478.66051893271572,-1945.5750867106483,-3045.1120559024944,1851.2180176367208,2795.3513089861954,-2348.7993731826623,4025.6521277898851,-298.26907312111462,-2612.990329619463,2612.990329619463,298.26907312111462,7451.6411278930746,0.0
668296.95196600363,3685566.251970998,-42500.0,-199.38722824785754,-2091.8461307896941,-2611.0808145108881,2100.3511210433276,2578.9614324038944,-2257.7662485691822,3823.4608644713271,-916.82540377288205,-2081.9121980538866,2081.9121980538866,916.82540377288205,7169.6598296639886,0.0
673296.95196600363,3685566.251970998,-42500.0,-751.91357259153108,-2122.4358741087135,-2206.4333610999411,2220.0272552905349,2319.6612389378756,-2099.3733773982631,3594.7306315942928,-1373.8754404740512,-1602.0043746905767,1602.0043746905767,1373.8754404740512,6812.7541231518835,0.0
678296.95196600363,3685566.251970998,-42500.0,-1180.2712853782236,-2071.8941141112873,-1845.2653461437974,2242.1110092832937,2049.4315689044779,-1907.6508466490302,3351.4513488264793,-1689.8945030134032,-1186.9449913609687,1186.9449913609687,1689.8945030134032,6406.8342650502891,0.0
683296.95196600363,3685566.251970998,-42500.0,-1495.7518236521937,-1968.7193454582341,-1532.3464646443881,2194.8132526266659,1787.8846214570231,-1705.3889184570494,3103.9535180757184,-1889.6829078087198,-839.55474501538617,839.55474501538617,1889.6829078087198,5975.4826390203407,0.0
688296.95196600363,3685566.251970998,-42500.0,-1714.2519448840469,-1834.7899615903905,-1266.8007847162521,2101.2332309097515,1545.8863801139773,-1506.937819533588,2860.1503872437816,-1997.8245030870467,-556.23353502990142,556.23353502990142,1997.8245030870467,5537.5652342487756,0.0
693296.95196600363,3685566.251970998,-42500.0,-1852.8312125473394,-1685.9927689405552,-1044.7234778360983,1979.2714946781887,1328.4801401689544,-1320.6415003266227,2625.5971822925935,-2036.35820414114,-330.11001505704189,330.11001505704189,2036.35820414114,5106.9597243448843,0.0
698296.95196600363,3685566.251970998,-42500.0,-1927.7162953459194,-1533.3005061664562,-860.88478302045667,1842.1988723574161,1137.0467216526654,-1150.7577975926631,2403.8570915619202,-2023.8567418193998,-153.08267861581874,153.08267861581874,2023.8567418193998,4693.1500400038758,0.0
703296.95196600363,3685566.251970998,-42500.0,-1953.3060632520101,-1383.9061543105074,-709.75902617917404,1699.4710869489725,970.81337323235221,-998.89066010096224,2196.9465713963345,-1975.3211052153401,-17.034505233604932,17.034505233604932,1975.3211052153401,4302.1027443962612,0.0
708296.95196600363,3685566.251970998,-42500.0,-1941.8057529422415,-1242.225133355578,-586.0897749015852,1557.5549392588766,827.85445691304506,-865.0059452663188,2005.7443399792855,-1902.4858586727705,85.519283764359784,-85.519283764359784,1902.4858586727705,3937.1258491761055,0.0
518296.95196600363,3690566.251970998,-42500.0,-384.83748322270134,1198.4399003652691,-907.5641935951104,-645.02785916758035,779.85295648766669,-445.36191621320518,1489.0603287564666,755.08219873083794,-408.06457587853333,408.06457587853333,-755.08219873083794,2761.6549360607037,0.0
523296.95196600363,3690566.251970998,-42500.0,-224.45722094345672,1270.2377752501686,-1052.0998064514895,-631.45155532748356,872.44266441542254,-482.05848852066708,1617.9873269381853,935.39065830450625,-560.44042032935806,560.44042032935806,-935.39065830450625,2976.2934513496616,0.0
528296.95196600363,3690566.251970998,-42500.0,-16.817049671237793,1329.3924182666938,-1218.0672525645509,-592.93449342942461,968.90180363581487,-512.82841353884169,1757.6813859672666,1141.7469725069791,-745.82925680088158,745.82925680088158,-1141.7469725069791,3204.0715086511432,0.0
533296.95196600363,3690566.251970998,-42500.0,245.77612182150631,1367.50504058552,-1406.330176109818,-520.4078360232993,1064.8658482857531,-532.0302054675908,1909.1042747866782,1373.6135570145609,-968.36389171209271,968.36389171209271,-1373.6135570145609,3445.8554889243301,0.0
538296.95196600363,3690566.251970998,-42500.0,570.28714316021876,1373.4386309888637,-1616.1575537373842,-402.71512161697842,1153.1309396144738,-531.39249472725623,2073.7875647112537,1627.830091312853,-1231.0574313476493,1231.0574313476493,-1627.830091312853,3704.071969291565,0.0
543296.95196600363,3690566.251970998,-42500.0,961.52355859484487,1332.9705987087134,-1844.1038735184659,-226.6786884967733,1222.4509788485038,-499.1179669835085,2254.3717060328045,1897.2378059884941,-1534.5373599955528,1534.5373599955528,-1897.2378059884941,3984.312204510155,0.0
548296.95196600363,3690566.251970998,-42500.0,1419.9256608191058,1228.8050877105979,-2082.4182483318659,22.354510599793379,1256.0296923513613,-418.85021510939754,2455.4838059612798,2168.9465328034257,-1875.1316834483212,1875.1316834483212,-2168.9465328034257,4297.871666057421,0.0
553296.95196600363,3690566.251970998,-42500.0,1938.3896798211786,1041.3546282645186,-2316.9349519723969,359.11408786773563,1229.7991827953892,-268.63021032756569,2685.0367890382558,2422.3879084207842,-2242.1651363104588,2242.1651363104588,-2422.3879084207842,4665.2442246686987,0.0
558296.95196600363,3690566.251970998,-42500.0,2498.0917176594376,750.93787211688743,-2524.5583490268687,795.61677688028351,1110.7896509087366,-20.137917297693804,2955.8928975247691,2627.5868920665143,-2614.467288047359,2614.467288047359,-2627.5868920665143,5119.8252039310573,0.0
563296.95196600363,3690566.251970998,-42500.0,3063.7078303626276,342.29423004646117,-2670.8284556946096,1336.309487506707,856.29961847969093,361.1891907705724,3287.4734883520605,2744.6032383812922,-2956.4849903367653,2956.4849903367653,-2744.6032383812922,5709.5739315433166,0.0
568296.95196600363,3690566.251970998,-42500.0,3579.3326622175409,-187.59993495913642,-2708.7550482120505,1970.5210990752619,415.23883052598222,914.10893971919575,3706.2106032442034,2725.8754745614251,-3215.2032821278799,3215.2032821278799,-2725.8754745614251,6492.7663812629507,0.0
573296.95196600363,3690566.251970998,-42500.0,3967.9447674182056,-817.94710029355906,-2581.1888412589424,2662.2077449922203,-266.09279542729962,1675.9519590940454,4242.712150628583,2524.0683882265776,-3320.4493395308791,3320.4493395308791,-2524.0683882265776,7524.3201461881399,0.0
578296.95196600363,3690566.251970998,-42500.0,4139.1944700422118,-1490.2019770736529,-2230.1387104249934,3338.7597674999756,-1230.8134950620818,2671.347186595433,4922.3310355791191,2108.2389637103956,-3192.8463861540454,3192.8463861540454,-2108.2389637103956,8833.036518465171,0.0
583296.95196600363,3690566.251970998,-42500.0,4011.1527212915416,-2097.2593221766688,-1616.474409356962,3884.1599078250656,-2488.5280372645739,3893.8357044672553,5746.5617760516488,1489.0209747110525,-2764.4353969499912,2764.4353969499912,-1489.0209747110525,10395.077388652473,0.0
588296.95196600363,3690566.251970998,-42500.0,3548.1263345249245,-2486.7811176423829,-750.03483115750805,4146.3533899068198,-3984.4558790124106,5282.1847385214669,6671.0704637151084,746.87164513524476,-2013.8865028797236,2013.8865028797236,-746.87164513524476,12111.608344240991,0.0
593296.95196600363,3690566.251970998,-42500.0,2804.9873260142658,-2492.3814736457098,278.87510724820521,3970.2999451656156,-5571.6096406746801,6700.3698359530963,7596.7448502683756,46.315989932009074,-1007.9520474436318,1007.9520474436318,-46.315989932009074,13800.350153315007,0.0
598296.95196600363,3690566.251970998,-42500.0,1950.9018507737067,-1997.4919012599248,1287.8234158579003,3259.2395824641635,-7008.0598427380601,7938.6859693448068,8383.2681592651443,-388.74120051034021,75.033670460657561,-75.033670460657561,388.74120051034021,15213.157467012299,0.0
603296.95196600363,3690566.251970998,-42500.0,1237.9761691669387,-1011.2199719286187,2035.1151102524493,2043.3831459081516,-8002.1795575230417,8753.6176410216231,8881.9883198977059,-352.11586461623705,971.60326421357627,-971.60326421357627,352.11586461623705,16088.127961038543,0.0
608296.95196600363,3690566.251970998,-42500.0,905.7231123581214,291.98592127140626,2301.4180770743783,511.52908495161273,-8305.6830853858755,8944.9820699467491,8980.3536874742131,240.30749743256126,1420.9711516782036,-1420.9711516782036,-240.30749743256126,16228.097968278902,0.0
613296.95196600363,3690566.251970998,-42500.0,1066.0882317867599,1612.2986351077459,1984.5172496015132,-1032.2029685839946,-7814.1365240068135,8436.5071587107795,8642.8366058865849,1283.672548546612,1277.7037186732889,-1277.7037186732889,-1283.672548546612,15574.800763477186,0.0
618296.95196600363,3690566.251970998,-42500.0,1645.5308920286582,2636.0410662975714,1148.5559129754713,-2275.8991207645972,-6614.4969942549378,7310.9883435998408,7929.0833543642611,2510.4434044961085,579.53761461398165,-579.53761461398165,-2510.4434044961085,14240.785872206132,0.0
623296.95196600363,3690566.251970998,-42500.0,2425.0565629591488,3154.3018375384736,-4.9948639135966602,-3010.5814710667282,-4948.949851929654,5777.0702580517582,6980.2139564807376,3600.2946592443514,-474.50753246426393,474.50753246426393,-3600.2946592443514,12482.09469405763,0.0
628296.95196600363,3690566.251970998,-42500.0,3145.6461555237179,3121.0137187234563,-1222.596340168069,-3182.8905284028097,-3120.8174867317152,4090.9186974460199,5980.7939957709914,4303.6242407146592,-1615.9358867588669,1615.9358867588669,-4303.6242407146592,10627.197371299535,0.0
633296.95196600363,3690566.251970998,-42500.0,3608.7945841420174,2632.7352320770319,-2286.7314324886652,-2875.5893851682144,-1398.6803971915679,2478.9124521197259,5108.46898743776,4510.9580500463726,-2607.5456430204363,2607.5456430204363,-4510.9580500463726,8991.2434648033068,0.0
638296.95196600363,3690566.251970998,-42500.0,3724.6264654849929,1861.8918685230867,-3066.3602726080085,-2246.2248518429128,39.968467316756218,1093.3816805005576,4475.6561501438009,4250.3541130100848,-3303.9752188575681,3303.9752188575681,-4250.3541130100848,7791.8865646532249,0.0
643296.95196600363,3690566.251970998,-42500.0,3505.1449596207322,987.58379230160506,-3522.3365280901789,-1463.88521051254,1118.2311218455895,5.5289753937975181,4088.4041347901766,3638.7243633524267,-3660.9543800151805,3660.9543800151805,-3638.7243633524267,7081.3479683347614,0.0
648296.95196600363,3690566.251970998,-42500.0,3027.2757551044265,150.85028150878546,-3683.6723676320107,-667.61554334986374,1838.4167549893714,-777.92081767389675,3871.6813673172451,2823.8343769808148,-3710.3029422735603,3710.3029422735603,-2823.8343769808148,6747.1917362226704,0.0
653296.95196600363,3690566.251970998,-42500.0,2391.9629637840681,-561.09972775862843,-3615.2677717342276,49.757427167406078,2250.2596595542432,-1290.2740825880694,3736.2589164723013,1941.0304859570192,-3524.1702281420517,3524.1702281420517,-1941.0304859570192,6608.2202550610555,0.0
658296.95196600363,3690566.251970998,-42500.0,1694.3099966234199,-1110.2751441833861,-3390.9641700970883,639.72182826049857,2422.7347509378033,-1583.0415531220435,3619.5956377803623,1091.5312030335506,-3184.6814568354503,3184.6814568354503,-1091.5312030335506,6516.8712677472786,0.0
663296.95196600363,3690566.251970998,-42500.0,1008.2332995175145,-1494.1447493752996,-3076.934511726397,1087.5584870087289,2425.042645632956,-1710.7886297215132,3490.4055253562447,338.16470183031947,-2765.0664207473301,2765.0664207473301,-338.16470183031947,6392.3600428933487,0.0
668296.95196600363,3690566.251970998,-42500.0,382.57274875641815,-1730.9293284522225,-2724.5070988789703,1400.1660064511464,2316.6329339563194,-1722.6306490991392,3338.7909432778247,-288.97311077812424,-2321.4723881305808,2321.4723881305808,288.97311077812424,6206.0373413716634,0.0
673296.95196600363,3690566.251970998,-42500.0,-156.15184176192025,-1847.9558849540595,-2369.2583734540099,1595.8221253160473,2143.747146668466,-1658.6595719803424,3166.1484480025861,-783.31109756856279,-1891.9542879246915,1891.9542879246915,783.31109756856279,5958.3456965857004,0.0
678296.95196600363,3690566.251970998,-42500.0,-598.32979246695788,-1874.0375268733333,-2033.2807695078361,1696.9829501576301,1939.7459175061595,-1549.404113442682,2978.5194598300363,-1152.8765712562508,-1499.1304838165433,1499.1304838165433,1152.8765712562508,5662.3341188610984,0.0
683296.95196600363,3690566.251970998,-42500.0,-945.64233507209485,-1835.2953832175513,-1728.4803703436469,1725.8892232321234,1727.1497582352033,-1416.8335354719422,2782.961149517545,-1413.2799412041281,-1154.040225487835,1154.040225487835,1413.2799412041281,5334.4294229978241,0.0
688296.95196600363,3690566.251970998,-42500.0,-1206.3822644839322,-1753.3917549269727,-1459.751938728323,1702.2906414855729,1520.1460839956296,-1275.9582559897667,2585.8553641413373,-1582.9047885048253,-859.85881718954715,859.85881718954715,1582.9047885048253,4990.036987556824,0.0
693296.95196600363,3690566.251970998,-42500.0,-1392.0228907963979,-1645.2051650947171,-1227.5465959122155,1642.5514900798591,1326.9130741052309,-1136.4794103365532,2392.2793183081321,-1679.9682005687855,-614.90343544042435,614.90343544042435,1679.9682005687855,4641.8148707466135,0.0
698296.95196600363,3690566.251970998,-42500.0,-1514.9444245026393,-1523.2561294348923,-1029.7541349273572,1559.5734857121265,1151.5238211415949,-1004.2461911688159,2205.9226568734689,-1720.9552183747207,-414.82779426585353,414.82779426585353,1720.9552183747207,4299.324817976998,0.0
703296.95196600363,3690566.251970998,-42500.0,-1587.0665786502568,-1396.4318706832114,-862.97897760757087,1463.1307616973083,995.38522032248727,-882.4286150781046,2029.2396442822865,-1719.954206322217,-254.09895410861532,254.09895410861532,1719.954206322217,3969.293878942186,0.0
518296.95196600363,3695566.251970998,-42500.0,-69.164497880672613,1060.4198615111716,-966.28616706275284,-437.33049057252089,717.80010144044911,-342.92468378803352,1355.7024579417741,874.66589112983684,-572.28545941667198,572.28545941667198,-874.66589112983684,2475.3043070835452,0.0
523296.95196600363,3695566.251970998,-42500.0,113.55983824535774,1096.1958802905556,-1104.4456507774225,-393.64431323604794,788.5298074207692,-358.24555335575781,1469.1441538750832,1043.7332643289838,-731.39382551278004,731.39382551278004,-1043.7332643289838,2658.3110565946013,0.0
528296.95196600363,3695566.251970998,-42500.0,339.45183585180479,1112.3353666110904,-1258.1509929965207,-322.59378655814749,856.86186539306357,-363.67609400284823,1592.9585988445374,1230.3448986591638,-918.57186450425149,918.57186450425149,-1230.3448986591638,2854.8400026309191,0.0
533296.95196600363,3695566.251970998,-42500.0,613.22660676833652,1099.9885487217896,-1425.8531318677876,-216.13836516359851,917.049754977421,-353.30770999392075,1728.9317459131437,1431.2586874874523,-1135.2264302246695,1135.2264302246695,-1431.2586874874523,3068.2579396044025,0.0
538296.95196600363,3695566.251970998,-42500.0,937.89107729535874,1048.1281837189401,-1603.7356526923572,-64.962853664775366,960.47612286091351,-318.94182756400363,1879.8286181527571,1640.2153124046836,-1380.7596707405905,1380.7596707405905,-1640.2153124046836,3304.6962057882283,0.0
543296.95196600363,3695566.251970998,-42500.0,1313.2460338514254,943.62159640860284,-1784.5785348504237,141.12146123364775,974.68488616031311,-249.48393488022336,2049.9625497371921,1846.7925946956698,-1651.222227385822,1651.222227385822,-1846.7925946956698,3574.7197870962691,0.0
548296.95196600363,3695566.251970998,-42500.0,1733.8064206598219,771.81680285603943,-1956.3082871132642,412.25304403644105,942.30357001714606,-130.35067958814162,2245.9426962819107,2035.1646099285647,-1937.4843977010607,1937.4843977010607,-2035.1646099285647,3895.3618600034288,0.0
553296.95196600363,3695566.251970998,-42500.0,2186.1440707927568,518.02424877599844,-2100.3265833778833,756.78401714224685,840.03912673665866,56.943692986807697,2477.5060488930703,2183.0408167593191,-2222.9529022219926,2222.9529022219926,-2183.0408167593191,4291.943696941049,0.0
558296.95196600363,3695566.251970998,-42500.0,2645.8872714627519,170.40109749543373,-2189.9194881365574,1178.386878422127,638.13535790463186,334.71634697514685,2758.1564279114027,2261.3345895841098,-2481.0790332622241,2481.0790332622241,-2261.3345895841098,4798.4069014597126,0.0
563296.95196600363,3695566.251970998,-42500.0,3075.0657283866944,-275.21066614843295,-2189.4297029225195,1671.6961605949571,301.00378564671814,728.05299589336948,3105.0891189561507,2235.5096593107564,-2673.3314666295009,2673.3314666295009,-2235.5096593107564,5454.3817096510593,0.0
568296.95196600363,3695566.251970998,-42500.0,3421.2244853050065,-808.17205227637351,-2055.4365772862061,2216.4504959015726,-209.83908713291413,1262.0036793167019,3537.6295026318576,2069.9870147898396,-2748.9926712466445,2748.9926712466445,-2069.9870147898396,6297.6354529202199,0.0
573296.95196600363,3695566.251970998,-42500.0,3620.6703060374603,-1394.1651007894889,-1741.8221225189509,2770.8370594007874,-929.01826595545674,1956.1063019791609,4073.1557833488687,1737.1812875146636,-2649.0093149079757,2649.0093149079757,-1737.1812875146636,7352.1299179749567,0.0
578296.95196600363,3695566.251970998,-42500.0,3608.8653325136347,-1966.8337421015237,-1210.8489093365531,3266.1704402529485,-1875.3044248051344,2815.4575976185229,4719.1549676552286,1232.0183423524918,-2316.7226396974766,2316.7226396974766,-1232.0183423524918,8613.6145517460736,0.0
583296.95196600363,3695566.251970998,-42500.0,3340.1718433683814,-2424.9974477626715,-451.28940592024878,3607.0900102942492,-3034.277938122003,3818.5444216332608,5461.1062433499801,590.21330401288776,-1717.5333978341964,1717.5333978341964,-590.21330401288776,10035.607133157842,0.0
588296.95196600363,3695566.251970998,-42500.0,2815.1371118618927,-2642.9884267812654,499.01708339528659,3683.0862172733141,-4339.0162463666175,4904.446281526727,6251.2125208389498,-96.400024150718366,-865.78480788542652,865.78480788542652,96.400024150718366,11519.610986870808,0.0
593296.95196600363,3695566.251970998,-42500.0,2105.6197900165357,-2500.6576387844975,1535.2094317447622,3395.8355970205594,-5657.6015720402556,5965.6882477200434,7007.2842014927901,-679.9118425238853,150.32384781926095,-150.32384781926095,679.9118425238853,12915.403603293254,0.0
598296.95196600363,3695566.251970998,-42500.0,1359.8899351419059,-1931.0254563252997,2486.9621686271075,2699.5244766316218,-6800.5243641032212,6855.7603359093855,7625.222258448407,-984.95369331390282,1162.9831748846934,-1162.9831748846934,984.95369331390282,14038.194697787905,0.0
603296.95196600363,3695566.251970998,-42500.0,770.84327099610641,-967.83220729840639,3152.3375932970212,1638.805246642476,-7557.8349272579007,7417.7307941696818,8001.875011663551,-867.60442520697643,1955.1762669039963,-1955.1762669039963,867.60442520697643,14705.538272100763,0.0
608296.95196600363,3695566.251970998,-42500.0,508.93640071324552,236.82913307254859,3360.6969629505429,360.13598254886472,-7760.8087131717884,7529.4949001922887,8062.9189024197003,-283.16621067819096,2327.5640717469528,-2327.5640717469528,283.16621067819096,14786.738708558061,0.0
613296.95196600363,3695566.251970998,-42500.0,649.905895847701,1446.5538541380629,3038.2419449689914,-920.07214448452589,-7342.7450405916506,7147.0556448921943,7786.9888161285744,676.31551815474529,2174.6829204007058,-2174.6829204007058,-676.31551815474529,14246.564273121881,0.0
618296.95196600363,3695566.251970998,-42500.0,1140.0979861001097,2417.3976670966194,2239.8196887149015,-1981.6527471897034,-6366.2385172986887,6322.6399711591957,7215.9475153395142,1803.8740503627653,1528.3441974450691,-1528.3441974450691,-1803.8740503627653,13163.131512137184,0.0
623296.95196600363,3695566.251970998,-42500.0,1821.1748507411273,2978.3979476078821,1128.0618471765679,-2668.529111368854,-5001.1865523479555,5187.1811061873705,6446.6518474962268,2850.9349428763499,542.75649189417641,-542.75649189417641,-2850.9349428763499,11711.307916066196,0.0
628296.95196600363,3695566.251970998,-42500.0,2496.9112673986542,3075.2596814860603,-86.629941534359546,-2925.2344962467027,-3466.9915897153978,3907.6463596371882,5607.8174955601953,3611.4699554965368,-567.30214263981134,567.30214263981134,-3611.4699554965368,10119.896238287363,0.0
633296.95196600363,3695566.251970998,-42500.0,3002.3877831572195,2763.4905516055151,-1211.812021585559,-2791.5416008226525,-1969.6591711317972,2641.4363175745771,4828.3938075110427,3975.5676739746923,-1598.8236342948728,1598.8236342948728,-3975.5676739746923,8619.5167917987364,0.0
638296.95196600363,3695566.251970998,-42500.0,3244.4632316621128,2166.7934486108406,-2116.1951277491798,-2368.4445338986538,-659.35164493032471,1505.7537464185025,4201.8559111237191,3937.0232894546816,-2410.4706900123092,2410.4706900123092,-3937.0232894546816,7393.0335476076552,0.0
643296.95196600363,3695566.251970998,-42500.0,3206.531438063289,1427.6914112202428,-2741.4413127872722,-1777.377401532555,383.41431845163595,567.31006171357149,3759.4883258666023,3566.3796280926085,-2938.22891680768,2938.22891680768,-3566.3796280926085,6532.9160171002395,0.0
648296.95196600363,3695566.251970998,-42500.0,2928.9695270639904,670.35871609296737,-3090.1274322606255,-1128.7493113417731,1139.307356584882,-152.3072758608206,3474.2529478289152,2971.4464669547515,-3184.0326920882972,3184.0326920882972,-2971.4464669547515,6020.1098256813839,0.0
653296.95196600363,3695566.251970998,-42500.0,2481.5395390959529,-17.562780137934492,-3203.2971068022357,-505.41136054140264,1631.1273340387907,-663.69187720144066,3291.2758782886376,2262.9717464712312,-3191.9620523411422,3191.9620523411422,-2262.9717464712312,5751.4083458567229,0.0
658296.95196600363,3695566.251970998,-42500.0,1939.5157868079662,-587.17472787358633,-3138.5316502549808,41.000206717700259,1903.9024500987805,-995.75192929392119,3158.1245258207641,1533.3044400759293,-3024.3334725431623,3024.3334725431623,-1533.3044400759293,5604.5368040451031,0.0
663296.95196600363,3695566.251970998,-42500.0,1368.4405269395311,-1021.2945060651731,-2954.0548398613705,485.87466568251318,2009.3883318800736,-1184.5448941779487,3039.0302714714444,847.91407947336586,-2744.1213131787435,2744.1213131787435,-847.91407947336586,5487.8691204932629,0.0
668296.95196600363,3695566.251970998,-42500.0,817.34031115519451,-1324.300100279243,-2699.8285587571904,824.29832804902958,1996.3311713980549,-1265.8725354790588,2915.3163453786119,245.84341934398662,-2405.0231375511539,2405.0231375511539,-245.84341934398662,5351.5391389429169,0.0
673296.95196600363,3695566.251970998,-42500.0,317.95007517560794,-1512.672810158685,-2414.2039741499239,1063.6771762351334,1905.684481176165,-1271.2470454238135,2780.3202900293945,-255.28891181888685,-2047.7056796214906,2047.7056796214906,255.28891181888685,5177.059629948546,0.0
678296.95196600363,3695566.251970998,-42500.0,-112.79374291980076,-1607.8602434442705,-2124.0299475742904,1217.7790475292052,1769.2145456367912,-1226.2875937885515,2634.156620133193,-652.99307326859434,-1699.9447062348227,1699.9447062348227,652.99307326859434,4963.9099426697849,0.0
683296.95196600363,3695566.251970998,-42500.0,-469.06542563571554,-1631.6732242503476,-1846.4518404888236,1302.5728200930214,1610.0392090614666,-1150.6173976540799,2480.0266040386723,-954.15696393229973,-1378.6855788568887,1378.6855788568887,954.15696393229973,4719.8289323234194,0.0
688296.95196600363,3695566.251970998,-42500.0,-752.50946480004086,-1603.7581673259126,-1591.2195569896473,1333.6676115013893,1444.0328013356564,-1058.535188749074,2322.043524749125,-1170.5800069012689,-1092.6885712967855,1092.6885712967855,1170.5800069012689,4455.1364025145867,0.0
693296.95196600363,3695566.251970998,-42500.0,-969.22525358612245,-1540.5182718440087,-1362.8680261035058,1324.9589092959798,1281.4472551091649,-959.98522271972035,2164.1186483145584,-1315.8831926621431,-845.02814568836652,845.02814568836652,1315.8831926621431,4179.8488556882703,0.0
698296.95196600363,3695566.251970998,-42500.0,-1127.5312256576256,-1454.9208351579314,-1162.5030858583443,1288.0824265610136,1128.4106532774501,-861.55074158445518,2009.486045919218,-1403.580617404559,-635.13666319924801,635.13666319924801,1403.580617404559,3902.4422111140639,0.0
523296.95196600363,3700566.251970998,-42500.0,391.02318670697321,901.05299253711792,-1113.7536526748954,-189.40350640833614,688.28309007968448,-249.3890225175962,1337.7377377380785,1090.5644887110338,-852.64757654972891,852.64757654972891,-1090.5644887110338,2382.2919764449503,0.0
528296.95196600363,3700566.251970998,-42500.0,621.67505880660406,877.52480541254158,-1246.7848662003405,-95.944913032898498,728.54830267198622,-235.12119762606943,1450.6131802875354,1249.305056137204,-1030.5311342232292,1030.5311342232292,-1249.305056137204,2560.1692066513697,0.0
533296.95196600363,3700566.251970998,-42500.0,891.36959406591984,820.81398500662158,-1384.7965176539174,31.75952223310513,754.43263564180654,-202.77681775571597,1576.9435858589702,1411.6847957458085,-1228.8004939330049,1228.8004939330049,-1411.6847957458085,2760.3202994697558,0.0
538296.95196600363,3700566.251970998,-42500.0,1199.6385393722398,720.98614978902287,-1521.4520748993234,200.8500190646474,756.73115933288909,-144.78837664933391,1720.4797821210186,1569.4238014078126,-1443.7178090857594,1443.7178090857594,-1569.4238014078126,2991.9762396104011,0.0
543296.95196600363,3700566.251970998,-42500.0,1542.2930700119555,567.09846168000217,-1646.793159806283,418.38505841106672,722.90600694220211,-51.383191097728727,1886.5658248637392,1710.4324738343219,-1667.7410048650229,1667.7410048650229,-1710.4324738343219,3268.8565950484076,0.0
548296.95196600363,3700566.251970998,-42500.0,1909.7035821645295,348.20244161017212,-1746.1266095291592,690.25131768395374,636.46050166590851,89.655940796818314,2082.5485679443145,1818.146554236464,-1888.0181764824233,1888.0181764824233,-1818.146554236464,3610.014413541855,0.0
553296.95196600363,3700566.251970998,-42500.0,2284.8752641527262,55.209846086575972,-1798.9795037133849,1019.4064564542293,476.5848319589075,292.96006709197809,2318.0021109424729,1871.3194863022434,-2084.7694658032628,2084.7694658032628,-1871.3194863022434,4039.6801606636072,0.0
558296.95196600363,3700566.251970998,-42500.0,2641.6973736888071,-316.06464610434193,-1778.5196794992214,1403.293356149444,218.45383012989782,575.01649456759378,2604.5075907722544,1844.8052627682368,-2229.941631555901,2229.941631555901,-1844.8052627682368,4585.2877911333162,0.0
563296.95196600363,3700566.251970998,-42500.0,2944.1130229815876,-760.4800309064907,-1652.13791919747,1830.3952729553637,-165.2347902411156,952.71864137327066,2954.6772445873676,1712.0904827354223,-2286.8760831603367,2286.8760831603367,-1712.0904827354223,5273.1550147495591,0.0
568296.95196600363,3700566.251970998,-42500.0,3147.430100171222,-1257.9423305712592,-1384.2334954351456,2276.2316644775324,-700.69925800046371,1440.5769640005688,3380.1057399979663,1450.4568744255193,-2212.1859633711438,2212.1859633711438,-1450.4568744255193,6121.9543607164669,0.0
573296.95196600363,3700566.251970998,-42500.0,3203.3841622401665,-1767.5738044010741,-942.44942547212418,2699.7151279126638,-1406.6819658701988,2046.1849222581836,3887.8248053665047,1049.4033717775442,-1961.4089145118273,1961.4089145118273,-1049.4033717775442,7134.7102238419811,0.0
578296.95196600363,3700566.251970998,-42500.0,3070.4392529894085,-2224.0095617011084,-308.28258486615135,3041.7166060785166,-2284.8640061992801,2763.8747971574826,4474.636344266135,521.92668879501389,-1499.8689653678462,1499.8689653678462,-521.92668879501389,8290.3879830031055,0.0
583296.95196600363,3700566.251970998,-42500.0,2729.4354910926777,-2539.6584210634182,508.44433833398625,3228.6204715350923,-3308.0282598938775,3567.3474524036537,5119.643828429229,-83.920074994590834,-818.82433343884759,818.82433343884759,83.920074994590834,9536.5932726447918,0.0
588296.95196600363,3700566.251970998,-42500.0,2201.4592244798077,-2617.3257846854121,1454.7064920556231,3183.7875055076711,-4409.2652164699766,4403.5058113897794,5778.8215944690601,-678.82781505373896,46.212904134269024,-46.212904134269024,678.82781505373896,10785.943806535382,0.0
593296.95196600363,3700566.251970998,-42500.0,1560.2501558080178,-2375.3259979636796,2426.2469723999238,2847.8904477447672,-5478.2516944931986,5191.3252642204588,6386.9969593552778,-1139.2376802869589,1002.6690428715073,-1002.6690428715073,1139.2376802869589,11919.808854428635,0.0
598296.95196600363,3700566.251970998,-42500.0,928.48549312932369,-1780.7518217345394,3275.6467211411004,2204.2334684264188,-6371.6343885078568,5830.0351256862305,6868.075800028897,-1333.4477155640059,1904.471914133673,-1904.471914133673,1333.4477155640059,12802.810957764763,0.0
603296.95196600363,3700566.251970998,-42500.0,450.66057820597621,-877.81214702714283,3842.0193226688621,1298.9735542049398,-6940.9393256265848,6218.4175232031139,7150.6783200402324,-1163.9793139309643,2579.9195825278812,-2579.9195825278812,1163.9793139309643,13308.319837790224,0.0
608296.95196600363,3700566.251970998,-42500.0,247.23909219236475,206.26945477089197,3996.9081424169399,243.46559555177743,-7072.4472208897032,6281.2587628204838,7185.6097334348051,-610.50025838854845,2880.2018378400317,-2880.2018378400317,610.50025838854845,13349.450602692112,0.0
613296.95196600363,3700566.251970998,-42500.0,369.33637416865912,1288.1157701637669,3688.2619247179227,-808.21908656396079,-6723.7277605923255,5992.9137133515233,6960.1882695421746,249.64499544280466,2729.8953491085867,-2729.8953491085867,-249.64499544280466,12904.982772817955,0.0
618296.95196600363,3700566.251970998,-42500.0,777.87647531239315,2180.3857631782375,2960.6311091174803,-1700.3255020853478,-5939.3155556199754,5386.8200001550349,6504.140077937448,1258.2963424919501,2154.5032307537149,-2154.5032307537149,-1258.2963424919501,12029.487098227211,0.0
623296.95196600363,3700566.251970998,-42500.0,1358.8995865373038,2745.9756969656132,1940.8075290772504,-2317.3079213101787,-4837.432391644641,4546.0738350313177,5884.6248789021874,2225.0716110196327,1270.6504662468974,-1270.6504662468974,-2225.0716110196327,10843.210159222839,0.0
628296.95196600363,3700566.251970998,-42500.0,1965.7977568677541,2930.0574564443086,796.88421248379939,-2608.6667322328253,-3574.7352367028016,3579.8735096475089,5191.9706921776724,2984.1671437972027,245.26874834505384,-245.26874834505384,-2984.1671437972027,9506.0847308650209,0.0
633296.95196600363,3700566.251970998,-42500.0,2466.1366446183683,2760.0734858710084,-308.98125535037354,-2589.5395179478355,-2305.7241659979218,2596.6492825442342,4519.3345645600621,3434.2936408075939,-754.87961315730831,754.87961315730831,-3434.2936408075939,8185.398850473377,0.0
638296.95196600363,3700566.251970998,-42500.0,2773.3513667914513,2320.964968688148,-1255.2670175157655,-2322.4582531379638,-1152.1634870960359,1683.6984249068068,3939.9115136737073,3549.9741319585423,-1602.0717022550584,1602.0717022550584,-3549.9741319585423,7025.0856236259206,0.0
643296.95196600363,3700566.251970998,-42500.0,2856.0694931033731,1721.4253904028608,-1975.1073559580111,-1891.8947745893392,-189.35717367569293,897.65968332088357,3490.1118371900648,3368.2597495813666,-2224.7437874190941,2224.7437874190941,-3368.2597495813666,6119.5993865739838,0.0
648296.95196600363,3700566.251970998,-42500.0,2729.4299843773424,1065.0020902635645,-2452.2597753900613,-1381.831108707391,552.46567803735991,264.75464010017453,3168.2701227420762,2963.3131784239845,-2604.7554280758982,2604.7554280758982,-2963.3131784239845,5495.4586067564551,0.0
653296.95196600363,3700566.251970998,-42500.0,2437.7499733236214,432.70840542770554,-2706.9843340146504,-861.47495123433487,1077.7764285740479,-213.00389915045204,2947.0890855639177,2420.9039553738389,-2763.0732714739684,2763.0732714739684,-2420.9039553738389,5111.7801062524186,0.0
658296.95196600363,3700566.251970998,-42500.0,2036.8819983973015,-122.82594562723693,-2779.683724107862,-379.46149974285049,1412.637624220951,-549.5447976473273,2790.5322984006689,1819.8220647927558,-2742.447232464111,2742.447232464111,-1819.8220647927558,4888.2595247311447,0.0
663296.95196600363,3700566.251970998,-42500.0,1580.9646273521848,-575.16054251370952,-2717.2719488012049,35.736569369495577,1593.0380077898308,-767.08763940872541,2666.9711627582592,1221.9650626513362,-2592.6936558684956,2592.6936558684956,-1221.9650626513362,4743.9723350021877,0.0
668296.95196600363,3700566.251970998,-42500.0,1114.8071323683553,-917.91044140297652,-2564.1281960881161,372.05053352763798,1656.485737921249,-890.35949358512823,2554.8529252017111,669.58392657015452,-2360.8148726190602,2360.8148726190602,-669.58392657015452,4620.94779701682,0.0
673296.95196600363,3700566.251970998,-42500.0,671.05091072997777,-1157.801761677275,-2357.4064707474786,629.00283425797465,1636.9987998777915,-942.89565387417861,2442.4342764225321,187.03412018239942,-2085.8391261155798,2085.8391261155798,-187.03412018239942,4487.3547781386615,0.0
678296.95196600363,3700566.251970998,-42500.0,270.4952733573071,-1308.6700920958619,-2125.5376304657307,813.23037326473366,1562.7933549406498,-945.08843171417925,2325.0386852437946,-215.3965165900853,-1797.1744415988637,1797.1744415988637,215.3965165900853,4330.6917722362778,0.0
683296.95196600363,3700566.251970998,-42500.0,-75.939456015950185,-1387.059401634662,-1888.6603258169689,934.96677872765918,1455.7750988925641,-913.48013526257182,2202.1982673556872,-537.25732000066569,-1515.1056859130174,1515.1056859130174,537.25732000066569,4149.859909835126,0.0
688296.95196600363,3700566.251970998,-42500.0,-364.71547192310391,-1409.3985479185428,-1659.962539105938,1005.5940794435165,1332.0390685841808,-860.81520777215178,2075.5276029099541,-784.20682573240686,-1252.3124401105549,1252.3124401105549,784.20682573240686,3949.3117861509322,0.0
693296.95196600363,3700566.251970998,-42500.0,-597.29640896056878,-1390.444368138752,-1447.2809068475146,1036.1265136877712,1202.8205285665658,-796.48897683389509,1947.3931409057361,-965.13496269254665,-1015.6756845638383,1015.6756845638383,965.13496269254665,3735.4857090541218,0.0
698296.95196600363,3700566.251970998,-42500.0,-778.18146419581115,-1342.6097610125601,-1254.5972206775084,1036.3964045784999,1075.5472089638652,-727.14605205001976,1820.1792665068213,-1090.1523625895306,-807.96577179768565,807.96577179768565,1090.1523625895306,3514.889968448505,0.0
528296.95196600363,3705566.251970998,-42500.0,832.35438550987578,641.47048583711558,-1190.9624495320438,86.822141732206163,593.81927317550287,-127.79854273107017,1330.5236465756084,1212.6681642486992,-1085.8952651258214,1085.8952651258214,-1212.6681642486992,2321.1941904369564,0.0
533296.95196600363,3705566.251970998,-42500.0,1086.364461027707,548.97317936524723,-1293.9330924991616,224.9464786195021,589.13947553027526,-80.353516613664823,1451.4285300309675,1333.7111918770847,-1257.0127024133581,1257.0127024133581,-1333.7111918770847,2519.3421183799883,0.0
538296.95196600363,3705566.251970998,-42500.0,1366.7766623545281,413.14744191856988,-1385.1239433891967,399.33795609701235,556.46673598710095,-7.5139260854237486,1591.534990387654,1440.0095369003197,-1433.0448433365632,1433.0448433365632,-1440.0095369003197,2756.6593883145429,0.0
543296.95196600363,3705566.251970998,-42500.0,1666.6438679018106,225.81838470334958,-1453.0395770164355,614.19058652647948,484.05329383444445,98.889458542739362,1756.3942041110267,1519.2289063909122,-1604.0912575708942,1604.0912575708942,-1519.2289063909122,3047.4540259281921,0.0
548296.95196600363,3705566.251970998,-42500.0,1974.0005031921617,-19.956912064623143,-1482.0616838121989,871.84384607696995,357.24967038437325,248.57661838940419,1952.9178995235468,1555.7794983705144,-1755.3989598340672,1755.3989598340672,-1555.7794983705144,3409.2071027853058,0.0
553296.95196600363,3705566.251970998,-42500.0,2270.6931221557656,-327.94654453016261,-1452.0445929776497,1171.2162187707543,158.64219678814027,452.52552741127636,2189.1562321572133,1531.2758755745704,-1866.4606572408948,1866.4606572408948,-1531.2758755745704,3861.2613952198467,0.0
558296.95196600363,3705566.251970998,-42500.0,2531.7035880305689,-695.95170540421282,-1338.5966988472173,1505.7323836144449,-131.12313261724387,722.20643303956456,2473.6591730901237,1426.0202446503215,-1910.6905971964964,1910.6905971964964,-1426.0202446503215,4422.2757824612736,0.0
563296.95196600363,3705566.251970998,-42500.0,2725.6172407087311,-1112.221930696197,-1114.6343117443987,1860.8746939367174,-531.41272029103823,1068.1153934726747,2814.3118318779852,1222.0121413421398,-1856.3347546811779,1856.3347546811779,-1222.0121413421398,5106.5150058034433,0.0
568296.95196600363,3705566.251970998,-42500.0,2817.1174718474372,-1551.5293526118053,-753.93337441302629,2211.7797871485946,-1058.1206541936888,1497.3904612194985,3216.5478039596728,907.90127037352568,-1669.4942259320378,1669.4942259320378,-907.90127037352568,5919.2709605222472,0.0
573296.95196600363,3705566.251970998,-42500.0,2772.4136626337477,-1972.0042107557749,-237.32075450863732,2521.7298118363883,-1718.3269771001362,2010.4175508156363,3680.7155065749439,485.86786828348306,-1320.1584892373348,1320.1584892373348,-485.86786828348306,6851.8203250529459,0.0
578296.95196600363,3705566.251970998,-42500.0,2568.040947028062,-2314.65650222778,438.41477273448908,2742.8822957490233,-2503.3081651543471,2596.6610039257503,4198.2440416047211,-20.547779388773108,-791.66425160749213,791.66425160749213,20.547779388773108,7876.5376985242583,0.0
583296.95196600363,3705566.251970998,-42500.0,2202.1611169976622,-2508.1116860874276,1250.1141269919733,2820.8584329657397,-3381.1058293401675,3230.533129765276,4747.1338674313056,-560.15569251218199,-92.663450244338776,92.663450244338776,560.15569251218199,8943.2785051649298,0.0
588296.95196600363,3705566.251970998,-42500.0,1705.3109737745963,-2480.7092897677098,2139.5591704761387,2704.3817110622545,-4291.247732809351,3868.8801231418738,5289.6514861933501,-1053.4205220052193,731.55793437871421,-731.55793437871421,1053.4205220052193,9978.8423842802604,0.0
593296.95196600363,3705566.251970998,-42500.0,1145.2467339043937,-2179.8500137877918,3011.6171512538476,2359.4878167307497,-5145.3624894379382,4452.2277229097062,5775.3048369351081,-1401.7847602569573,1593.9818201297007,-1593.9818201297007,1401.7847602569573,10891.669397785752,0.0
598296.95196600363,3705566.251970998,-42500.0,619.99806302881336,-1594.2088180734961,3744.4242268482176,1784.9426262138377,-5837.1590021443644,4911.6567692327035,6148.769692823932,-1508.9736774003964,2373.2645221345324,-2373.2645221345324,1508.9736774003964,11583.231155782423,0.0
603296.95196600363,3705566.251970998,-42500.0,236.57124119861183,-769.92902989284369,4213.3166910631799,1022.6540582826799,-6262.4029518109101,5181.4366521814973,6360.4926285066686,-1310.4035471391439,2936.7319322454819,-2936.7319322454819,1310.4035471391439,11965.393247903137,0.0
608296.95196600363,3705566.251970998,-42500.0,80.006393787633129,189.14741774698726,4323.299926979561,156.46848028246592,-6344.4523886916913,5214.5956449343867,6377.6901251775744,-800.01030188405366,3174.6330480213396,-3174.6330480213396,800.01030188405366,11979.94086595782,0.0
613296.95196600363,3705566.251970998,-42500.0,184.84572398895099,1141.8306533578439,4038.1442604270151,-703.39330732925657,-6056.294090072889,4996.0103951454157,6192.9656298032387,-41.223132001103977,3033.3427899273001,-3033.3427899273001,41.223132001103977,11614.132502755223,0.0
618296.95196600363,3705566.251970998,-42500.0,522.49527386152658,1944.9859804418684,3393.135501627125,-1446.0887938478566,-5429.6315378621985,4547.5122218465758,5827.7528931725356,845.6260461934537,2532.8409544639344,-2532.8409544639344,-845.6260461934537,10906.515799409795,0.0
623296.95196600363,3705566.251970998,-42500.0,1010.8300047416189,2490.0197402589433,2485.355773271981,-1986.3502109370199,-4546.8065222868472,3922.6670562784398,5329.252382745366,1715.5881584195195,1760.3083851075785,-1760.3083851075785,-1715.5881584195195,9940.6814427355657,0.0
628296.95196600363,3705566.251970998,-42500.0,1541.0425957514019,2726.007629315242,1446.1470550853844,-2281.2271791637913,-3519.2104557992875,3193.4988091957384,4761.4444885635266,2437.3685248045108,843.37000668409735,-843.37000668409735,-2437.3685248045108,8829.2864512107317,0.0
633296.95196600363,3705566.251970998,-42500.0,2009.0837589008711,2662.6483909022145,407.89562775595715,-2332.7101056781712,-2461.2354346036113,2434.5379766741644,4191.7303521139629,2922.4329591439359,-84.578583194058865,84.578583194058865,-2922.4329591439359,7693.6847629956537,0.0
638296.95196600363,3705566.251970998,-42500.0,2339.425254053232,2356.0808013237183,-522.65443038718956,-2178.2447978579521,-1468.8584492632108,1709.5649482796932,3675.9931700292314,3136.526708057092,-913.52862765483064,913.52862765483064,-3136.526708057092,6644.2268622380725,0.0
643296.95196600363,3705566.251970998,-42500.0,2495.1757117094799,1886.5363452506192,-1278.00884289536,-1875.1934664148503,-607.88867629448157,1064.0483076844466,3247.9324233177731,3094.3180835900184,-1572.6994801727794,1572.6994801727794,-3094.3180835900184,5763.6650836712961,0.0
648296.95196600363,3705566.251970998,-42500.0,2475.5701290294442,1336.9249208073627,-1830.5952398015772,-1485.4763188544487,87.948655711990426,523.46418591947224,2917.1306401421689,2843.843220151381,-2032.5215054763607,2032.5215054763607,-2843.843220151381,5094.4004651891619,0.0
653296.95196600363,3705566.251970998,-42500.0,2305.8523753190188,777.86918086650724,-2184.8216462541873,-1064.3145118190316,612.03939807945869,95.856851863281165,2673.8664844439882,2448.5072495190047,-2297.0252847357629,2297.0252847357629,-2448.5072495190047,4632.8369385277401,0.0
658296.95196600363,3705566.251970998,-42500.0,2025.0312855955151,260.53527390984982,-2365.7403466619403,-654.22930170832819,976.77642384893466,-223.51684736566781,2497.1842049802744,1972.136629792908,-2392.1704639038944,2392.1704639038944,-1972.136629792908,4337.2737114419106,0.0
663296.95196600363,3705566.251970998,-42500.0,1675.3304820204437,-184.18561760656311,-2408.2767004458942,-283.53299564077162,1205.3192911842457,-447.23226461217013,2363.543957535182,1469.4107337268308,-2354.4675588034797,2354.4675588034797,-1469.4107337268308,4149.064646622408,0.0
668296.95196600363,3705566.251970998,-42500.0,1295.0180130138178,-542.63539549864345,-2349.0725329933261,32.252581305045894,1324.9170607531094,-591.49767369849064,2253.1092981832662,981.5454949068577,-2222.2379923248577,2222.2379923248577,-981.5454949068577,4014.5235362167386,0.0
673296.95196600363,3705566.251970998,-42500.0,914.68167450032388,-813.7789986216884,-2221.407624424296,287.58221983634337,1362.3482580224181,-673.12377055908087,2152.2712653937215,535.86167313893043,-2030.1250621603988,2030.1250621603988,-535.86167313893043,3896.0852481517982,0.0
678296.95196600363,3705566.251970998,-42500.0,556.17626145172335,-1004.5940847841258,-2052.7476768716128,483.79727757692336,1341.3213840946401,-707.64855945903173,2053.3082715295591,147.61687983501929,-1806.4344552931714,1806.4344552931714,-147.61687983501929,3772.7643544218795,0.0
683296.95196600363,3705566.251970998,-42500.0,233.25366234442782,-1126.2686072486574,-1864.1338039086268,626.3967711502404,1281.363453816233,-708.38987478927993,1952.8315667157972,-177.22782838816897,-1572.4826595549373,1572.4826595549373,177.22782838816897,3635.7906920269879,0.0
688296.95196600363,3705566.251970998,-42500.0,-46.980044916509655,-1191.4565407728858,-1670.6528200506925,722.93090186247809,1197.6793146584887,-686.14458894417055,1850.1475633227058,-439.17886882382533,-1343.1334533591858,1343.1334533591858,439.17886882382533,3483.8127218067139,0.0
693296.95196600363,3705566.251970998,-42500.0,-282.3769955157739,-1212.522418081096,-1482.4127850524467,781.54044759416786,1101.5537501012113,-649.28306023012192,1745.9937962935935,-642.77569095387116,-1127.89118281317,1127.89118281317,642.77569095387116,3319.2944728132643,0.0
528296.95196600363,3710566.251970998,-42500.0,978.07655140968689,416.83711569799476,-1099.8634817047439,228.22218864254378,460.62647948969226,-40.973339180287603,1230.7478511866625,1134.9848163147888,-1092.2511047296737,1092.2511047296737,-1134.9848163147888,2133.7335361734144,0.0
533296.95196600363,3710566.251970998,-42500.0,1208.5916113975122,298.06404087699246,-1165.9573720658609,368.18711202949135,430.4180719556453,15.741445881787557,1348.6748867014308,1215.6700609848044,-1231.2080901307372,1231.2080901307372,-1215.6700609848044,2336.2114972904346,0.0
538296.95196600363,3710566.251970998,-42500.0,1454.5019052233822,138.4289803742036,-1211.7636126838179,538.47586777341849,370.04945090866983,96.312727317930907,1486.9246899954637,1274.4354285335839,-1364.8558812693309,1364.8558812693309,-1274.4354285335839,2582.7355652128149,0.0
543296.95196600363,3710566.251970998,-42500.0,1707.30018733113,-67.367810845611388,-1225.3699033623359,740.91357173227448,269.12369121805074,207.27577948637156,1650.5641446143493,1299.7747597503808,-1482.1504947598796,1482.1504947598796,-1299.7747597503808,2886.053894238923,0.0
548296.95196600363,3710566.251970998,-42500.0,1954.2311499781629,-322.54037689227516,-1191.6270270649245,975.17054521869056,115.33320683453833,356.02324126209271,1845.3360468861024,1278.1716413556724,-1568.0129718285907,1568.0129718285907,-1278.1716413556724,3260.0355332514505,0.0
553296.95196600363,3710566.251970998,-42500.0,2177.7706504023222,-626.42815415734856,-1092.27865227903,1237.4911447113852,-105.0910558147477,550.39446677368483,2077.2353291200543,1194.9838642761242,-1603.0552741787687,1603.0552741787687,-1194.9838642761242,3718.1309037270926,0.0
558296.95196600363,3710566.251970998,-42500.0,2355.733712140363,-972.18966341162911,-906.84128161805609,1519.1752839630071,-406.31226503189401,797.887356362623,2351.7990169584909,1036.2319010054011,-1564.0128942699798,1564.0128942699798,-1036.2319010054011,4271.1939921901403,0.0
563296.95196600363,3710566.251970998,-42500.0,2462.5025886236085,-1344.1872002080049,-614.65807327628215,1805.0098655403642,-800.94543595438176,1104.3721654063838,2673.0938144487413,791.55668300112461,-1425.3835823546808,1425.3835823546808,-791.55668300112461,4924.7833230905262,0.0
568296.95196600363,3710566.251970998,-42500.0,2471.9175086419668,-1715.5988701658578,-198.541065961328,2072.0571397672056,-1297.0360257519781,1472.2347301088605,3042.36497836526,458.42550164038943,-1162.8177642855217,1162.8177642855217,-458.42550164038943,5676.1000155186039,0.0
573296.95196600363,3710566.251970998,-42500.0,2362.2163060689645,-2047.2323905666099,349.80554967197719,2289.4625630359424,-1893.9599039250011,1898.0086964799104,3456.1862973586367,47.227788742288908,-758.63814211902638,758.63814211902638,-47.227788742288908,6510.8186573683406,0.0
578296.95196600363,3710566.251970998,-42500.0,2122.8774923513906,-2288.9277257545255,1022.9621078285421,2420.1491513733818,-2577.6756609045792,2369.8011556490956,3903.9025654482198,-413.8317746477332,-209.31033059644784,209.31033059644784,413.8317746477332,7400.3075523246425,0.0
583296.95196600363,3710566.251970998,-42500.0,1762.2173902309071,-2385.0185212392357,1790.9340384200689,2425.226310910798,-3316.4207676467508,2865.164410150107,4364.9509657006292,-876.03972324207007,466.36488823578952,-466.36488823578952,876.03972324207007,8300.1019255603205,0.0
588296.95196600363,3710566.251970998,-42500.0,1313.2888004415211,-2284.6321771756488,2596.8006808267751,2271.4099186948692,-4058.6630108320369,3350.4168875592509,4808.1964675649406,-1272.3024758425461,1220.9482757158037,-1220.9482757158037,1272.3024758425461,9150.8138111544904,0.0
593296.95196600363,3710566.251970998,-42500.0,834.65371410868806,-1955.8270539876207,3358.173604505565,1940.5709615467615,-4735.4734264215704,3782.5442339173305,5194.9792814328512,-1526.3244210252901,1977.6365837446751,-1977.6365837446751,1526.3244210252901,9882.6363828341237,0.0
598296.95196600363,3710566.251970998,-42500.0,403.00184428686526,-1399.9668479926481,3977.128779715807,1438.9283115725559,-5268.8706995793245,4114.4107712858377,5485.0733804260008,-1568.9539181925875,2638.4837216809592,-2638.4837216809592,1568.9539181925875,10423.9221932157,0.0
603296.95196600363,3710566.251970998,-42500.0,97.161406871877858,-660.59177705792547,4358.5793352655601,802.18935874266799,-5585.7506882850566,4302.9256581004647,5643.8537969456702,-1358.1839695623748,3102.3213967926895,-3102.3213967926895,1358.1839695623748,10712.941545587988,0.0
608296.95196600363,3710566.251970998,-42500.0,-22.688131371687021,178.74401408760525,4432.8775709528672,93.254655833552718,-5634.226602999016,4318.3183545240445,5649.2794851022909,-895.8239269433011,3288.6036616153647,-3288.6036616153647,895.8239269433011,10710.286141286801,0.0
613296.95196600363,3710566.251970998,-42500.0,66.873092269101363,1009.5596724904065,4174.9902251246958,-608.47921578312992,-5397.0483160663262,4151.5724195836119,5497.1608684632356,-233.19227302854483,3159.2386518840385,-3159.2386518840385,233.19227302854483,10408.34935643788,0.0
618296.95196600363,3710566.251970998,-42500.0,344.75988655151184,1722.5565473365618,3612.5550472074274,-1223.5230007540472,-4896.9333210054265,3817.2275325615119,5203.2107612593691,538.13709435323358,2729.7415485581696,-2729.7415485581696,-538.13709435323358,9834.7191328977569,0.0
623296.95196600363,3710566.251970998,-42500.0,751.51064467602066,2232.3048689280481,2819.3187463761765,-1688.9189754741749,-4191.5747959230657,3350.3924026090513,4801.1053634859063,1307.944825462301,2065.0363252801299,-2065.0363252801299,-1307.944825462301,9048.2497088045475,0.0
628296.95196600363,3710566.251970998,-42500.0,1206.5201411443763,2493.8036128060462,1896.6786700889018,-1969.5075262864316,-3360.2806296597332,2799.0843432028273,4336.6675323366544,1973.2395674834104,1261.8916579614672,-1261.8916579614672,-1973.2395674834104,8129.0814094853249,0.0
633296.95196600363,3710566.251970998,-42500.0,1629.1247476011638,2506.3250953126221,950.58014996184829,-2060.8778268351316,-2487.2291715289025,2214.6436044198153,3858.9004393186633,2459.194543888379,425.26196901232936,-425.26196901232936,-2459.194543888379,7165.6214885034615,0.0
638296.95196600363,3710566.251970998,-42500.0,1955.9573320221255,2305.6063435048068,71.566631603222646,-1984.6095128196268,-1646.7103696214974,1643.180486298661,3410.0156790776709,2729.347060622672,-353.06801202950942,353.06801202950942,-2729.347060622672,6241.619629604681,0.0
643296.95196600363,3710566.251970998,-42500.0,2150.1235949275547,1949.3826902677338,-677.13214051917998,-1778.9266615903255,-893.81236235737401,1119.9928472184347,3018.6000588848237,2784.4746079803608,-1007.9034155681456,1007.9034155681456,-2784.4746079803608,5425.2024593444676,0.0
648296.95196600363,3710566.251970998,-42500.0,2201.838356473967,1502.053148786169,-1262.598687421133,-1488.4599806686945,-261.33843685260479,667.45475931759131,2698.0452198547673,2653.546015823586,-1504.7285289185788,1504.7285289185788,-2653.546015823586,4760.3366838936281,0.0
653296.95196600363,3710566.251970998,-42500.0,2123.0187789745942,1022.630362649172,-1678.43019473246,-1155.8611992328638,238.3180244099739,295.74846428822411,2448.3165219734233,2381.5283797416305,-1836.4091660245831,1836.4091660245831,-2381.5283797416305,4261.3855251514906,0.0
658296.95196600363,3710566.251970998,-42500.0,1939.2325480332615,557.66953318541664,-1937.399198092869,-816.50705803617143,608.47358066097274,5.3120853417493636,2259.4227416277913,2018.0276686412651,-2015.8590492621222,2015.8590492621222,-2018.0276686412651,3913.4361037613162,0.0
663296.95196600363,3710566.251970998,-42500.0,1681.814535764029,138.86850229927222,-2063.4764739437965,-496.25242477031628,862.63191206044758,-210.09863174394945,2116.1433966930363,1608.9745197080679,-2067.7849616262952,2067.7849616262952,-1608.9745197080679,3681.0092421171444,0.0
668296.95196600363,3710566.251970998,-42500.0,1381.7649075108577,-216.00790186051969,-2085.055249456002,-211.48056602979312,1019.4952454492003,-360.51826227907657,2002.7940494786631,1191.8897194428298,-2021.5520103474662,2021.5520103474662,-1191.8897194428298,3522.282247239295,0.0
673296.95196600363,3710566.251970998,-42500.0,1065.9330155559237,-500.41599868075235,-2030.1468004621224,29.486999458410647,1099.16751107039,-457.46488509797263,1906.4687173218163,794.20402428310399,-1906.0722250530384,1906.0722250530384,-794.20402428310399,3401.2136827445011,0.0
678296.95196600363,3710566.251970998,-42500.0,755.24955737697803,-715.7740442247698,-1923.5399761114895,224.4294004117711,1120.6685833672298,-512.33826009508925,1818.2278301080496,433.66337492776483,-1746.766265270076,1746.766265270076,-433.66337492776483,3292.8541718717893,0.0
683296.95196600363,3710566.251970998,-42500.0,464.45359753227308,-868.4345944944489,-1785.5302677574639,375.25957719745549,1100.574963511815,-535.45954179340606,1732.804304579683,119.87021862167319,-1564.2070569076882,1564.2070569076882,-119.87021862167319,3182.963428409576,0.0
688296.95196600363,3710566.251970998,-42500.0,202.72417828781724,-967.26345277507585,-1631.7214571064669,486.34912485044953,1052.4938057087497,-535.61238691298331,1647.6832869013979,-143.76790665170029,-1373.9223482347822,1373.9223482347822,143.76790665170029,3065.2120956570657,0.0
533296.95196600363,3715566.251970998,-42500.0,1270.4079856950814,76.557042040919683,-1013.6154205597511,468.00879432444327,284.62364612229584,88.337948433494176,1264.0124217238154,1073.756706556534,-1163.9914677774641,1163.9914677774641,-1073.756706556534,2198.1556716762848,0.0
538296.95196600363,3715566.251970998,-42500.0,1479.186593468515,-95.796657377323584,-1017.3347901219331,627.79639749423768,203.93202697919963,171.20738358440479,1400.2260895207774,1091.4092393849514,-1255.5908650802999,1255.5908650802999,-1091.4092393849514,2452.0830591853487,0.0
543296.95196600363,3715566.251970998,-42500.0,1685.0496738830509,-307.37618868556996,-983.09081875344418,811.90331777806784,83.996848885002862,280.66159713267336,1560.9991469910976,1072.7826179737617,-1322.5499171989081,1322.5499171989081,-1072.7826179737617,2761.5833559480143,0.0
548296.95196600363,3715566.251970998,-42500.0,1875.6019479314823,-558.28964457579127,-897.17264478194534,1018.1906486171692,-85.035129233484994,422.09384007762577,1750.650116199844,1006.9603513119182,-1350.6306933127144,1350.6306933127144,-1006.9603513119182,3136.4957997678212,0.0
553296.95196600363,3715566.251970998,-42500.0,2035.0753721808751,-844.59105319777802,-744.10064947965895,1241.3948376969875,-313.49430864001459,600.82890694744935,1973.1850837586114,883.19367057578427,-1322.7200960164819,1322.7200960164819,-883.19367057578427,3585.0914231488941,0.0
558296.95196600363,3715566.251970998,-42500.0,2144.9249328549554,-1156.5387007828167,-507.83303623674004,1472.1059327965008,-611.08352860295395,821.4149149732807,2231.6794465134917,692.69604246363781,-1219.7280430517435,1219.7280430517435,-692.69604246363781,4112.4389394911432,0.0
563296.95196600363,3715566.251970998,-42500.0,2185.3812081572296,-1476.8807255451086,-173.93533937614757,1695.8797535635963,-985.14085708958783,1086.5890856942292,2527.5011804586984,431.235285264597,-1022.5183443800026,1022.5183443800026,-431.235285264597,4718.5148337212649,0.0
568296.95196600363,3715566.251970998,-42500.0,2138.2355679729467,-1779.6686340441217,267.11343390688751,1892.817244657215,-1438.2227427989631,1395.9221063431135,2859.3493022816501,102.40451457091842,-715.14720829242185,715.14720829242185,-102.40451457091842,5396.1611213127362,0.0
573296.95196600363,3715566.251970998,-42500.0,1990.9174085869404,-2030.3529343502946,815.56071348629791,2038.0724829708106,-1965.1514464692245,1744.2534392712807,3221.9771607234838,-278.90744907912409,-289.45059074484476,289.45059074484476,278.90744907912409,6129.116282220828,0.0
578296.95196600363,3715566.251970998,-42500.0,1741.4670082821885,-2188.0596616342727,1457.5217161628382,2103.7944682758625,-2549.9814282875832,2120.1906753626395,3604.483763323854,-683.81273045152682,249.46349549752264,-249.46349549752264,683.81273045152682,6890.5353887704277,0.0
583296.95196600363,3715566.251970998,-42500.0,1403.3313161798551,-2210.7879240451084,2160.8325479853906,2062.8572648767326,-3163.7332033118687,2505.1346981384718,3988.7560171147729,-1068.9205965816896,877.98779749093831,-877.98779749093831,1068.9205965816896,7642.6222434404244,0.0
588296.95196600363,3715566.251970998,-42500.0,1008.2087218081923,-2063.5886085639077,2873.4419345225556,1894.2799191594011,-3764.0691899766966,2873.429450614472,4349.6397035867931,-1379.5944810675533,1550.9869754239899,-1550.9869754239899,1379.5944810675533,8338.0936265995406,0.0
593296.95196600363,3715566.251970998,-42500.0,604.87820825473477,-1728.5349978763725,3526.3307794091834,1589.4812152339457,-4298.0914401369673,3194.2001494013375,4657.6878656115177,-1557.9247463420379,2203.2533393128078,-2203.2533393128078,1557.9247463420379,8924.0413153811623,0.0
598296.95196600363,3715566.251970998,-42500.0,252.57935887886566,-1213.8095271418115,4042.168024554825,1157.6721284963357,-4708.8538435866049,3435.1081351786784,4883.5604371689878,-1554.8199876326375,2757.1089370973609,-2757.1089370973609,1554.8199876326375,9348.2364767241634,0.0
603296.95196600363,3715566.251970998,-42500.0,9.3078876615475448,-558.30836040523366,4349.0206339467659,628.23106998955757,-4944.9478054510955,3567.6129759578284,5002.8697017396953,-1343.4595403341918,3135.9213744303215,-3135.9213744303215,1343.4595403341918,9567.0943226518539,0.0
608296.95196600363,3715566.251970998,-42500.0,-82.158087704442735,171.26761100411454,4395.9769452441024,48.340341407748866,-4971.0048614666612,3572.5748833241869,5000.6586093438291,-929.63685768433652,3280.6073158600507,-3280.6073158600507,929.63685768433652,9553.6409214992145,0.0
613296.95196600363,3715566.251970998,-42500.0,-5.871071643378599,891.47814544805158,4165.8100673600611,-524.3622553016877,-4775.9697246030546,3444.5694134631462,4874.6784750767156,-354.57441608545423,3164.0535129470159,-3164.0535129470159,354.57441608545423,9303.3893383310078,0.0
618296.95196600363,3715566.251970998,-42500.0,222.48378100858514,1518.6789726244658,3680.0916163847405,-1032.3920630643247,-4376.2684618550084,3193.456946017367,4636.6373046482558,311.83509612947432,2798.2917551546261,-2798.2917551546261,-311.83509612947432,8836.3515054812306,0.0
623296.95196600363,3715566.251970998,-42500.0,559.57034460675243,1985.8575378633857,2994.7376858165844,-1429.1283593315359,-3812.6655027817101,2842.6197169211418,4310.9346468906842,985.63771397407004,2231.7177607472204,-2231.7177607472204,-985.63771397407004,8194.5174317344099,0.0
628296.95196600363,3715566.251970998,-42500.0,945.59421894731008,2254.4579561056262,2187.5968830088877,-1686.4182451093166,-3141.8804073271258,2424.4367376492487,3930.7823267249496,1586.4243539759213,1537.488281548583,-1537.488281548583,-1586.4243539759213,7435.5106392497537,0.0
633296.95196600363,3715566.251970998,-42500.0,1318.486254733971,2318.1427969748952,1342.4406435183305,-1797.211438967146,-2425.7580211680215,1974.44094309976,3532.0494881160553,2052.296207876685,797.38914233596017,-797.38914233596017,-2052.296207876685,6624.145850949154,0.0
638296.95196600363,3715566.251970998,-42500.0,1626.3895932014887,2198.6980345834245,534.30525684500992,-1773.2975730283699,-1721.1736790700872,1525.8077317638495,3146.5096641943333,2348.2775360102241,86.41206975132377,-86.41206975132377,-2348.2775360102241,5823.8140014175196,0.0
643296.95196600363,3715566.251970998,-42500.0,1835.3026673028874,1936.8222100447565,-180.32536812586918,-1639.7425623111747,-1072.9726550185353,1105.3881688984552,2797.436961503061,2467.2297489025177,-538.03738014328269,538.03738014328269,-2467.2297489025177,5089.0288084193908,0.0
648296.95196600363,3715566.251970998,-42500.0,1931.0811561879871,1581.4051699307377,-767.35931095739681,-1428.1823133129485,-510.78678701560142,731.76873777655692,2498.5005272234603,2424.8919256861273,-1040.8042131807042,1040.8042131807042,-2424.8919256861273,4459.5973572837484,0.0
653296.95196600363,3715566.251970998,-42500.0,1916.9178072630302,1180.2490507259899,-1213.8437424006252,-1170.7992630878568,-49.280416555178086,415.17355760618887,2254.3338954518558,2251.896433527817,-1408.2261783756112,1408.2261783756112,-2251.896433527817,3956.4962283443629,0.0
658296.95196600363,3715566.251970998,-42500.0,1808.3102443640864,773.80759286575005,-1523.5416248242122,-896.02547116077233,309.32551193501132,158.64801563223372,2061.8649726500744,1985.4908636920441,-1643.8712723164194,1643.8712723164194,-1985.4908636920441,3580.2455908815573,0.0
663296.95196600363,3715566.251970998,-42500.0,1627.4516602000865,392.17990919107262,-1711.3327444127142,-626.21704808673621,571.71902199014789,-40.128642617581299,1912.5822500968754,1662.7822647693888,-1762.8621607290788,1762.8621607290788,-1662.7822647693888,3313.4665829192959,0.0
668296.95196600363,3715566.251970998,-42500.0,1398.3824631500133,54.742459477533451,-1797.9228429448706,-377.01166099423335,749.94532197048727,-186.93204103276858,1795.5050527996573,1316.2684236427633,-1786.3955691932686,1786.3955691932686,-1316.2684236427633,3128.1141397679371,0.0
673296.95196600363,3715566.251970998,-42500.0,1143.5299954405646,-228.53199005144313,-1805.6722492042948,-157.83826801627114,858.43531242449069,-289.32522628869327,1699.9420554316966,971.60349043619271,-1737.3677540014742,1737.3677540014742,-971.60349043619271,2994.5351984763488,0.0
678296.95196600363,3715566.251970998,-42500.0,881.70389858582507,-454.96366787173429,-1755.7758867782959,26.956712902804739,911.84340055610357,-355.3874228580421,1617.2266887125868,647.10151609842637,-1637.3968105737924,1637.3968105737924,-647.10151609842637,2888.15203453924,0.0
683296.95196600363,3715566.251970998,-42500.0,627.30090733448856,-626.92403060742868,-1666.6769542637228,176.78655223216509,923.68342035856722,-392.86030673698775,1541.2906725607761,354.36121219261304,-1505.1444733027158,1505.1444733027158,-354.36121219261304,2792.0012447351942,0.0
538296.95196600363,3720566.251970998,-42500.0,1456.4755182197671,-287.22195098393138,-815.42129423161123,677.05536219558996,61.3149282965447,222.04845968361161,1325.7595340754474,905.30332726271763,-1120.2458574675393,1120.2458574675393,-905.30332726271763,2348.3641516790831,0.0
543296.95196600363,3720566.251970998,-42500.0,1618.5113755329812,-494.73356904433325,-741.55745786090506,839.92695736665223,-69.395905696769518,325.95604577558788,1481.4270409057035,853.01361698539313,-1142.8960467234178,1142.8960467234178,-853.01361698539313,2656.175408172041,0.0
548296.95196600363,3720566.251970998,-42500.0,1759.2617948387951,-731.70973372359401,-615.11886094117892,1017.0234372231857,-244.13747247948351,456.2734293378299,1662.7230297385115,756.10322157756354,-1122.9248819423774,1122.9248819423774,-756.10322157756354,3021.5374471762752,0.0
553296.95196600363,3720566.251970998,-42500.0,1865.2759004901502,-992.05286903967851,-423.72586528832801,1202.4603170687712,-470.25884344183743,616.41767305854285,1872.0124941012837,607.39218889927361,-1046.0438711732356,1046.0438711732356,-607.39218889927361,3448.7978390960229,0.0
558296.95196600363,3720566.251970998,-42500.0,1921.783592841266,-1264.5996593906484,-155.65453516667449,1387.0572998873192,-753.89718777620669,808.86227129170402,2110.5754712644625,402.36735851827495,-897.45252705454607,897.45252705454607,-402.36735851827495,3939.1396930188034,0.0
563296.95196600363,3720566.251970998,-42500.0,1914.27621920977,-1532.1389752560376,198.1326478594159,1557.9266974959833,-1098.5396405662752,1034.3537185911105,2378.045931114239,141.2773183160503,-663.75628978636905,663.75628978636905,-141.2773183160503,4489.2608913220265,0.0
568296.95196600363,3720566.251970998,-42500.0,1830.9263813825094,-1771.0633250208782,641.22112416910034,1698.5222475519772,-1503.2012789316939,1290.9690248017889,2671.7468669951368,-168.50024060450733,-335.77591003378524,335.77591003378524,168.50024060450733,5090.0229935734524,0.0
573296.95196600363,3720566.251970998,-42500.0,1665.7353835560111,-1952.1823492261576,1168.4584796516558,1789.4420995959408,-1960.4059582428201,1573.1280259378264,2985.807801967062,-510.28585267215243,87.889668956403682,-87.889668956403682,510.28585267215243,5725.2720775887938,0.0
578296.95196600363,3720566.251970998,-42500.0,1421.9577553742456,-2043.2263663289036,1762.7095728713018,1810.2511257995063,-2454.3627998170655,1870.7729705974755,3310.0101883130019,-856.87719313233845,597.0535027498762,-597.0535027498762,856.87719313233845,6371.1578166902545,0.0
583296.95196600363,3720566.251970998,-42500.0,1114.9363745105754,-2013.3307804015869,2392.6039195787644,1742.4211748997625,-2959.9390220057703,2169.0161891745115,3628.913980543784,-1171.2280729200929,1166.8431436872229,-1166.8431436872229,1171.2280729200929,6996.3611420814286,0.0
588296.95196600363,3720566.251970998,-42500.0,773.15227096368744,-1839.2459089008878,3012.5046722535512,1573.1594452946931,-3443.1539074331545,2448.6001047982923,3922.4307143369779,-1409.8841556452185,1756.6492894755565,-1756.6492894755565,1409.8841556452185,7563.6500079744928,0.0
593296.95196600363,3720566.251970998,-42500.0,436.30500692818225,-1512.1988175165602,3565.8234821141727,1299.4359928387523,-3863.7972085128563,2687.4314388762705,4168.1599026559052,-1529.4609846577914,2312.4622193295004,-2312.4622193295004,1529.4609846577914,8033.0030770235526,0.0
598296.95196600363,3720566.251970998,-42500.0,149.83097213231582,-1043.5266143838703,3992.1203092164315,931.09944226282312,-4180.3223149610576,2863.2167161685556,4344.6008585094223,-1495.3926132775064,2773.3227846005543,-2773.3227846005543,1495.3926132775064,8366.1820625609107,0.0
603296.95196600363,3720566.251970998,-42500.0,-43.546465295898159,-466.86659604687549,4237.1667633597535,491.83806573240281,-4356.405436433919,2956.8578456488412,4434.4311045762524,-1290.9321387281302,3081.3252673822858,-3081.3252673822858,1290.9321387281302,8532.1435544617398,0.0
608296.95196600363,3720566.251970998,-42500.0,-113.24603363764821,164.73662191570492,4263.7318495768759,17.117487847266588,-4367.7469380435969,2955.8858984298831,4427.4107176423522,-923.57213762666129,3193.033911734512,-3193.033911734512,923.57213762666129,8512.2216284937876,0.0
613296.95196600363,3720566.251970998,-42500.0,-48.357569426981932,786.91204040027719,4059.990240466615,-450.88335636842442,-4207.2395445512338,2857.0153900797168,4322.4593310418368,-426.31561691408137,3089.0770581757424,-3089.0770581757424,426.31561691408137,8303.8306800304326,0.0
618296.95196600363,3720566.251970998,-42500.0,139.34587338204463,1335.4029291901552,3642.7902677006555,-870.2353058554653,-3886.876765939619,2667.0408082868785,4128.4351837979057,147.2554141247324,2778.8084495285525,-2778.8084495285525,-147.2554141247324,7921.6784869831063,0.0
623296.95196600363,3720566.251970998,-42500.0,418.04150179222216,1757.6562174923413,3054.6018052994241,-1206.2631128243797,-3435.7347967347196,2401.7660659527182,3863.2838301899683,732.96609995017093,2298.4391042933757,-2298.4391042933757,-732.96609995017093,7396.114043925907,0.0
628296.95196600363,3720566.251970998,-42500.0,743.220139684331,2021.2756480930686,2355.1125421305887,-1436.7069481873095,-2894.6333361151169,2083.2722768347594,3551.3708063864419,1268.1298940701142,1703.3021684803855,-1703.3021684803855,-1268.1298940701142,6769.0228055361731,0.0
633296.95196600363,3720566.251970998,-42500.0,1067.2824639979131,2117.3139727515518,1610.1216983591271,-1553.8679643031044,-2309.0697049970163,1736.3033816046541,3219.1590516748001,1702.2288581840958,1056.8177714607859,-1056.8177714607859,-1702.2288581840958,6088.2734544833211,0.0
638296.95196600363,3720566.251970998,-42500.0,1348.4556733447739,2058.2810926541588,880.87366280892047,-1563.6325483485546,-1722.3268828622647,1384.7024884578109,2890.5766013858074,2003.5814590916846,419.43446683912612,-419.43446683912612,-2003.5814590916846,5401.9004256887747,0.0
643296.95196600363,3720566.251970998,-42500.0,1556.8659090324586,1872.3549415975917,216.26214707657732,-1482.1877235525424,-1170.2584137390029,1048.6506467586198,2584.1778954350302,2161.0772387688235,-159.77573753586648,159.77573753586648,-2161.0772387688235,4752.9444134342411,0.0
648296.95196600363,3720566.251970998,-42500.0,1676.9396123902366,1596.0080355427169,-351.03095530993414,-1331.6761992234685,-678.45787121743649,743.08041549187465,2312.4139979158222,2181.6820472056415,-647.56724957416361,647.56724957416361,-2181.6820472056415,4175.3614638423878,0.0
653296.95196600363,3720566.251970998,-42500.0,1706.5474013957673,1267.078541930066,-804.70974011871101,-1135.9729389668548,-261.74428583732202,477.26339767025104,2081.7353886628071,2085.3677321485611,-1027.1159244609771,1027.1159244609771,-2085.3677321485611,3691.0433784063016,0.0
658296.95196600363,3720566.251970998,-42500.0,1654.0248182349997,919.57101784176223,-1142.4282852903425,-917.36987444318606,74.63186653583945,255.30062477493638,1892.9820815433902,1899.2670275202806,-1295.7924730741595,1295.7924730741595,-1899.2670275202806,3308.074590224478,0.0
663296.95196600363,3720566.251970998,-42500.0,1534.3422701844208,580.63064109317963,-1372.0482340364028,-694.48837177691621,332.82617795097912,77.150032455246233,1742.3367321260896,1652.4364736174068,-1461.4523807634321,1461.4523807634321,-1652.4364736174068,3020.9275416798769,0.0
668296.95196600363,3720566.251970998,-42500.0,1365.4398393789597,269.49166749127869,-1507.7047495737281,-481.3640901605433,519.97052346979126,-60.154086313720171,1622.9516701742821,1371.982520187189,-1538.4252613494964,1538.4252613494964,-1371.982520187189,2813.4427078962412,0.0
673296.95196600363,3720566.251970998,-42500.0,1165.3187111099965,-2.1364112840777096,-1566.3983383458574,-287.43248023989969,645.95198725497346,-161.34130365835733,1526.8679137169993,1080.7285686832217,-1543.9886455857752,1543.9886455857752,-1080.7285686832217,2664.1833544756169,0.0
678296.95196600363,3720566.251970998,-42500.0,950.10158457106365,-228.84669697254526,-1565.4462591294548,-118.08463829060551,721.65045870872098,-231.94713151689047,1446.6421484157745,796.23384304169326,-1495.7085465259204,1495.7085465259204,-796.23384304169326,2552.0584933455993,0.0
543296.95196600363,3725566.251970998,-42500.0,1523.2170482852894,-633.55661293080527,-511.93074569112713,836.28546372918663,-191.87809371090574,349.518736959264,1407.57069626718,649.98216791845334,-957.06371290721108,957.06371290721108,-649.98216791845334,2558.0262752140193,0.0
548296.95196600363,3725566.251970998,-42500.0,1621.8102366697174,-850.48401615830937,-356.29492462098096,985.19058192292766,-365.10749815992602,466.84598869993636,1578.0151125649058,533.35323974104142,-899.27315158861018,899.27315158861018,-533.35323974104142,2905.8359885215596,0.0
553296.95196600363,3725566.251970998,-42500.0,1684.9703382126891,-1080.6372299112925,-140.39816220155848,1136.1854059636651,-581.67102692412823,607.59454715637003,1771.5936382182792,372.24083686575943,-786.68800625452752,786.68800625452752,-372.24083686575943,3304.1196670565855,0.0
558296.95196600363,3725566.251970998,-42500.0,1701.4243068930946,-1312.5457561198525,143.67178298224121,1280.8661236616081,-845.01635175886406,772.85120058489622,1988.379348001157,165.38155171137277,-608.45299806398452,608.45299806398452,-165.38155171137277,3751.6256356009435,0.0
563296.95196600363,3725566.251970998,-42500.0,1661.0531135303697,-1530.1000066176161,500.62729992923585,1408.2133203478234,-1155.9922562797883,962.18733793007596,2226.992341090177,-83.982145974463066,-355.94959164800298,355.94959164800298,83.982145974463066,4243.3225427998768,0.0
568296.95196600363,3725566.251970998,-42500.0,1556.8552629908831,-1712.7267402111759,929.80271405615338,1504.8830838694898,-1511.5376664691817,1173.0292700673392,2484.1458852781871,-366.49834188279686,-25.076998696502926,25.076998696502926,366.49834188279686,4769.5277045507682,0.0
573296.95196600363,3725566.251970998,-42500.0,1387.2564633642212,-1836.5235141788621,1422.8074136742662,1556.0681972849718,-1903.3637647909325,1400.0617722298075,2754.0245956899039,-665.48064248994751,381.12209498529796,-381.12209498529796,665.48064248994751,5315.2473156629294,0.0
578296.95196600363,3725566.251970998,-42500.0,1158.3571172241641,-1876.6272400555158,1961.494884339749,1547.0488376471676,-2316.9334943143417,1634.8163119951373,3027.4859360654273,-956.60795530611006,849.9547573896258,-849.9547573896258,956.60795530611006,5859.9653093868801,0.0
583296.95196600363,3725566.251970998,-42500.0,885.4751410278551,-1810.862818944066,2516.9434698592054,1465.4121250517107,-2731.1415748026589,1865.6321758503873,3291.6120613710104,-1209.1382258329588,1357.4126651312247,-1357.4126651312247,1209.1382258329588,6378.1404031263019,0.0
588296.95196600363,3725566.251970998,-42500.0,593.21443749041532,-1624.3171268846022,3050.2319828769523,1303.696270354239,-3119.1206394181349,2078.1784584919642,3530.4553315649346,-1389.0599906745306,1868.2218176793986,-1868.2218176793986,1389.0599906745306,6840.6360581417484,0.0
593296.95196600363,3725566.251970998,-42500.0,313.41571034929115,-1313.9784076973456,3515.6052820672553,1061.9519494158565,-3450.4597751580495,2256.6486286038212,3726.9594877506074,-1464.1506563969933,2338.3545898252619,-2338.3545898252619,1464.1506563969933,7217.1624353199795,0.0
598296.95196600363,3725566.251970998,-42500.0,80.811247255803409,-892.16298454383855,3866.0936780716893,749.51182827234595,-3694.8031337995362,2385.5854346635401,3865.2835005161978,-1410.2237588580435,2720.250142228484,-2720.250142228484,1410.2237588580435,7479.5725014954951,0.0
603296.95196600363,3725566.251970998,-42500.0,-73.033108425498497,-387.38173441047127,4060.8347061220029,385.25467996678179,-3826.3345459198122,2452.0823283138743,3933.0217488074877,-1217.1413609819911,2970.1411791441833,-2970.1411791441833,1217.1413609819911,7605.5600153262176,0.0
608296.95196600363,3725566.251970998,-42500.0,-126.11686858044578,158.2280683752131,4072.5348653554483,-4.0683778682793825,-3828.2210887408633,2447.9171629157222,3923.1081744791904,-892.80389254255101,3055.9720611090852,-3055.9720611090852,892.80389254255101,7582.0738100755334,0.0
613296.95196600363,3725566.251970998,-42500.0,-70.941438607837995,694.80258040277511,3893.0940935235699,-387.34219767749414,-3695.8851088858796,2371.0922770231359,3835.1575523320166,-463.61158492762684,2963.8368412946802,-2963.8368412946802,463.61158492762684,7407.6887066490426,0.0
618296.95196600363,3725566.251970998,-42500.0,83.578870527379934,1172.7422465189004,3535.7100042845577,-733.72242903784434,-3438.1684544181085,2226.3550455254517,3675.965605808175,29.140772572669448,2701.0390570388654,-2701.0390570388654,-29.140772572669448,7093.3476339601903,0.0
623296.95196600363,3725566.251970998,-42500.0,313.88831836100724,1550.7699972692276,3032.7629893711219,-1017.2812948048768,-3076.0127100977661,2024.5320931646595,3458.9213775574931,536.16836848170021,2294.8181627253884,-2294.8181627253884,-536.16836848170021,6661.258484709917,0.0
628296.95196600363,3725566.251970998,-42500.0,586.69741839973813,1801.9949054279637,2430.0760197124278,-1220.5369611952608,-2639.0073421773363,1780.846589889501,3202.1180553355093,1008.5634505058212,1787.1384692043471,-1787.1384692043471,-1008.5634505058212,6142.1930510805087,0.0
633296.95196600363,3725566.251970998,-42500.0,865.52416785025673,1916.6366656632013,1779.176824650385,-1336.123052788178,-2160.7309492203672,1512.6480692403436,2925.2450930940099,1405.4303350826151,1227.0963122862461,-1227.0963122862461,-1405.4303350826151,5571.7790260445781,0.0
638296.95196600363,3725566.251970998,-42500.0,1117.0441918930835,1901.1912986845057,1129.5726732584499,-1366.4576445886407,-1674.0407593751133,1237.0971932992138,2646.373931289349,1699.048753205429,663.01321750688157,-663.01321750688157,-1699.048753205429,4986.5326171894067,0.0
643296.95196600363,3725566.251970998,-42500.0,1315.783686797236,1774.8323891496759,522.69836025921518,-1321.8188134923437,-1207.2732315392145,969.25984920950191,2380.1343216508658,1876.7983576720048,136.01559813311883,-136.01559813311883,-1876.7983576720048,4420.2342762465169,0.0
648296.95196600363,3725566.251970998,-42500.0,1446.4449256565658,1564.3986270869518,-11.572456648827556,-1217.5501884421685,-781.90910565826425,720.88670810740405,2137.2626724633506,1940.0911053868463,-323.8585582635543,323.8585582635543,-1940.0911053868463,3901.0041075410068,0.0
653296.95196600363,3725566.251970998,-42500.0,1503.941363001876,1299.3266835215711,-455.81127279888062,-1071.1446748064573,-411.7725625081456,499.92814317020623,1924.5292642321638,1901.2475422181062,-698.87354286802361,698.87354286802361,-1901.2475422181062,3449.1343188569226,0.0
658296.95196600363,3725566.251970998,-42500.0,1491.7522517954812,1007.5104656527445,-803.87668631819224,-899.76897432140618,-103.48247401977237,310.66753633066912,1744.7363650248931,1779.4729864219064,-982.64222129527093,982.64222129527093,-1779.4729864219064,3075.6546586647373,0.0
663296.95196600363,3725566.251970998,-42500.0,1419.4040558102506,712.55863405218247,-1058.5346761421631,-718.52715208280915,142.29035172934445,154.2731463809011,1597.0344099959166,1596.9350800616662,-1177.8280633555878,1177.8280633555878,-1596.9350800616662,2781.8379812907351,0.0
668296.95196600363,3725566.251970998,-42500.0,1299.8028377461378,432.46487347053318,-1228.6488867832229,-539.50857196121979,329.2180853965732,29.551378054192874,1477.7201357034837,1375.5837783597394,-1293.3269628738221,1293.3269628738221,-1375.5837783597394,2560.1322507937152,0.0
548296.95196600363,3730566.251970998,-42500.0,1475.5520185085854,-923.57170163030059,-126.84337840915801,933.46313298560915,-452.60019745578984,460.67376278119593,1494.8620667726116,341.87787854970156,-689.30171476564919,689.30171476564919,-341.87787854970156,2785.4923763851543,0.0
553296.95196600363,3730566.251970998,-42500.0,1505.5645343074705,-1122.3644965838382,101.98805235270181,1054.2734416693186,-655.02781259772701,582.60046923900404,1671.5452364855391,177.81706812884184,-552.65607709165715,552.65607709165715,-177.81706812884184,3150.7470408647441,0.0
558296.95196600363,3730566.251970998,-42500.0,1493.187439414239,-1315.2640201351719,389.73527184868664,1165.498673725602,-894.79442641318337,722.85399270638288,1866.2350701195919,-22.153900056640339,-357.78840861494012,357.78840861494012,22.153900056640339,3553.5735807323586,0.0
563296.95196600363,3730566.251970998,-42500.0,1431.7678389821999,-1487.8419325930238,737.8630414382136,1258.0016102201391,-1171.0594110472935,880.38113572000907,2077.0349959892528,-253.00198931782836,-99.816459477521107,99.816459477521107,253.00198931782836,3988.2059527557558,0.0
568296.95196600363,3730566.251970998,-42500.0,1317.7759678294826,-1622.7251020082697,1142.8921551319602,1321.2628327028319,-1479.7128201611431,1052.4601911253899,2300.5182561492115,-504.68177233093274,221.77642995413166,-221.77642995413166,504.68177233093274,4445.2383686895373,0.0
573296.95196600363,3730566.251970998,-42500.0,1152.4311060470714,-1700.8017936516405,1594.8040481355602,1344.1792445524677,-1812.5558328577838,1234.3586025587215,2531.2724596262401,-761.55490564876982,601.29027724231423,-601.29027724231423,761.55490564876982,4911.3005524921864,0.0
578296.95196600363,3730566.251970998,-42500.0,943.10612256781349,-1703.2879861649321,2075.8665750818582,1316.3101406062297,-2156.7867175942324,1419.1551880719273,2761.3307110851656,-1002.6108541290764,1025.2479729491436,-1025.2479729491436,1002.6108541290764,5369.105445648308,0.0
583296.95196600363,3730566.251970998,-42500.0,704.05960835595261,-1614.5835982161668,2560.3653996389912,1229.5049171609337,-2495.0535624756403,1597.8417166045019,2979.9958183551735,-1202.8338818760146,1471.6408787484299,-1471.6408787484299,1202.8338818760146,5798.0297682756955,0.0
588296.95196600363,3730566.251970998,-42500.0,456.02055065540554,-1425.5716398867678,3015.7167724435803,1079.7022314583919,-2806.3124838258527,1759.801854787296,3174.6399192735462,-1335.8916835897558,1910.5278423454265,-1910.5278423454265,1335.8916835897558,6175.338845475897,0.0
593296.95196600363,3730566.251970998,-42500.0,224.29604968153876,-1136.7122542185841,3405.2501578386195,868.5429101817806,-3067.6121581999646,1893.707784177117,3332.2496427175265,-1377.989012772161,2306.3810480920524,-2306.3810480920524,1377.989012772161,6478.0599047080077,0.0
598296.95196600363,3730566.251970998,-42500.0,35.414637092058683,-760.08227057188208,3692.5582785356405,604.35151456920426,-3256.7063113590707,1988.7744867500505,3441.0889842279048,-1312.2946420212634,2622.1915915704594,-2622.1915915704594,1312.2946420212634,6685.3498182007434,0.0
603296.95196600363,3730566.251970998,-42500.0,-87.206797852818653,-319.54557014324575,3846.8043720962305,302.07788364225797,-3355.1281032281613,2036.1966518936738,3492.2043678475989,-1132.9609850477286,2824.8106560524252,-2824.8106560524252,1132.9609850477286,6781.041824884599,0.0
608296.95196600363,3730566.251970998,-42500.0,-127.63519854753541,151.40207011352018,3847.9062673981143,-18.01181066344914,-3351.1204217001355,2030.4917223263899,3480.6863282704667,-847.60523407541564,2890.4663652099944,-2890.4663652099944,847.60523407541564,6755.9221406131746,0.0
613296.95196600363,3730566.251970998,-42500.0,-80.694600660641498,613.9499028328363,3690.330551505835,-332.78136691632415,-3241.7351824436641,1970.4444729506204,3406.5537475258325,-477.3626083490085,2809.1243692067119,-2809.1243692067119,477.3626083490085,6609.2722673326225,0.0
618296.95196600363,3730566.251970998,-42500.0,46.80820795516042,1029.6073973103898,3384.4576997667095,-619.35037617731371,-3033.5512436673243,1859.4129711931014,3275.0853770037211,-54.24082613552855,2586.5172637624055,-2586.5172637624055,54.24082613552855,6349.3274508482373,0.0
623296.95196600363,3730566.251970998,-42500.0,237.2942212743136,1365.8649946115902,2955.1000675579085,-858.21782698016159,-2741.7975783661786,1704.9068283498746,3096.4073044542911,383.70818864531691,2243.2640146395011,-2243.2640146395011,-383.70818864531691,5992.5291995375783,0.0
628296.95196600363,3730566.251970998,-42500.0,465.72573002270491,1600.5651458060727,2437.5405137459265,-1035.6949188877511,-2388.0861455461422,1517.5298985313377,2884.1150178758985,798.23973105372647,1811.3186649261054,-1811.3186649261054,-798.23973105372647,5561.7144038273127,0.0
633296.95196600363,3730566.251970998,-42500.0,704.10228801138317,1724.0888989838752,1872.1120565658157,-1145.1741665363536,-1997.3113547580945,1309.537532280877,2652.9909065546649,1156.3943211570308,1328.7107615314912,-1328.7107615314912,-1156.3943211570308,5083.613038809126,0.0
638296.95196600363,3730566.251970998,-42500.0,925.98688375642837,1739.1341090643978,1298.6038937103917,-1187.1047138566371,-1594.4123733714086,1093.317756808982,2416.7400784880115,1434.4438879937111,833.8856924502129,-833.8856924502129,-1434.4438879937111,4586.1051372148968,0.0
643296.95196600363,3730566.251970998,-42500.0,1110.0729846537979,1658.5042845518408,751.63165487917797,-1167.8763980953952,-1201.6298385525383,880.08328468336811,2186.8359054446892,1619.7073162331783,360.85992446958858,-360.85992446958858,-1619.7073162331783,4095.6557071006196,0.0
648296.95196600363,3730566.251970998,-42500.0,1242.2339923503948,1501.7282111409786,257.66293471106911,-1098.0304454050249,-836.6564390941918,678.96167606182473,1972.2633424529245,1710.2716112496491,-64.023619937884177,64.023619937884177,-1710.2716112496491,3635.1934856900489,0.0
653296.95196600363,3730566.251970998,-42500.0,1315.9867816931139,1291.4067494460512,-166.14734261895649,-990.26514375129216,-511.79260934642878,496.54268648511538,1779.3914073790133,1713.1328411376787,-423.50580420965866,423.50580420965866,-1713.1328411376787,3222.5065552180631,0.0
658296.95196600363,3730566.251970998,-42500.0,1331.6781864219224,1050.008643854545,-511.57445448609138,-857.62842743440194,-233.99406590835946,336.84327623037427,1611.8232807143947,1641.4858114733242,-709.20556052281052,709.20556052281052,-1641.4858114733242,2869.1354804281568,0.0
663296.95196600363,3730566.251970998,-42500.0,1294.8892107281515,797.53075096375915,-777.89667867901812,-712.13696865341569,-5.5530894151716126,201.57989429470268,1470.4213683843341,1511.859474020057,-920.28874010528318,920.28874010528318,-1511.859474020057,2579.7763612061872,0.0
553296.95196600363,3735566.251970998,-42500.0,1334.3583033205757,-1128.291712227614,303.30219933905113,965.18003904240152,-697.61561918669031,547.68967142152951,1572.3853143913573,21.417168379980183,-347.69888244355923,347.69888244355923,-21.417168379980183,2990.7643629318409,0.0
558296.95196600363,3735566.251970998,-42500.0,1302.1989227005868,-1285.4939366293729,585.66371909158897,1049.0470231607708,-912.71428653053465,665.69842537620298,1745.6985717131677,-166.14790517414366,-146.26545097223931,146.26545097223931,166.14790517414366,3349.717245963981,0.0
563296.95196600363,3735566.251970998,-42500.0,1228.6046288218354,-1419.0425506291481,916.94864925584295,1114.2539958594962,-1155.3042603454387,795.91005262744875,1930.635341107175,-375.04830865521512,107.65100877230475,-107.65100877230475,375.04830865521512,3730.873514224555,0.0
568296.95196600363,3735566.251970998,-42500.0,1112.4283378633099,-1514.6121863144785,1291.9921085739454,1152.651131407637,-1420.9040911825427,935.73131087857075,2123.8972547506,-595.38007118802079,412.19509982220427,-412.19509982220427,595.38007118802079,4125.5378797868943,0.0
573296.95196600363,3735566.251970998,-42500.0,956.51272542115794,-1557.2044257377017,1700.2622887065547,1156.0289558171878,-1701.9010148580562,1081.1167530864182,2320.6207230932482,-813.08904510997786,760.2963422008504,-760.2963422008504,813.08904510997786,4522.0882664137835,0.0
578296.95196600363,3735566.251970998,-42500.0,768.51797285469252,-1532.8626177671943,2125.2606825216099,1117.0839146928206,-1987.3420819822429,1226.5184798942769,2513.9627932155909,-1010.4499199748157,1138.7632756556891,-1138.7632756556891,1010.4499199748157,4906.1537766794745,0.0
583296.95196600363,3735566.251970998,-42500.0,561.17079637394102,-1430.8494511217805,2544.676206762731,1030.5889932497155,-2263.1607504694616,1365.0369886989936,2695.1112967823929,-1167.3827166920928,1528.0761765598795,-1528.0761765598795,1167.3827166920928,5261.1826472994444,0.0
588296.95196600363,3735566.251970998,-42500.0,351.6522201233941,-1245.9904753446481,2931.5695513086257,894.60461228561849,-2512.9670994017742,1488.821907611801,2854.0752216733308,-1263.6498689908942,1903.2088801592038,-1903.2088801592038,1263.6498689908942,5569.4492104324572,0.0
593296.95196600363,3735566.251970998,-42500.0,159.97097410805989,-980.71419172212302,3256.7052734349791,711.48530826196736,-2719.438885723273,1589.7299852207066,2980.9003477598235,-1281.7463134099405,2235.668684268393,-2235.668684268393,1281.7463134099405,5813.4730540105065,0.0
598296.95196600363,3735566.251970998,-42500.0,6.4089132165963694,-646.23100164112759,3491.8767804200666,488.40501203508592,-2866.2080227190227,1660.1865825003256,3066.8456338366759,-1210.0254564972342,2496.6721057479494,-2496.6721057479494,1210.0254564972342,5977.7240723563236,0.0
603296.95196600363,3735566.251970998,-42500.0,-91.579121288943,-262.36147832842727,3613.7490911958234,237.16707451674696,-2939.975547317877,1694.1295266749821,3105.4021297779932,-1045.3915126019797,2661.0318172486018,-2661.0318172486018,1045.3915126019797,6050.3875794189917,0.0
608296.95196600363,3735566.251970998,-42500.0,-122.37548808922629,144.21658268690237,3607.4812082769945,-26.79877016626191,-2932.4632060969466,1687.8653169605809,3093.1390101252555,-794.84204700865666,2711.0233715136751,-2711.0233715136751,794.84204700865666,6024.9012535223355,0.0
613296.95196600363,3735566.251970998,-42500.0,-82.394126363206396,543.13916068566391,3469.3079883051605,-286.15479275533738,-2841.7771040677094,1640.6568718626463,3030.2990995985078,-475.32948042661701,2639.3668336030987,-2639.3668336030987,475.32948042661701,5900.9723137139481,0.0
618296.95196600363,3735566.251970998,-42500.0,23.125400293447342,904.36776375689453,3207.4333969233949,-523.78915232676491,-2672.8562168917551,1554.9067421347388,2921.0291348708688,-111.81087068782404,2450.5873563664763,-2450.5873563664763,111.81087068782404,5684.8656425534773,0.0
623296.95196600363,3735566.251970998,-42500.0,180.95725497571249,1202.2070790419978,2840.9782356219503,-724.94353231750927,-2436.8784626816764,1435.8831803099881,2773.0851045398313,266.1666151595814,2160.3965334238787,-2160.3965334238787,-266.1666151595814,5388.8854402832367,0.0
628296.95196600363,3735566.251970998,-42500.0,372.15441957375981,1418.4740589476532,2397.2203597697189,-878.90419560211637,-2149.7534215280898,1291.0469397032894,2596.8048295182007,628.59691078372634,1793.2463530367604,-1793.2463530367604,-628.59691078372634,5030.1471771166998,0.0
633296.95196600363,3735566.251970998,-42500.0,575.16697819626097,1544.222603903833,1907.7688757523499,-979.95502216510272,-1830.0339544581475,1129.1203270162096,2403.3894719596246,948.96681442868316,1378.655103818299,-1378.655103818299,-948.96681442868316,4628.8628795067489,0.0
638296.95196600363,3735566.251970998,-42500.0,769.07739547119763,1579.8274552434277,1404.5072367559619,-1027.4854251297375,-1496.6787789241334,959.08314247328224,2203.2854124665796,1207.2498932328931,947.14533529532309,-947.14533529532309,-1207.2498932328931,4206.4264297451655,0.0
643296.95196600363,3735566.251970998,-42500.0,936.28638772669422,1533.6448959081033,916.08213757146927,-1025.3529730300215,-1167.0796764905647,789.27609430844916,2005.4720188825363,1391.4941430399576,526.61292352990472,-526.61292352990472,-1391.4941430399576,3783.5857433555075,0.0
648296.95196600363,3735566.251970998,-42500.0,1064.2292461087095,1419.7450693362307,465.45181874576548,-980.74015469276128,-855.62900706440973,626.73285544640316,1817.3379419468865,1497.9514283750336,139.70006936643711,-139.70006936643711,-1497.9514283750336,3378.8843525732905,0.0
653296.95196600363,3735566.251970998,-42500.0,1146.0046062638532,1255.3050739506614,68.683453075284802,-902.79991314524739,-572.94707733616519,476.7991159055141,1644.5528825516283,1530.021045503574,-197.58445593553085,197.58445593553085,-1530.021045503574,3007.462089654417,0.0
658296.95196600363,3735566.251970998,-42500.0,1180.0575967412126,1058.176809106277,-265.10717523572714,-801.35441881544546,-325.73078715041981,343.02777378799959,1490.8725432516335,1496.4595661165718,-476.06808880213509,476.06808880213509,-1496.4595661165718,2680.2046485668243,0.0
563296.95196600363,3740566.251970998,-42500.0,1051.3359593350426,-1334.1880117130681,1046.1117019416208,980.89207689812724,-1118.1275593503035,713.26813608446014,1789.7534374802019,-459.04111662973901,271.44111627088887,-271.44111627088887,459.04111662973901,3477.0388926433916,0.0
568296.95196600363,3740566.251970998,-42500.0,937.96275687894376,-1398.1463296564839,1388.5221368187372,1001.1621795836516,-1345.2369168958317,826.57294125252872,1956.3707549445589,-649.39272103431676,554.47546735102537,-554.47546735102537,649.39272103431676,3816.5433138845983,0.0
573296.95196600363,3740566.251970998,-42500.0,794.22678126366861,-1413.8757540782149,1753.4478308884563,991.48962280296405,-1581.4782225457041,942.6601245281114,2123.8480700396494,-831.97568968048563,869.52071187733009,-869.52071187733009,831.97568968048563,4153.2235862710386,0.0
578296.95196600363,3740566.251970998,-42500.0,627.50009073028741,-1371.1623324780464,2126.0248746486382,946.83477104561132,-1817.6604065943566,1057.1389902407043,2286.3474204918443,-992.08425407854429,1204.2773405566377,-1204.2773405566377,992.08425407854429,4475.2381289763216,0.0
583296.95196600363,3740566.251970998,-42500.0,448.83969688865523,-1262.80048337109,2487.2175098146417,863.94791910892002,-2042.4852888223602,1164.7515113302377,2436.6261590552408,-1113.7528811369293,1541.8116046010077,-1541.8116046010077,1113.7528811369293,4769.3465741219316,0.0
588296.95196600363,3740566.251970998,-42500.0,272.3345166696347,-1086.2391494519081,2814.9372989294252,742.17789547310713,-2243.2253324109115,1259.6917472946341,2566.7807004326078,-1181.503828345973,1861.4190081062143,-1861.4190081062143,1181.503828345973,5021.7184507351749,0.0
593296.95196600363,3740566.251970998,-42500.0,113.76280466751474,-844.91215269463441,3085.9414197199285,584.09433275922595,-2406.7876231891478,1336.0825352412367,2669.1779474734049,-1182.493219490834,2140.3269399788442,-2140.3269399788442,1182.493219490834,5219.0005628437939,0.0
598296.95196600363,3740566.251970998,-42500.0,-11.335013103405181,-548.89040575949161,3278.3543692249746,395.75195545307957,-2521.0725990148489,1388.5675758331288,2737.2742043559492,-1108.7156986051903,2356.1260963157993,-2356.1260963157993,1108.7156986051903,5349.5477210177778,0.0
603296.95196600363,3740566.251970998,-42500.0,-89.879882491326725,-214.56294239054608,3374.4549499462087,186.46362632958068,-2576.4373554015151,1412.9366213976552,2766.305824281334,-958.81317334900052,2489.6023271717886,-2489.6023271717886,958.81317334900052,5404.6572392627622,0.0
608296.95196600363,3740566.251970998,-42500.0,-113.34296196643206,136.76398864965026,3363.2231178897641,-31.960351081235352,-2567.0074599017671,1406.677355099941,2753.8634158927675,-739.03091781107628,2527.4643597483773,-2527.4643597483773,739.03091781107628,5379.6172589105045,0.0
613296.95196600363,3740566.251970998,-42500.0,-79.232259436150215,481.20596265429333,3242.113017659688,-246.427630255097,-2491.5740750307641,1369.3467701999909,2700.3032301676685,-463.00319624535791,2464.402119313715,-2464.402119313715,463.00319624535791,5274.3877290775808,0.0
618296.95196600363,3740566.251970998,-42500.0,8.3878154731485193,795.18534188979334,3017.640990558129,-444.03890385344147,-2353.875850880253,1302.6813084093819,2608.9142938587615,-150.30635730081599,2304.0078832432755,-2304.0078832432755,150.30635730081599,5093.7813956679456,0.0
623296.95196600363,3740566.251970998,-42500.0,139.48638338544279,1058.308997286166,2704.6309783522934,-613.55338705037923,-2162.1917894997814,1210.4168029347463,2485.7092419039232,175.98003946663289,2058.3362958528951,-2058.3362958528951,-175.98003946663289,4847.1006241407404,0.0
628296.95196600363,3740566.251970998,-42500.0,299.63323584977229,1255.6827485520287,2324.2718382614435,-746.5758234791233,-1928.32585918621,1097.8533908089128,2338.64220946772,492.2194166141237,1746.2008081187616,-1746.2008081187616,-492.2194166141237,4547.2931817145891,0.0
633296.95196600363,3740566.251970998,-42500.0,472.18166121568254,1379.2572233704075,1901.3952110132168,-838.26706363184587,-1666.1835801336299,971.24609181076278,2176.2820643556297,777.08585194057605,1390.5844645943621,-1390.5844645943621,-777.08585194057605,4209.7596930312475,0.0
638296.95196600363,3740566.251970998,-42500.0,640.59082471608406,1428.0492954943363,1461.5253389508721,-887.49858392182398,-1390.2181809640394,837.1370013918862,2006.6371981186103,1013.8281916446365,1015.7136314795077,-1015.7136314795077,-1013.8281916446365,3851.0086586085404,0.0
643296.95196600363,3740566.251970998,-42500.0,790.43898123940471,1407.3457672251252,1028.2256215740131,-896.49597506469661,-1114.0092544293104,701.73739204441017,1836.7327265592726,1191.6019997289602,644.3430568921342,-644.3430568921342,-1191.6019997289602,3487.3390706235932,0.0
648296.95196600363,3740566.251970998,-42500.0,910.81762730235482,1327.1889779205057,621.1230109144816,-870.11041206858999,-849.17138960916839,570.44361663119139,1672.5814643038368,1305.7873968009294,295.66933746078536,-295.66933746078536,-1305.7873968009294,3133.6906680715238,0.0
573296.95196600363,3745566.251970998,-42500.0,660.42436215819532,-1275.9745512476582,1766.6057738607444,849.11303475082013,-1458.3317125076544,819.56152498434381,1941.7521194325718,-827.60233467367561,939.13998794632312,-939.13998794632312,827.60233467367561,3807.9434785093626,0.0
578296.95196600363,3745566.251970998,-42500.0,513.85354047018757,-1221.3483840760091,2091.4443526582504,802.35452584485574,-1653.5741174877949,909.82937978970028,2078.4484096799088,-956.47404589951907,1233.3020519572303,-1233.3020519572303,956.47404589951907,4078.0164121088451,0.0
583296.95196600363,3745566.251970998,-42500.0,360.57362418070608,-1111.5204503485988,2401.4333687242452,724.90531564692992,-1836.9418822953323,993.66381414849843,2203.3532112149819,-1049.7526854487191,1524.8007295046555,-1524.8007295046555,1049.7526854487191,4322.0164418408012,0.0
588296.95196600363,3745566.251970998,-42500.0,212.05938048922792,-945.64174697379201,2678.5574164167147,616.86734130328409,-1998.5612281003796,1066.7639455036376,2310.2156415476265,-1095.637750255195,1796.620716161035,-1796.620716161035,1095.637750255195,4529.1320539747248,0.0
593296.95196600363,3745566.251970998,-42500.0,80.743830575088396,-727.55136732208155,2904.3567208034947,480.75501726312945,-2128.5113532865921,1124.8686271119964,2393.1694991230934,-1084.7239489121496,2030.5876368415045,-2030.5876368415045,1084.7239489121496,4689.1185727656757,0.0
598296.95196600363,3745566.251970998,-42500.0,-21.428887808470474,-466.11096038697661,3061.8311177019027,321.61295031121233,-2217.8024803855719,1164.1639873117979,2447.2924710600068,-1011.5565354853228,2209.2183917071447,-2209.2183917071447,1011.5565354853228,4793.1887204714585,0.0
603296.95196600363,3745566.251970998,-42500.0,-84.604250150320951,-174.84188441719098,3137.4673315569803,146.79552689812419,-2259.3945313102026,1181.7010223357288,2469.0757501693124,-875.85019928618772,2317.7897031940674,-2317.7897031940674,875.85019928618772,4834.8831285423266,0.0
608296.95196600363,3745566.251970998,-42500.0,-102.47855693622068,129.18192673668946,3123.0418412777904,-34.606433381358869,-2249.0874863051481,1175.7553378078185,2456.819925569207,-683.07874463076905,2346.2757342299847,-2346.2757342299847,683.07874463076905,4810.793543400644,0.0
613296.95196600363,3745566.251970998,-42500.0,-73.316733033012,427.0697723282903,3016.8499973512826,-212.63258822561443,-2186.1187642989953,1146.0651887909212,2410.9268659347154,-444.24301756083139,2290.783128832677,-2290.783128832677,444.24301756083139,4721.0251667714392,0.0
618296.95196600363,3745566.251970998,-42500.0,-0.29489782789080476,700.20715223049046,2824.0941724862819,-377.48368365224553,-2073.3405220069772,1093.8973887139962,2334.0267542119605,-174.79105807083693,2154.1794737190985,-2154.1794737190985,174.79105807083693,4569.3085219178038,0.0
623296.95196600363,3745566.251970998,-42500.0,108.91908340856023,932.33684299833715,2556.3389094360045,-520.54266855802314,-1916.9391013041441,1021.9287261517723,2230.8345796059193,107.14093822223742,1945.7781465927947,-1945.7781465927947,-107.14093822223742,4362.7455852595131,0.0
628296.95196600363,3745566.251970998,-42500.0,243.26277386631043,1111.2613730685216,2230.1271330233585,-635.2154210224528,-1725.7396147612696,933.95897172386071,2107.5426448190387,382.85083063840295,1680.1371411327696,-1680.1371411327696,-382.85083063840295,4111.2169276140976,0.0
633296.95196600363,3745566.251970998,-42500.0,389.82113074253954,1229.8874889207043,1865.0298239133842,-717.45944106714342,-1510.2278336241718,834.50869601621764,1970.7729715760838,635.16433925757792,1375.2200787209242,-1375.2200787209242,-635.16433925757792,3826.5466076318467,0.0
638296.95196600363,3745566.251970998,-42500.0,535.5026134897879,1286.4948488923835,1481.4900419248149,-765.94329507771101,-1281.4620474819903,728.37029929453399,1826.7022691920035,850.14701239378132,1050.276415345804,-1050.276415345804,-850.14701239378132,3521.5464036096068,0.0
593296.95196600363,3750566.251970998,-42500.0,57.297318099839217,-626.61540095866303,2719.9121049131413,396.83922556705539,-1882.353070160877,949.12876533320139,2149.0372667895558,-991.16486376450518,1913.7419663070009,-1913.7419663070009,991.16486376450518,4217.8692691590759,0.0
598296.95196600363,3750566.251970998,-42500.0,-26.400498278528158,-395.9519309176423,2848.8935001378441,262.16941458325459,-1952.3566393338767,978.69517303708483,2192.1763098856654,-920.3332183819922,2061.8550533945472,-2061.8550533945472,920.3332183819922,4301.0706662798202,0.0
603296.95196600363,3750566.251970998,-42500.0,-77.39896616906546,-141.96573976307394,2908.3018395820059,115.69893400007787,-1983.6131512951124,991.33565995517142,2208.4277933716066,-797.96275252898795,2150.33918982149,-2150.33918982149,797.96275252898795,4332.4895976730004,0.0
608296.95196600363,3750566.251970998,-42500.0,-91.008081193030435,121.60904550360596,2891.9701787585868,-35.53431677381198,-1973.0985261184894,985.85682273992029,2196.5886066901021,-628.79566035953803,2171.5870892566072,-2171.5870892566072,628.79566035953803,4309.6450488982427,0.0
613296.95196600363,3750566.251970998,-42500.0,-66.01873332487493,379.74889124000265,2798.7730881564389,-183.89755899173323,-1920.3400860454979,962.10792607647272,2157.0643077568861,-421.73951737405855,2122.7291669416381,-2122.7291669416381,421.73951737405855,4232.7188069751564,0.0
618296.95196600363,3750566.251970998,-42500.0,-4.9306536185432872,617.67191204297012,2632.886452374285,-321.89034371248954,-1827.5311483390944,921.0221486494529,2091.9736793563134,-189.05773376529226,2006.0679059205813,-2006.0679059205813,189.05773376529226,4104.6290676365807,0.0
598296.95196600363,3550566.251970998,-47500.0,154.19721461343028,875.28751685452244,1871.802639011114,532.7048856555416,1585.1893178892005,931.74278713287595,1844.8009271811943,252.16714450329312,1420.7115742618616,-1420.7115742618616,-252.16714450329312,3592.688789183826,0.0
603296.95196600363,3550566.251970998,-47500.0,51.584065099949576,716.18797197753656,2109.3890868967183,424.69495023096459,1736.5046120388797,1007.7441524743953,1938.5876190717158,29.377429502280506,1612.6502569373865,-1612.6502569373865,-29.377429502280506,3782.5164150003316,0.0
608296.95196600363,3550566.251970998,-47500.0,-28.15823616329671,519.76465202360941,2298.8177304751775,295.21747679317957,1857.0072694222977,1068.4161961402585,2015.0280214337702,-192.88573800001495,1757.4140174367417,-1757.4140174367417,192.88573800001495,3934.8372568186555,0.0
613296.95196600363,3550566.251970998,-47500.0,-77.669001274324472,295.96566992092369,2429.4909319038316,150.00863080465857,1940.542630192738,1110.8501719700698,2069.9201783067829,-401.06125224081848,1845.8171677754037,-1845.8171677754037,401.06125224081848,4043.0227559067735,0.0
618296.95196600363,3550566.251970998,-47500.0,-92.256195589116885,57.178160870874237,2494.5297010914014,-3.8751899562732861,1983.0798200262066,1133.1194522993032,2100.2625531907925,-582.4857255819478,1872.5715983446426,-1872.5715983446426,582.4857255819478,4102.5470265346767,0.0
623296.95196600363,3550566.251970998,-47500.0,-70.496621073461455,-182.98258860250886,2491.5039779134354,-158.70030335815451,1983.1145031235164,1134.464082082543,2104.541600256633,-726.73293314115006,1836.8937814018759,-1836.8937814018759,726.73293314115006,4111.3138972434972,0.0
628296.95196600363,3550566.251970998,-47500.0,-14.38341842754363,-411.05746995045126,2422.6275968842888,-306.79050595247685,1941.7865896599619,1115.3494329305136,2082.7834776003765,-826.66389501971275,1742.5470347912394,-1742.5470347912394,826.66389501971275,4069.7689190976548,0.0
633296.95196600363,3550566.251970998,-47500.0,71.002902758904355,-615.0761732462679,2294.3825448132934,-441.2392042635733,1862.6899651213848,1077.386949666922,2036.4489927161235,-879.01609229090832,1597.3095331843031,-1597.3095331843031,879.01609229090832,3980.7695238363472,0.0
638296.95196600363,3550566.251970998,-47500.0,178.22704601290224,-785.6330871239237,2116.6589314999173,-556.49476942787987,1751.4197177268097,1023.1373503565692,1968.2299739051916,-884.46154174290109,1411.9784335156248,-1411.9784335156248,884.46154174290109,3849.2493987299254,0.0
643296.95196600363,3550566.251970998,-47500.0,298.48625118119764,-916.55628913381383,1901.5717100949071,-648.73965678372815,1614.9361357439882,955.82838555154103,1881.774715117145,-847.16401698133836,1199.0949339766771,-1199.0949339766771,847.16401698133836,3681.7221433668469,0.0
648296.95196600363,3550566.251970998,-47500.0,422.669026841895,-1005.1148303945831,1662.16192723877,-716.03190754526281,1460.8545260681192,879.035438435223,1781.3646622478536,-773.96077256305591,971.6106632607715,-971.6106632607715,773.96077256305591,3485.7008489430855,0.0
583296.95196600363,3555566.251970998,-47500.0,596.34713996912114,1180.632999580974,954.45085281819036,796.92901376900772,1090.8051472759116,733.37470976982536,1639.8198787549773,937.17072947147017,630.5489954170032,-630.5489954170032,-937.17072947147017,3123.216730962416,0.0
588296.95196600363,3555566.251970998,-47500.0,465.93314613987849,1168.8292276925263,1291.2160162556006,771.67964305208284,1322.2733236686609,856.40119858489902,1775.7087987239654,771.86248841729105,920.82930432799947,-920.82930432799947,-771.86248841729105,3411.9619653743971,0.0
593296.95196600363,3555566.251970998,-47500.0,326.98058683184416,1102.4287757626112,1624.2052821003085,712.77386770598002,1548.1509340762289,975.69432299418327,1908.8670731015245,566.02326005795624,1205.2545651892465,-1205.2545651892465,-566.02326005795624,3690.8800120263586,0.0
598296.95196600363,3555566.251970998,-47500.0,190.87305402499928,979.84716390080553,1936.136145992853,619.73333712421868,1757.7425606922786,1085.9493671532314,2033.767003430557,329.62480093184092,1467.1143978506179,-1467.1143978506179,-329.62480093184092,3947.9675230377629,0.0
603296.95196600363,3555566.251970998,-47500.0,69.805282939167128,804.0650618471924,2209.2496064598449,494.68524120181075,1940.1932291598787,1181.8147164993713,2144.3044177199613,76.267339284617606,1689.5724829729402,-1689.5724829729402,-76.267339284617606,4171.5052867654476,0.0
608296.95196600363,3555566.251970998,-47500.0,-24.6525543970303,582.84529154737027,2427.099087378298,342.45501035665654,2085.5183142222654,1258.3786877928583,2234.3484311751058,-177.9786196867193,1857.4884514807886,-1857.4884514807886,177.9786196867193,4350.9416736790026,0.0
613296.95196600363,3555566.251970998,-47500.0,-83.061648971233595,328.28807122082145,2576.3803610126292,170.30282899057502,2185.6472988476826,1311.6609495162259,2298.5923458715856,-416.22105812216853,1959.2217668493986,-1959.2217668493986,416.22105812216853,4477.7438224168181,0.0
618296.95196600363,3555566.251970998,-47500.0,-99.416503272931095,55.724197467373422,2648.4893743165412,-12.694050852140094,2235.3104963293463,1339.0304443016505,2333.2755520785936,-622.6427707801505,1988.0945525005222,-1988.0945525005222,622.6427707801505,4546.1013551798733,0.0
623296.95196600363,3555566.251970998,-47500.0,-71.98014593764168,-217.9075951391157,2640.5231657699678,-196.5357004503926,2232.615970107146,1339.4814350937033,2336.5585322886595,-784.32067788302584,1943.2318024405131,-1943.2318024405131,784.32067788302584,4553.3895081029059,0.0
628296.95196600363,3555566.251970998,-47500.0,-3.4792105854723534,-475.92898370851361,2555.5281426929268,-371.32893415969028,2179.2060484218077,1313.7148895759951,2308.5922081458998,-892.63721110566428,1829.6061504775298,-1829.6061504775298,892.63721110566428,4500.3119083785223,0.0
633296.95196600363,3555566.251970998,-47500.0,99.375048436018815,-703.7124185291766,2401.9632323198452,-528.28188091500772,2079.9767253895429,1264.0183328658532,2251.3817514354273,-944.04153893869022,1657.2871443469426,-1657.2871443469426,944.04153893869022,4390.7175649241672,0.0
638296.95196600363,3555566.251970998,-47500.0,226.92647976527678,-890.08721061139534,2192.4876453225229,-660.50055357418819,1942.4089619690628,1193.9614690887258,2168.4937926282519,-940.05407006689325,1440.047159766066,-1440.047159766066,940.05407006689325,4231.1023792014157,0.0
643296.95196600363,3555566.251970998,-47500.0,367.9472641799594,-1028.1620891000064,1942.3487399337796,-763.47940959700793,1775.6684313262192,1107.981792264053,2064.6782805897287,-886.58695653638279,1193.6246353161346,-1193.6246353161346,886.58695653638279,4029.9291633398316,0.0
648296.95196600363,3555566.251970998,-47500.0,511.07262358526066,-1115.4931075813336,1667.637209326487,-835.24018196810061,1589.6053873509616,1010.9139360756425,1945.4021361852713,-792.76405931075556,933.94031705265866,-933.94031705265866,792.76405931075556,3796.8109229376169,0.0
653296.95196600363,3555566.251970998,-47500.0,646.04956738718624,-1153.6712366677518,1383.716424176791,-876.15224339065242,1393.8339847478967,907.54939389601452,1816.3256332066876,-669.51341717189553,675.56725493761269,-675.56725493761269,669.51341717189553,3541.7163289359764,0.0
658296.95196600363,3555566.251970998,-47500.0,764.6314558075976,-1147.4939866120794,1104.0142721388472,-888.51454555063538,1196.9959076884202,802.27464120377147,1682.7300623616848,-528.18840333506319,430.63171483514805,-430.63171483514805,528.18840333506319,3274.2665598754397,0.0
573296.95196600363,3560566.251970998,-47500.0,916.87108491614504,1120.8234039084341,185.43926778521489,842.34030296555613,633.9693986053129,532.8912784659758,1486.036420066129,1271.5914204591336,-49.387567321639494,49.387567321639494,-1271.5914204591336,2739.466445980031,0.0
578296.95196600363,3560566.251970998,-47500.0,826.25999916530225,1225.3734770229789,512.12310623521626,890.63538199691379,882.29871556758997,674.62345235282794,1629.780840214185,1210.2634695683935,232.77829692384358,-232.77829692384358,-1210.2634695683935,3048.5584613393657,0.0
583296.95196600363,3560566.251970998,-47500.0,703.83821747478453,1284.3131399797032,870.98310575009589,907.7522604492458,1148.2362968783764,824.48732928030029,1782.68084597385,1091.6726390341398,544.33326191503306,-544.33326191503306,-1091.6726390341398,3376.1058549126392,0.0
588296.95196600363,3560566.251970998,-47500.0,557.10698114290187,1286.8052969600537,1248.0606713258423,887.59527415060313,1422.159816599057,977.3327525310832,1939.9661753334226,916.5046684491715,871.30876547852245,-871.30876547852245,-916.5046684491715,3709.7635388592594,0.0
593296.95196600363,3560566.251970998,-47500.0,397.19936935057336,1225.1308278492561,1625.3176908989844,826.05617804012206,1692.0690863843056,1126.8546669573529,2095.7074850076574,690.69527596217074,1195.8547327102115,-1195.8547327102115,-690.69527596217074,4035.3196736825698,0.0
598296.95196600363,3560566.251970998,-47500.0,238.06862339743674,1096.2332804381954,1981.8295138696212,721.86953095379477,1944.3544771402112,1265.9862025130137,2242.8864867436932,425.67314791346905,1497.5580132425289,-1497.5580132425289,-425.67314791346905,4337.6129601901257,0.0
603296.95196600363,3560566.251970998,-47500.0,95.043065762667496,902.86471913538969,2295.6639435557299,577.22978342519582,2164.9554920164569,1387.4776608535708,2373.675737443185,137.78873958398924,1755.4348090027588,-1755.4348090027588,-137.78873958398924,4601.6447598941886,0.0
608296.95196600363,3560566.251970998,-47500.0,-17.091842444728655,654.01485921168671,2546.2366388702044,397.99845922885947,2340.7797224017886,1484.5967338582113,2480.2209503503518,-153.13326582478408,1950.354364454741,-1950.354364454741,153.13326582478408,4813.7889589068336,0.0
613296.95196600363,3560566.251970998,-47500.0,-86.166216858027127,364.4197080387741,2716.7851055048936,193.39556822959875,2461.1778471769148,1551.8528253965096,2555.7558862169558,-425.97270759373453,2067.5016647105863,-2067.5016647105863,425.97270759373453,4962.9784154616709,0.0
618296.95196600363,3560566.251970998,-47500.0,-104.44657577295837,53.122332445041103,2796.5085542596798,-24.836674759059893,2519.2179695362438,1585.624517014099,2595.5299527640946,-660.88552349222914,2098.40652614395,-2098.40652614395,660.88552349222914,5041.7015600243585,0.0
623296.95196600363,3560566.251970998,-47500.0,-69.808472277336321,-258.71382191383123,2781.939910734814,-243.68719627901356,2512.510385127578,1584.5704709042427,2597.2937590531242,-841.79014775241058,2042.108726862486,-2042.108726862486,841.79014775241058,5046.646434168747,0.0
628296.95196600363,3560566.251970998,-47500.0,14.003382320995192,-550.34803080496556,2677.2718679991863,-450.333585676143,2443.4272484298513,1549.7509395796249,2561.3987170917035,-958.28255250172913,1905.2083807607119,-1905.2083807607119,958.28255250172913,4978.9026452154294,0.0
633296.95196600363,3560566.251970998,-47500.0,138.0785238107089,-803.8788123999276,2493.5708434450949,-633.54003554596454,2318.6700993887926,1484.4329485713031,2490.6004634396036,-1006.6142570551025,1700.788345380779,-1700.788345380779,1006.6142570551025,4843.6723931634624,0.0
638296.95196600363,3560566.251970998,-47500.0,289.8275696735646,-1006.0916305665858,2247.08502261381,-784.75130580554128,2148.3002772033874,1393.6326730919286,2389.6569655413414,-989.60051263293963,1446.4689794862825,-1446.4689794862825,989.60051263293963,4649.5762026703933,0.0
643296.95196600363,3560566.251970998,-47500.0,454.90390820142352,-1149.4505992082309,1957.0052449620975,-898.71769291148917,1944.4241038321243,1283.4807204607603,2264.7700429043907,-915.56801722831619,1162.0075088335009,-1162.0075088335009,915.56801722831619,4407.6510097573982,0.0
648296.95196600363,3560566.251970998,-47500.0,619.15149387603003,-1232.1686320404569,1643.1411214143675,-973.60484421335491,1719.7994406126043,1160.5379535632287,2122.9336171148325,-796.6588284967155,866.92658480658554,-866.92658480658554,796.6588284967155,4130.2358378189629,0.0
653296.95196600363,3560566.251970998,-47500.0,770.22636387657906,-1257.4903525413549,1323.8976083825942,-1010.650376812142,1486.5853561477431,1031.1677751325974,1971.2046932997785,-646.88642902959418,578.55916193629741,-578.55916193629741,646.88642902959418,3829.8907408935179,0.0
658296.95196600363,3560566.251970998,-47500.0,898.67243656102607,-1232.4555015232975,1014.813207435434,-1013.505287905921,1255.394786094334,901.04478852687464,1815.963342307595,-480.31684321970175,310.74638236259517,-310.74638236259517,480.31684321970175,3518.4777365119839,0.0
663296.95196600363,3560566.251970998,-47500.0,998.39121774752618,-1166.4528845850898,727.75730297265454,-987.42814241696249,1034.7220462088799,774.84012198673804,1662.3725699529091,-309.63923126059711,73.246730428763144,-73.246730428763144,309.63923126059711,3206.4850606166892,0.0
668296.95196600363,3560566.251970998,-47500.0,1066.5761355342229,-1069.8343652401909,470.737617294747,-938.48346244451386,830.73189345455569,656.08270340204376,1514.2462354572676,-145.24858201087989,-128.23269536521599,128.23269536521599,145.24858201087989,2902.6156084974018,0.0
568296.95196600363,3565566.251970998,-47500.0,1100.4094522706946,994.89224367112013,-292.49167147717122,832.00018762893092,345.03969595014058,409.90539706396436,1456.8502294207003,1411.037877409178,-476.36355381577658,476.36355381577658,-1411.037877409178,2618.8599347585932,0.0
573296.95196600363,3565566.251970998,-47500.0,1053.5151764521211,1165.5267441793353,5.5487420868021058,928.02357390677503,597.34293260473748,564.78922133498963,1600.4987521458686,1427.1392361174221,-222.75617566618382,222.75617566618382,-1427.1392361174221,2924.7931692627535,0.0
578296.95196600363,3565566.251970998,-47500.0,962.93167058513484,1301.9499852995712,355.73442366985802,997.45519247843072,882.41515050028715,736.59404623146384,1761.2302618829785,1381.5696095129338,80.162051466178355,-80.162051466178355,-1381.5696095129338,3269.3159840625981,0.0
583296.95196600363,3565566.251970998,-47500.0,831.75193110828536,1388.4949363861124,748.4595065277183,1030.7141746658781,1192.5702556195297,920.80447401221113,1935.3025897758021,1268.087367220239,422.57940424760017,-422.57940424760017,-1268.087367220239,3641.4044713613034,0.0
588296.95196600363,3565566.251970998,-47500.0,668.01641302677945,1410.7960382380882,1168.2139040845914,1019.2851339525915,1516.3798445884358,1110.9627600511189,2117.1532570256436,1085.7361084203669,788.82061782461574,-788.82061782461574,-1085.7361084203669,4026.2792726765992,0.0
593296.95196600363,3565566.251970998,-47500.0,484.71071110878836,1357.9643297239102,1593.946905298913,957.01147462027166,1839.0035251070863,1298.8694907944689,2299.4798227997626,840.19711196302728,1157.8519829086024,-1157.8519829086024,-840.19711196302728,4406.334214847604,0.0
598296.95196600363,3565566.251970998,-47500.0,298.87985407492783,1224.7684314742125,2000.4222172759551,841.36215874906429,2143.1249656605569,1475.0899649058265,2473.3540285104746,544.36951671801148,1504.8131506001685,-1504.8131506001685,-544.36951671801148,4762.367388288013,0.0
603296.95196600363,3565566.251970998,-47500.0,129.80832418009942,1013.352973322465,2360.5682399238681,674.40354441848228,2410.4792438035024,1629.7544946533126,2628.6769255256181,217.83632899281497,1803.5445206801071,-1803.5445206801071,-217.83632899281497,5075.0815013515767,0.0
608296.95196600363,3565566.251970998,-47500.0,-3.5414546418936159,734.02011587049276,2648.5797541713628,463.21077889521644,2623.8160044044648,1753.5720163584149,2755.3014982242094,-114.92133771349245,2029.8144655942724,-2029.8144655942724,114.92133771349245,5326.7623653533883,0.0
613296.95196600363,3565566.251970998,-47500.0,-85.395592434796427,404.72292651741742,2843.2749758394216,219.52547115591756,2768.9992229562267,1838.9087151138228,2844.5202237441049,-427.40872367592453,2164.6965990204408,-2164.6965990204408,427.40872367592453,5502.9493278610689,0.0
618296.95196600363,3565566.251970998,-47500.0,-105.73491691271668,49.194419848439637,2931.0470794476068,-41.378685273130252,2836.848133207232,1880.7350508036459,2890.2739154241121,-694.62325717762042,2197.3993152227122,-2197.3993152227122,694.62325717762042,5593.8493404852516,0.0
623296.95196600363,3565566.251970998,-47500.0,-61.957734215282407,-306.0179706082439,2907.7667688139722,-302.46726433622109,2824.3380029402183,1877.2521190813786,2889.7980840534656,-896.48132291875368,2126.9010578346115,-2126.9010578346115,896.48132291875368,5595.2600706948424,0.0
628296.95196600363,3565566.251970998,-47500.0,40.772008939042266,-635.0385549424708,2779.2009705152059,-547.02802750043338,2734.8996684183144,1830.0669962764846,2843.7528434398032,-1020.4318178527776,1961.9957462109144,-1961.9957462109144,1020.4318178527776,5508.8367185395164,0.0
633296.95196600363,3565566.251970998,-47500.0,190.56556056405603,-915.94765390318219,2559.8726937854753,-760.65456855434059,2577.7654528384687,1743.8863083305098,2755.9476994980737,-1062.7160824671175,1719.7468893893695,-1719.7468893893695,1062.7160824671175,5341.6681224795584,0.0
638296.95196600363,3565566.251970998,-47500.0,370.95286832212378,-1133.2079591711376,2270.6549332431969,-932.75141369223024,2366.5206807263526,1625.8003231253419,2632.751209930685,-1028.0862905658951,1422.7334290510748,-1422.7334290510748,1028.0862905658951,5105.2414831796568,0.0
643296.95196600363,3565566.251970998,-47500.0,563.58603164337649,-1278.8393369615285,1935.6889149089568,-1057.3245144976074,2117.2083145929964,1484.3274935819777,2482.2985333562892,-928.19502215090347,1095.7467091284957,-1095.7467091284957,928.19502215090347,4814.030310003146,0.0
648296.95196600363,3565566.251970998,-47500.0,750.8856474637937,-1352.2793852911964,1579.2642757503356,-1133.0012316502471,1846.3550041232863,1328.3962787439343,2313.5523142140664,-779.14438316929602,762.6216901114766,-762.6216901114766,779.14438316929602,4483.9119751227936,0.0
653296.95196600363,3565566.251970998,-47500.0,918.12908178638031,-1359.1895259513217,1223.2419872867306,-1162.4127125579926,1569.2859199891595,1166.4549641892022,2135.3058628199947,-598.81049629719826,443.76966667149026,-443.76966667149026,598.81049629719826,4130.7100526215136,0.0
658296.95196600363,3565566.251970998,-47500.0,1054.7034894028748,-1309.6304062685624,885.33101470180236,-1151.1675137015054,1298.92710507326,1005.8127828000155,1955.2451184132944,-404.4666196900568,154.68823259632626,-154.68823259632626,404.4666196900568,3769.0034234752138,0.0
663296.95196600363,3565566.251970998,-47500.0,1154.4945684703284,-1216.0658216024838,578.29710507334437,-1106.6780096589009,1045.1679808199876,852.25846543313594,1779.3606399371965,-211.04386409335649,-94.534079821840237,94.534079821840237,211.04386409335649,3411.3029366912183,0.0
668296.95196600363,3565566.251970998,-47500.0,1215.5672523818068,-1091.5632676629491,309.97897817581486,-1037.0591671059115,814.73355624012868,709.94110746095237,1611.8980044302602,-30.146681182762478,-298.90277585672368,298.90277585672368,30.146681182762478,3067.6110193428904,0.0
673296.95196600363,3565566.251970998,-47500.0,1239.3882965237162,-948.41056189696928,83.872525125853684,-950.24028769107042,611.43649181283615,581.45441285576646,1455.6492617379245,130.2423494318694,-457.67594164513474,457.67594164513474,-130.2423494318694,2745.3091008992383,0.0
678296.95196600363,3565566.251970998,-47500.0,1229.8466892209228,-797.22259617201451,-99.976434938228223,-853.34919046554853,436.65935295080214,468.05253602749917,1312.2745234583563,265.53813439956639,-573.28124041482681,573.28124041482681,-265.53813439956639,2449.2914670015966,0.0
558296.95196600363,3570566.251970998,-47500.0,1162.318470533311,535.81982649171619,-933.78097702628031,595.65261102065972,-173.40901123039461,113.20329436238646,1325.6770750622297,1291.3220819795215,-1018.9619481739819,1018.9619481739819,-1291.3220819795215,2304.5938079612315,0.0
563296.95196600363,3570566.251970998,-47500.0,1222.3474041682232,759.9798733779221,-760.00356149396293,743.89905365334494,14.468664103177241,243.75610059201222,1434.6957168752224,1437.6604579951991,-886.85527874625029,886.85527874625029,-1437.6604579951991,2518.1220247407118,0.0
568296.95196600363,3570566.251970998,-47500.0,1239.4578292258423,984.01390970108241,-521.79785928241506,886.201284526628,249.19442392473016,401.19493942355615,1566.3312462608797,1542.5411808909178,-692.94843353984174,692.94843353984174,-1542.5411808909178,2788.4606588373858,0.0
573296.95196600363,3570566.251970998,-47500.0,1206.6780785302003,1192.5736046030497,-216.52297032025785,1011.970690289163,530.91951105232999,585.04501466161696,1721.7446163774525,1590.8758390680873,-434.62848479095317,434.62848479095317,-1590.8758390680873,3116.3754725473391,0.0
578296.95196600363,3570566.251970998,-47500.0,1120.657935149947,1367.3972386305102,153.25337212740087,1109.0470698846943,856.01076253983354,792.67022403507303,1899.823121208967,1569.0925644173742,-114.64790490729501,114.64790490729501,-1569.0925644173742,3496.2402420179828,0.0
583296.95196600363,3570566.251970998,-47500.0,983.24327303776965,1488.7812985028979,578.28937277929856,1164.7065862307313,1216.1909187638387,1018.8447564972122,2096.8838067210122,1467.422896035247,257.42874207769057,-257.42874207769057,-1467.422896035247,3916.1290453119,0.0
588296.95196600363,3570566.251970998,-47500.0,802.64200104785368,1537.8516803823329,1041.7781643747603,1167.133185929963,1598.0924120887578,1255.5580953534882,2306.6070444624174,1282.3313246462249,664.42501692741416,-664.42501692741416,-1282.3313246462249,4358.5859567500656,0.0
593296.95196600363,3570566.251970998,-47500.0,593.7518380192123,1499.448348042722,1519.4605679943397,1107.2250738908956,1983.4836554970007,1492.1845624215171,2520.0670233009687,1018.5991733029614,1081.8395613464477,-1081.8395613464477,-1018.5991733029614,4801.8674877310032,0.0
598296.95196600363,3570566.251970998,-47500.0,377.27462444879274,1365.1779861757259,1981.0820514353952,980.45842631791379,2350.3610902039445,1716.1116233925177,2725.8880690226169,690.45723207650099,1479.5477786420233,-1479.5477786420233,-690.45723207650099,5221.5961919925867,0.0
603296.95196600363,3570566.251970998,-47500.0,177.46536022231871,1135.9826541477908,2393.2958080093395,788.41703923028581,2674.9512749583191,1913.8435035937225,2910.9680838313111,321.21879580024859,1824.9732198652309,-1824.9732198652309,-321.21879580024859,5592.822283622736,0.0
608296.95196600363,3570566.251970998,-47500.0,18.71507605975204,823.48721986043688,2723.7346705936543,539.554183694774,2934.4290117949504,2072.4739862598585,3062.0931397285608,-58.886494019196107,2087.377549306013,-2087.377549306013,58.886494019196107,5892.3653318967326,0.0
613296.95196600363,3570566.251970998,-47500.0,-78.429680327364864,449.54825935756497,2945.5728713212816,248.85264192379321,3109.9187311752648,2181.3014010888969,3167.9494420985316,-416.52895659703324,2242.504277679649,-2242.504277679649,416.52895659703324,6101.1794601248748,0.0
618296.95196600363,3570566.251970998,-47500.0,-100.91194291583228,43.828435140382169,3041.6230051185453,-63.713463338040512,3189.1828236392598,2233.2781135606419,3220.7339189184522,-720.08402734916422,2276.5529384004194,-2276.5529384004194,720.08402734916422,6206.3916691374452,0.0
623296.95196600363,3570566.251970998,-47500.0,-45.544238674894139,-360.2504097250162,3006.9869873056068,-375.70384596728388,3168.3836398831472,2225.9751333227323,3217.0259140127137,-944.39023302808062,2188.4880508998003,-2188.4880508998003,944.39023302808062,6202.6308297920341,0.0
628296.95196600363,3570566.251970998,-47500.0,80.522050472554085,-730.3204489071976,2849.5999770531835,-665.21811092594146,3052.5007422207163,2161.8418780105953,3157.961608561312,-1074.3428296470538,1990.0729091149306,-1990.0729091149306,1074.3428296470538,6092.3952283769841,0.0
633296.95196600363,3570566.251970998,-47500.0,261.35085527747566,-1039.5580206118636,2588.5568340347718,-913.73555349973867,2854.3232173533333,2047.7124187688107,3048.8302784501043,-1106.508411008997,1703.627602968646,-1703.627602968646,1106.508411008997,5885.4063325750294,0.0
638296.95196600363,3570566.251970998,-47500.0,475.33527244757778,-1269.8687805496561,2250.6821699678144,-1108.1930857378397,2592.2760511229626,1893.6793603711444,2898.2034710589051,-1048.5063713627883,1358.1131440368672,-1358.1131440368672,1048.5063713627883,5597.0675414116313,0.0
643296.95196600363,3570566.251970998,-47500.0,699.01854984759211,-1413.2263674220105,1866.2650958014237,-1241.9598709740187,2287.655915550592,1711.6317534832374,2716.7866935802181,-916.54074670260616,984.5646058132395,-984.5646058132395,916.54074670260616,5246.42819057005,0.0
648296.95196600363,3570566.251970998,-47500.0,910.68586888596985,-1471.1427085082908,1464.9003721970953,-1314.6612024661376,1961.8474737002216,1513.7447867398748,2516.0850259074987,-731.86603459886499,611.88291117295523,-611.88291117295523,731.86603459886499,4853.9603566417845,0.0
653296.95196600363,3570566.251970998,-47500.0,1093.0173070310786,-1452.7335215137059,1072.2411249447639,-1331.103763996279,1634.0587866835758,1311.2145117968216,2307.0424242102399,-517.11844000140741,263.76546512467627,-263.76546512467627,517.11844000140741,4439.5760017082748,0.0
658296.95196600363,3570566.251970998,-47500.0,1234.4731000465551,-1372.0572287138211,708.04307320076703,-1299.6903201154332,1319.8423351460651,1113.3875486107574,2098.8696077258232,-293.25166126712793,-42.908228561223609,42.908228561223609,293.25166126712793,4021.0951846446842,0.0
663296.95196600363,3570566.251970998,-47500.0,1329.4617105455188,-1245.3980665757347,385.51216719125438,-1230.728078136261,1030.4519046092644,927.32918587736867,1898.4342525730578,-77.49111926964089,-298.31719817349813,298.31719817349813,77.49111926964089,3613.2776972626311,0.0
668296.95196600363,3570566.251970998,-47500.0,1377.5967503324043,-1088.9793611327375,111.68977412919438,-1134.9393445569735,772.9005211813809,757.77414756615349,1710.3405533579862,117.62394733713452,-498.91715622429797,498.91715622429797,-117.62394733713452,3227.3950046076543,0.0
673296.95196600363,3570566.251970998,-47500.0,1382.4432098788022,-917.34935857201424,-111.50999827801402,-1022.3459806983825,550.49549422866028,607.35142475000725,1537.3677865510465,284.28790554793125,-646.08058586297204,646.08058586297204,-284.28790554793125,2871.2387434334105,0.0
678296.95196600363,3570566.251970998,-47500.0,1350.119190948134,-742.47006022298751,-285.98295827118409,-901.57260900739266,363.61914553215445,476.9649610087186,1380.9035898241259,418.85853994487377,-744.55881839572032,744.55881839572032,-418.85853994487377,2549.4314204641246,0.0
683296.95196600363,3570566.251970998,-47500.0,1288.0159863254755,-573.40066925584415,-416.12323492900714,-779.52469706719512,210.56551675850577,366.22822812349278,1241.2732206466815,520.9696592604239,-801.05281008291604,801.05281008291604,-520.9696592604239,2263.9088403092155,0.0
553296.95196600363,3575566.251970998,-47500.0,1116.1702663497376,195.52798985045234,-1256.001694389151,398.97669420992997,-472.53440746616548,-71.93210570477801,1350.0162515681272,1110.4771390118713,-1277.5905392465047,1277.5905392465047,-1110.4771390118713,2341.47624695477,0.0
558296.95196600363,3575566.251970998,-47500.0,1245.2978175676819,428.56431470209606,-1166.8187519021999,569.75427780628911,-330.25614633999714,41.905658913737078,1438.8594738223308,1324.9728771813398,-1229.9590561922178,1229.9590561922178,-1324.9728771813398,2493.1518525937413,0.0
563296.95196600363,3575566.251970998,-47500.0,1339.3378679704936,681.72763497406277,-1014.1273083444214,748.478714045934,-135.99579909536962,188.20387648458856,1548.9064891134115,1516.4865593588759,-1121.628572740625,1121.628572740625,-1516.4865593588759,2699.103086835165,0.0
568296.95196600363,3575566.251970998,-47500.0,1386.1789424708925,942.64388804860027,-788.59404486255141,925.47957034915862,115.41468649369919,369.41115398947176,1684.9650254775115,1667.1690831933643,-943.01262444916301,943.01262444916301,-1667.1690831933643,2971.1019193812463,0.0
573296.95196600363,3575566.251970998,-47500.0,1375.4442948524631,1194.0421302698244,-484.47386584033154,1088.0106909179558,426.0557061067081,586.0154601186016,1850.1645484268383,1757.8329445472268,-688.28037195014133,688.28037195014133,-1757.8329445472268,3314.710007623522,0.0
578296.95196600363,3575566.251970998,-47500.0,1300.6310037553317,1414.2731992605165,-101.82125881274028,1220.7444001148046,793.43564059472658,835.72251399687582,2044.8934137907245,1770.1313091836339,-357.64538129910511,357.64538129910511,-1770.1313091836339,3727.0333181037613,0.0
583296.95196600363,3575566.251970998,-47500.0,1161.3866204878923,1578.8743881645416,351.34692969240393,1306.9370455986145,1209.116678110398,1112.7224685189278,2266.0845941688031,1689.5026841533336,40.449034160211113,-40.449034160211113,-1689.5026841533336,4196.1635280183355,0.0
588296.95196600363,3575566.251970998,-47500.0,965.42171843684571,1663.3102563308935,857.46877799903291,1330.3194689851796,1657.8055707702379,1407.2393599487273,2506.8725503432665,1508.5334560868052,487.82154756335598,-487.82154756335598,-1508.5334560868052,4701.9743518865516,0.0
593296.95196600363,3575566.251970998,-47500.0,729.41595379597618,1646.7364983277068,1389.0729059023595,1277.5895112957583,2117.3219546623991,1705.5854415783117,2756.4787859608628,1230.0914930697993,956.39026533631329,-956.39026533631329,-1230.0914930697993,5217.777507355845,0.0
598296.95196600363,3575566.251970998,-47500.0,478.29054747463573,1516.2430940011707,1910.2152729137376,1141.1442383537567,2559.8008170700386,1990.9052162786168,3000.4144036056709,869.3481584756679,1409.9360740947504,-1409.9360740947504,-869.3481584756679,5712.6011377482419,0.0
603296.95196600363,3575566.251970998,-47500.0,242.49350831705095,1270.6579462501518,2379.9859278478448,921.47086172025854,2954.2740202943428,2244.6773813956443,3221.5950715437789,453.80036622612329,1808.0083615751093,-1808.0083615751093,-453.80036622612329,6154.0398691443306,0.0
608296.95196600363,3575566.251970998,-47500.0,53.462377612363156,922.79730838859155,2757.8218576603513,628.50669306041493,3270.4277500136986,2448.8566989249352,3402.6744740035419,20.720048504295846,2111.6024086435577,-2111.6024086435577,-20.720048504295846,6511.5502318233766,0.0
613296.95196600363,3575566.251970998,-47500.0,-61.91968044975593,499.2144377304607,3009.717348946926,281.39048606856483,3482.9226288229097,2588.3179829196415,3528.8149340940786,-387.87996020890864,2289.5627647725069,-2289.5627647725069,387.87996020890864,6759.8507872408472,0.0
618296.95196600363,3575566.251970998,-47500.0,-86.541501992259867,37.062729282172214,3113.9264577972149,-93.624180035654845,3575.3443050883529,2653.093967187368,3589.8648313309914,-731.86626758702323,2324.1892458390648,-2324.1892458390648,731.86626758702323,6881.8718546457039,0.0
623296.95196600363,3575566.251970998,-47500.0,-16.502157340458364,-421.45203254157639,3064.6830920477519,-466.79530969456891,3542.8198522137272,2639.8839633483235,3581.5630244487666,-979.63674331381128,2214.5244627201519,-2214.5244627201519,979.63674331381128,6870.7021895776797,0.0
628296.95196600363,3575566.251970998,-47500.0,138.25332794417679,-835.76538425874082,2872.9035944395355,-809.27638981257007,3392.6031010810902,2552.4442074707495,3505.7734478501357,-1113.0953991719009,1976.3554749985144,-1976.3554749985144,1113.0953991719009,6730.098477218532,0.0
633296.95196600363,3575566.251970998,-47500.0,356.27378268585989,-1173.1225048293402,2563.70997556976,-1097.2151453534086,3142.4987058782162,2400.7759712749216,3369.870772659584,-1129.7022791990628,1638.9343498092819,-1638.9343498092819,1129.7022791990628,6473.4722078808691,0.0
638296.95196600363,3575566.251970998,-47500.0,609.16116657851455,-1412.7546571117264,2171.538414474157,-1314.6343154221415,2817.5931149204598,2199.3478049832024,3185.4607746464212,-1041.2756117739657,1239.3937074424869,-1239.3937074424869,1041.2756117739657,6121.6137564470764,0.0
643296.95196600363,3575566.251970998,-47500.0,866.98892227411068,-1547.2991705257095,1734.2119870612516,-1454.577330076758,2446.1769883275269,1964.8203638804205,2966.6786497609201,-870.20338257863284,816.41183547855314,-816.41183547855314,870.20338257863284,5699.6824773303315,0.0
648296.95196600363,3575566.251970998,-47500.0,1103.1598360039768,-1581.5795598665877,1287.4418817796493,-1518.5418011941824,2055.8331435712621,1713.8067908441483,2728.3061574722947,-644.35943709282515,404.66865055214612,-404.66865055214612,644.35943709282515,5234.0956589338402,0.0
653296.95196600363,3575566.251970998,-47500.0,1297.7040794294953,-1529.5384067390746,860.81420025832301,-1514.6521697724384,1670.4222418404256,1461.0805686272815,2483.9215854519894,-392.11082038285855,31.119517534967372,-31.119517534967372,392.11082038285855,4749.8263521663812,0.0
658296.95196600363,3575566.251970998,-47500.0,1438.6737370326755,-1410.411262846673,475.70973871738943,-1455.2387067909731,1308.333906339232,1218.4627753256973,2244.4667005689898,-138.45063192782101,-286.5869758647882,286.5869758647882,138.45063192782101,4268.4761924253398,0.0
663296.95196600363,3575566.251970998,-47500.0,1521.8531047769234,-1245.0928938702964,145.00173620907319,-1354.4280919075991,981.95551774244063,994.38573811822982,2017.6575110597678,97.287719164509895,-539.83853641414191,539.83853641414191,-97.287719164509895,3807.17777052463,0.0
668296.95196600363,3575566.251970998,-47500.0,1549.3439000564842,-1053.3165808229012,-125.95785514740217,-1226.1732977997285,698.08754253651921,794.00973202182195,1808.2732537383649,302.18521267675658,-727.55139938653122,727.55139938653122,-302.18521267675658,3378.2631627909705,0.0
673296.95196600363,3575566.251970998,-47500.0,1527.6445674419731,-851.87151586196103,-337.66335492090298,-1082.9077080543102,458.92485269530437,619.69364981271428,1618.8138564574188,469.33486690054383,-854.09896574116669,854.09896574116669,-469.33486690054383,2989.4981329059951,0.0
678296.95196600363,3575566.251970998,-47500.0,1465.7266493474117,-653.78947494838133,-494.60422063281038,-934.82045743555159,263.25791311206586,471.62960025724004,1450.0995430608141,596.75797665012522,-927.21539575579948,927.21539575579948,-596.75797665012522,2644.6684124380777,0.0
683296.95196600363,3575566.251970998,-47500.0,1373.4203227773153,-468.2726224420839,-603.58274824156695,-789.63687027148308,107.64262436462131,348.49602919921182,1301.7295216090872,686.06255604555326,-956.20791397447283,956.20791397447283,-686.06255604555326,2344.3357663999395,0.0
688296.95196600363,3575566.251970998,-47500.0,1260.2396254407572,-301.0914483392549,-672.37548222976204,-652.74578531296629,-12.607520028029105,248.0371155027639,1172.4516175620902,741.14396183724614,-950.62081279945312,950.62081279945312,-741.14396183724614,2086.6320765763435,0.0
548296.95196600363,3580566.251970998,-47500.0,949.84745986213022,-180.37598464861131,-1467.1720490602866,138.34239678118018,-739.02191465089834,-267.41219529458073,1410.7548723083,805.9112755868822,-1418.0402777530257,1418.0402777530257,-805.9112755868822,2484.9640953953531,0.0
553296.95196600363,3580566.251970998,-47500.0,1140.6242217017491,32.414268331459816,-1466.7909850387221,313.22822571490616,-655.59249014180068,-181.9676089900413,1483.2915171030115,1065.6286435685533,-1458.6488865054098,1458.6488865054098,-1065.6286435685533,2585.7705847999196,0.0
558296.95196600363,3580566.251970998,-47500.0,1311.8884316457336,282.47578389489598,-1413.2331933876928,510.18452634885068,-521.5026492504893,-61.687588885295114,1570.2649365388752,1325.7536399001817,-1449.5231513278843,1449.5231513278843,-1325.7536399001817,2721.3920584859793,0.0
563296.95196600363,3580566.251970998,-47500.0,1448.7463745998855,563.13713136898616,-1292.4107613558033,722.60675297002706,-326.9945969732496,99.026775613803679,1678.5671741593503,1569.3892317843226,-1376.0233852637009,1376.0233852637009,-1569.3892317843226,2911.1029135759204,0.0
568296.95196600363,3580566.251970998,-47500.0,1535.3749436375515,862.02936867579604,-1091.2286571234017,939.86520678405702,-63.820510697489958,304.58352012741574,1815.4227953718582,1775.5197799279506,-1224.548643534001,1224.548643534001,-1775.5197799279506,3173.7415946867268,0.0
573296.95196600363,3580566.251970998,-47500.0,1557.0265127349376,1160.3495890499594,-799.87677419322904,1146.9843002578134,273.00253401901,557.12924632210161,1986.842442735307,1920.2957931905401,-984.97644266276461,984.97644266276461,-1920.2957931905401,3522.4522858081564,0.0
578296.95196600363,3580566.251970998,-47500.0,1502.7834336608173,1433.0102833281676,-414.69998196561016,1324.966410898194,683.10947047621573,855.31872824249263,2195.8546478132071,1979.5026821119041,-653.68300863703462,653.68300863703462,-1979.5026821119041,3959.9910847731448,0.0
583296.95196600363,3580566.251970998,-47500.0,1368.7489420973636,1650.1374000018936,58.736026723189795,1452.0401118325824,1158.6733306062924,1193.1059419812357,2441.0167609167115,1932.2369728490617,-236.70728322712375,236.70728322712375,-1932.2369728490617,4476.4476027573401,0.0
588296.95196600363,3580566.251970998,-47500.0,1161.0439077449503,1780.2485508426255,603.06193587485291,1506.0148131781277,1682.7562431093163,1558.8489440674705,2715.4713980978258,1765.4612816726089,247.68857858715671,-247.68857858715671,-1765.4612816726089,5049.6200895196571,0.0
593296.95196600363,3580566.251970998,-47500.0,897.67130306660363,1795.0629011709007,1187.9302938033502,1467.6647542198816,2228.7613381029428,1935.0893752596892,3006.4780685648734,1478.6106137494035,768.05268023849351,-768.05268023849351,-1478.6106137494035,5647.1559100218728,0.0
598296.95196600363,3580566.251970998,-47500.0,608.23559558456589,1675.3245032178356,1771.1870080046535,1324.699154579441,2761.6039726095801,2299.348209230372,3295.6242776606487,1086.9968931585313,1281.3335077505617,-1281.3335077505617,-1086.9968931585313,6229.7372083705695,0.0
603296.95196600363,3580566.251970998,-47500.0,330.80253082254649,1416.3906838650828,2302.9828594189435,1075.4832102938442,3240.9763471676097,2626.1409961694771,3560.5377962088601,622.60671581838608,1737.5677573723601,-1737.5677573723601,-622.60671581838608,6755.1103406063621,0.0
608296.95196600363,3580566.251970998,-47500.0,105.92572152874298,1031.9017015428362,2732.6348012519138,731.407084354993,3626.5152368455642,2890.0858117489765,3778.2770854627061,131.2402095905752,2087.3337213492059,-2087.3337213492059,-131.2402095905752,7182.7668786050017,0.0
613296.95196600363,3580566.251970998,-47500.0,-31.090466628355017,553.98268754632238,3017.0632792212068,316.90549600427971,3884.037651867297,3069.6242895021524,3929.1933317553021,-334.09789109938902,2290.5789017893831,-2290.5789017893831,334.09789109938902,7478.8663002073254,0.0
618296.95196600363,3580566.251970998,-47500.0,-57.706660301935024,29.227727160452073,3128.757696280381,-133.35172316384831,3991.4035173606089,3150.5275278702197,3999.9440376482225,-722.34668533876459,2324.5669392544664,-2324.5669392544664,722.34668533876459,7620.5783740645311,0.0
623296.95196600363,3580566.251970998,-47500.0,30.836281974433739,-488.945500741628,3061.0125157738289,-579.71375688846513,3942.4313320638698,3128.2822209753062,3985.1832060761922,-993.75393771731615,2188.5816977027603,-2188.5816977027603,993.75393771731615,7598.9495283925353,0.0
628296.95196600363,3580566.251970998,-47500.0,220.65334669118801,-949.66137022800308,2828.8279075591058,-984.00591014735323,3747.7255394681065,3008.6877513777476,3887.881661525209,-1126.8022208343061,1903.8603788711537,-1903.8603788711537,1126.8022208343061,7419.6188027428834,0.0
633296.95196600363,3580566.251970998,-47500.0,482.76888867472184,-1313.0997884498347,2465.2350925755841,-1315.5001621282584,3432.1975441781942,2806.5094212017157,3718.383689352981,-1120.7776333578372,1508.7698991686448,-1508.7698991686448,1120.7776333578372,7101.2294977346401,0.0
638296.95196600363,3580566.251970998,-47500.0,779.8379421246218,-1555.9323213553214,2014.2828611475773,-1554.9025490575025,3030.0859423946877,2542.6192953005507,3492.4795921561731,-993.57264855562687,1050.7981096239801,-1050.7981096239801,993.57264855562687,6671.9862338313242,0.0
643296.95196600363,3580566.251970998,-47500.0,1073.8482355419733,-1672.6424268039664,1522.8392005247561,-1695.6031109523681,2578.942848569473,2240.4454783872834,3228.8954556567028,-775.89125864885921,577.79202931460634,-577.79202931460634,775.89125864885921,6165.2247999444407,0.0
648296.95196600363,3580566.251970998,-47500.0,1332.6366959703998,-1673.1133560597777,1033.3828814225949,-1742.3565118487884,2114.1311037079349,1922.6257553103474,2946.6103727973477,-503.95503021295053,130.72882339164491,-130.72882339164491,503.95503021295053,5614.9969664310283,0.0
653296.95196600363,3580566.251970998,-47500.0,1533.8565957167345,-1577.8722998478054,579.20787824934678,-1708.2446156548483,1664.903854833856,1608.5130458951039,2662.38042331322,-212.80068197836999,-260.62683006255503,260.62683006255503,212.80068197836999,5052.4503922228723,0.0
658296.95196600363,3580566.251970998,-47500.0,1666.1145625426086,-1412.6722589431524,182.44420378973464,-1611.014398992289,1252.4610837206706,1312.809087443884,2389.0122045231146,68.454162316635262,-578.97083076934553,578.97083076934553,-68.454162316635262,4503.4343388946972,0.0
663296.95196600363,3580566.251970998,-47500.0,1727.8426008333354,-1203.7516316600124,-145.55226808870171,-1469.7091169774303,889.76540315532816,1045.2443145060181,2134.8893809417182,318.94685857947167,-818.27803666035538,818.27803666035538,-318.94685857947167,3987.356101976407,0.0
668296.95196600363,3580566.251970998,-47500.0,1724.8702131109842,-974.50130057345677,-402.29964658030445,-1302.144848189688,582.58406646689593,811.03183725881161,1904.6054806867494,526.32280076059055,-981.22618265455617,981.22618265455617,-526.32280076059055,3517.0978511237704,0.0
673296.95196600363,3580566.251970998,-47500.0,1667.6124195171035,-743.6595451915648,-591.66939236545659,-1123.3808317089697,331.1368782775204,611.74308701426185,1699.9466006800703,685.59972063290002,-1076.2006441305871,1076.2006441305871,-685.59972063290002,3099.6298016469987,0.0
678296.95196600363,3580566.251970998,-47500.0,1568.5303080012525,-524.78573287335826,-721.40882306688843,-945.07878974281527,131.86417087021692,446.32061277396178,1520.7366451885928,797.36800872188962,-1114.5616604448023,1114.5616604448023,-797.36800872188962,2737.0185167659351,0.0
683296.95196600363,3580566.251970998,-47500.0,1440.1928313406888,-326.59986394113531,-801.08810057238179,-775.50863172770869,-21.001926420351531,312.02566705583558,1365.4779933613549,865.89125250399934,-1108.5200113671283,1108.5200113671283,-865.89125250399934,2427.5766481776263,0.0
688296.95196600363,3580566.251970998,-47500.0,1294.0140509760565,-153.78817556021588,-840.60763984406719,-619.94448703216199,-134.2066189179269,205.21755631548911,1231.8591407784547,897.44798082413695,-1069.7025537456643,1069.7025537456643,-897.44798082413695,2167.0023338309575,0.0
693296.95196600363,3580566.251970998,-47500.0,1139.5841883506944,-7.9668629346719353,-849.2441134642861,-481.23868078128527,-214.60687810113254,121.93230097242633,1117.167266631805,899.06191218259767,-1008.3306240832609,1008.3306240832609,-899.06191218259767,1949.4228006545472,0.0
543296.95196600363,3585566.251970998,-47500.0,664.63203258649639,-547.69177332115203,-1549.6965319468472,-166.26571833581124,-947.08991447664926,-457.33250990145456,1500.6605395416459,403.63702034369572,-1422.9835865623663,1422.9835865623663,-403.63702034369572,2711.3514919254148,0.0
548296.95196600363,3585566.251970998,-47500.0,897.40157522117852,-381.50462854767261,-1628.4823405726338,-8.4768328882019048,-927.91927926305414,-409.545969165347,1568.0298178867938,676.7087409760876,-1541.0128615735466,1541.0128615735466,-676.7087409760876,2794.0936169128704,0.0
553296.95196600363,3585566.251970998,-47500.0,1131.0315025657662,-167.94394342373218,-1671.5612499604656,182.70611819086486,-865.99071038685827,-328.66329682251444,1641.0066228065007,973.53987409030174,-1627.9019392459156,1627.9019392459156,-973.53987409030174,2885.9807329412633,0.0
558296.95196600363,3585566.251970998,-47500.0,1351.3116337678885,93.234797806617493,-1663.3738363860487,405.32410787660257,-748.61417389126257,-206.46095415475889,1725.3271925067522,1281.8946161157021,-1667.4050379201797,1667.4050379201797,-1281.8946161157021,3003.1650232584097,0.0
563296.95196600363,3585566.251970998,-47500.0,1540.5733813440665,397.33793483096525,-1586.6520980877817,653.42969160286725,-562.56163674383208,-34.685456057934985,1829.0860577027352,1583.7287307436138,-1641.3956926417561,1641.3956926417561,-1583.7287307436138,3168.4002596541832,0.0
568296.95196600363,3585566.251970998,-47500.0,1678.8084072758222,732.96033218942148,-1424.0348768765955,915.94466195975417,-295.55817747097984,193.92138790190512,1962.1042429783688,1855.0829258595822,-1531.623967462474,1531.623967462474,-1855.0829258595822,3408.1922651667901,0.0
573296.95196600363,3585566.251970998,-47500.0,1745.882177931732,1080.5442895320209,-1160.6715244462512,1175.8478022967745,61.521501293098098,484.18032967600038,2134.2216130331094,2067.1032512527818,-1322.5322316504007,1322.5322316504007,-2067.1032512527818,3746.2886345205116,0.0
578296.95196600363,3585566.251970998,-47500.0,1724.9325823940258,1411.8763392800263,-787.79077371148924,1410.1131510964763,511.82640632640619,836.68391551719935,2352.6919106106393,2188.6395533784353,-1005.0768831348279,1005.0768831348279,-2188.6395533784353,4195.4954042182717,0.0
583296.95196600363,3585566.251970998,-47500.0,1606.6985019074807,1691.2462544835334,-306.87466355581461,1590.8761532832109,1049.3961106046368,1245.8736083228132,2619.4101249228879,2190.6593540947606,-581.12652348301958,581.12652348301958,-2190.6593540947606,4751.7145437875934,0.0
588296.95196600363,3585566.251970998,-47500.0,1394.0248872657587,1878.9126084147777,266.38570946946368,1688.2261664564271,1656.3763257795538,1698.3979027809373,2928.7230108076906,2052.2455887063743,-67.507766137907993,67.507766137907993,-2052.2455887063743,5392.5359637323963,0.0
593296.95196600363,3585566.251970998,-47500.0,1105.2449038512195,1937.0736403106098,899.62903712403659,1674.6959882486153,2301.5287505910446,2172.321792738011,3266.1257995348587,1767.2087671072841,501.69839786925229,-501.69839786925229,-1767.2087671072841,6079.6402445652511,0.0
598296.95196600363,3585566.251970998,-47500.0,774.84736320539821,1837.7355158696375,1544.3254983182837,1530.9689109759638,2941.0913312043476,2637.8165175354366,3608.3691151981579,1349.5854891896636,1076.1582297651573,-1076.1582297651573,-1349.5854891896636,6763.335286173683,0.0
603296.95196600363,3585566.251970998,-47500.0,450.0888129426703,1570.8229600850416,2140.3608333081329,1251.6217868229426,3522.7484835288542,3059.7688821287807,3926.0561353634594,835.83974109090423,1594.6785156355704,-1594.6785156355704,-835.83974109090423,7388.3541201976759,0.0
608296.95196600363,3585566.251970998,-47500.0,183.23715364683778,1150.050350575114,2624.7761199407719,849.1832465838163,3992.6956390484452,3402.2839033656405,4188.6287297044382,281.91615780885479,1994.8803698701918,-1994.8803698701918,-281.91615780885479,7900.6319880554884,0.0
613296.95196600363,3585566.251970998,-47500.0,20.779131056979161,614.02592679700035,2943.1721767922409,354.77464153121008,4304.6508387828726,3634.3822119228266,4369.823674843723,-245.35352338158543,2225.3340062294365,-2225.3340062294365,245.35352338158543,8254.5063458025761,0.0
618296.95196600363,3585566.251970998,-47500.0,-7.4678267848707236,21.175407115453414,3060.8322630833773,-185.63546318653485,4428.6052706282917,3735.5501723662196,4451.9151043780003,-680.92038570461307,2256.845495878536,-2256.845495878536,680.92038570461307,8419.1631067801482,0.0
623296.95196600363,3585566.251970998,-47500.0,104.26673575992862,-560.82251551395973,2970.1129835728625,-718.89564588841608,4356.7505249667911,3699.5831015402591,4428.1510313625986,-974.77382819620652,2089.2216667927328,-2089.2216667927328,974.77382819620652,8382.9335265603077,0.0
628296.95196600363,3585566.251970998,-47500.0,336.52906609780752,-1068.2152921030995,2691.5741484136456,-1194.2844943118357,4104.6440027342414,3535.5049818719795,4303.1872646706961,-1101.6328080371866,1751.0618989180905,-1751.0618989180905,1101.6328080371866,8154.2907115829976,0.0
633296.95196600363,3585566.251970998,-47500.0,650.08391647713415,-1452.9576499974244,2268.5101771662612,-1572.2792011115425,3707.275374687898,3265.3045615359483,4091.6168926515643,-1064.0854389702622,1292.6245426496112,-1292.6245426496112,1064.0854389702622,7759.3335011632507,0.0
638296.95196600363,3585566.251970998,-47500.0,995.88227874399513,-1689.7046841816357,1756.8905185748356,-1830.0539368103382,3211.422105425565,2919.2733671745345,3815.0287462646429,-888.70210376122623,774.31743000043571,-774.31743000043571,888.70210376122623,7236.5146420926021,0.0
643296.95196600363,3585566.251970998,-47500.0,1326.0096769520717,-1776.6468814315137,1214.0868087090635,-1962.6243795177681,2666.7630575715816,2530.4206788208148,3498.2829526864434,-617.19643083823257,254.63690025679645,-254.63690025679645,617.19643083823257,6630.0765552555913,0.0
648296.95196600363,3585566.251970998,-47500.0,1602.3133166831974,-1731.1202257364569,689.59047865731384,-1980.1484393409612,2118.1997053216046,2129.4811785918373,3165.6941754775839,-296.03781851328398,-219.08051846904988,219.08051846904988,296.03781851328398,5983.7891247042699,0.0
653296.95196600363,3585566.251970998,-47500.0,1800.9066843638745,-1582.3681576170345,219.55330965771634,-1902.9484107777762,1600.8986282131787,1741.5018848942761,2837.7320508941452,32.37546525450756,-615.39941180418236,615.39941180418236,-32.37546525450756,5336.1223393200116,0.0
658296.95196600363,3585566.251970998,-47500.0,1912.5548524993051,-1364.0412901997995,-174.65239101450408,-1756.0650080264611,1138.4030754964137,1384.3119921831733,2529.026055803653,335.23323047071466,-919.15767529236678,919.15767529236678,-335.23323047071466,4717.4066838379531,0.0
663296.95196600363,3585566.251970998,-47500.0,1940.1288202605069,-1108.2202096734827,-484.85283448194474,-1564.6626580446982,743.20078244519175,1068.5648381129117,2248.1810711955359,591.31033639375255,-1128.7978651485819,1128.7978651485819,-591.31033639375255,4148.8117747227789,0.0
668296.95196600363,3585566.251970998,-47500.0,1894.7211224379173,-841.71761456388822,-712.87608154646125,-1350.942150304325,418.78505724089814,798.81214810625431,1998.9657609607484,790.25724552919098,-1252.3084298508977,1252.3084298508977,-790.25724552919098,3642.7507411119932,0.0
673296.95196600363,3585566.251970998,-47500.0,1791.7186152535953,-584.52831343406774,-866.98608380904147,-1132.5751872545202,162.25455272374234,575.0246471844606,1781.7889988389907,930.36262379603465,-1303.1126867938287,1303.1126867938287,-930.36262379603465,3204.1230079598686,0.0
678296.95196600363,3585566.251970998,-47500.0,1647.6118039403689,-349.86325362756958,-958.74509899821521,-922.34345907956288,-33.204934799933355,394.13749884597797,1594.8946180635498,1015.8275644109555,-1296.6927280734681,1296.6927280734681,-1015.8275644109555,2831.9543945146675,0.0
683296.95196600363,3585566.251970998,-47500.0,1477.8186885285697,-145.10641932488332,-1000.6593571891185,-728.55064579016221,-176.30589177554825,251.37275145539513,1435.247691219987,1054.2417972322178,-1248.2307128706948,1248.2307128706948,-1054.2417972322178,2521.1268873319941,0.0
688296.95196600363,3585566.251970998,-47500.0,1295.4672562363191,26.853533871560117,-1004.6459713810359,-555.81936490490273,-276.21573498646774,141.24130008469979,1299.2066107930073,1054.5973488330635,-1171.2170673379562,1171.2170673379562,-1054.5973488330635,2264.014633593873,0.0
693296.95196600363,3585566.251970998,-47500.0,1110.9229480006982,166.28077180454068,-981.18898796651365,-405.99418896400914,-341.63973682854044,58.225994893048195,1183.0250542190679,1025.9164123626429,-1076.8170398248267,1076.8170398248267,-1025.9164123626429,2051.9108718752796,0.0
698296.95196600363,3585566.251970998,-47500.0,931.81262951091878,275.4338694106205,-938.99629292621637,-278.98285334738665,-380.32046171278563,-2.8032296089569901,1083.1941822589631,976.42425601047842,-973.7524284815571,973.7524284815571,-976.42425601047842,1876.1561362342468,0.0
538296.95196600363,3590566.251970998,-47500.0,281.45247996349212,-862.24731435772992,-1506.0564683761622,-487.28321196547876,-1078.9524059068224,-625.96282862028693,1602.9824220652795,-53.5354001704751,-1296.4641437766354,1296.4641437766354,53.5354001704751,2971.8241469963409,0.0
543296.95196600363,3590566.251970998,-47500.0,527.84680340901491,-760.25606423973795,-1642.8319236943325,-366.46129451528191,-1120.3538294622397,-620.86287243741913,1678.2375607165727,198.75711953157247,-1468.7232524392725,1468.7232524392725,-198.75711953157247,3072.5116759827042,0.0
548296.95196600363,3590566.251970998,-47500.0,795.65919627972244,-609.80842050980925,-1764.2532751050483,-206.27356981004988,-1131.9007774954462,-588.53932924875016,1752.5593589852817,492.97241395338369,-1631.6014285750744,1631.6014285750744,-492.97241395338369,3164.2651196002312,0.0
553296.95196600363,3590566.251970998,-47500.0,1074.7330617627524,-404.54242205107232,-1856.7686000293038,-3.6396945065463675,-1100.3979007894056,-519.37044546468792,1828.347494200525,823.90129114102581,-1771.024960859289,1771.024960859289,-823.90129114102581,3253.5182465093012,0.0
558296.95196600363,3590566.251970998,-47500.0,1350.0082354612593,-141.01002799609594,-1903.2587290761053,241.61886505645461,-1010.2484308130096,-402.35983365131187,1910.6182446121986,1180.5393336154486,-1868.9663235348005,1868.9663235348005,-1180.5393336154486,3354.1339912057419,0.0
563296.95196600363,3590566.251970998,-47500.0,1601.3585457640449,179.18585940950922,-1883.525258617901,525.16192062879009,-844.21668260807633,-225.78655638549955,2007.8003017208298,1544.6846016985476,-1903.981347224493,1903.981347224493,-1544.6846016985476,3489.5987228433287,0.0
568296.95196600363,3590566.251970998,-47500.0,1804.388926111124,546.91478982321928,-1775.7408883457463,836.36586421316315,-585.00918369209114,21.595313733810205,2131.8808560516668,1890.1283748912235,-1852.8135752810902,1852.8135752810902,-1890.1283748912235,3692.645144264276,0.0
573296.95196600363,3590566.251970998,-47500.0,1932.6558688751854,943.13723534922735,-1559.1998591845183,1156.7668722817598,-217.88443007532302,348.69669588513682,2297.1283919483353,2183.0921386120394,-1693.4227279629922,1693.4227279629922,-2183.0921386120394,3999.5373951501615,0.0
578296.95196600363,3590566.251970998,-47500.0,1961.6355395481639,1337.3805079966432,-1218.5293860749027,1459.2866644010455,265.66245074514114,759.57496393900612,2516.9145982990881,2384.6532343845747,-1409.5815492741826,1409.5815492741826,-2384.6532343845747,4438.6585687550341,0.0
583296.95196600363,3590566.251970998,-47500.0,1874.3647925139467,1688.1311849411945,-749.11885078360012,1709.0005882931171,863.43077351856721,1250.4799067221666,2799.1531187117516,2455.7566919744322,-996.7216764270114,996.7216764270114,-2455.7566919744322,5018.2760796155935,0.0
588296.95196600363,3590566.251970998,-47500.0,1667.9523001456141,1946.2543155773278,-162.85569365831276,1866.2018275804764,1558.0604539699539,1807.0032709472525,3141.7308414069607,2364.8385878848158,-467.9677957628785,467.9677957628785,-2364.8385878848158,5720.1635652074247,0.0
593296.95196600363,3590566.251970998,-47500.0,1359.2597107285492,2062.1151844232477,507.50341730432859,1892.1683151314185,2313.9524576811341,2402.2144118346223,3529.296107254142,2097.0667172581793,141.51406446607962,-141.51406446607962,-2097.0667172581793,6500.9671858458678,0.0
598296.95196600363,3590566.251970998,-47500.0,987.32832246773376,1995.9725879757912,1207.5259468254424,1757.2244491449731,3077.2730454422945,2996.8689934799409,3932.8596860133921,1662.9014255482766,774.23975451425667,-774.23975451425667,-1662.9014255482766,7298.5139459280254,0.0
603296.95196600363,3590566.251970998,-47500.0,610.18480093350706,1729.5831971733778,1865.8346780549637,1449.5254342804647,3780.5211969324228,3542.6230625147095,4313.7343586723018,1102.6912030836695,1356.2238552014385,-1356.2238552014385,-1102.6912030836695,8040.4292579536605,0.0
608296.95196600363,3590566.251970998,-47500.0,294.98443438533513,1275.4118247711167,2404.9883601862266,981.90112455331337,4352.0455234965775,3988.4876947346552,4630.950914348261,484.13371984996718,1809.2973860865691,-1809.2973860865691,-484.13371984996718,8654.1373146643418,0.0
613296.95196600363,3590566.251970998,-47500.0,103.00549838748158,679.3907540399141,2756.7619270911182,393.78601558865978,4729.0547200863084,4289.5907956859446,4849.0806173488218,-108.73444215431016,2067.6890210884158,-2067.6890210884158,108.73444215431016,9077.5291402658531,0.0
618296.95196600363,3590566.251970998,-47500.0,73.813998699154325,14.638080397674052,2877.6273254478369,-253.67899568005581,4870.7539363670858,4416.0766049239091,4944.3335546443477,-593.0805614647702,2094.0481885500299,-2094.0481885500299,593.0805614647702,9268.6651462733862,0.0
623296.95196600363,3590566.251970998,-47500.0,214.32957571523605,-633.16679533510364,2759.1531784926842,-888.90410813097083,4767.3639867173433,4359.3731375880288,4908.1232909774299,-906.11450177077279,1889.17579301352,-1889.17579301352,906.11450177077279,9212.2493923216844,0.0
628296.95196600363,3590566.251970998,-47500.0,497.2244983303238,-1184.392604043559,2429.3798385776586,-1444.3009553836391,4441.7730589862067,4133.6420357299194,4747.6736348131708,-1018.6850973225863,1491.5475131153919,-1491.5475131153919,1018.6850973225863,8921.0453532201336,0.0
633296.95196600363,3590566.251970998,-47500.0,869.32347586538151,-1581.7642324733756,1944.6737223589523,-1869.257776813879,3943.2370816056655,3771.9099858297054,4483.6854261237786,-938.95477952468775,966.72484327713198,-966.72484327713198,938.95477952468775,8431.829795286747,0.0
638296.95196600363,3590566.251970998,-47500.0,1266.4529510116358,-1799.1818690682646,1375.3498932742671,-2137.6539359636254,3335.5803567094804,3318.3681867957057,4145.7981053365183,-705.69102672806048,390.8308987215234,-390.8308987215234,705.69102672806048,7797.2376888158715,0.0
643296.95196600363,3590566.251970998,-47500.0,1628.9534625460135,-1841.3360786552228,790.3458794568096,-2248.4033636287031,2684.0761813432014,2819.5256973021383,3767.0326658965209,-374.85311777523475,-165.89244954037997,165.89244954037997,374.85311777523475,7075.9770626418294,0.0
648296.95196600363,3590566.251970998,-47500.0,1912.8478568240223,-1736.126380722452,245.59614729031108,-2220.2848150439554,2044.8765424796472,2316.7965414641694,3378.3614338960601,-4.9799673704356451,-650.56260333994305,650.56260333994305,4.9799673704356451,6323.9501554812996,0.0
653296.95196600363,3590566.251970998,-47500.0,2094.4575881940009,-1523.9044238665003,-221.68368762142887,-2083.9325307187119,1459.0586721528207,1842.0002932281432,3004.3806223762058,354.08734784727261,-1032.2405711510467,1032.2405711510467,-354.08734784727261,5587.9561037486756,0.0
658296.95196600363,3590566.251970998,-47500.0,2169.1694051219456,-1247.3827258003603,-593.17780015445885,-1873.89475196024,951.30813645492447,1415.938189528561,2661.1332537997755,667.13661472235037,-1300.5513921293118,1300.5513921293118,-667.13661472235037,4902.502456187568,0.0
663296.95196600363,3590566.251970998,-47500.0,2146.6530976496315,-944.46530470912285,-866.02739823673505,-1622.5996810801221,531.90523503141924,1049.2750972603023,2356.5484492449509,914.54961664433108,-1460.7649076498676,1460.7649076498676,-914.54961664433108,4289.258187067805,0.0
668296.95196600363,3590566.251970998,-47500.0,2045.0060490700935,-644.54573778630697,-1047.9324175607246,-1356.8408472361405,200.34048101740382,744.68279398147581,2092.5262399875505,1089.9787536334757,-1527.8227564998688,1527.8227564998688,-1089.9787536334757,3758.3329968025032,0.0
673296.95196600363,3590566.251970998,-47500.0,1885.5508578554516,-367.65457699999354,-1152.4213826966459,-1096.4828080839368,-50.81512960201627,499.33164765639589,1867.1515083596305,1196.5891016879491,-1521.0185755621105,1521.0185755621105,-1196.5891016879491,3310.5382333712264,0.0
678296.95196600363,3590566.251970998,-47500.0,1689.0799049520365,-125.41100506319833,-1195.1358504523794,-854.69375681613121,-232.6022003263912,307.14572254262674,1676.3746811085603,1243.2432782683661,-1460.1069345717622,1460.1069345717622,-1243.2432782683661,2940.0077604628577,0.0
683296.95196600363,3590566.251970998,-47500.0,1473.6404985445492,77.188033023658221,-1191.3488869675327,-639.00251481334851,-357.23912497483127,160.55942847364344,1515.1977785197312,1241.3753701378464,-1362.9286568838311,1362.9286568838311,-1241.3753701378464,2636.7990450151278,0.0
688296.95196600363,3590566.251970998,-47500.0,1253.5762572636454,239.82267414585587,-1154.5742097554016,-452.64383710671552,-436.55359220489186,51.731791027651923,1378.4995968173548,1202.7935930307117,-1244.2773845037236,1244.2773845037236,-1202.7935930307117,2389.2127723775739,0.0
693296.95196600363,3590566.251970998,-47500.0,1039.424231910205,365.12907292392657,-1095.9811145622607,-295.85927355991663,-481.11630252739786,-26.709966915833672,1261.5653831951336,1138.3478581854572,-1115.621931065745,1115.621931065745,-1138.3478581854572,2185.622106867821,0.0
698296.95196600363,3590566.251970998,-47500.0,838.30187660986087,457.35374516318637,-1024.3259166102239,-166.99072521055959,-499.87346681031397,-81.283054343831125,1160.3647585826855,1057.2680394248396,-985.33226596731049,985.33226596731049,-1057.2680394248396,2015.6809744398086,0.0
533296.95196600363,3595566.251970998,-47500.0,-162.46150101391328,-1089.1869145832675,-1357.5237278323025,-794.58347948458095,-1128.0303302546472,-760.47399840526316,1698.5782356531133,-514.51209817366362,-1062.838438824529,1062.838438824529,514.51209817366362,3215.8297415189118,0.0
538296.95196600363,3595566.251970998,-47500.0,66.626202450911634,-1056.6489539050201,-1524.9229745779919,-725.29723113990019,-1218.2374735342246,-797.94224046810314,1791.5201810557949,-311.98819510523703,-1259.3796088229324,1259.3796088229324,311.98819510523703,3359.2411439508728,0.0
543296.95196600363,3595566.251970998,-47500.0,333.18920696887733,-982.88952476864529,-1695.4820776946538,-617.20663055092336,-1293.677712837718,-817.24128030197392,1881.4257921308945,-58.098782359039774,-1466.3406426211732,1466.3406426211732,58.098782359039774,3488.1235349252956,0.0
548296.95196600363,3595566.251970998,-47500.0,633.16852142781511,-857.85952543200904,-1860.0968687538334,-463.15165124968348,-1343.0438449267263,-808.94473775029314,1967.5184030914113,249.19804116007447,-1674.566213725253,1674.566213725253,-249.19804116007447,3600.4290634339723,0.0
553296.95196600363,3595566.251970998,-47500.0,957.71394250231072,-671.97330256666953,-2005.6114375128109,-257.11540935122002,-1351.5366369769865,-761.19151793009689,2050.4501647705565,607.72763388925546,-1870.3616579229677,1870.3616579229677,-607.72763388925546,3697.9967976646435,0.0
558296.95196600363,3595566.251970998,-47500.0,1291.9279148161734,-417.84022319122334,-2114.2593443786932,4.2315556966044383,-1300.7401655741019,-659.75298661005672,2133.4897908631415,1009.0440000028441,-2034.8485929054889,2034.8485929054889,-1009.0440000028441,3789.852157379612,0.0
563296.95196600363,3595566.251970998,-47500.0,1614.0327499751618,-92.771994773120724,-2163.6604449976735,319.437220384488,-1169.1092692992706,-488.57886084142967,2224.0089666701424,1436.2529786469763,-2143.9559340210003,2143.9559340210003,-1436.2529786469763,3896.3200177167159,0.0
568296.95196600363,3595566.251970998,-47500.0,1895.5315881101228,297.99969490341385,-2127.8500924391756,679.73521392339455,-933.45591250596851,-231.07714252566228,2334.8061472693516,1862.2209151685852,-2169.5814783582982,2169.5814783582982,-1862.2209151685852,4052.2163554611579,0.0
573296.95196600363,3595566.251970998,-47500.0,2103.0843925434178,737.7885558792276,-1979.8891778570589,1066.4424309609549,-571.83896858517699,127.6224326078495,2484.1781529732643,2249.0033226332789,-2082.5269495103994,2082.5269495103994,-2249.0033226332789,4305.0270397747026,0.0
578296.95196600363,3595566.251970998,-47500.0,2202.7942483795696,1195.481055367479,-1696.5059925731264,1449.0158860148297,-68.130984852476644,597.27677630033202,2693.2207344749063,2549.6103665948513,-1857.6760700576422,1857.6760700576422,-2549.6103665948513,4703.4269979241399,0.0
583296.95196600363,3595566.251970998,-47500.0,2167.1927221642372,1624.5569243830166,-1264.7828430048726,1784.8854215580386,581.87411179874459,1178.1554209875026,2979.5593161623633,2713.2374806496173,-1481.3663215659635,1481.3663215659635,-2713.2374806496173,5277.5974803177078,0.0
588296.95196600363,3595566.251970998,-47500.0,1984.2693684608676,1965.8713575487932,-690.03467479013023,2022.3802716968537,1363.681073072338,1856.3218738743988,3348.8370425610283,2694.5266566754299,-959.91454913695941,959.91454913695941,-2694.5266566754299,6022.3746857471797,0.0
593296.95196600363,3595566.251970998,-47500.0,1666.4646209206048,2155.66439311874,-2.8256878842966788,2107.7817997652687,2238.4812700489924,2599.853967826838,3787.2961775180925,2466.0611273822424,-326.92697256915017,326.92697256915017,-2466.0611273822424,6893.267589593911,0.0
598296.95196600363,3595566.251970998,-47500.0,1256.1070056432441,2138.888615607842,738.00827414676348,1996.4473439636852,3141.3746157087016,3357.828836258906,4259.681518027428,2031.2460973466966,354.10242725846251,-354.10242725846251,-2031.2460973466966,7814.166834251213,0.0
603296.95196600363,3595566.251970998,-47500.0,823.29667577192947,1885.4903158417599,1449.5960768106459,1666.0660678067732,3986.1191618145599,4063.9161000971535,4715.1334140624913,1432.7774530328193,995.39194728610528,-995.39194728610528,-1432.7774530328193,8690.4691890284266,0.0
608296.95196600363,3595566.251970998,-47500.0,453.78336056929214,1404.5610899183889,2038.1567749993608,1128.0295823186555,4677.6847312345517,4645.476582530986,5098.4196988080648,751.44160419857269,1500.1400697361278,-1500.1400697361278,-751.44160419857269,9424.2906893431664,0.0
613296.95196600363,3595566.251970998,-47500.0,228.25239619924787,749.95816476761411,2419.1742023315346,431.86968862799756,5130.9519100770221,5037.068124812552,5361.3502294343734,92.319601328324438,1784.935841339473,-1784.935841339473,-92.319601328324438,9930.5567000040119,0.0
618296.95196600363,3595566.251970998,-47500.0,199.26091425597369,12.764106371318604,2538.7378655681614,-340.95234958965392,5290.4429159823976,5194.8410491264349,5471.6774528700098,-439.42946363314729,1802.3835891347039,-1802.3835891347039,439.42946363314729,10151.72506172139,0.0
623296.95196600363,3595566.251970998,-47500.0,374.94858974685661,-698.92975754945235,2388.0703311098068,-1093.6619247952676,5144.128365039338,5106.9311709364774,5418.4308615104601,-765.37922660593949,1555.0598931724035,-1555.0598931724035,765.37922660593949,10067.682395839594,0.0
628296.95196600363,3595566.251970998,-47500.0,716.88041045416617,-1286.3266703492129,2005.0741858282984,-1736.0894336537369,4725.718329232951,4795.7532349924286,5212.744731670502,-852.89818694552946,1094.5125105316688,-1094.5125105316688,852.89818694552946,9697.7027070223521,0.0
633296.95196600363,3595566.251970998,-47500.0,1153.0904351590318,-1682.4132149571335,1462.2505601713306,-2203.9761574967092,4104.5225857860169,4311.3011118941076,4884.1193577109771,-719.11216017419963,505.54348583633248,-505.54348583633248,719.11216017419963,9093.8921376723101,0.0
638296.95196600363,3595566.251970998,-47500.0,1600.2480376012045,-1862.7156378891254,846.33912171987458,-2469.0660149302653,3367.1936729597551,3718.272961006438,4473.3498194513159,-419.54866894228519,-117.3844058719425,117.3844058719425,419.54866894228519,8328.4557631199932,0.0
643296.95196600363,3595566.251970998,-47500.0,1985.4586055648672,-1842.3858830711947,237.88736622658553,-2537.9923627534354,2598.4693269755389,3081.9939062797544,4024.1973695869879,-27.96970671247874,-692.18225360322208,692.18225360322208,27.96970671247874,7479.0487304888757,0.0
648296.95196600363,3595566.251970998,-47500.0,2260.2131128220713,-1663.6568786094776,-302.67936009578818,-2442.8123639959376,1866.9763152554763,2457.5539026637875,3575.7011077277475,383.77631611856299,-1162.7020828926713,1162.7020828926713,-383.77631611856299,6616.2818479446769,0.0
653296.95196600363,3595566.251970998,-47500.0,2404.13049869622,-1380.3022096677394,-740.16445739918606,-2228.3715402342909,1218.6744332678991,1884.228339130708,3156.6008719939346,759.50582126110521,-1502.0587781631298,1502.0587781631298,-759.50582126110521,5795.712824613106,0.0
658296.95196600363,3595566.251970998,-47500.0,2420.7210805762088,-1044.6035621012265,-1062.4449112689263,-1941.0626282975049,677.09795456352947,1384.8298744005881,2783.2535558484419,1064.1674049564997,-1708.203116130044,1708.203116130044,-1064.1674049564997,5054.6495431614094,0.0
663296.95196600363,3595566.251970998,-47500.0,2329.2995819894577,-699.36563337908956,-1274.3886801518227,-1621.3253070343915,247.74576711448839,968.26595127720373,2461.2932973944398,1282.6830530008524,-1795.8618496303125,1795.8618496303125,-1282.6830530008524,4412.6861129886056,0.0
668296.95196600363,3595566.251970998,-47500.0,2156.6819496213129,-374.88560210131777,-1390.9479188637397,-1300.1320755433619,-76.08761920040709,633.42608884434856,2189.176521987602,1415.1975508883054,-1788.3382008589376,1788.3382008589376,-1415.1975508883054,3874.5391951904162,0.0
673296.95196600363,3595566.251970998,-47500.0,1930.7234087682757,-89.410317103182024,-1431.3373081461016,-998.49659170150437,-307.89632276403228,373.03569432002246,1961.4610031605441,1471.4218995872254,-1711.1086402233329,1711.1086402233329,-1471.4218995872254,3433.9732072399893,0.0
678296.95196600363,3595566.251970998,-47500.0,1676.286982690164,148.59744263438623,-1415.0062619349258,-728.74251745360448,-463.82306941389692,176.77712025665409,1771.1068744532665,1465.7072764923018,-1587.7525228165036,1587.7525228165036,-1465.7072764923018,3077.9920618933616,0.0
683296.95196600363,3595566.251970998,-47500.0,1413.3417950684207,337.66725554645672,-1359.3311997850933,-496.48584642406098,-559.94084756873804,33.482374257714831,1610.9458304127625,1413.4921901015555,-1437.9195741433282,1437.9195741433282,-1413.4921901015555,2790.6956080241043,0.0
688296.95196600363,3595566.251970998,-47500.0,1156.5564368065307,480.75332923262431,-1278.612304032496,-302.65912705070042,-610.7316510443635,-67.514329492292546,1474.5356969360762,1329.1268295780023,-1276.7347570766992,1276.7347570766992,-1329.1268295780023,2556.3128821858459,0.0
693296.95196600363,3595566.251970998,-47500.0,915.76217859690018,583.20911106971221,-1183.9096141163293,-145.24027225797556,-628.42319020102605,-135.66599000907837,1356.5519226656015,1224.7887998204556,-1115.0537030841874,1115.0537030841874,-1224.7887998204556,2361.1223375496215,0.0
698296.95196600363,3595566.251970998,-47500.0,696.80994478696448,651.35521921420764,-1083.3368202705983,-20.573823455054949,-622.86690538495702,-178.93823799047283,1252.8539324612047,1110.1400440389712,-960.12251500298169,960.12251500298169,-1110.1400440389712,2194.2760416833471,0.0
703296.95196600363,3595566.251970998,-47500.0,502.51646269743361,691.56095771910452,-982.55029869614918,75.701781205514607,-601.71461857498355,-203.80040878688538,1160.3613548113208,992.42261195190235,-816.35524923084608,816.35524923084608,-992.42261195190235,2047.80919527778,0.0
528296.95196600363,3600566.251970998,-47500.0,-621.23850238718421,-1209.6002431945321,-1138.1585388835206,-1061.0823612679537,-1099.3641205434833,-852.95124423031496,1771.6590241386828,-930.43615228835893,-760.50955797585698,760.50955797585698,930.43615228835893,3404.9978187510487,0.0
533296.95196600363,3600566.251970998,-47500.0,-436.22680520560283,-1239.4532207022348,-1309.1095019390095,-1050.0400503133806,-1221.457326804659,-927.99421088203735,1886.5977822697205,-795.86789681413757,-951.65738140486337,951.65738140486337,795.86789681413757,3600.9531111412757,0.0
538296.95196600363,3600566.251970998,-47500.0,-205.29544604575901,-1240.6842579738693,-1496.3560669744797,-1006.7373733100533,-1342.954563229697,-995.46623194923325,2000.4371417916318,-610.00747858719683,-1167.096744076945,1167.096744076945,610.00747858719683,3786.8301505914528,0.0
543296.95196600363,3600566.251970998,-47500.0,73.697979791136902,-1202.5645538379024,-1695.9582713547279,-921.86152154277215,-1456.0375046265563,-1047.6183321567767,2110.6926163242897,-365.32075848286433,-1403.4801000489419,1403.4801000489419,365.32075848286433,3956.3613656354205,0.0
548296.95196600363,3600566.251970998,-47500.0,399.5357479184874,-1112.8679186073102,-1900.6843933778707,-785.44639313450045,-1549.3110421548724,-1073.791671703895,2214.9630922278375,-56.129183150456925,-1653.7467562875145,1653.7467562875145,56.129183150456925,4103.6601000553301,0.0
553296.95196600363,3600566.251970998,-47500.0,765.9202688059197,-958.73697258380582,-2098.9058354932567,-587.87558856345879,-1606.9974948877466,-1059.9173007276502,2311.6630099858539,319.49349266626314,-1905.8266588267525,1905.8266588267525,-319.49349266626314,4225.1449706719868,0.0
558296.95196600363,3600566.251970998,-47500.0,1159.5651468269955,-728.34751327978472,-2273.5384967776431,-321.57044842150793,-1608.3503867236489,-988.25486519951266,2401.302492321076,757.18971427236977,-2141.4017511584052,2141.4017511584052,-757.18971427236977,4322.9282416339884,0.0
563296.95196600363,3600566.251970998,-47500.0,1558.4696382613408,-413.62325356011064,-2401.3831903873538,16.478793878165597,-1527.6502094289781,-837.65063477270826,2488.4729113338699,1243.2979438242439,-2335.1368620772928,2335.1368620772928,-1243.2979438242439,4410.0743614082821,0.0
568296.95196600363,3600566.251970998,-47500.0,1931.0556474412469,-14.113467208757594,-2453.4352919372495,421.32568921282353,-1335.3105140453499,-584.69940169837071,2584.4241039941594,1751.8228784279172,-2455.0399202195904,2455.0399202195904,-1751.8228784279172,4517.1656082013824,0.0
573296.95196600363,3600566.251970998,-47500.0,2237.1780010448574,458.20406378688187,-2396.9463420661014,876.11598272015078,-1000.7630448329779,-206.27667583886003,2709.350167136161,2242.3616510707047,-2464.8408873108242,2464.8408873108242,-2242.3616510707047,4696.7517434306619,0.0
578296.95196600363,3600566.251970998,-47500.0,2432.2114417038961,974.08093500613097,-2200.0699421634408,1348.3959418105148,-497.75520086667979,316.1453263696331,2892.094036689462,2660.5114409610142,-2329.3094047124823,2329.3094047124823,-2660.5114409610142,5017.7534337753477,0.0
583296.95196600363,3600566.251970998,-47500.0,2475.1414952212222,1483.8923579971322,-1839.5569530515399,1788.196510130467,187.71748160071309,990.30063390430212,3163.9379843485058,2942.6153878032437,-2022.971291796619,2022.971291796619,-2942.6153878032437,5542.4902298784809,0.0
588296.95196600363,3600566.251970998,-47500.0,2340.4955781991835,1918.8648272914184,-1310.9471811166184,2130.0168325467325,1047.5915318576153,1805.6613049070077,3545.1174450922858,3026.3342341465896,-1541.4794796246979,1541.4794796246979,-3026.3342341465896,6294.0885789529611,0.0
593296.95196600363,3600566.251970998,-47500.0,2031.8519193692005,2199.3129427693752,-638.96474752950337,2300.8211847563866,2042.3306277792283,2726.4243867674686,4028.9653101043905,2866.8778648277234,-912.90150225374225,912.90150225374225,-2866.8778648277234,7237.1526248803939,0.0
598296.95196600363,3600566.251970998,-47500.0,1592.0883252411977,2251.0611930722198,116.09262599066908,2234.8891403608636,3095.9014723451564,3687.8933233695357,4574.7320085789825,2455.6974595143456,-204.07377962623491,204.07377962623491,-2455.6974595143456,8282.765041426308,0.0
603296.95196600363,3600566.251970998,-47500.0,1103.9198486757834,2027.7122990277621,861.05223489857497,1893.4545724132154,4099.7768188547925,4599.72434501321,5115.9497071841906,1834.9135283308087,483.62768109961451,-483.62768109961451,-1834.9135283308087,9308.2502920910047,0.0
608296.95196600363,3600566.251970998,-47500.0,675.72129518782288,1531.8663330470642,1485.015522940314,1283.2812261434819,4928.9938529566416,5358.405952660104,5577.8723820454234,1099.0392940959543,1032.5036649660713,-1032.5036649660713,-1099.0392940959543,10181.259244084766,0.0
613296.95196600363,3600566.251970998,-47500.0,413.2753074306915,825.41134942357178,1885.3948393395769,465.73889405542388,5468.7420110902385,5868.0167439174074,5894.4784347213972,378.23092471901282,1338.2946389527735,-1338.2946389527735,-378.23092471901282,10784.589748161854,0.0
618296.95196600363,3600566.251970998,-47500.0,386.25300542796913,20.869749725540551,1996.8450117577684,-450.67260801890984,5643.9170664122175,6063.6975537035214,6021.6927518991888,-194.9157348756454,1341.7797033318193,-1341.7797033318193,194.9157348756454,11038.811530214556,0.0
623296.95196600363,3600566.251970998,-47500.0,603.90908214759759,-746.41830118251198,1811.1906230027589,-1334.9191909554017,5440.2018271709949,5929.0642753198772,5945.4540671027353,-523.42452706006407,1048.570508120119,-1048.570508120119,523.42452706006407,10917.448480509569,0.0
628296.95196600363,3600566.251970998,-47500.0,1012.2445315240095,-1355.3365052633276,1378.9062469564294,-2066.8995261756718,4907.1645310453932,5499.883190815468,5682.8474963222898,-572.50023996544701,527.12036355283499,-527.12036355283499,572.50023996544701,10449.675571353315,0.0
633296.95196600363,3600566.251970998,-47500.0,1514.3361259191508,-1729.7004087246926,791.36836156804827,-2566.238569283179,4141.8735249818665,4852.2858574234124,5276.0237034853808,-373.08182380826509,-114.50294904424291,114.50294904424291,373.08182380826509,9709.5572215902921,0.0
638296.95196600363,3600566.251970998,-47500.0,2003.3616994996726,-1850.6459923198281,152.55024513232772,-2805.4068449028896,3260.7388620783049,4081.0434018468573,4781.1106726606122,-2.9802973493938794,-761.88011908390536,761.88011908390536,2.9802973493938794,8796.0507974928569,0.0
643296.95196600363,3600566.251970998,-47500.0,2392.773948229807,-1749.0055393697148,-447.34276395126153,-2804.8616812999521,2371.6372296836912,3277.1867124566834,4255.725087476012,442.97341383806582,-1322.9394692135847,1322.9394692135847,-442.97341383806582,7811.087125366229,0.0
648296.95196600363,3600566.251970998,-47500.0,2632.7116442229658,-1485.3806696202034,-947.41898553816748,-2616.3232430190146,1555.5878295995512,2512.4652065425366,3748.1526628107285,879.8539873130228,-1742.735653220311,1742.735653220311,-879.8539873130228,6842.1755459059032,0.0
653296.95196600363,3600566.251970998,-47500.0,2710.9700386132313,-1128.5329138663374,-1319.0740366898592,-2303.3682836401345,860.70768619215585,1833.2242052675447,3290.3819686907977,1248.1845496894773,-2003.6107961814198,2003.6107961814198,-1248.1845496894773,5952.6521591667106,0.0
658296.95196600363,3600566.251970998,-47500.0,2643.7278980891329,-739.50787089115045,-1560.1122945678703,-1926.1872405648141,305.65503746442778,1261.9153596896178,2896.7577491061929,1517.2910880402715,-2116.0274767302899,2116.0274767302899,-1517.2910880402715,5179.2124599490407,0.0
663296.95196600363,3600566.251970998,-47500.0,2462.9598376342301,-363.7592473671279,-1685.338059206864,-1533.0483336724956,-112.26542365578561,802.69343136775672,2567.964019397722,1680.5063492743918,-2106.562248103935,2106.562248103935,-1680.5063492743918,4534.6515704860149,0.0
668296.95196600363,3600566.251970998,-47500.0,2205.4372472163359,-29.822451634179874,-1717.6397044282469,-1157.6577572600575,-408.40248609763455,447.9392820368177,2296.8962605748311,1747.1549450648499,-2007.5082953447059,2007.5082953447059,-1747.1549450648499,4013.4888143642352,0.0
673296.95196600363,3600566.251970998,-47500.0,1905.3806324716315,248.18879670617869,-1681.4802846435393,-820.29273986211797,-603.6917293545863,183.87398073757868,2073.3910194635164,1734.8413590520947,-1849.8908565638983,1849.8908565638983,-1734.8413590520947,3598.7659202774621,0.0
678296.95196600363,3600566.251970998,-47500.0,1590.7229315062539,466.66964434306885,-1599.056408220551,-530.64695691407371,-719.88533839165075,-5.4053499510575076,1887.1285093319284,1663.6634332885883,-1659.8124380997765,1659.8124380997765,-1663.6634332885883,3268.6121920570217,0.0
683296.95196600363,3600566.251970998,-47500.0,1282.0263151350146,628.69455917458106,-1488.5757989411418,-290.99598172004153,-776.84146250495871,-135.41851562353054,1729.1258846450751,1552.6183637425131,-1457.2387350194529,1457.2387350194529,-1552.6183637425131,3001.4104654346729,0.0
688296.95196600363,3600566.251970998,-47500.0,992.97100418441835,740.94819145302426,-1363.9096168190938,-98.962988127274429,-791.31345079707114,-219.98051594042622,1592.2892720893515,1417.8039867750406,-1256.2410766739483,1256.2410766739483,-1417.8039867750406,2778.8991234629125,0.0
693296.95196600363,3600566.251970998,-47500.0,731.56451201298648,811.56509108052046,-1234.9837505041432,50.369271316363552,-776.67986550530463,-270.6794854950025,1471.3913249686866,1271.8373087596822,-1065.9255207697167,1065.9255207697167,-1271.8373087596822,2587.2888569962233,0.0
698296.95196600363,3600566.251970998,-47500.0,501.53110629978329,848.76765433765968,-1108.4761646416762,162.99449574918077,-743.18494876610839,-296.83337877399856,1362.76774253854,1123.9817246901493,-891.56073893731536,891.56073893731536,-1123.9817246901493,2417.0290548485063,0.0
703296.95196600363,3600566.251970998,-47500.0,303.59220495468867,860.10616205619658,-988.56573310200224,245.05291581827402,-698.40328099762712,-305.69709739649807,1263.933593161463,980.61509182115788,-735.64161559752642,735.64161559752642,-980.61509182115788,2261.9481947284721,0.0
708296.95196600363,3600566.251970998,-47500.0,136.51732384006701,852.10859171707216,-877.60623647281545,302.29661430383379,-647.75965909703007,-302.77385551321004,1173.2301347319342,845.80791597372604,-598.77613568331617,598.77613568331617,-845.80791597372604,2118.2828928575195,0.0
523296.95196600363,3605566.251970998,-47500.0,-1049.7779905648438,-1222.55983000985,-886.36234429292119,-1267.2482237381003,-1007.3073693968336,-901.17619165804865,1812.2939689617613,-1263.8251093876743,-432.77359036549086,432.77359036549086,1263.8251093876743,3517.132285536904,0.0
528296.95196600363,3605566.251970998,-47500.0,-926.38815118125115,-1298.6848762224215,-1039.481375176443,-1312.832539887225,-1142.9958512527323,-1005.2244836185109,1948.3501318123094,-1202.3688325320081,-595.14888618582052,595.14888618582052,1202.3688325320081,3762.9433950183393,0.0
533296.95196600363,3605566.251970998,-47500.0,-756.90512810665223,-1360.2564639103571,-1215.272385269511,-1336.7260253194261,-1288.9390001756085,-1112.0340522747515,2087.670769702072,-1097.3611560442801,-788.09705313679433,788.09705313679433,1097.3611560442801,4008.6071403867063,0.0
538296.95196600363,3605566.251970998,-47500.0,-534.55718475720562,-1398.3145162949461,-1414.0912697280949,-1329.6287458573102,-1441.2517693549644,-1216.496547507928,2227.5840358841051,-938.57115695378047,-1013.1781513643393,1013.1781513643393,938.57115695378047,4247.3569240825582,0.0
543296.95196600363,3605566.251970998,-47500.0,-253.92726697644184,-1401.4526007059303,-1634.3936577459758,-1280.3162958585201,-1593.2023291322294,-1310.7668221482043,2364.6801200503351,-715.42884475931896,-1269.8329304134274,1269.8329304134274,715.42884475931896,4470.8371059708097,0.0
548296.95196600363,3605566.251970998,-47500.0,87.544999465732971,-1355.8311315666281,-1871.6568736311087,-1175.9246906239953,-1734.1391956515035,-1383.4081551043435,2494.9789204284216,-418.21648319986889,-1554.0867823396948,1554.0867823396948,418.21648319986889,4669.6068402524124,0.0
553296.95196600363,3605566.251970998,-47500.0,487.50290211478853,-1245.6984339441101,-2117.0173019446033,-1002.7733575574382,-1848.2794914630738,-1418.4934249817195,2614.4383604162126,-40.008636353917268,-1856.9120998582166,1856.9120998582166,40.008636353917268,4834.5123611420804,0.0
558296.95196600363,3605566.251970998,-47500.0,936.10249380382095,-1054.7677676770343,-2355.7321523947762,-748.0215149739189,-1913.5464101697526,-1394.8452658948415,2720.069228383185,420.46428637069789,-2162.3834714157028,2162.3834714157028,-420.46428637069789,4959.5958994565344,0.0
563296.95196600363,3605566.251970998,-47500.0,1413.2296861470527,-768.86640147251387,-2565.7688312941227,-402.47733437094337,-1900.8381206606282,-1285.7452754178887,2812.021794065713,955.00844615672736,-2445.9938130980163,2445.9938130980163,-955.00844615672736,5047.4414311740729,0.0
568296.95196600363,3605566.251970998,-47500.0,1886.2088320731375,-380.22603474645126,-2717.1241867530002,35.202421327728004,-1774.3846364204155,-1059.6454886038557,2897.0081188834906,1541.5474851056047,-2673.8512218794908,2673.8512218794908,-1541.5474851056047,5117.688907664834,0.0
573296.95196600363,3605566.251970998,-47500.0,2309.2717190624667,106.52486694813614,-2772.8521493634539,552.99533799542644,-1494.1600911262872,-682.63537127237123,2992.968375514894,2140.0663236593982,-2803.9091503810005,2803.9091503810005,-2140.0663236593982,5217.5900492880264,0.0
578296.95196600363,3605566.251970998,-47500.0,2626.5976384717219,667.3616076302427,-2693.0622391962966,1119.4381168884486,-1021.4888101726201,-123.51838796740451,3133.1615205978756,2690.7937704638362,-2790.6910831603172,2790.6910831603172,-2690.7937704638362,5427.5312338794138,0.0
583296.95196600363,3605566.251970998,-47500.0,2780.8316029591524,1252.8280712623821,-2443.0165766667169,1678.8539832362528,-328.71713746286599,637.87757802609133,3364.2268120543231,3117.3725170663165,-2594.7650771172903,2594.7650771172903,-3117.3725170663165,5845.9324973427392,0.0
588296.95196600363,3605566.251970998,-47500.0,2727.9422494070141,1786.4673107831723,-2005.4090425287486,2151.0296710132961,587.32126227927722,1599.4297918031887,3730.0790633622478,3337.8857642607236,-2196.9377776928277,2196.9377776928277,-3337.8857642607236,6544.1981946054766,0.0
593296.95196600363,3605566.251970998,-47500.0,2456.486347726036,2172.090710031574,-1394.6352497972412,2439.1874055070216,1690.6065964980451,2724.5531019509131,4242.1494347457583,3284.9238435919992,-1614.4305143234392,1614.4305143234392,-3284.9238435919992,7517.48939195401,0.0
598296.95196600363,3605566.251970998,-47500.0,2005.0657779269191,2312.9570189576921,-667.77926760351386,2448.9132167528946,2895.5576726460604,3933.5965671229774,4858.5445731824593,2931.6420461105695,-912.73622898406256,912.73622898406256,-2931.6420461105695,8672.4619721510298,0.0
603296.95196600363,3605566.251970998,-47500.0,1468.0658862391617,2141.2475182328681,75.110756589141147,2116.5397643350193,4068.5910655666744,5105.0511730473381,5493.7695712179147,2314.8699323661585,-204.54008607802143,204.54008607802143,-2314.8699323661585,9853.3490541477695,0.0
608296.95196600363,3605566.251970998,-47500.0,980.34267358834632,1648.9381175021301,707.46970359605598,1438.8692351466584,5047.7849982675843,6091.9396898637451,6046.5450255647202,1542.2042087527318,370.88398961393818,-370.88398961393818,-1542.2042087527318,10881.457867105757,0.0
613296.95196600363,3605566.251970998,-47500.0,679.37595088282796,905.26449609748806,1108.7514627408395,490.44212156087258,5680.0601725360011,6753.4791264127161,6425.9483441430702,772.52789844733059,686.22070713171718,-686.22070713171718,-772.52789844733059,11594.842995723155,0.0
618296.95196600363,3605566.251970998,-47500.0,656.89779342678037,47.381982292048505,1202.5521638059583,-584.70942294305246,5864.9668594438981,6993.4294165844667,6571.372662678652,170.99105245572295,669.38720929787326,-669.38720929787326,-170.99105245572295,11883.505997880771,0.0
623296.95196600363,3605566.251970998,-47500.0,922.78090097150175,-757.53928391762145,983.0739998993663,-1609.4517751596138,5586.5374040313527,6789.4478813524156,6464.8178861225933,-144.56746088369115,331.00223593819123,-331.00223593819123,144.56746088369115,11712.749465155379,0.0
628296.95196600363,3605566.251970998,-47500.0,1401.507099600025,-1363.9408423531438,515.91279737842581,-2424.7914130679924,4917.1741642341676,6198.9285769770422,6132.3526407091749,-140.08733671807232,-239.46912303086981,239.46912303086981,140.08733671807232,11126.71328671069,0.0
633296.95196600363,3605566.251970998,-47500.0,1963.8396649088179,-1688.9890434186184,-87.496377244849782,-2932.6658709113635,3991.2661653450295,5338.0633498721409,5634.1448161586477,133.14640758163205,-907.62740737483705,907.62740737483705,-133.14640758163205,10230.605446342523,0.0
638296.95196600363,3605566.251970998,-47500.0,2475.6361941313494,-1725.4302808616503,-707.98858313249434,-3112.016991922505,2962.2638515454937,4345.0406052596054,5047.0339727923219,569.14355994298512,-1539.9669121543543,1539.9669121543543,-569.14355994298512,9159.2533206399403,0.0
643296.95196600363,3605566.251970998,-47500.0,2838.5376076005359,-1525.9019662739327,-1250.9568547088502,-3006.2908278524897,1963.3500844127771,3344.7737755952076,4445.8542524462082,1050.2978257253023,-2039.585390205187,2039.585390205187,-1050.2978257253023,8044.451798568809,0.0
648296.95196600363,3605566.251970998,-47500.0,3007.3324987440169,-1172.7168527403787,-1661.7003483334065,-2694.9392392759737,1085.3075499953202,2427.6233822066915,3888.3767753003513,1481.6559842309307,-2360.0173039196652,2360.0173039196652,-1481.6559842309307,6991.1954538922701,0.0
653296.95196600363,3605566.251970998,-47500.0,2984.9054743185566,-749.34275454261149,-1924.024315625298,-2264.6856569587076,373.26757754349063,1644.4253173862355,3407.0433123218777,1806.2697835711197,-2499.402680626954,2499.402680626954,-1806.2697835711197,6066.5549431064537,0.0
658296.95196600363,3605566.251970998,-47500.0,2805.3076008562962,-322.68615948855603,-2049.2456604587901,-1790.1617081926165,-164.22799981318752,1012.7230446077715,3009.8597323622425,2003.8224959220072,-2484.7848855523021,2484.7848855523021,-2003.8224959220072,5299.5450709761881,0.0
663296.95196600363,3605566.251970998,-47500.0,2515.65477388,63.038923886125389,-2063.2498338546266,-1325.5951977646218,-541.96732858675909,527.38990143850469,2688.7095154558647,2080.4350041150992,-2355.8423692427168,2355.8423692427168,-2080.4350041150992,4688.3051076534448,0.0
668296.95196600363,3605566.251970998,-47500.0,2162.7662136402719,384.61190447229745,-1996.1602357067729,-904.53787782908284,-786.11465714765836,170.79503790688406,2428.7549568668383,2056.856928663587,-2152.986580047454,2152.986580047454,-2056.856928663587,4210.9892896980582,0.0
673296.95196600363,3605566.251970998,-47500.0,1785.8367960573898,634.61739738884228,-1875.9805302257798,-543.69143091337548,-925.77123063123349,-79.601680915169325,2214.7014834586671,1959.0245103917625,-1910.7887456309693,1910.7887456309693,-1959.0245103917625,3837.1927056233421,0.0
678296.95196600363,3605566.251970998,-47500.0,1413.8758859640366,815.78656994965263,-1725.6436686963375,-247.85570864638547,-988.07556904712055,-246.48978241728125,2033.7314330208969,1812.0576212625895,-1655.5647763856371,1655.5647763856371,-1812.0576212625895,3536.9969230357224,0.0
683296.95196600363,3605566.251970998,-47500.0,1066.0522150939505,936.32920009386942,-1562.3204224274007,-14.409721479336273,-995.96265355720948,-350.20086389893396,1876.3137988025871,1637.2380541261471,-1405.4904947517346,1405.4904947517346,-1637.2380541261471,3286.0705287172818,0.0
688296.95196600363,3605566.251970998,-47500.0,753.39014201451073,1006.6518815901949,-1397.9322395117624,163.2622276759694,-967.58960996210419,-407.7085132405274,1735.9259072891218,1451.0197392742714,-1171.9057874411872,1171.9057874411872,-1451.0197392742714,3067.1056729895959,0.0
693296.95196600363,3605566.251970998,-47500.0,480.82627591043217,1037.3244845225706,-1240.1447998258034,293.43031341313343,-916.6492666819272,-432.5101307369207,1608.3686904867193,1265.1967946579696,-960.95753634109576,960.95753634109576,-1265.1967946579696,2869.0185144672851,0.0
698296.95196600363,3605566.251970998,-47500.0,249.11079223179993,1037.979844437546,-1093.4296498080687,384.56819790867564,-853.06205887612748,-434.95467666348378,1491.0529867905611,1087.6058460286417,-775.13889557658524,775.13889557658524,-1087.6058460286417,2685.3312728671922,0.0
703296.95196600363,3605566.251970998,-47500.0,56.348636894748914,1016.8338199878201,-960.00047571300956,444.54650203095071,-783.755116090304,-422.74705004665088,1382.4174523023626,922.98435802679739,-614.54788451741626,614.54788451741626,-922.98435802679739,2512.5890621980825,0.0
708296.95196600363,3605566.251970998,-47500.0,-100.85229841585986,980.57806441545131,-840.55891578752482,480.25414331231121,-713.38312670329799,-401.47831572754598,1281.5115406522521,773.78621882411994,-477.83330838260781,477.83330838260781,-773.78621882411994,2349.1371675250643,0.0
523296.95196600363,3610566.251970998,-47500.0,-1356.4225668494983,-1244.7203399334519,-759.30898193035046,-1497.124621134368,-1004.5583001386187,-1030.8710270271797,1968.9868038080842,-1498.9123736798886,-238.74710991092456,238.74710991092456,1498.9123736798886,3829.8409750328942,0.0
528296.95196600363,3610566.251970998,-47500.0,-1261.3596402771566,-1344.5154561282038,-904.75435481009094,-1581.2223103399974,-1154.2489172965738,-1164.9770766191882,2129.9609227049777,-1472.5307203819593,-388.54234852880234,388.54234852880234,1472.5307203819593,4125.8836029713366,0.0
533296.95196600363,3610566.251970998,-47500.0,-1117.6836824972793,-1435.9513324587479,-1076.1480652671853,-1648.0813565543126,-1320.0593570764456,-1308.2421858787138,2297.4185884930735,-1404.3717285525031,-572.84147397041988,572.84147397041988,1404.3717285525031,4428.0930427687654,0.0
538296.95196600363,3610566.251970998,-47500.0,-915.92726905848747,-1510.6549496375778,-1275.8660143119491,-1687.7021514035775,-1499.712606318574,-1456.3882289533194,2468.5226208806771,-1282.4503365419621,-795.65979349830172,795.65979349830172,1282.4503365419621,4729.2478895216473,0.0
543296.95196600363,3610566.251970998,-47500.0,-647.07417460246336,-1557.3392458943943,-1505.0245329482991,-1687.3588872332357,-1688.2305553501317,-1602.1313564107907,2639.2722445927711,-1093.4240646145495,-1059.6171374122309,1059.6171374122309,1093.4240646145495,5019.6260053885835,0.0
548296.95196600363,3610566.251970998,-47500.0,-304.03556834432834,-1561.4536123711362,-1762.4282595291363,-1631.5464063614584,-1876.6601398807811,-1734.013924014266,2804.4181567498481,-823.52291473434752,-1364.6300565169586,1364.6300565169586,823.52291473434752,5286.9727044755855,0.0
553296.95196600363,3610566.251970998,-47500.0,116.10545941291134,-1505.2350911778999,-2043.0971185340181,-1502.4409556135188,-2050.4827943248215,-1835.0300305631595,2957.6290703065588,-460.31929872794296,-1706.0799898491437,1706.0799898491437,460.31929872794296,5517.1380512814567,0.0
558296.95196600363,3610566.251970998,-47500.0,608.97765247810389,-1368.5636387366301,-2336.3789507410393,-1281.265622119457,-2187.8275402387439,-1881.1936207068879,3092.1924500421264,4.3325365170589976,-2072.4714217392066,2072.4714217392066,-4.3325365170589976,5696.0712958909935,0.0
563296.95196600363,3610566.251970998,-47500.0,1159.0512463910347,-1131.1895612339065,-2623.8342765957996,-951.07078539755719,-2257.8254726773066,-1840.385228409199,3202.7239812582288,569.92818004950095,-2442.8185741447419,2442.8185741447419,-569.92818004950095,5814.2945583106066,0.0
568296.95196600363,3610566.251970998,-47500.0,1735.6004836986815,-777.00404475290031,-2877.423957597473,-501.49334864622494,-2219.8254623235662,-1672.1372468561383,3288.6367338201298,1221.5597516004229,-2784.4212655352421,2784.4212655352421,-1221.5597516004229,5875.4796687676971,0.0
573296.95196600363,3610566.251970998,-47500.0,2289.8859748432924,-300.85690121743045,-3059.0555066263732,64.166786159870043,-2024.70460903767,-1329.4283656917808,3360.2546353799444,1923.5504695746638,-3052.3272889159625,3052.3272889159625,-1923.5504695746638,5910.4393807201477,0.0
578296.95196600363,3610566.251970998,-47500.0,2755.9764708374669,282.30579525582669,-3123.1390549732687,719.9527724180623,-1620.0303707270623,-763.98306800265993,3447.6398602062982,2614.5129139809487,-3192.4836928494478,3192.4836928494478,-2614.5129139809487,5993.9508357807308,0.0
583296.95196600363,3610566.251970998,-47500.0,3058.4137369712221,927.83274598437856,-3024.0738763071222,1408.2978761753363,-960.92496712348225,63.359232795422734,3607.8454626011326,3207.4883872863461,-3150.8647008645307,3150.8647008645307,-3207.4883872863461,6249.1827498427228,0.0
588296.95196600363,3610566.251970998,-47500.0,3129.364336743854,1555.5764094110907,-2729.7871143013817,2035.3726230627872,-27.394509038474951,1166.5427889169578,3915.4878127024308,3599.905547374844,-2889.8222497391034,2889.8222497391034,-3599.905547374844,6809.6832417427431,0.0
593296.95196600363,3610566.251970998,-47500.0,2934.5837262466066,2054.4065776019729,-2239.7741265998679,2477.079233232364,1154.1842204652478,2514.4048763605306,4418.6510334112354,3696.8687963131842,-2409.5856023522801,2409.5856023522801,-3696.8687963131842,7735.7818680096134,0.0
598296.95196600363,3610566.251970998,-47500.0,2500.9733167973782,2303.0615273897251,-1601.6145305124562,2601.6686959281164,2492.6660011555437,4013.3066038614179,5087.3644545080078,3445.884461490728,-1767.3956697373701,1767.3956697373701,-3445.884461490728,8954.4027030027337,0.0
603296.95196600363,3610566.251970998,-47500.0,1931.258181078405,2207.5960089548666,-915.82998686899657,2309.4610053264487,3828.6134614930602,5502.9720355435602,5816.0445350783175,2871.8581883935472,-1081.9304656544355,1081.9304656544355,-2871.8581883935472,10277.555598623359,0.0
608296.95196600363,3610566.251970998,-47500.0,1389.5692301761865,1744.6435301670908,-319.44290004868725,1579.1687437680337,4957.0040005460496,6776.6262724683484,6468.0171684437446,2092.9282273831686,-511.65753029292159,511.65753029292159,-2092.9282273831686,11466.297691926906,0.0
613296.95196600363,3610566.251970998,-47500.0,1051.9625108818491,989.09537148295897,52.910413502276,498.90730812022207,5677.974939814233,7628.603118974288,6917.7066610570337,1299.0180564576826,-206.5957226929221,206.5957226929221,-1299.0180564576826,12297.177159573877,0.0
618296.95196600363,3610566.251970998,-47500.0,1037.5510773796404,104.77083039794623,117.03702183048748,-741.55387090241152,5860.3657923727651,7916.6791791838777,7081.5172324703644,691.7630879782746,-250.84932350924549,250.84932350924549,-691.7630879782746,12618.097421855122,0.0
623296.95196600363,3610566.251970998,-47500.0,1355.5324942063626,-706.44351766911564,-127.5439037458036,-1904.4044469251166,5488.6889508033282,7611.362060851241,6936.5635737090115,410.29867268561298,-625.88141432723796,625.88141432723796,-410.29867268561298,12384.157935376941,0.0
628296.95196600363,3610566.251970998,-47500.0,1901.3336990617793,-1275.0723315984667,-598.8523138468787,-2781.932650373763,4667.187356234891,6804.8486659502132,6522.2731831520705,482.60502545438652,-1217.8128895610332,1217.8128895610332,-482.60502545438652,11661.812821539055,0.0
633296.95196600363,3610566.251970998,-47500.0,2505.6216507141594,-1517.2241246011374,-1167.9589467490878,-3259.2942587659031,3577.9057779026416,5673.683574623944,5923.9566234459617,829.07007004189063,-1865.7949534681138,1865.7949534681138,-829.07007004189063,10599.484665310767,0.0
638296.95196600363,3610566.251970998,-47500.0,3005.2351265281545,-1445.2328374501478,-1707.6402668708151,-3332.0464067120315,2416.8602258352894,4416.7780637185242,5245.5121278353417,1310.8044210916264,-2422.7818566037422,2422.7818566037422,-1310.8044210916264,9378.3478075353032,0.0
643296.95196600363,3610566.251970998,-47500.0,3295.78442531887,-1139.3332690664972,-2128.7046227339229,-3079.2590072253411,1340.9165269971936,3201.0183118237237,4581.6923175785014,1789.432586044775,-2796.8353365256526,2796.8353365256526,-1789.432586044775,8164.1854888160015,0.0
648296.95196600363,3610566.251970998,-47500.0,3346.329303758856,-704.43359413772077,-2391.8105030792949,-2616.966383147851,443.93506458515361,2134.3161062787299,3997.4526530450594,2167.4753987416188,-2960.0421770372395,2960.0421770372395,-2167.4753987416188,7075.7315876695429,0.0
653296.95196600363,3610566.251970998,-47500.0,3183.4570918939794,-235.16349672404149,-2499.1067067923191,-2057.813244874229,-239.83190606803149,1265.6945401640373,3519.2789763711676,2399.5788531803373,-2933.2123723791701,2933.2123723791701,-2399.5788531803373,6173.6363816181693,0.0
658296.95196600363,3610566.251970998,-47500.0,2863.895312072606,201.33197600367492,-2477.4283153562124,-1488.8140627419982,-718.14601753120178,600.3917391438639,3141.8016523402048,2482.9523396136642,-2762.446696058109,2762.446696058109,-2482.9523396136642,5466.4054134471307,0.0
663296.95196600363,3610566.251970998,-47500.0,2450.7207275830874,567.47261244493245,-2362.6641617326623,-965.79973804918166,-1021.316907934193,117.99639076363084,2843.8932221964023,2440.3353621675906,-2499.4204605257164,2499.4204605257164,-2440.3353621675906,4927.0299805731574,0.0
668296.95196600363,3610566.251970998,-47500.0,1998.9569965711412,849.25071155615217,-2189.4363607387349,-517.61863723456872,-1187.324015866908,-212.98127243539531,2602.380939583029,2304.7057363586086,-2189.6068066639559,2189.6068066639559,-2304.7057363586086,4513.039408071153,0.0
673296.95196600363,3610566.251970998,-47500.0,1549.7858567298463,1048.1028185607258,-1986.1104363267918,-153.75447831712344,-1252.8643472435965,-425.78709078380183,2398.5592200136803,2109.1676234985684,-1867.5466228919111,1867.5466228919111,-2109.1676234985684,4182.7642888211913,0.0
678296.95196600363,3610566.251970998,-47500.0,1130.2675391854934,1173.8336043215284,-1773.4902435595461,128.32324401446417,-1249.1465076859188,-550.52394902603817,2219.5537328694718,1881.8111044693335,-1556.5648080948965,1556.5648080948965,-1881.8111044693335,3903.8974720642009,0.0
683296.95196600363,3610566.251970998,-47500.0,755.6730166605978,1239.6071796909243,-1565.4713413432698,337.50501101954575,-1200.6843084555385,-612.19925620532661,2057.4129214002578,1644.0119026483267,-1270.5793499676715,1270.5793499676715,-1644.0119026483267,3655.173303670259,0.0
688296.95196600363,3610566.251970998,-47500.0,432.55715991142699,1258.8967563252279,-1370.455823818206,485.24360499936131,-1125.6694535604743,-630.44822448604941,1907.6437236184324,1410.6590457788866,-1016.5062190800255,1016.5062190800255,-1410.6590457788866,3424.3928090665631,0.0
693296.95196600363,3610566.251970998,-47500.0,161.60976690668923,1243.8851584719,-1192.8462094025447,583.26759638370197,-1036.9908973307456,-620.06440600172891,1767.9034763051534,1191.2191819704317,-796.48989893277133,796.48989893277133,-1191.2191819704317,3205.4994528378261,0.0
698296.95196600363,3610566.251970998,-47500.0,-60.066873709169307,1204.8084465677555,-1034.3318890577782,642.36100675334092,-943.39686256607774,-591.83005051844657,1637.0586615042716,991.01800011049068,-609.68606979272045,609.68606979272045,-991.01800011049068,2996.0728004138491,0.0
703296.95196600363,3610566.251970998,-47500.0,-237.30170740984411,1149.8441942367203,-894.88073189698389,671.8271434483953,-850.55710265708115,-553.37666884045905,1514.5827929818556,812.42609296221133,-453.5594619316272,453.5594619316272,-812.42609296221133,2795.5843020036909,0.0
708296.95196600363,3610566.251970998,-47500.0,-375.73423814552768,1085.2771973000242,-773.45061803439398,679.35601827457594,-761.93702716228006,-509.95222386331585,1400.2040500800363,655.8297881058719,-324.76560771306379,324.76560771306379,-655.8297881058719,2604.3252060456889,0.0
518296.95196600363,3615566.251970998,-47500.0,-1693.6018264183983,-1102.5230484180083,-502.90735078795745,-1598.6443551928467,-831.04823242475868,-1011.7414776515562,1947.1081752841371,-1673.7681634925734,78.593903082797056,-78.593903082797056,1673.7681634925734,3802.1553825411702,0.0
523296.95196600363,3615566.251970998,-47500.0,-1672.8542632793885,-1217.2103540916096,-609.71336808135334,-1729.4603790940689,-968.17235258744222,-1160.3527611573838,2122.7133141052159,-1712.4152863892045,-19.441379499999698,19.441379499999698,1712.4152863892045,4132.5586392451405,0.0
528296.95196600363,3615566.251970998,-47500.0,-1613.8199779912295,-1334.8366443965115,-739.62970466161528,-1856.8074852878676,-1125.7057020501816,-1326.7242256591592,2310.5287701178327,-1723.842627549438,-147.65531661766136,147.65531661766136,1723.842627549438,4481.7256707218858,0.0
533296.95196600363,3615566.251970998,-47500.0,-1505.876045027562,-1450.6621839608849,-896.75794264922968,-1973.4742144373745,-1304.6143757934728,-1510.0132761669267,2509.0846043049169,-1697.3516920166717,-312.11641475637543,312.11641475637543,1697.3516920166717,4845.2741709172997,0.0
538296.95196600363,3615566.251970998,-47500.0,-1337.0922139732231,-1557.5281208963154,-1085.249410219117,-2069.4034619268846,-1504.5180849640894,-1707.38663884826,2715.7693660173918,-1619.81807030031,-519.10536394483177,519.10536394483177,1619.81807030031,5216.2722662718325,0.0
543296.95196600363,3615566.251970998,-47500.0,-1094.8725656357544,-1645.1459879234687,-1308.7872199024041,-2131.0788219545102,-1722.7381042774216,-1912.9449612968381,2926.4809132821551,-1475.7405683800721,-774.44115163816707,774.44115163816707,1475.7405683800721,5584.5761503312815,0.0
548296.95196600363,3615566.251970998,-47500.0,-767.2259510239661,-1699.3977370520593,-1569.7053844163613,-2141.0418394585395,-1952.9307061721179,-2116.2646000026398,3135.2763918043579,-1247.7724374018032,-1082.3301810553723,1082.3301810553723,1247.7724374018032,5936.2577653904082,0.0
553296.95196600363,3615566.251970998,-47500.0,-344.95534359293396,-1701.8606001385663,-1867.6092796241965,-2077.8082100085471,-2183.2300822285993,-2300.5260896082377,3334.1369047392682,-918.08825164278039,-1443.5644449367151,1443.5644449367151,918.08825164278039,6253.4314271020075,0.0
558296.95196600363,3615566.251970998,-47500.0,174.93981766789818,-1629.9575741364999,-2197.3859829860926,-1916.6286682892896,-2393.9049212661939,-2440.2835931234163,3513.0801069420909,-471.06010263958706,-1852.9316334367404,1852.9316334367404,471.06010263958706,6515.0736737102561,0.0
563296.95196600363,3615566.251970998,-47500.0,784.48386161595749,-1458.399165127536,-2546.6194942606016,-1631.7956015203436,-2554.748417112588,-2499.1498633134815,3661.097541319341,102.21800835387398,-2295.8654736589251,2295.8654736589251,-102.21800835387398,6699.9738910401338,0.0
568296.95196600363,3615566.251970998,-47500.0,1458.8458582951712,-1162.8628521047995,-2892.7464304865457,-1201.4343130637039,-2622.8532902396446,-2428.073438579067,3768.8046176271773,797.18245024510838,-2744.77964983737,2744.77964983737,-797.18245024510838,6793.7743883207004,0.0
573296.95196600363,3615566.251970998,-47500.0,2150.5997947622432,-726.95626208394617,-3200.8995279223536,-615.7585972165482,-2542.156841734452,-2165.5665295451086,3834.34412637692,1587.1267005230743,-3156.3120104626437,3156.3120104626437,-1587.1267005230743,6802.9722896446528,0.0
578296.95196600363,3615566.251970998,-47500.0,2786.9562366807249,-152.9957424472741,-3424.2825667770662,110.83292988858472,-2247.1145982809503,-1642.1553298040349,3874.704706832179,2414.4388983570893,-3471.8443639338007,3471.8443639338007,-2414.4388983570893,6778.0450039403786,0.0
583296.95196600363,3615566.251970998,-47500.0,3274.6410026271751,524.63585475840205,-3509.7492442165994,925.33403496703522,-1673.6180642632307,-792.08500820501229,3942.9660464069452,3186.0934916526517,-3624.6994624805825,3624.6994624805825,-3186.0934916526517,6839.1084966065773,0.0
588296.95196600363,3615566.251970998,-47500.0,3517.7216647286427,1228.2033489904704,-3411.0561525456901,1724.5161184189351,-779.66164608468102,425.13783653104468,4138.6255702114595,3780.3401180280625,-3557.1060444274963,3557.1060444274963,-3780.3401180280625,7170.4355044380754,0.0
593296.95196600363,3615566.251970998,-47500.0,3450.4436591561835,1836.1745042447344,-3109.5686206252403,2355.7193602507355,425.38633925183262,1994.1212027333675,4566.9510443192066,4071.6183570046433,-3246.5067427714539,3246.5067427714539,-4071.6183570046433,7931.3841898038954,0.0
598296.95196600363,3615566.251970998,-47500.0,3077.9149574834009,2203.7643841349454,-2636.3334581600657,2641.4522997450927,1851.5337453181871,3811.9734629020036,5239.6816014070146,3974.5458000513663,-2733.2218983561779,2733.2218983561779,-3974.5458000513663,9119.8763294589753,0.0
603296.95196600363,3615566.251970998,-47500.0,2504.6675945435741,2208.2238526304736,-2082.7473910355479,2432.8149730922773,3316.1201588366634,5673.0410403458018,6040.510960373932,3494.0859939023617,-2132.9582826904493,2132.9582826904493,-3494.0859939023617,10535.278492786882,0.0
608296.95196600363,3615566.251970998,-47500.0,1924.5771530903837,1806.7441803271588,-1585.8257100400124,1679.379401600843,4568.181314085673,7291.2485692490154,6788.6168702934465,2754.1463392869805,-1616.2818473587199,1616.2818473587199,-2754.1463392869805,11866.845820745213,0.0
613296.95196600363,3615566.251970998,-47500.0,1558.0808326113104,1077.2798631556043,-1284.4241192211907,481.84954767417662,5355.5527286456827,8370.2312257449885,7310.5661351131794,1975.3845185278178,-1350.8837580939735,1350.8837580939735,-1975.3845185278178,12809.089208969926,0.0
618296.95196600363,3615566.251970998,-47500.0,1556.1663694151616,209.82766397385404,-1262.5645929564673,-912.99941679824292,5514.0080607152895,8703.1010894864885,7490.9126392086746,1396.6159590133425,-1428.5948312198821,1428.5948312198821,-1396.6159590133425,13153.510852412548,0.0
623296.95196600363,3615566.251970998,-47500.0,1924.5900943581235,-560.27293566999231,-1511.2797788117821,-2190.5896161285418,5033.4921316215186,8253.667377766109,7300.8632543228914,1174.7765809521522,-1819.1292193067281,1819.1292193067281,-1174.7765809521522,12843.449770650554,0.0
628296.95196600363,3615566.251970998,-47500.0,2521.0642244731662,-1045.2135434198644,-1934.3019231548401,-3086.0399425229189,4060.2283353174998,7169.0078282978075,6799.1457370062499,1323.1364062669018,-2383.4366180834481,2383.4366180834481,-1323.1364062669018,11977.756963708152,0.0
633296.95196600363,3615566.251970998,-47500.0,3129.899629722991,-1169.6419305210563,-2394.6019612769196,-3473.7222065395995,2831.908922516609,5713.3903251583888,6104.8774923474102,1725.6238125376703,-2940.0739380778332,2940.0739380778332,-1725.6238125376703,10762.462057421328,0.0
638296.95196600363,3615566.251970998,-47500.0,3562.0270890616816,-974.23175139041473,-2771.3571060988288,-3381.7096865389417,1586.8204483548027,4165.9120633512648,5355.1293337840007,2209.8790281039878,-3341.0912765525295,3341.0912765525295,-2209.8790281039878,9434.5285580064174,0.0
643296.95196600363,3615566.251970998,-47500.0,3718.5790377572052,-569.68121832325244,-2995.3465294939115,-2939.935073142246,496.99782952378257,2740.0427258687323,4664.1956812831068,2625.3739838354718,-3514.4146439895344,3514.4146439895344,-2625.3739838354718,8191.9957992824557,0.0
648296.95196600363,3615566.251970998,-47500.0,3596.1304664156,-79.472486084915076,-3052.6085264750227,-2308.2190561290995,-352.37494760366332,1554.1421596171588,4096.0307232675686,2885.3021523367943,-3462.0647959711869,3462.0647959711869,-2885.3021523367943,7153.591876442938,0.0
653296.95196600363,3615566.251970998,-47500.0,3253.8055362658538,398.61328720423847,-2967.3455935213433,-1623.7449904104219,-947.72850284541676,643.91402766274848,3658.8717636013489,2967.5541881634244,-3232.345522501405,3232.345522501405,-2967.5541881634244,6352.8430284507904,0.0
658296.95196600363,3615566.251970998,-47500.0,2773.5573979886331,805.37755260481845,-2780.4256340345055,-979.59869364685755,-1318.5594812537263,-7.9092913059917036,3325.4339359279556,2893.5284635079502,-2889.2869631359749,2889.2869631359749,-2893.5284635079502,5759.8266286835396,0.0
663296.95196600363,3615566.251970998,-47500.0,2232.2205440997013,1115.8303943933233,-2533.4489911478131,-425.9368164476968,-1512.0270907423301,-443.63163401974168,3060.5487090849938,2704.1693369469676,-2492.0153216882636,2492.0153216882636,-2704.1693369469676,5315.8010199434766,0.0
668296.95196600363,3615566.251970998,-47500.0,1688.6126800227187,1328.323051832321,-2260.5775154240632,19.014945266467343,-1576.629393165601,-711.7632781753382,2836.5282436802986,2442.8826782316828,-2085.5934939821191,2085.5934939821191,-2442.8826782316828,4962.8679778637443,0.0
673296.95196600363,3615566.251970998,-47500.0,1181.2964062613141,1454.0141066596429,-1986.2059794436032,356.85000713224883,-1554.2225998108106,-857.04127600305071,2636.0555902981864,2146.6568766359183,-1699.7030458960123,1699.7030458960123,-2146.6568766359183,4658.6235003587917,0.0
678296.95196600363,3615566.251970998,-47500.0,731.61452767925778,1509.2426503344864,-1725.7865288431242,599.46235614746774,-1477.5007512476134,-916.46748673635034,2449.9006073796327,1843.1125607651652,-1351.1002532770203,1351.1002532770203,-1843.1125607651652,4377.8449820966107,0.0
683296.95196600363,3615566.251970998,-47500.0,348.30620582956817,1510.9381279406332,-1487.831694663998,762.76124245578387,-1370.3275607675512,-918.67275276635701,2273.9063420715074,1550.8115484916366,-1047.1394644907073,1047.1394644907073,-1550.8115484916366,4108.2720304183395,0.0
688296.95196600363,3615566.251970998,-47500.0,31.839070321164531,1474.2882896248384,-1275.9967864337584,863.015669220375,-1249.203041021538,-884.79224199253588,2106.6565780324509,1280.8967006332177,-789.01366476826558,789.01366476826558,-1280.8967006332177,3845.5604305596967,0.0
693296.95196600363,3615566.251970998,-47500.0,-222.18874351382911,1411.8478878977962,-1090.8224685170608,915.00298686893609,-1124.9781018997783,-829.85787554020635,1948.012455206122,1039.0244774770497,-574.27588744069169,574.27588744069169,-1039.0244774770497,3589.4716022546882,0.0
698296.95196600363,3615566.251970998,-47500.0,-420.64880357116095,1333.4329374554504,-931.01729022589586,931.25859640869839,-1004.3958600673177,-764.2052716294146,1798.2825762406678,827.08542751830964,-398.60010759591137,398.60010759591137,-827.08542751830964,3341.4753764798543,0.0
703296.95196600363,3615566.251970998,-47500.0,-571.3146296528414,1246.3963012021914,-794.33696792141984,921.94526462736189,-891.33598489097358,-694.69859376411239,1657.8082940123586,644.56502820694607,-256.92456443614617,256.92456443614617,-644.56502820694607,3103.4408535572743,0.0
708296.95196600363,3615566.251970998,-47500.0,-681.91197963699074,1156.0424684966345,-678.14935142788352,895.03306635111949,-787.75365451035964,-625.71400227908225,1526.7862666772423,489.53894954446787,-144.1411585391877,144.1411585391877,-489.53894954446787,2877.0094742644796,0.0
713296.95196600363,3615566.251970998,-47500.0,-759.59541582734914,1066.0565422163743,-579.77589111697785,856.60900113483103,-694.35801709473105,-559.891613237461,1405.218170353075,359.36065797401568,-55.475733635929515,55.475733635929515,-359.36065797401568,2663.3572406204116,0.0
518296.95196600363,3620566.251970998,-47500.0,-1966.0957609841059,-1013.7101271062011,-360.52021946269764,-1784.741022597336,-759.89522389263084,-1109.5628018715452,2068.3765998172048,-1817.693676112704,284.51734988817691,-284.51734988817691,1817.693676112704,4038.2349649844109,0.0
523296.95196600363,3620566.251970998,-47500.0,-1983.8940732038852,-1132.8714032549112,-446.63644473530599,-1953.9186698393785,-894.28745392842177,-1284.106409483245,2267.0438800212555,-1888.070448144643,214.15978303892712,-214.15978303892712,1888.070448144643,4413.6093360149043,0.0
528296.95196600363,3620566.251970998,-47500.0,-1966.5789933538617,-1259.5190000854543,-554.14780153570507,-2127.1019926408871,-1051.5256428899302,-1483.4301197876459,2482.3434941863588,-1936.6010354226171,115.45594099032655,-115.45594099032655,1936.6010354226171,4816.2175714264577,0.0
533296.95196600363,3620566.251970998,-47500.0,-1902.4406223938088,-1390.3837073820823,-687.84074945054135,-2298.0291992960606,-1233.9840995760667,-1708.4542176405548,2713.4895461461829,-1952.7233506731491,-18.69163957358262,18.69163957358262,1952.7233506731491,5242.8745123022991,0.0
538296.95196600363,3620566.251970998,-47500.0,-1777.599817794928,-1519.9928433695627,-853.11586219559717,-2457.3511727422974,-1443.2123687131179,-1958.4039716069635,2958.5161792618323,-1922.9253484881228,-196.32071704666112,196.32071704666112,1922.9253484881228,5687.7021879963731,0.0
543296.95196600363,3620566.251970998,-47500.0,-1576.3030979992304,-1639.8365549316361,-1055.7184603557221,-2591.7158448323421,-1679.087569035664,-2229.6561839473152,3213.7957997972039,-1830.4398720170075,-426.02137640956119,426.02137640956119,1830.4398720170075,6141.1867122385538,0.0
548296.95196600363,3620566.251970998,-47500.0,-1281.8102119010939,-1737.4028965532784,-1301.1550818141966,-2682.8206064203214,-1938.5034842187856,-2514.0780836010126,3473.4589369346513,-1655.294433613479,-716.1036352843887,716.1036352843887,1655.294433613479,6589.1344832595769,0.0
553296.95196600363,3620566.251970998,-47500.0,-878.24490213414208,-1795.2236053916156,-1593.6203477972242,-2706.6471366088276,-2213.438549725327,-2796.7209907057281,3728.7631476623733,-1375.0809448660018,-1073.0825836159354,1073.0825836159354,1375.0809448660018,7011.7124891468056,0.0
558296.95196600363,3620566.251970998,-47500.0,-353.90096302136953,-1790.265433043608,-1934.2234778611714,-2633.3262202029696,-2488.2721053013511,-3052.7859090211537,3967.5661017070311,-967.02178638360624,-1499.1972267786125,1499.1972267786125,967.02178638360624,7383.0316724140157,0.0
563296.95196600363,3620566.251970998,-47500.0,293.48728454137739,-1694.3280865666957,-2318.3435378839035,-2428.4404220397732,-2736.3718868798956,-3243.951394862951,4174.2746700080952,-412.12560573650387,-1988.7383042695838,1988.7383042695838,412.12560573650387,7672.2451886723011,0.0
568296.95196600363,3620566.251970998,-47500.0,1049.2763929014804,-1476.5665693430865,-2732.1613087465385,-2057.07242415056,-2916.3894780564901,-3314.5965061358556,4331.0859436778665,297.69386935631292,-2523.2635390919672,2523.2635390919672,-297.69386935631292,7848.0771150416476,0.0
573296.95196600363,3620566.251970998,-47500.0,1872.9673302870629,-1109.6961839931434,-3148.9918276674566,-1492.3717425622428,-2969.5713676083265,-3189.3729387122585,4422.1988893810922,1149.0985841774948,-3066.5709490986874,3066.5709490986874,-1149.0985841774948,7890.2063437511842,0.0
578296.95196600363,3620566.251970998,-47500.0,2690.5718094519657,-581.37330560159978,-3527.1164570270994,-730.29482375755174,-2820.8427591276841,-2775.1579496492373,4444.2399705376774,2094.54946721242,-3561.7796992418193,3561.7796992418193,-2094.54946721242,7812.4953345980211,0.0
583296.95196600363,3620566.251970998,-47500.0,3394.2857553530698,89.311999117178729,-3812.2167441875772,189.68818212896358,-2388.1128711672864,-1972.3826602199915,4428.0770223992586,3041.7635555217989,-3934.8067055291635,3934.8067055291635,-3041.7635555217989,7700.7157318487998,0.0
588296.95196600363,3620566.251970998,-47500.0,3858.2065499295763,834.47289963850119,-3948.2306807829345,1163.1342793107312,-1604.724294190358,-701.61159255121277,4471.818445413599,3854.5312137654428,-4109.5216849799026,4109.5216849799026,-3854.5312137654428,7746.5843385147218,0.0
593296.95196600363,3620566.251970998,-47500.0,3976.8912864835888,1529.9194725013228,-3898.3587631802147,2011.6713404690545,-456.32381672177661,1052.2231347616728,4736.8728342334452,4376.61614670983,-4036.9659879947299,4036.9659879947299,-4376.61614670983,8205.356417344743,0.0
598296.95196600363,3620566.251970998,-47500.0,3721.7083679672592,2012.7002875218263,-3671.1292484914857,2506.0465247566462,976.92861244572111,3186.8868022566353,5317.5761359833741,4484.4612558991357,-3731.5411397038474,3731.5411397038474,-4484.4612558991357,9211.0312439894005,0.0
603296.95196600363,3620566.251970998,-47500.0,3189.0550177004616,2132.8378882223496,-3336.87901230238,2434.7351328630102,2496.3234738062374,5447.8432122681443,6124.6129262321192,4155.2181097910134,-3293.6918952629348,3293.6918952629348,-4155.2181097910134,10609.256917847559,0.0
608296.95196600363,3620566.251970998,-47500.0,2599.4054358640592,1826.7184209527102,-3016.3643264702346,1705.4014189795587,3808.7366748580084,7449.3411664272498,6938.2884360818962,3512.0308334200026,-2893.2172030677975,2893.2172030677975,-3512.0308334200026,12022.902178020266,0.0
613296.95196600363,3620566.251970998,-47500.0,2220.1340435993379,1172.5424206103673,-2835.270472912749,429.07298932673416,4612.0799938566324,8775.1848425334574,7521.576175283185,2802.1089457508247,-2703.8507582464267,2703.8507582464267,-2802.1089457508247,13044.346012781736,0.0
618296.95196600363,3620566.251970998,-47500.0,2235.5251991850705,381.83113268505696,-2863.7838319915631,-1079.6520822241987,4714.2681627774346,9134.1232344395194,7714.0684670692081,2296.1842662291447,-2816.080028757131,2816.080028757131,-2296.1842662291447,13393.244362007019,0.0
623296.95196600363,3620566.251970998,-47500.0,2642.7180007070478,-285.33683765801317,-3079.1726677212682,-2415.327343758021,4119.998514323428,8488.5448707189917,7479.3617949399913,2159.0300272852132,-3183.9053177233632,3183.9053177233632,-2159.0300272852132,13001.220710830994,0.0
628296.95196600363,3620566.251970998,-47500.0,3253.4597445814538,-636.0615127614044,-3379.2930172985052,-3253.4706761851917,3025.8208991013116,7068.7212294443725,6902.5825573399798,2377.2011022484917,-3647.9654393467931,3647.9654393467931,-2377.2011022484917,12012.12008580825,0.0
633296.95196600363,3620566.251970998,-47500.0,3804.5744591578418,-616.81941182552202,-3638.0299970303213,-3472.1421379524672,1724.6405819483216,5258.5267859485848,6145.1177064150106,2792.973799511361,-4021.2798388578103,4021.2798388578103,-2792.973799511361,10703.242386112202,0.0
638296.95196600363,3620566.251970998,-47500.0,4092.4275801996059,-302.96034659397066,-3763.0391498036533,-3153.47007975516,485.16200414774005,3433.0132192850883,5379.227454159327,3208.4084466007325,-4175.7364469641261,4175.7364469641261,-3208.4084466007325,9368.9806985329087,0.0
643296.95196600363,3620566.251970998,-47500.0,4041.9274512280808,168.2429331640634,-3721.7682114998543,-2492.6480583890689,-523.31916374470802,1847.3958861373737,4729.3304014189162,3478.5748010660313,-4077.1165329012797,4077.1165329012797,-3478.5748010660313,8221.9008060243868,0.0
648296.95196600363,3620566.251970998,-47500.0,3692.2124296837947,665.81039302122974,-3532.6557126792,-1694.4896506425989,-1240.0656174148503,614.05333824906484,4238.7436042231266,3545.6465621881639,-3766.38687368612,3766.38687368612,-3545.6465621881639,7347.8958677389801,0.0
653296.95196600363,3620566.251970998,-47500.0,3141.0694923780702,1101.1028674414852,-3240.3237614682021,-912.23755284742526,-1680.9820314585177,-261.47563372233191,3880.3321438188204,3422.3378111868883,-3318.8612561828991,3318.8612561828991,-3422.3378111868883,6722.9034713118972,0.0
658296.95196600363,3620566.251970998,-47500.0,2493.658302009193,1431.9644131912289,-2893.2448770224701,-233.61838959201066,-1899.0854544820102,-830.27401048612501,3602.6266880304365,3157.5280788160808,-2810.1013758675535,2810.1013758675535,-3157.5280788160808,6268.6861402789373,0.0
663296.95196600363,3620566.251970998,-47500.0,1834.3124850185418,1650.5912081047709,-2531.2397426844354,306.51077746697348,-1955.718470008228,-1161.6873828739117,3364.8780535213955,2807.7964007145979,-2298.5709296680329,2298.5709296680329,-2807.7964007145979,5906.3163092117566,0.0
668296.95196600363,3620566.251970998,-47500.0,1218.7284511588036,1768.6327227499989,-2181.6741602615421,706.71036553858096,-1905.4903613285915,-1322.087668240639,3144.4182741490349,2421.8424551732282,-1821.8368201742283,1821.8368201742283,-2421.8424551732282,5581.5652824618419,0.0
673296.95196600363,3620566.251970998,-47500.0,677.21805988138181,1805.756813818814,-1860.5354226445995,982.67385822600409,-1791.0296413009617,-1366.3177096778877,2931.6438740479489,2035.2151800937409,-1399.69810321164,1399.69810321164,-2035.2151800937409,5266.195917226496,0.0
678296.95196600363,3620566.251970998,-47500.0,221.60513062313478,1782.75852852665,-1575.2756322659477,1156.5407070859412,-1642.9497359994618,-1336.1193215652438,2724.0933520811664,1670.7185734933487,-1039.3437697669165,1039.3437697669165,-1670.7185734933487,4949.902573038522,0.0
683296.95196600363,3620566.251970998,-47500.0,-148.08975348201119,1718.1670503708867,-1327.6989156904601,1250.9196466541889,-1481.872386017468,-1261.5772326632391,2522.4857760284694,1341.0042397102757,-740.09090933083144,740.09090933083144,-1341.0042397102757,4632.1035546318617,0.0
688296.95196600363,3620566.251970998,-47500.0,-438.49453379213463,1627.0314131340845,-1116.2682445856717,1286.0469291285715,-1320.8879850737378,-1163.4807053639306,2328.568893063577,1051.514273738404,-496.94490605633445,496.94490605633445,-1051.514273738404,4316.3971737211359,0.0
693296.95196600363,3620566.251970998,-47500.0,-659.37098341450701,1520.8389104610321,-937.71142976460249,1278.7521571601517,-1167.741615597304,-1055.643241801657,2144.07868281214,802.98800921834788,-302.97003209452953,302.97003209452953,-802.98800921834788,4007.4358591250702,0.0
698296.95196600363,3620566.251970998,-47500.0,-821.41777871531508,1407.9494689333105,-788.0555405514317,1242.3796684132371,-1026.5608005241368,-946.86137185502878,1970.3326128770209,593.35621761175616,-150.74087823197007,150.74087823197007,-593.35621761175616,3709.4477064938355,0.0
703296.95196600363,3620566.251970998,-47500.0,-935.00823698275451,1294.1872102417667,-663.23892312725832,1187.1431261663984,-899.12243577092806,-842.43611164811307,1808.1287884164531,419.059184814986,-33.152064770712826,33.152064770712826,-419.059184814986,3425.670937254562,0.0
708296.95196600363,3620566.251970998,-47500.0,-1009.5426003978444,1183.4239521466216,-559.44334481392252,1120.6366806812498,-785.74278533449399,-745.30332353461142,1657.7867760926263,275.91195289091723,56.183428693708663,-56.183428693708663,-275.91195289091723,3158.2605132296658,0.0
713296.95196600363,3620566.251970998,-47500.0,-1053.1819921749163,1078.0844197612823,-473.24988484996118,1048.3593326264127,-685.88104906891442,-656.84579409538026,1519.2405357921368,159.63939650243785,122.78523989771047,-122.78523989771047,-159.63939650243785,2908.4057323866373,0.0
518296.95196600363,3625566.251970998,-47500.0,-2214.1682423204593,-874.22470287621093,-219.78445837461575,-1952.1110670928213,-657.42040725011361,-1196.8165220484723,2174.4626413482547,-1912.5200485525033,486.54266093655485,-486.54266093655485,1912.5200485525033,4243.2541228035343,0.0
523296.95196600363,3625566.251970998,-47500.0,-2271.4003919747338,-988.11917653579519,-282.10512612488191,-2158.4964565392329,-781.30279144350936,-1395.8415542472057,2394.8828884889617,-2009.4519599255316,447.50649515215287,-447.50649515215287,2009.4519599255316,4660.4630046524244,0.0
528296.95196600363,3625566.251970998,-47500.0,-2298.2152306603843,-1112.5004726707659,-362.51386466512935,-2377.0824461826287,-928.60170256570632,-1626.808829791278,2636.5822204742917,-2090.201611852408,383.80734331856661,-383.80734331856661,2090.201611852408,5113.660350971134,0.0
533296.95196600363,3625566.251970998,-47500.0,-2282.4181972984043,-1245.5710667053215,-465.90354461401404,-2603.0795274763118,-1102.7632144169986,-1892.6923513199943,2899.6964627660168,-2144.8512848227879,287.94650153103328,-287.94650153103328,2144.8512848227879,5601.2802157760516,0.0
538296.95196600363,3625566.251970998,-47500.0,-2208.8987760982959,-1383.7259811548381,-598.20394910620178,-2828.5983904805566,-1306.9631046196371,-2195.2652164443216,3183.2706787766097,-2160.2323168939283,150.88006538116247,-150.88006538116247,2160.2323168939283,6119.1520003025853,0.0
543296.95196600363,3625566.251970998,-47500.0,-2059.5300531372691,-1520.7079619113556,-766.37373706814139,-3041.4956990453593,-1543.4513021981591,-2533.9762443663767,3484.70274609118,-2119.3063846548166,-37.916907974664127,37.916907974664127,2119.3063846548166,6659.3811784543295,0.0
548296.95196600363,3625566.251970998,-47500.0,-1813.5391773387091,-1646.5227185674576,-978.17907777794915,-3223.9958255183778,-1812.4468553531772,-2904.22332544654,3798.998527429585,-2000.7310510142265,-290.04504811415973,290.04504811415973,2000.7310510142265,7208.9514960928564,0.0
553296.95196600363,3625566.251970998,-47500.0,-1448.7648288529358,-1746.165504120411,-1241.5808286070376,-3351.2152231764139,-2110.3670838392513,-3294.7843234536631,4117.8220503876555,-1778.9438711432599,-617.16894294640497,617.16894294640497,1778.9438711432599,7748.1184098445456,0.0
558296.95196600363,3625566.251970998,-47500.0,-944.43664127862382,-1798.3752775644114,-1563.473680823914,-3389.9421873395695,-2427.1375652822935,-3684.135814033305,4428.387138009648,-1425.3628276986979,-1029.0206096316251,1029.0206096316251,1425.3628276986979,8248.8640701715231,0.0
563296.95196600363,3625566.251970998,-47500.0,-286.33635630008746,-1774.9616251852717,-1947.4617086227918,-3298.4636715212259,-2742.3788676591544,-4035.4584265829317,4712.402802133779,-911.67194413672109,-1529.956659391177,1529.956659391177,911.67194413672109,8674.1265649712041,0.0
568296.95196600363,3625566.251970998,-47500.0,524.78250160148832,-1641.8191981983716,-2390.4237698450534,-3028.9821507823476,-3020.5714532465845,-4290.4925304980516,4945.6813857573006,-216.53200633755785,-2113.7147257963334,2113.7147257963334,216.53200633755785,8979.4346385517438,0.0
573296.95196600363,3625566.251970998,-47500.0,1461.3230883165788,-1363.5100458112026,-2878.0167424788601,-2535.1968493802783,-3206.1560540934684,-4363.4489548178326,5099.8819860371941,662.95472499526909,-2756.6178326932404,2756.6178326932404,-662.95472499526909,9120.2868512749665,0.0
578296.95196600363,3625566.251970998,-47500.0,2455.5953970797814,-913.83788940804027,-3380.2862057981893,-1788.3939323088123,-3221.3164683121913,-4138.4540501329902,5149.6904250918924,1694.9863636836708,-3411.0473642304196,3411.0473642304196,-1694.9863636836708,9071.2682321937791,0.0
583296.95196600363,3625566.251970998,-47500.0,3391.8633586053529,-293.93042588436725,-3850.3090394118499,-804.24311926704252,-2971.9098890855125,-3477.7188204978152,5092.5126910595791,2795.8438453501758,-4003.7426654756719,4003.7426654756719,-2795.8438453501758,8864.867362325389,0.0
588296.95196600363,3625566.251970998,-47500.0,4116.2041393943191,445.03030945398967,-4230.5196663511424,323.50397352936176,-2369.1725603291488,-2251.1421651080195,4992.7163428408758,3822.4792729785586,-4446.2405635737068,4446.2405635737068,-3822.4792729785586,8649.3625502205814,0.0
593296.95196600363,3625566.251970998,-47500.0,4477.9413907067819,1186.1248829320182,-4470.5506419812746,1398.9414864967307,-1372.1797214713288,-395.91728979977393,5031.6809978624296,4592.1026199981925,-4663.6206602343218,4663.6206602343218,-4592.1026199981925,8715.3165548577799,0.0
598296.95196600363,3625566.251970998,-47500.0,4402.9187062571609,1758.4833571308313,-4553.6840748194745,2140.0306238285261,-43.072105526823663,2001.3622579067933,5395.3155616297772,4941.7604348132081,-4637.2861499858609,4637.2861499858609,-4941.7604348132081,9354.1418404848337,0.0
603296.95196600363,3625566.251970998,-47500.0,3967.1498294747871,1992.7515136057868,-4517.1263816106411,2262.4289260612431,1414.9552729805355,4638.8186967264764,6063.9987260265589,4815.5919049740223,-4438.5713505243275,4438.5713505243275,-4815.5919049740223,10554.995550939475,0.0
608296.95196600363,3625566.251970998,-47500.0,3410.3826140884626,1808.3584140330693,-4444.9806129982035,1620.689042066241,2680.1684764796319,7014.09224527263,6846.1137870238508,4329.3373813678218,-4218.6246597399995,4218.6246597399995,-4329.3373813678218,11926.533076055091,0.0
613296.95196600363,3625566.251970998,-47500.0,3043.7629828613317,1281.8684523412337,-4426.2114533263803,334.07913232478063,3416.6234858707353,8565.6823284579314,7451.3957904856798,3748.2249008530794,-4139.0370557097376,4139.0370557097376,-3748.2249008530794,12954.730510773556,0.0
618296.95196600363,3625566.251970998,-47500.0,3080.1667557028804,636.10223683440154,-4499.8083705216723,-1207.0672822548197,3422.3398718263202,8905.4917244063599,7651.7307554815998,3361.2945139266126,-4275.7123082589023,4275.7123082589023,-3361.2945139266126,13276.610836497164,0.0
623296.95196600363,3625566.251970998,-47500.0,3499.7134049805927,136.94766861691085,-4627.8352199728033,-2500.8075798408377,2730.7210368826832,8010.0298318772057,7395.2352373407357,3323.079934610912,-4565.1170269586855,4565.1170269586855,-3323.079934610912,12815.87721480865,0.0
628296.95196600363,3625566.251970998,-47500.0,4063.3858698576246,-39.266349794585793,-4719.5923195617734,-3173.6326475383785,1589.2950632407078,6227.6499500242517,6797.6859799179019,3580.0242200397688,-4841.0697440508675,4841.0697440508675,-3580.0242200397688,11774.186323229742,0.0
633296.95196600363,3625566.251970998,-47500.0,4469.374978501889,125.37612381832771,-4687.9196662847953,-3132.754725731686,329.22673693403198,4089.2180830278544,6063.4243288622802,3935.5169056220457,-4936.1563613362359,4936.1563613362359,-3935.5169056220457,10504.005928144879,0.0
638296.95196600363,3625566.251970998,-47500.0,4521.5621211876232,522.13080805927075,-4493.928472991598,-2537.8191298458041,-778.30178944137947,2066.6512551295932,5386.5547226761237,4186.3289147697697,-4767.7543741550189,4767.7543741550189,-4186.3289147697697,9334.3522950165134,0.0
643296.95196600363,3625566.251970998,-47500.0,4191.7654491918811,1001.1488930699071,-4153.9781947018901,-1656.0907230187722,-1592.7337359455423,435.52256372389922,4873.2244475535263,4219.600020130576,-4354.7517361950067,4354.7517361950067,-4219.600020130576,8441.4078461862955,0.0
648296.95196600363,3625566.251970998,-47500.0,3574.196654377814,1441.7393279442483,-3717.7547035747816,-727.40191521950499,-2092.6574027156012,-724.46888225242378,4515.8055791337647,4025.7910491969801,-3778.4769121121158,3778.4769121121158,-4025.7910491969801,7827.2755495628171,0.0
653296.95196600363,3625566.251970998,-47500.0,2804.9614092738329,1778.0511355771525,-3241.2663202678882,96.108987832076082,-2326.2799252654268,-1457.0837174646656,4246.1838400384449,3659.1956271956924,-3133.0061211686634,3133.0061211686634,-3659.1956271956924,7395.9073950987795,0.0
658296.95196600363,3625566.251970998,-47500.0,2004.2329310222924,1991.6183288072621,-2769.8341374041829,747.46993378061029,-2365.2806175826345,-1855.7109092255728,4006.4698087328516,3193.0123923498077,-2494.0442342673005,2494.0442342673005,-3193.0123923498077,7044.3362965133892,0.0
663296.95196600363,3625566.251970998,-47500.0,1253.8308732376115,2092.6707954432854,-2332.7323357924479,1216.9600780531377,-2277.5961833168931,-2017.4439966096515,3768.8116800983371,2691.774419857426,-1909.4879023476601,1909.4879023476601,-2691.774419857426,6706.3524082359036,0.0
668296.95196600363,3625566.251970998,-47500.0,598.09907411934796,2103.7598605227231,-1944.8646334370521,1524.4447243595187,-2116.7839567152819,-2023.3744327176655,3525.7212513113091,2201.4668465738328,-1402.7363701182558,1402.7363701182558,-2201.4668465738328,6353.2677056877037,0.0
673296.95196600363,3625566.251970998,-47500.0,53.724517033627642,2049.5770581174734,-1610.882573597029,1700.6793293798003,-1920.7766212622441,-1934.2336304357293,3279.0394621584851,1749.8762951850631,-980.12674151086503,980.12674151086503,-1749.8762951850631,5980.0587385158342,0.0
678296.95196600363,3625566.251970998,-47500.0,-379.84863708774822,1952.0369717077567,-1329.1911317591253,1777.1580489391954,-1714.4384607040683,-1792.5874388555608,3033.6003797815715,1350.7621407802815,-637.91305435092113,637.91305435092113,-1350.7621407802815,5592.8547300921364,0.0
683296.95196600363,3625566.251970998,-47500.0,-712.43054377268595,1828.6057859143148,-1094.9469762389226,1781.600733449405,-1512.9408712878064,-1626.8442353773135,2794.3351127244573,1008.4260729450816,-367.33644897384733,367.33644897384733,-1008.4260729450816,5201.2848488185537,0.0
688296.95196600363,3625566.251970998,-47500.0,-957.83092716565,1692.2704149312726,-902.00695888254234,1736.5367666111656,-1324.7603739465212,-1455.1172934813837,2565.1915162492023,721.41796989541763,-157.82647267672377,157.82647267672377,-721.41796989541763,4814.6815041254877,0.0
693296.95196600363,3625566.251970998,-47500.0,-1130.7412401991089,1552.1793419405813,-744.06690459266213,1659.3746126163549,-1153.9836068214286,-1288.3515937097709,2348.8960515091048,485.16596373693471,1.1839722252815363,-1.1839722252815363,-485.16596373693471,4440.5732605312323,0.0
698296.95196600363,3625566.251970998,-47500.0,-1245.0571796844508,1414.4535281039127,-615.25508784429303,1563.0720641034839,-1001.9496235914447,-1132.6626360329196,2147.0577717874689,293.69485900995659,119.34702509256515,-119.34702509256515,-293.69485900995659,4084.3390183124893,0.0
703296.95196600363,3625566.251970998,-47500.0,-1313.0954274461917,1282.9498030735531,-510.39233177131808,1456.9721477573389,-868.36807447357035,-991.01335823921568,1960.387787209228,140.67866314201646,205.02861949512899,-205.02861949512899,-140.67866314201646,3749.3874557096624,0.0
708296.95196600363,3625566.251970998,-47500.0,-1345.331832461974,1159.8966080547134,-425.06160133209238,1347.6050569333315,-752.05331965983191,-864.38022082376256,1788.9301198427472,20.039728615617392,265.2385835824731,-265.2385835824731,-20.039728615617392,3437.5219969649825,0.0
713296.95196600363,3625566.251970998,-47500.0,-1350.4248496944624,1046.3903705362443,-355.57756854070578,1239.379044823788,-651.39058735319099,-752.54436768764765,1632.2645866774758,-73.745093418933081,305.71494148860279,-305.71494148860279,73.745093418933081,3149.3318619001184,0.0
513296.95196600363,3630566.251970998,-47500.0,-2312.1153062436551,-599.19448209626546,-64.234435842757534,-1872.6212990681886,-438.16848065432288,-1081.8018445313066,2044.5582124814111,-1827.3043137177815,663.81822936138803,-663.81822936138803,1827.3043137177815,3996.779960170074,0.0
518296.95196600363,3630566.251970998,-47500.0,-2421.7007713545459,-686.15050625142692,-92.041931204677525,-2090.8248137111027,-525.28172785694426,-1268.6012248500726,2259.8469186220527,-1946.9830347599154,670.68619535151777,-670.68619535151777,1946.9830347599154,4407.4296093061876,0.0
523296.95196600363,3630566.251970998,-47500.0,-2515.6030777675896,-784.23933031437628,-130.16921838431062,-2330.3849163194895,-630.58910522132214,-1488.9367014360298,2499.1695202229007,-2061.8739683521212,663.48353953843161,-663.48353953843161,2061.8739683521212,4860.5963856841508,0.0
528296.95196600363,3630566.251970998,-47500.0,-2584.6032608101709,-893.66396023189793,-182.05135436859075,-2590.2434632290988,-757.64423466485323,-1747.9020926620124,2764.2060828128015,-2165.5700167696159,636.56544537078992,-636.56544537078992,2165.5700167696159,5358.0005877275034,0.0
533296.95196600363,3630566.251970998,-47500.0,-2616.592600602497,-1013.8230925177138,-252.15074988993615,-2867.4133979072953,-910.39682872986054,-2050.6042446914134,3056.1319423780765,-2249.093900443339,582.64851589573846,-582.64851589573846,2249.093900443339,5899.9016312343119,0.0
538296.95196600363,3630566.251970998,-47500.0,-2595.9998415574678,-1142.7939200636708,-346.18562098339117,-3156.0223422899103,-1092.9980143429455,-2401.5888289459085,3375.2276877872005,-2300.1469436015132,492.50667835384957,-492.50667835384957,2300.1469436015132,6484.2401168130637,0.0
543296.95196600363,3630566.251970998,-47500.0,-2503.3054320905248,-1276.5838058842089,-471.34043367148621,-3446.0168054542683,-1309.3814202486612,-2803.8541063228658,3720.3078343103193,-2302.2637719641948,354.73471796883359,-354.73471796883359,2302.2637719641948,7105.4520523734836,0.0
548296.95196600363,3630566.251970998,-47500.0,-2314.8527500655373,-1408.0921926777089,-636.38495516386877,-3721.4670127490708,-1562.4686732078776,-3257.2289563634254,4087.8994336420624,-2233.982100040851,155.71031653665364,-155.71031653665364,2233.982100040851,7752.8782577902784,0.0
553296.95196600363,3630566.251970998,-47500.0,-2003.3547304072288,-1525.7524742417745,-851.56080658322605,-3958.4742400015698,-1852.7664349088579,-3755.785651201792,4471.0904984865729,-2068.2886533894953,-120.0045175405038,120.0045175405038,2068.2886533894953,8408.7234353862914,0.0
558296.95196600363,3630566.251970998,-47500.0,-1539.7972865417698,-1611.9354558980688,-1127.9953646945776,-4122.8633905715751,-2176.0295480945551,-4283.8304797562505,4857.9829635019232,-1772.8879894116312,-488.41932200333019,488.41932200333019,1772.8879894116312,9045.6412855756116,0.0
563296.95196600363,3630566.251970998,-47500.0,-897.86614377672981,-1641.4695010836499,-1476.2776680549375,-4168.2825184201211,-2519.6034812506305,-4809.9125543035352,5229.7768145207456,-1312.3157211126056,-963.41993802466811,963.41993802466811,1312.3157211126056,9624.3494959102663,0.0
568296.95196600363,3630566.251970998,-47500.0,-62.427237823737443,-1581.2065079915528,-1903.746421607663,-4036.2573358535647,-2857.1886502769253,-5278.4346424593332,5558.8151171685604,-653.56808207267397,-1551.8785217137447,1551.8785217137447,653.56808207267397,10092.48224873955,0.0
573296.95196600363,3630566.251970998,-47500.0,956.56585493912701,-1392.526350322659,-2410.169348774979,-3661.3667513344476,-3142.4409500558845,-5599.3816566344767,5807.6923038205668,222.57132165560358,-2246.0777078250098,2246.0777078250098,-222.57132165560358,10387.599731008333,0.0
578296.95196600363,3630566.251970998,-47500.0,2105.3599539149677,-1039.7922099812126,-2982.1953397463426,-2986.7059212784256,-3303.6586925433576,-5639.4689793802208,5932.2873013179296,1302.9943353383101,-3014.266543709879,3014.266543709879,-1302.9943353383101,10450.386174914485,0.0
583296.95196600363,3630566.251970998,-47500.0,3269.1706396496261,-507.81618713862298,-3588.6210889182562,-1995.2355046156938,-3245.2968731276092,-5223.7891266789056,5895.5516063408922,2518.8926373090467,-3793.2936479579853,3793.2936479579853,-2518.8926373090467,10258.1238600874,0.0
588296.95196600363,3630566.251970998,-47500.0,4272.2709383634101,172.38946869319179,-4180.8787294926469,-756.65058162963714,-2866.1248362859633,-4164.7047128658014,5708.7246235241491,3728.9237046278604,-4491.7992357584762,4491.7992357584762,-3728.9237046278604,9887.8718109119818,0.0
593296.95196600363,3630566.251970998,-47500.0,4917.9681373149706,900.69816711596559,-4703.9598896276057,528.49556402518124,-2103.274693314876,-2336.4017421948233,5525.4199031971693,4731.5532366167636,-5014.1697391046282,5014.1697391046282,-4731.5532366167636,9589.0220563869916,0.0
598296.95196600363,3630566.251970998,-47500.0,5078.0834979671617,1512.2832989426433,-5117.8684831530763,1531.1479172577324,-997.05261827185552,206.97700426731726,5624.031483171565,5328.7767739179399,-5305.8848586928762,5305.8848586928762,-5328.7767739179399,9741.4646384795251,0.0
603296.95196600363,3630566.251970998,-47500.0,4796.5640459972228,1833.0921383104057,-5417.441545218514,1891.2549216740824,258.78023833144027,3122.8230502631341,6004.2452888825837,5432.0195429771475,-5396.8501339039767,5396.8501339039767,-5432.0195429771475,10537.73394917714,0.0
608296.95196600363,3630566.251970998,-47500.0,4322.1245060110523,1776.0283546912583,-5630.0849621062225,1405.7369432170847,1338.3141817076087,5783.9905348626662,6509.5796586042052,5145.5376149922658,-5400.2196557497637,5400.2196557497637,-5145.5376149922658,11683.180058293494,0.0
613296.95196600363,3630566.251970998,-47500.0,3999.4598741350724,1415.8311139741818,-5784.5686986636956,203.22955281870969,1904.7208403090481,7473.2493495383287,7011.1740311763933,4740.7650632359018,-5444.7587248401705,5444.7587248401705,-4740.7650632359018,12601.730370779636,0.0
618296.95196600363,3630566.251970998,-47500.0,4056.8683646524382,970.57310793342015,-5874.7535573191999,-1247.9777227722702,1778.2930318343297,7713.6138393423544,7236.0669158093551,4503.0777322272361,-5578.8624101011201,5578.8624101011201,-4503.0777322272361,12857.358786761139,0.0
623296.95196600363,3630566.251970998,-47500.0,4446.1540761532779,683.54550827536991,-5853.9998715873307,-2360.2663855741298,1035.7280465205192,6527.3143393690279,7050.2959931878941,4552.4182495919367,-5725.5465556021963,5725.5465556021963,-4552.4182495919367,12377.121792512944,0.0
628296.95196600363,3630566.251970998,-47500.0,4880.2073352748675,688.76259736212683,-5668.4029606251952,-2740.9083659358921,-39.415065589776994,4414.4822180270276,6567.5914952817329,4785.5113185416512,-5734.1611065327497,5734.1611065327497,-4785.5113185416512,11425.537391863796,0.0
633296.95196600363,3630566.251970998,-47500.0,5040.8639946902513,961.2595812846306,-5298.9098588037004,-2360.7331799923745,-1116.1006981111873,2059.6479932848456,6003.1363215316014,4982.5673726230007,-5486.5792758833895,5486.5792758833895,-4982.5673726230007,10402.007432204673,0.0
638296.95196600363,3630566.251970998,-47500.0,4770.5923264856638,1372.6249173072408,-4776.8074044362966,-1473.7073718900456,-1961.7307931124674,4.7927192421802074,5540.0817157028787,4967.3352147258538,-4966.9078478914289,4966.9078478914289,-4967.3352147258538,9595.7070864658381,0.0
643296.95196600363,3630566.251970998,-47500.0,4109.9877164400632,1783.7524516536148,-4166.5546701149478,-410.5190959599982,-2489.942550821906,-1494.79351797596,5231.5533129212872,4687.9133149503532,-4251.3474744666755,4251.3474744666755,-4687.9133149503532,9065.1450643691423,0.0
648296.95196600363,3630566.251970998,-47500.0,3212.4569267396682,2103.6044360282549,-3536.8260672487399,577.45070695581876,-2724.1938600676717,-2423.938541761223,5005.7576162567375,4195.6465883936371,-3451.8445576387803,3451.8445576387803,-4195.6465883936371,8707.4477383299763,0.0
653296.95196600363,3630566.251970998,-47500.0,2243.2280989913497,2298.3501119605735,-2940.3616490289405,1362.5297260652765,-2737.3132270869896,-2890.169812552117,4783.9652393992455,3583.4457499466453,-2666.3628174888399,2666.3628174888399,-3583.4457499466453,8396.8625445146317,0.0
658296.95196600363,3630566.251970998,-47500.0,1324.0190603244273,2373.5793417814266,-2408.0151446349764,1913.774635877832,-2607.516771798194,-3029.8904445027329,4534.4197132783456,2938.0934347031862,-1957.8623616368614,1957.8623616368614,-2938.0934347031862,8057.4397904984526,0.0
663296.95196600363,3630566.251970998,-47500.0,522.72078354994562,2353.1819890193392,-1952.0470777016403,2253.3088059259562,-2398.3808789534432,-2961.9323218009254,4256.4516230341815,2320.5911679985447,-1355.5581057807376,1355.5581057807376,-2320.5911679985447,7664.5199709764092,0.0
668296.95196600363,3630566.251970998,-47500.0,-134.91783328975254,2265.0115544676496,-1572.3923637620924,2423.2782864965679,-2154.6334199716712,-2774.5645741906042,3960.6190068099463,1765.4175624132765,-865.01523415351198,865.01523415351198,-1765.4175624132765,7223.2017480771929,0.0
673296.95196600363,3630566.251970998,-47500.0,-649.35240402585043,2133.8529697780041,-1262.3094695211705,2467.6829176597175,-1904.8192370468423,-2527.8029835244502,3658.9325400599482,1287.1289666323848,-478.42236226672281,478.42236226672281,-1287.1289666323848,6750.2781277931717,0.0
678296.95196600363,3630566.251970998,-47500.0,-1034.554113385441,1979.1026290372586,-1012.2956693213406,2424.6813210881792,-1665.6300330159429,-2260.0574810244107,3361.3563870163434,887.6478357549563,-181.98520567162285,181.98520567162285,-887.6478357549563,6264.2144069729893,0.0
683296.95196600363,3630566.251970998,-47500.0,-1309.8559572533122,1814.7827759032216,-812.40083356513242,2324.5098541645152,-1445.8003178346321,-1994.5925159019644,3075.069900003858,561.89420019960585,39.634904584933395,-39.634904584933395,-561.89420019960585,5780.8576265923521,0.0
688296.95196600363,3630566.251970998,-47500.0,-1495.3603835259853,1650.4160720738421,-653.39915243905557,2189.8484651939452,-1249.0191868969603,-1744.5389275498064,2804.7072228155685,301.49976892249663,201.01220562282589,-201.01220562282589,-301.49976892249663,5312.1429439792018,0.0
693296.95196600363,3630566.251970998,-47500.0,-1609.6545971552885,1492.0854731820855,-527.2769333734999,2037.0499533973598,-1075.9477708432339,-1516.4802052778764,2552.891681146386,97.046682431196658,314.94588220211722,-314.94588220211722,-97.046682431196658,4866.2139827847723,0.0
698296.95196600363,3630566.251970998,-47500.0,-1668.8627193402695,1343.3791505344147,-427.33729053464646,1877.4972866062376,-925.54093094013456,-1312.9045422016693,2320.7625042993905,-60.69221919665344,392.1676662216172,-392.1676662216172,60.69221919665344,4448.0365713630999,0.0
703296.95196600363,3630566.251970998,-47500.0,-1686.4238941594006,1206.1495553395691,-348.11968332504404,1718.8249075527474,-795.88700693176247,-1133.8461211161284,2108.4230198208088,-180.13165539824831,441.40917168249518,-441.40917168249518,180.13165539824831,4060.1304187104884,0.0
708296.95196600363,3630566.251970998,-47500.0,-1673.2320053067058,1081.0849557150473,-285.24259658573106,1565.9206959609214,-684.7218634004081,-977.95881830663961,1915.2894074971373,-268.61947895944553,469.62677679844813,-469.62677679844813,268.61947895944553,3703.2386632177872,0.0
713296.95196600363,3630566.251970998,-47500.0,-1637.9349654667417,968.1237660748933,-235.22698238914219,1421.7103780210889,-589.73042074911336,-843.20329035362511,1740.3514097857715,-332.39018075648141,482.2771239939641,-482.2771239939641,332.39018075648141,3376.881644333781,0.0
513296.95196600363,3635566.251970998,-47500.0,-2438.4244218855201,-393.00683678982182,21.416235547138264,-1952.6538055279996,-302.99364632448351,-1121.2079557772497,2092.7795517518471,-1789.512476099299,791.69285662394532,-791.69285662394532,1789.512476099299,4089.3864923397941,0.0
518296.95196600363,3635566.251970998,-47500.0,-2573.2016510260614,-456.03322067463012,11.286388335671294,-2191.4653130431602,-367.68457541190691,-1320.3109708019731,2319.6771308792027,-1913.1381385560223,822.63079951606574,-822.63079951606574,1913.1381385560223,4521.9761051345104,0.0
523296.95196600363,3635566.251970998,-47500.0,-2697.0405638244074,-528.24496816066835,-5.3789230096047431,-2457.167859444774,-446.93374328449318,-1557.0411809423824,2573.5585025202354,-2034.5117225854788,844.08760365115768,-844.08760365115768,2034.5117225854788,5002.5541068972425,0.0
528296.95196600363,3635566.251970998,-47500.0,-2801.3382467197671,-610.21771550065046,-31.290263171164007,-2750.1836999299339,-543.94291700354893,-1837.9169458640397,2856.8917332850447,-2148.0208369028974,851.11778074012864,-851.11778074012864,2148.0208369028974,5534.2454792184153,0.0
533296.95196600363,3635566.251970998,-47500.0,-2874.4717814765731,-702.04958328327996,-70.135038879873605,-3069.3496503796164,-662.45115303455839,-2169.9737377362339,3171.8483943402612,-2245.6285577591502,837.09511698874951,-837.09511698874951,2245.6285577591502,6119.0554485030489,0.0
538296.95196600363,3635566.251970998,-47500.0,-2901.0384201033489,-802.98212154718578,-126.87625848620368,-3410.9852926248177,-806.6804734106347,-2560.3609546389021,3519.9565960093169,-2316.080554431001,793.27900735618471,-793.27900735618471,2316.080554431001,6757.0663250440402,0.0
543296.95196600363,3635566.251970998,-47500.0,-2861.054734322443,-910.82243730506673,-208.10129704704491,-3767.5621982264206,-981.13828787572641,-3015.5691570332124,3901.564938424242,-2343.9440288936057,708.35186794225569,-708.35186794225569,2343.9440288936057,7445.2817626489059,0.0
548296.95196600363,3635566.251970998,-47500.0,-2729.2658280955875,-1021.0892444295146,-322.38732387009412,-4125.8448672229251,-1190.1533820368566,-3540.0531070780994,4315.0264013854694,-2308.5294924118843,568.0112992528484,-568.0112992528484,2308.5294924118843,8175.9989712514307,0.0
553296.95196600363,3635566.251970998,-47500.0,-2474.8985245888157,-1125.8075167714753,-480.60049460402854,-4464.3763805869703,-1436.9421901485887,-4133.8697447355398,4755.472025548529,-2182.8732141847017,354.79830648849747,-354.79830648849747,2182.8732141847017,8934.5732325830377,0.0
558296.95196600363,3635566.251970998,-47500.0,-2062.5400012946839,-1211.9270895262,-695.95368852248214,-4750.2822822501284,-1721.8808296477557,-4788.7251977110554,5213.0093389725098,-1933.2298429171453,48.521990544331402,-48.521990544331402,1933.2298429171453,9696.4776656065751,0.0
563296.95196600363,3635566.251970998,-47500.0,-1455.4037757522183,-1259.5302658220801,-983.50649994731452,-4935.7279996256384,-2039.5239297558508,-5481.5283143302349,5670.1905256815644,-1520.0448113069169,-372.08085157267431,372.08085157267431,1520.0448113069169,10423.758379367289,0.0
568296.95196600363,3635566.251970998,-47500.0,-623.035438241566,-1240.4681616554747,-1358.6078488837375,-4955.3384025876212,-2373.868748880674,-6164.3550031715276,6098.7794488379786,-902.22528839771815,-925.46414322928501,925.46414322928501,902.22528839771815,11061.619494672463,0.0
573296.95196600363,3635566.251970998,-47500.0,443.96469507540218,-1119.0259850881055,-1833.663725303225,-4727.9668784806563,-2691.7548385168188,-6750.2935790924666,6456.4846599136108,-47.517312175816073,-1620.0235430259072,1620.0235430259072,47.517312175816073,11537.47799295557,0.0
578296.95196600363,3635566.251970998,-47500.0,1710.8919356248816,-857.64463336595259,-2412.8430306970376,-4169.5312668607494,-2935.840620438647,-7097.5463335593113,6685.9283763732883,1048.105661323209,-2443.0850080602977,2443.0850080602977,-1048.105661323209,11768.144555469944,0.0
583296.95196600363,3635566.251970998,-47500.0,3072.2984027334533,-431.65315399317694,-3085.4131218102093,-3226.362271921812,-3022.2565080142444,-7001.8727809252941,6721.6545041420941,2332.5517121311414,-3348.6610430571482,3348.6610430571482,-2332.5517121311414,11685.966512236737,0.0
588296.95196600363,3635566.251970998,-47500.0,4339.6759754407376,145.62291768283154,-3820.6041262835392,-1934.0039488957739,-2853.452125294069,-6220.3884266828063,6519.7860843390927,3672.1729179001454,-4252.2700039679639,4252.2700039679639,-3672.1729179001454,11297.935524756334,0.0
593296.95196600363,3635566.251970998,-47500.0,5275.430626139474,796.45206308478237,-4568.9617086750013,-483.93598345415688,-2358.6539207606652,-4558.1101005454366,6156.8170827961148,4855.8874496186654,-5046.2137030346548,5046.2137030346548,-4855.8874496186654,10775.002804623391,0.0
598296.95196600363,3635566.251970998,-47500.0,5695.7982066036548,1376.7119497286999,-5273.0783127556424,759.50469676535408,-1560.5041252439769,-2025.4678759505564,6007.4597410000642,5660.6634045131887,-5642.2439241139018,5642.2439241139018,-5660.6634045131887,10486.308058006553,0.0
603296.95196600363,3635566.251970998,-47500.0,5606.1095477313474,1727.3417375544529,-5881.4815430500021,1367.9114747701494,-630.35599981725147,1002.2324256775823,6201.1754491518859,5973.2252898020088,-6021.5958226320945,6021.5958226320945,-5973.2252898020088,10771.708115078389,0.0
608296.95196600363,3635566.251970998,-47500.0,5254.306818145702,1770.4564050952413,-6351.6709178638494,1087.7842844025604,134.62319436273344,3777.3764790788778,6331.5682247729219,5887.6625905693163,-6244.7270951490373,6244.7270951490373,-5887.6625905693163,11521.569494255018,0.0
613296.95196600363,3635566.251970998,-47500.0,5003.0023637618251,1579.5798647752142,-6639.1001451179263,64.756750574246155,442.67615410536206,5442.8693663905415,6186.7273061414271,5669.2814394778825,-6392.6081969524521,6392.6081969524521,-5669.2814394778825,12204.04420805775,0.0
618296.95196600363,3635566.251970998,-47500.0,5075.394244687478,1347.9061774262675,-6692.4045446499504,-1160.1299715227515,174.59924755156109,5472.5990180720883,6673.0884873037867,5573.6455883079025,-6481.3552226618422,6481.3552226618422,-5573.6455883079025,12364.982748201868,0.0
623296.95196600363,3635566.251970998,-47500.0,5383.4189588100244,1265.3112305077677,-6474.0905731711809,-1944.8352248944072,-544.7890878507261,3981.7655933540823,6752.4280108648236,5662.5611530860606,-6433.1426529564069,6433.1426529564069,-5662.5611530860606,11957.659530749857,0.0
628296.95196600363,3635566.251970998,-47500.0,5604.4075341625394,1404.5985772247079,-5992.5358423973803,-1924.6314291510062,-1431.3342401773687,1640.3765032230667,6500.9109028624489,5784.1474676972448,-6137.8696657764758,6137.8696657764758,-5784.1474676972448,11287.579780875152,0.0
633296.95196600363,3635566.251970998,-47500.0,5436.5427535086983,1705.2276893700305,-5312.1607500297469,-1167.3734940040038,-2207.0810105975106,-742.71939806784314,6182.8048567454307,5724.1785133571202,-5548.1873483201662,5548.1873483201662,-5724.1785133571202,10710.936364775271,0.0
638296.95196600363,3635566.251970998,-47500.0,4791.815518780958,2044.7505116172294,-4530.6167160452505,-21.131095984187109,-2716.7028741228482,-2612.6530399140483,5981.8938695668357,5368.7919186633617,-4719.724350310983,4719.724350310983,-5368.7919186633617,10363.012018183974,0.0
643296.95196600363,3635566.251970998,-47500.0,3790.9676401706001,2319.5752434511987,-3742.9822943457889,1146.4316716510386,-2938.4095531424155,-3784.7041615475055,5855.5607311140939,4746.5673266612548,-3774.2533379532638,3774.2533379532638,-4746.5673266612548,10152.016034170718,0.0
648296.95196600363,3635566.251970998,-47500.0,2638.63429359171,2480.1695448789455,-3017.3735426496087,2103.7922387661383,-2929.70791807043,-4333.0004761721857,5689.8187493605765,3968.1667522471821,-2835.9916833151196,2835.9916833151196,-3968.1667522471821,9931.9488942872504,0.0
653296.95196600363,3635566.251970998,-47500.0,1513.0764115429104,2523.8276924842553,-2389.437201914579,2769.377489624158,-2770.0626208894046,-4430.9127125702753,5445.0468631373114,3151.3453093497528,-1991.3139285329096,1991.3139285329096,-3151.3453093497528,9617.7614448898767,0.0
658296.95196600363,3635566.251970998,-47500.0,523.20312838223231,2472.6456716368416,-1869.0817915997566,3157.4997676696757,-2528.6343093177616,-4248.5309159520339,5133.1387177563956,2381.0469226015175,-1281.6719663526685,1281.6719663526685,-2381.0469226015175,9192.9562243860692,0.0
663296.95196600363,3635566.251970998,-47500.0,-285.83562671323517,2355.4802688370032,-1450.5114870589637,3322.8521091542138,-2254.5618160538238,-3914.7333318425599,4779.974186093209,1703.2556248767607,-714.81937382026604,714.81937382026604,-1703.2556248767607,8678.5324861369136,0.0
668296.95196600363,3635566.251970998,-47500.0,-910.607717142404,2198.4491064097797,-1120.5402889406748,3326.690339805662,-1978.6024930272056,-3515.1576589646029,4409.5432593290097,1134.3860821587123,-279.36345501883937,279.36345501883937,-1134.3860821587123,8107.1398756907647,0.0
673296.95196600363,3635566.251970998,-47500.0,-1369.1989153642905,2021.7159865036758,-863.90127953347417,3222.1705726682026,-1718.0495263097753,-3102.1572804873526,4039.7740546426903,672.99381457214167,44.196179478856266,-44.196179478856266,-672.99381457214167,7509.884744377654,0.0
678296.95196600363,3635566.251970998,-47500.0,-1687.9182458073103,1839.4431523211881,-666.05385780944698,3050.4864590047964,-1481.3728720523939,-2705.5093107235157,3682.6535170469069,308.69257590045277,276.9331771632734,-276.9331771632734,-308.69257590045277,6911.5838614152162,0.0
683296.95196600363,3635566.251970998,-47500.0,-1894.0323865356263,1660.8844918407483,-514.37808045882764,2841.6053045703011,-1271.6492631559058,-2340.601422720471,3345.4956735163742,27.690007543055884,438.29522631417251,-438.29522631417251,-27.690007543055884,6330.089284847465,0.0
688296.95196600363,3635566.251970998,-47500.0,-2012.3743799509978,1491.6482817125002,-398.47644551539707,2616.3930619780463,-1088.8454942976457,-2013.986834722969,3032.2453518891539,-184.18945502629748,544.88083414022617,-544.88083414022617,184.18945502629748,5777.1625184753739,0.0
693296.95196600363,3635566.251970998,-47500.0,-2064.1048670139653,1334.7907018767485,-310.05122837159519,2388.8275142556095,-931.26754151595549,-1726.9885059865826,2744.5411741094504,-340.03551625995794,610.23269991935331,-610.23269991935331,340.03551625995794,5259.7812180820038,0.0
698296.95196600363,3635566.251970998,-47500.0,-2066.5424892913861,1191.6517874156864,-242.61217836016482,2167.8646963164165,-796.44358468849703,-1477.9839279063799,2482.4969323888117,-451.26000489641831,645.08684358692483,-645.08684358692483,451.26000489641831,4781.382047293193,0.0
703296.95196600363,3635566.251970998,-47500.0,-2033.4785791071552,1062.4636216641723,-191.1485411479826,1958.8978999674439,-681.64665901882609,-1263.83568113908,2245.2618266222212,-527.4661799326127,657.78579017961101,-657.78579017961101,527.4661799326127,4342.9080375429594,0.0
708296.95196600363,3635566.251970998,-47500.0,-1975.6707538473672,946.77674518672598,-151.82459095620763,1764.8526111526403,-584.18962281425445,-1080.7688184788608,2031.412186488581,-576.54464355158211,654.71473493519261,-654.71473493519261,576.54464355158211,3943.6285598419322,0.0
713296.95196600363,3635566.251970998,-47500.0,-1901.3672127512334,843.75100687519489,-121.71961763352994,1586.9878527401629,-501.57903807248397,-924.89074300872346,1839.2198087949027,-604.86792129337607,640.70055115600974,-640.70055115600974,604.86792129337607,3581.7525139304512,0.0
718296.95196600363,3635566.251970998,-47500.0,-1816.7942076569871,752.34934165664345,-98.616913896206427,1425.4723313093853,-431.58396604517645,-792.48324942355896,1666.8325327521643,-617.51503993236383,619.35181302104979,-619.35181302104979,617.51503993236383,3254.8725287891739,0.0
513296.95196600363,3640566.251970998,-47500.0,-2504.8151634679621,-162.16499413693413,77.611381626467335,-1994.7302462661773,-153.51687866727283,-1141.7388453104754,2116.3638497184465,-1691.3239007631553,880.46127999041778,-880.46127999041778,1691.3239007631553,4134.4044868778292,0.0
518296.95196600363,3640566.251970998,-47500.0,-2655.5619257572298,-194.84077174625662,80.14145709576006,-2246.1393544443858,-191.32646779164796,-1348.1127540694465,2350.2275530477127,-1807.7577044793604,929.37995916506475,-929.37995916506475,1807.7577044793604,4579.938366746238,0.0
523296.95196600363,3640566.251970998,-47500.0,-2798.8893536738592,-233.00019807033968,79.150124088453481,-2528.2275952008631,-238.56268004722611,-1594.7690206119998,2613.0664657662419,-1922.3765870066022,972.61963936652364,-972.61963936652364,1922.3765870066022,5077.0975183430173,0.0
528296.95196600363,3640566.251970998,-47500.0,-2926.816816015853,-277.11861571314216,72.624226076893649,-2842.5633320971715,-297.54913975482316,-1889.2384308737971,2907.9433125451801,-2030.0484566174805,1005.9678113372673,-1005.9678113372673,2030.0484566174805,5630.0577103349442,0.0
533296.95196600363,3640566.251970998,-47500.0,-3028.3349719012758,-327.41532588618236,57.693604646146369,-3189.4564833276795,-371.10192269426284,-2239.9703393726427,3237.8084099952416,-2123.3844729472767,1023.5923796212714,-1023.5923796212714,2123.3844729472767,6242.1811620175758,0.0
538296.95196600363,3640566.251970998,-47500.0,-3088.5351667813643,-383.61304896908797,30.315356222247154,-3567.0912589564714,-462.55754603268912,-2656.0912893694854,3605.2062089502333,-2191.9644898914466,1017.5432261785902,-1017.5432261785902,2191.9644898914466,6915.2934856070633,0.0
543296.95196600363,3640566.251970998,-47500.0,-3087.6012949515352,-444.55494308998885,-15.131253107838802,-3970.2385921988425,-575.72817663513877,-3146.855404635457,4011.8002728991351,-2221.3622919925829,977.15736920716711,-977.15736920716711,2221.3622919925829,7648.6142021773276,0.0
548296.95196600363,3640566.251970998,-47500.0,-2999.7550612462305,-507.61167888406305,-86.339053997380248,-4388.3696792058217,-714.702652298732,-3720.5623240301384,4457.6144444776928,-2191.9829784513709,888.40571554936423,-888.40571554936423,2191.9829784513709,8437.1998421429889,0.0
553296.95196600363,3640566.251970998,-47500.0,-2792.4095724341023,-567.79877268981284,-193.62639555620467,-4802.943191052057,-883.34764915024732,-4382.5519047516591,4939.8301188829155,-2077.826047760967,733.29778090136449,-733.29778090136449,2077.826047760967,9269.7112800519317,0.0
558296.95196600363,3640566.251970998,-47500.0,-2426.1373094020992,-616.53851344410168,-350.45496686091695,-5183.6470849208608,-1084.254453239028,-5131.5877048989578,5450.9008606402158,-1845.5312896028681,489.62473042763804,-489.62473042763804,1845.5312896028681,10125.282629190961,0.0
563296.95196600363,3640566.251970998,-47500.0,-1856.7325115040451,-640.10795779474108,-573.69472898019922,-5483.6249862263594,-1316.7295167482271,-5953.4764855205958,5975.6853016881951,-1454.5845264914342,131.62587813829566,-131.62587813829566,1454.5845264914342,10969.354943041868,0.0
568296.95196600363,3640566.251970998,-47500.0,-1041.7331096635339,-618.14727843623871,-883.21632923000948,-5634.620128710214,-1573.2991394610272,-6810.2252071827015,6487.3608870973976,-860.50431495089686,-367.35924308941333,367.35924308941333,860.50431495089686,11748.786837323883,0.0
573296.95196600363,3640566.251970998,-47500.0,45.054520528613878,-523.3736020509067,-1300.1217955680227,-5545.3047804331327,-1834.3532028355414,-7623.0938932361314,6942.3739595771076,-24.137304410077093,-1028.681139809737,1028.681139809737,24.137304410077093,12387.998946815966,0.0
578296.95196600363,3640566.251970998,-47500.0,1387.8194500101336,-324.97387656779483,-1842.7205324379845,-5110.5092214006272,-2061.6384434107249,-8250.546638466707,7276.1331293073827,1069.0965390153001,-1857.1479232158395,1857.1479232158395,-1069.0965390153001,12791.292319420421,0.0
583296.95196600363,3640566.251970998,-47500.0,2894.3709538511871,0.57610957953554265,-2519.6024317802458,-4244.2317558104496,-2194.4115634207324,-8471.1958707027534,7404.2910441271961,2378.9979760866349,-2825.5648569926939,2825.5648569926939,-2378.9979760866349,12862.393932654837,0.0
588296.95196600363,3640566.251970998,-47500.0,4371.6674938088536,448.94759878819752,-3320.4252454503708,-2947.2824636668734,-2157.426769999327,-8000.0316296082574,7240.4165987465694,3779.6290660393734,-3861.9785038765231,3861.9785038765231,-3779.6290660393734,12557.488893692276,0.0
593296.95196600363,3640566.251970998,-47500.0,5551.4946289839418,964.17958043665271,-4207.3676138166602,-1394.8184411220336,-1893.1694386568208,-6583.0345674136306,6762.2723314748791,5057.7497106835081,-4854.5985794280341,4854.5985794280341,-5057.7497106835081,11976.675085129695,0.0
598296.95196600363,3640566.251970998,-47500.0,6203.1588755275179,1434.6725560275102,-5111.7164062695228,26.615916036691594,-1419.077132082871,-4191.6513047466669,6320.4135059637465,5979.8937939281768,-5687.5611083958865,5687.5611083958865,-5979.8937939281768,11431.571262482412,0.0
603296.95196600363,3640566.251970998,-47500.0,6297.5529003713391,1737.2161979040368,-5937.8322841311419,838.02896110288793,-874.52794593569683,-1232.0608703210894,6486.5235787198999,6424.9512704892495,-6294.1392009696447,6294.1392009696447,-6424.9512704892495,11301.639028582405,0.0
608296.95196600363,3640566.251970998,-47500.0,6078.0303311879925,1820.1286417947724,-6573.1319672992922,757.12989633174675,-492.16612632839445,1444.1071641179872,6650.2449240654969,6485.6353753879248,-6678.8332433890755,6678.8332433890755,-6485.6353753879248,11631.236464846284,0.0
613296.95196600363,3640566.251970998,-47500.0,5909.0828944801169,1754.5627576501201,-6906.1690506237292,-37.907866511890823,-471.88514946142067,2885.5131836846176,6655.7089662867347,6411.7763739828042,-6874.2805229118821,6874.2805229118821,-6411.7763739828042,12022.173589188214,0.0
618296.95196600363,3640566.251970998,-47500.0,5986.7018969090486,1688.3120715184857,-6859.624436920838,-944.92458419560796,-845.74229866828421,2585.6920331505266,6809.5149950850509,6406.096491834699,-6873.3086967742556,6873.3086967742556,-6406.096491834699,12094.633779633203,0.0
623296.95196600363,3640566.251970998,-47500.0,6175.4293043110265,1736.1892004591298,-6429.4419356414874,-1312.1772593071255,-1457.743591572216,801.86370237868846,6834.9072799604846,6458.7442210693562,-6614.9528849567059,6614.9528849567059,-6458.7442210693562,11857.842096160161,0.0
628296.95196600363,3640566.251970998,-47500.0,6136.2436946211847,1909.5777582836936,-5698.0687393581575,-851.77556584646038,-2073.5111648068932,-1637.5789970405197,6670.3545768172553,6383.7674396870343,-6044.80572890442,6044.80572890442,-6383.7674396870343,11597.404693602821,0.0
633296.95196600363,3640566.251970998,-47500.0,5614.175756435473,2136.1445584752032,-4802.9181762661747,254.86735569947516,-2514.8232934786711,-3862.3517683661553,6596.49267094061,6004.9189750618971,-5186.2368809176041,5186.2368809176041,-6004.9189750618971,11509.116559177919,0.0
638296.95196600363,3640566.251970998,-47500.0,4607.039493780665,2327.99242044933,-3882.2853745021339,1586.4128622429519,-2718.7239890130445,-5372.1296792647117,6648.9868576928347,5293.9928741308895,-4149.8332963953062,4149.8332963953062,-5293.9928741308895,11529.058456819092,0.0
643296.95196600363,3640566.251970998,-47500.0,3309.7832291764175,2431.7239593006816,-3035.8476777390842,2772.6587717041298,-2713.5005631538334,-6089.7744047573769,6619.9046962807151,4360.1576902299776,-3080.2021615871827,3080.2021615871827,-4360.1576902299776,11483.231341463237,0.0
648296.95196600363,3640566.251970998,-47500.0,1960.7452238198689,2436.912346568809,-2314.6989351442207,3627.1822459403184,-2565.1996303370593,-6183.3181906690625,6432.6880391907525,3357.1334583311373,-2096.095395936296,2096.095395936296,-3357.1334583311373,11261.058086198827,0.0
653296.95196600363,3640566.251970998,-47500.0,735.15969233228964,2360.2122015620121,-1731.6317811242459,4124.1661144750024,-2338.4205783122502,-5879.6669470177158,6113.3699477056116,2408.4089679377107,-1263.9484881744274,1263.9484881744274,-2408.4089679377107,10847.408419600109,0.0
658296.95196600363,3640566.251970998,-47500.0,-279.82509622067693,2227.3435912135478,-1276.9176883120942,4321.9764577868418,-2080.7420652907767,-5367.2755044330888,5711.3079468486612,1583.2808371652977,-603.06427487209601,603.06427487209601,-1583.2808371652977,10281.72012507275,0.0
663296.95196600363,3640566.251970998,-47500.0,-1064.2905810860536,2062.3260383701372,-931.07771836464053,4302.3128478260787,-1821.942800538653,-4773.0846794490189,5269.9508914194939,905.67192332539389,-103.18384643198641,103.18384643198641,-905.67192332539389,9618.4530306366833,0.0
668296.95196600363,3640566.251970998,-47500.0,-1635.892777872014,1883.5520397024534,-672.65863382848545,4139.6800976020313,-1578.4436798025329,-4172.4997013026768,4820.406854073477,371.84221171104775,259.40769106544428,-259.40769106544428,-371.84221171104775,8906.9721701646667,0.0
673296.95196600363,3640566.251970998,-47500.0,-2027.7196922656333,1703.5820329758965,-482.03523209104986,3891.8090010059227,-1358.0196907825336,-3605.9974818517321,4382.6320552273655,-35.038833489611108,511.62673810968352,-511.62673810968352,35.038833489611108,8185.1927440075615,0.0
678296.95196600363,3640566.251970998,-47500.0,-2275.7016376723345,1530.285253632441,-342.79851191945829,3599.83303022979,-1163.2991693481601,-3092.6449939202021,3968.3513445063841,-335.95121673718427,678.46695809453593,-678.46695809453593,335.95121673718427,7479.5782360364747,0.0
683296.95196600363,3640566.251970998,-47500.0,-2412.7697306886344,1368.1571660662107,-241.91029577428549,3291.5514076587915,-994.03258726425793,-2639.0827840565994,3583.7139033628555,-551.46597071753411,781.06760413881,-781.06760413881,551.46597071753411,6807.1975559708808,0.0
688296.95196600363,3640566.251970998,-47500.0,-2466.7864825293277,1219.4134605538879,-169.33025032298559,2984.9451361288038,-848.47837614540822,-2245.0437028260285,3231.2597603256172,-699.81264906615911,836.41222121912324,-836.41222121912324,699.81264906615911,6178.056109560217,0.0
693296.95196600363,3640566.251970998,-47500.0,-2460.2899052552116,1084.7942991812247,-117.48131185977827,2691.0698201002788,-724.22293838842518,-1906.6456230814772,2911.264303309822,-796.30889578058157,857.72360150225802,-857.72360150225802,796.30889578058157,5597.1058997079981,0.0
698296.95196600363,3640566.251970998,-47500.0,-2410.9950722412559,964.12477098723787,-80.722070680097985,2416.2246686387639,-618.65381409234783,-1618.3371555275871,2622.6337819952773,-853.42317209311784,855.08140028166542,-855.08140028166542,853.42317209311784,5065.8268611475696,0.0
703296.95196600363,3640566.251970998,-47500.0,-2332.5300027678418,856.69076510853756,-54.890813819046798,2163.5053992813273,-529.22002575924967,-1374.0235856953318,2363.484547889434,-881.08974500769773,836.04561000209037,-836.04561000209037,881.08974500769773,4583.3926947666432,0.0
708296.95196600363,3640566.251970998,-47500.0,-2235.2053861695044,761.49304225074286,-36.937402730201065,1933.9187784901187,-453.56896170792567,-1167.7133348080083,2131.5391883438829,-887.10544192265024,806.21351068705849,-806.21351068705849,887.10544192265024,4147.5538215077804,0.0
713296.95196600363,3640566.251970998,-47500.0,-2126.6920503219521,677.40700733626852,-24.636718749788756,1727.1444128161745,-389.60335710060906,-993.84844404282819,1924.3667562355633,-877.51255583175987,769.67536452334105,-769.67536452334105,877.51255583175987,3755.2320657164978,0.0
718296.95196600363,3640566.251970998,-47500.0,-2012.6043121415637,603.28562683283758,-16.371289667020108,1542.0670947897602,-335.49601703947241,-847.45901091432711,1739.542618155841,-856.94481141938616,729.38141928736957,-729.38141928736957,856.94481141938616,3402.9479097065546,0.0
513296.95196600363,3645566.251970998,-47500.0,-2504.406123827036,81.281241275460744,98.891343840425492,-1994.9061093981497,3.343727902126338,-1141.5666479174631,2113.7349291447804,-1535.1576553624539,922.4841905941214,-922.4841905941214,1535.1576553624539,4128.6095969260086,0.0
518296.95196600363,3645566.251970998,-47500.0,-2659.7709062674121,82.741623248486889,107.27989305760019,-2249.4523303365963,-4.9829381718671897,-1349.4023614068378,2349.317245553581,-1633.2664380642045,980.98014154600287,-980.98014154600287,1633.2664380642045,4576.9531237473338,0.0
523296.95196600363,3645566.251970998,-47500.0,-2809.3189148782685,83.587005796016285,113.76237330395497,-2536.1453521974754,-16.639216795448931,-1598.3823601840088,2614.6655149132907,-1727.7129710759052,1036.0537028511606,-1036.0537028511606,1727.7129710759052,5078.2867453750896,0.0
528296.95196600363,3645566.251970998,-47500.0,-2945.4749612651935,83.805343135471716,116.76351731304115,-2857.1256624891862,-32.69293746117971,-1896.4616510278113,2913.1424254966173,-1813.4116723163697,1084.0011145989301,-1084.0011145989301,1813.4116723163697,5637.3027368101502,0.0
533296.95196600363,3645566.251970998,-47500.0,-3057.684131419921,83.524307497548961,113.95406483295592,-3213.4813093743528,-54.506276019539527,-2252.7182236703452,3248.1114660309086,-1883.1508695731882,1119.5786033294662,-1119.5786033294662,1883.1508695731882,6258.0689074322072,0.0
538296.95196600363,3645566.251970998,-47500.0,-3131.5016690741668,83.132161499672918,101.94338900248385,-3604.4434684981738,-83.784618847715038,-2677.2128935345627,3622.6865081956125,-1926.8744127426526,1135.4838091492452,-1135.4838091492452,1926.8744127426526,6943.3751193251828,0.0
543296.95196600363,3645566.251970998,-47500.0,-3147.4936013079173,83.475666373892622,75.867422646968052,-4026.1645757601318,-122.60166134581863,-3180.5895792613283,4039.3122196594586,-1930.770439883448,1121.7050207161819,-1121.7050207161819,1930.770439883448,7693.7528915305111,0.0
548296.95196600363,3645566.251970998,-47500.0,-3079.9990863638404,86.173697201283289,28.853277661120618,-4469.8784353462897,-173.36103302838265,-3773.2110054601485,4499.0720307061292,-1876.1694608594096,1064.7458549300075,-1064.7458549300075,1876.1694608594096,8506.0260310817866,0.0
553296.95196600363,3645566.251970998,-47500.0,-2895.9492432735424,94.097029468082312,-48.643177470216543,-4919.1586220611598,-238.61432320874391,-4463.451523041801,5000.5512442750169,-1738.3394255030785,946.79351938085983,-946.79351938085983,1738.3394255030785,9371.1851846159243,0.0
558296.95196600363,3645566.251970998,-47500.0,-2554.2774120366739,112.05679638314722,-169.58969128918747,-5345.9380539483536,-320.59107605146266,-5254.4389073654283,5537.9813665509555,-1485.4926969610156,745.04218765525138,-745.04218765525138,1485.4926969610156,10271.310369627789,0.0
563296.95196600363,3645566.251970998,-47500.0,-2007.1638708566704,147.68852600476754,-351.09128534130508,-5705.1026783394391,-420.19389732185152,-6137.9641579508998,6098.2803385812458,-1078.8201046281774,431.68208793635358,-431.68208793635358,1078.8201046281774,11175.272107622994,0.0
568296.95196600363,3645566.251970998,-47500.0,-1205.6133204624732,212.31710382511821,-614.75299513753862,-5928.2872437094247,-535.11738087263336,-7083.4948728646987,6656.5847474733846,-475.32688195337596,-24.400533755018643,24.400533755018643,475.32688195337596,12033.27349052771,0.0
573296.95196600363,3645566.251970998,-47500.0,-113.47943235271796,321.10974644216867,-986.05296845709177,-5919.9268476041543,-656.80865287731399,-8019.8677419755813,7170.2489315030634,363.35454717710752,-652.43665284225074,652.43665284225074,-363.35454717710752,12771.592866339201,0.0
578296.95196600363,3645566.251970998,-47500.0,1265.5568252646749,490.95698011764381,-1491.6009081856728,-5563.7663035826927,-766.64168617964708,-8809.5579127951478,7572.6400015005129,1452.0724489408237,-1468.9298375241617,1468.9298375241617,-1452.0724489408237,13292.253246660033,0.0
583296.95196600363,3645566.251970998,-47500.0,2848.8989559597867,733.64782222146539,-2152.6756369566237,-4754.9950399617692,-833.68561355563679,-9225.3356662755614,7771.0446370127866,2751.7433081745112,-2460.5202590103736,2460.5202590103736,-2751.7433081745112,13488.60448615395,0.0
588296.95196600363,3645566.251970998,-47500.0,4442.4250752759363,1042.8300746042742,-2973.5631145477537,-3473.2787734847752,-820.08125854952561,-8961.2914078157737,7657.3049346865928,4137.7163760334579,-3565.8748570357384,3565.8748570357384,-4137.7163760334579,13293.824621708576,0.0
593296.95196600363,3645566.251970998,-47500.0,5760.4573996182025,1379.4424341461338,-3925.1357435211066,-1884.2863398638192,-702.17236636171515,-7734.002631325624,7143.3062486343106,5398.9448545203595,-4671.8965665218966,4671.8965665218966,-5398.9448545203595,12769.050236039398,0.0
598296.95196600363,3645566.251970998,-47500.0,6546.0366600692441,1671.9975716139493,-4928.7872266248824,-389.00918923502087,-506.50270025678998,-5505.4352568139866,6313.3670963529594,6309.7820768184883,-5642.2565722428644,5642.2565722428644,-6309.7820768184883,12175.031327059283,0.0
603296.95196600363,3645566.251970998,-47500.0,6755.3024419298708,1850.5529986473459,-5851.859323365622,508.7841946638294,-332.7143801519702,-2725.3377532678678,6603.8391876702444,6766.7063476903231,-6372.2384224790958,6372.2384224790958,-6766.7063476903231,11860.919928766643,0.0
608296.95196600363,3645566.251970998,-47500.0,6634.0092827953022,1902.0405524028172,-6527.833053477063,533.72009673618618,-316.84959423425806,-324.91532780419209,6878.0858613808714,6877.2605243120533,-6823.26121856792,6823.26121856792,-6877.2605243120533,11919.626004041271,0.0
613296.95196600363,3645566.251970998,-47500.0,6537.4959392071742,1889.3903147296471,-6806.1510706150511,-81.164269250924718,-534.65242315501132,717.59180863918959,6953.3311875147601,6871.3018010507803,-6997.0080545298624,6997.0080545298624,-6871.3018010507803,12076.926889866598,0.0
618296.95196600363,3645566.251970998,-47500.0,6617.6432445019127,1898.0926807736532,-6615.3444736227593,-686.52495956268012,-931.8949306555395,-7.8500805436415897,6980.0083377218352,6884.1514768385205,-6882.5832346650441,6882.5832346650441,-6884.1514768385205,12089.729338222933,0.0
623296.95196600363,3645566.251970998,-47500.0,6690.2420521909744,1963.223723561726,-6001.1643206640183,-661.98323312216837,-1361.6148305537538,-2074.322913506312,6855.5761866531429,6834.0583168160128,-6447.9800890764809,6447.9800890764809,-6834.0583168160128,12045.502542747789,0.0
628296.95196600363,3645566.251970998,-47500.0,6416.3968737852647,2054.527061876302,-5107.6641849126981,175.86685238181596,-1687.5205679569517,-4537.3492033456705,6764.1827457892732,6521.5531066964695,-5688.6941842643728,5688.6941842643728,-6521.5531066964695,12159.609639606433,0.0
633296.95196600363,3645566.251970998,-47500.0,5600.1070406873514,2118.7401916194108,-4112.1455234720079,1542.7129334424806,-1851.1164134366777,-6534.4280809692063,7051.4298129590388,5828.8580259039582,-4675.1662334634993,4675.1662334634993,-5828.8580259039582,12434.150077532928,0.0
638296.95196600363,3645566.251970998,-47500.0,4316.4314539030856,2122.0483268176454,-3160.5330015144536,2976.3121402135571,-1866.104620717713,-7662.0184021545256,7301.7995758899451,4813.5066136343539,-3543.6444986906354,3543.6444986906354,-4813.5066136343539,12663.231149880665,0.0
643296.95196600363,3645566.251970998,-47500.0,2812.6146139152547,2060.6558397516878,-2338.1400480531593,4128.3532733102757,-1778.3799842491358,-7952.5258654230365,7292.9574045420241,3646.8839527619639,-2440.3266628000101,2440.3266628000101,-3646.8839527619639,12662.015694176735,0.0
648296.95196600363,3645566.251970998,-47500.0,1341.6447839631592,1949.4224399336649,-1674.8831044964288,4862.5974031712858,-1633.9069902773153,-7648.585636393811,7050.9876095407299,2503.7908336596238,-1470.549173673538,1470.549173673538,-2503.7908336596238,12375.324761348615,0.0
653296.95196600363,3645566.251970998,-47500.0,67.369834322159079,1808.0275926520628,-1165.2156583992032,5200.9696884101295,-1466.0364925161803,-7010.344079920319,6652.6983569104023,1498.4551374285043,-683.10197345936331,683.10197345936331,-1498.4551374285043,11844.591642400561,0.0
658296.95196600363,3645566.251970998,-47500.0,-944.12335215076462,1653.2451282975155,-786.97908780977559,5234.4413671930479,-1295.180133886985,-6231.6960121171596,6169.6113476729006,678.29069889801303,-82.04477041709788,82.04477041709788,-678.29069889801303,11146.492410177731,0.0
663296.95196600363,3645566.251970998,-47500.0,-1693.1139124481651,1496.801582448205,-513.61562968853548,5062.3355385956665,-1132.4785818997157,-5431.9277386601452,5654.2570623127403,44.875230741486433,353.5328896459115,-353.5328896459115,-44.875230741486433,10355.209364214275,0.0
668296.95196600363,3645566.251970998,-47500.0,-2212.5836915029704,1345.938730245213,-320.32170724277506,4766.4433906667118,-983.35055431976366,-4674.9460051680053,5140.6880416657668,-423.23421257072567,653.7427661858934,-653.7427661858934,423.23421257072567,9528.6858539104833,0.0
673296.95196600363,3645566.251970998,-47500.0,-2545.8135871206159,1204.6742984747211,-186.37110918740893,4405.9434540714155,-849.91062725278687,-3990.1726536583446,4649.026963413964,-755.13153906682555,848.80366223563169,-848.80366223563169,755.13153906682555,8707.3992635766463,0.0
678296.95196600363,3645566.251970998,-47500.0,-2734.9038071508826,1074.9280372327257,-95.472026708701961,4020.6147421869287,-732.42321631749837,-3387.4833020363981,4190.0373109550064,-979.55712108933494,965.04690473925484,-965.04690473925484,979.55712108933494,7917.4913989963488,0.0
683296.95196600363,3645566.251970998,-47500.0,-2816.1990145162495,957.32336963321609,-35.289424157158756,3635.8243334635172,-630.14587840825891,-2866.3458135862861,3768.5661581075892,-1121.6147124144807,1023.818992130208,-1023.818992130208,1121.6147124144807,7174.5200469053307,0.0
688296.95196600363,3645566.251970998,-47500.0,-2819.2257472019214,851.7090692728973,3.2874880214169981,3266.9052248892754,-541.82324702243704,-2421.0503316384979,3385.8524783198236,-1201.9276069727248,1041.7205807669466,-1041.7205807669466,1201.9276069727248,6486.6185951168163,0.0
693296.95196600363,3645566.251970998,-47500.0,-2767.1374832764272,757.49010462360491,26.871347414390904,2922.4392975961678,-465.98246529388376,-2043.6378699495347,3041.0089709834738,-1236.8623609096846,1031.326167154836,-1031.326167154836,1236.8623609096846,5856.8950666646733,0.0
698296.95196600363,3645566.251970998,-47500.0,-2677.6611894459866,673.83405714504499,40.198867677503053,2606.5629843418305,-401.10913458047906,-1725.5125549154225,2731.947796345843,-1239.1249111534448,1001.9821811383052,-1001.9821811383052,1239.1249111534448,5285.1563805975275,0.0
703296.95196600363,3645566.251970998,-47500.0,-2564.124447756094,599.80301444857025,46.62704089467659,2320.5607709999294,-345.75070842001452,-1458.3159618444417,2455.9691764782901,-1218.427873721088,960.53129610551287,-960.53129610551287,1218.427873721088,4769.1480469267126,0.0
708296.95196600363,3645566.251970998,-47500.0,-2436.3781295070685,534.43452833256345,48.512750914157238,2063.9408499993215,-298.57105526571775,-1234.3629195071312,2210.1210303321668,-1182.0998396555819,911.91034178601058,-911.91034178601058,1182.0998396555819,4305.4032257679064,0.0
713296.95196600363,3645566.251970998,-47500.0,-2301.5820205611553,476.79260244285319,47.495683059408613,1835.166581563301,-258.37569916600052,-1046.83096430926,1991.4271389700073,-1135.6069243055456,859.62778854674889,-859.62778854674889,1135.6069243055456,3889.8374323650432,0.0
718296.95196600363,3645566.251970998,-47500.0,-2164.8416424599004,425.99696124900987,44.705554645326991,1632.1420282404208,-224.11758817627026,-889.80292741919118,1797.022416257591,-1082.9785105842243,806.13322339140484,-806.13322339140484,1082.9785105842243,3518.1434643979005,0.0
513296.95196600363,3650566.251970998,-47500.0,-2434.6323884172903,323.57467372642458,82.906214720237301,-1951.709467476421,159.75380914296974,-1120.0142144941103,2084.774930247368,-1327.9611682864083,913.67372400516354,-913.67372400516354,1327.9611682864083,4071.2153767160021,0.0
518296.95196600363,3650566.251970998,-47500.0,-2582.2743420889365,359.66233704838572,89.455843171533843,-2199.2736079573647,181.25097199638876,-1323.1597118598565,2316.6406846261798,-1397.9656887242058,971.9934491069198,-971.9934491069198,1397.9656887242058,4511.8219394384769,0.0
523296.95196600363,3650566.251970998,-47500.0,-2723.410025854073,400.30984949893963,93.958014623886328,-2477.8321484530352,205.75816900881409,-1566.3392010732011,2577.756202475498,-1460.4286588185867,1027.1186250069043,-1027.1186250069043,1460.4286588185867,5004.3172235220982,0.0
528296.95196600363,3650566.251970998,-47500.0,-2850.5097550123073,446.10211141284935,94.86525216446563,-2789.3799274042631,233.5936281609369,-1857.2433862653807,2871.4344417418779,-1509.9051567970093,1075.4462049476444,-1075.4462049476444,1509.9051567970093,5553.2792513252443,0.0
533296.95196600363,3650566.251970998,-47500.0,-2953.1211219239772,497.69812609264767,89.896559415519576,-3134.8748181879782,265.04546342362084,-2204.6349634553644,3201.0042614968861,-1538.9077582187774,1111.8601879734206,-1111.8601879734206,1538.9077582187774,6162.6868708564207,0.0
538296.95196600363,3650566.251970998,-47500.0,-3016.9773348162353,555.84752300520199,75.735718417569657,-3513.4577382402626,300.33538398866534,-2618.2095197640569,3569.5755852622642,-1537.2698563845547,1129.2120552603924,-1129.2120552603924,1537.2698563845547,6835.2962367013706,0.0
543296.95196600363,3650566.251970998,-47500.0,-3022.9151084299956,621.41820952290038,47.622691665145766,-3921.2685603990431,339.57259373855049,-3108.2086559041445,3979.6458940722891,-1491.3584049845872,1117.6598239187397,-1117.6598239187397,1491.3584049845872,7571.7122379045995,0.0
548296.95196600363,3650566.251970998,-47500.0,-2945.6446881530519,695.43765383354037,-1.1849532183773361,-4349.6587816674819,382.7010320844268,-3684.589519836702,4432.448782509071,-1383.1558609019764,1063.8633054469221,-1063.8633054469221,1383.1558609019764,8369.023316967714,0.0
553296.95196600363,3650566.251970998,-47500.0,-2752.5516230189578,779.15122351792502,-80.094875029526548,-4782.5114766136367,429.4553669324747,-4355.3826433957229,4926.8751714331429,-1189.3181966099826,950.08574322003153,-950.08574322003153,1189.3181966099826,9218.8048369494209,0.0
558296.95196600363,3650566.251970998,-47500.0,-2403.0461410478938,874.08412234739126,-201.98823078794737,-5192.3157986534306,479.3521007760371,-5123.5401226966806,5457.6961025891042,-880.54477714618906,753.38741003783434,-753.38741003783434,880.54477714618906,10104.233902371841,0.0
563296.95196600363,3650566.251970998,-47500.0,-1849.6890504155201,982.05854858034218,-384.05544185973906,-5534.7684967383057,531.75941005925893,-5980.9807742607327,6012.6926338102185,-422.08282009976222,445.39058490844479,-445.39058490844479,422.08282009976222,10996.054806420134,0.0
568296.95196600363,3650566.251970998,-47500.0,-1043.623032871008,1105.0315065696238,-648.38402400569191,-5742.4789080159935,586.08404495539571,-6897.7086264791142,6568.2667137648614,222.90080230058467,-6.3470028672036847,6.3470028672036847,-222.90080230058467,11847.457720585606,0.0
573296.95196600363,3650566.251970998,-47500.0,51.432300946800169,1244.4628337281038,-1021.6676926692841,-5720.8308986448656,642.02497830210064,-7803.445080920601,7083.4682634301416,1084.0828191234009,-633.48799045407509,633.48799045407509,-1084.0828191234009,12589.199473226507,0.0
578296.95196600363,3650566.251970998,-47500.0,1431.8068820921881,1399.7357077322288,-1532.7791334400342,-5354.4601122883942,699.54686100901347,-8561.5887098188778,7493.7630338644649,2165.2712876045125,-1456.1105920849018,1456.1105920849018,-2165.2712876045125,13129.624966062924,0.0
583296.95196600363,3650566.251970998,-47500.0,3013.738623526584,1565.2000593389537,-2206.1023664944755,-4540.2935462244332,757.58499972047866,-8945.8409285929338,7709.070479975624,3415.8415701394715,-2464.6468438181173,2464.6468438181173,-3415.8415701394715,13370.315429537861,0.0
588296.95196600363,3650566.251970998,-47500.0,4599.8502159141608,1726.443000124377,-3048.09090688377,-3263.372585304639,809.81018604212591,-8653.8004903039928,7625.833890815391,4704.2742291874447,-3599.1429919957995,3599.1429919957995,-4704.2742291874447,13253.117218178382,0.0
593296.95196600363,3650566.251970998,-47500.0,5901.3555797092231,1859.2814415215448,-4026.4354779177929,-1701.5397635443019,836.79885371137971,-7417.4341225619128,7172.2930433897909,5826.6824725426859,-4741.4976369543647,4741.4976369543647,-5826.6824725426859,12840.647382996116,0.0
598296.95196600363,3650566.251970998,-47500.0,6666.4358366824335,1938.1310560160507,-5048.326112574483,-269.99597640635693,800.01180628153736,-5241.0793502681208,6558.4135695094064,6587.7344905557993,-5741.6600873147336,5741.6600873147336,-6587.7344905557993,12366.837338471263,0.0
603296.95196600363,3650566.251970998,-47500.0,6871.0566624756466,1955.9103211544796,-5955.7575514754235,533.8106946615062,652.78354828240003,-2644.1127860552192,6768.7439586149185,6932.0912020010364,-6476.0778810636984,6476.0778810636984,-6932.0912020010364,12108.934634889596,0.0
608296.95196600363,3650566.251970998,-47500.0,6780.7328554599899,1938.8589188574506,-6559.449061722501,486.83384451808325,379.15141586124111,-607.4035678207523,6972.3588570289685,7000.4714824182847,-6891.7783028103968,6891.7783028103968,-7000.4714824182847,12099.823972424405,0.0
613296.95196600363,3650566.251970998,-47500.0,6736.7406171132834,1928.2290932635021,-6710.9318466598743,-98.513969719816387,33.871120322285478,-62.113095733272694,6995.6290298911663,7000.0968736197956,-6989.6195026829428,6989.6195026829428,-7000.0968736197956,12117.025530860723,0.0
618296.95196600363,3650566.251970998,-47500.0,6837.410280723062,1935.5615326788575,-6372.9255307735293,-538.28035620260459,-273.27630195075659,-1263.9184315581456,6905.84539830224,6991.684974006811,-6773.9309578445054,6773.9309578445054,-6991.684974006811,12060.501595124069,0.0
623296.95196600363,3650566.251970998,-47500.0,6852.2266682317868,1925.940685808443,-5636.460670428246,-266.50689701267828,-453.73490205009188,-3625.3971447060576,6575.0756284206,6828.5262360952484,-6238.0929313017359,6238.0929313017359,-6828.5262360952484,12118.357594765379,0.0
628296.95196600363,3650566.251970998,-47500.0,6447.6327571796946,1854.8748434055715,-4673.09748672764,800.19158806055236,-498.34362218911366,-6144.8159455196183,6616.26804667544,6311.2961777168566,-5401.1814310296213,5401.1814310296213,-6311.2961777168566,12457.560806158795,0.0
633296.95196600363,3650566.251970998,-47500.0,5474.3206234218733,1711.5628713971821,-3660.6174459319741,2307.5365397066089,-460.33071138538804,-8012.8146643695809,7318.6822379124424,5379.5622264917301,-4345.0451627197972,4345.0451627197972,-5379.5622264917301,12943.878720892,0.0
638296.95196600363,3650566.251970998,-47500.0,4054.4021423556351,1521.7286726023056,-2729.3490467486458,3781.8488639264483,-399.79369634122503,-8919.8012588314086,7668.1368142664287,4156.076718915835,-3203.7739891201495,3203.7739891201495,-4156.076718915835,13291.692453832638,0.0
643296.95196600363,3650566.251970998,-47500.0,2458.1957042215549,1321.7814751505084,-1947.0044504089412,4900.6377373049636,-350.12984565416184,-8973.18985909601,7662.1324379881808,2849.2293038266448,-2113.9855693179602,2113.9855693179602,-2849.2293038266448,13318.508365275517,0.0
648296.95196600363,3650566.251970998,-47500.0,939.57653025520926,1137.7432895053757,-1330.7984222979576,5560.941423233211,-318.53211386387613,-8455.2347162135866,7390.7896307467418,1638.8800000407855,-1170.7535811019361,1170.7535811019361,-1638.8800000407855,13001.819591235453,0.0
653296.95196600363,3650566.251970998,-47500.0,-347.3908322113661,980.58019398722388,-867.97769751905912,5810.0959170413707,-299.7311707623731,-7639.3822335149789,6952.8933399814341,625.7599671104922,-415.22930959270167,415.22930959270167,-625.7599671104922,12412.647054755236,0.0
658296.95196600363,3650566.251970998,-47500.0,-1348.2448865675365,850.88666991512991,-532.97842964159395,5754.1726569000102,-286.56326394582635,-6719.3974399610806,6429.1747299237295,-161.43723651537834,153.17487692021064,-153.17487692021064,161.43723651537834,11646.576683451791,0.0
663296.95196600363,3650566.251970998,-47500.0,-2072.8781810314204,744.66148074232979,-297.96897809316062,5499.9247058783794,-274.15391637420106,-5809.4625394324476,5876.0958992354017,-737.81694651685916,557.82224097493759,-557.82224097493759,737.81694651685916,10788.003610246506,0.0
668296.95196600363,3650566.251970998,-47500.0,-2561.085599273069,656.95345214291808,-137.93600419344656,5131.9813329121598,-260.28336362240861,-4967.4330653037059,5329.1530364857763,-1137.1800676379009,829.93899675355044,-829.93899675355044,1137.1800676379009,9899.6366086033413,0.0
673296.95196600363,3650566.251970998,-47500.0,-2860.5721107724007,583.438978344117,-32.433344108574161,4709.9535639320648,-244.50687277575821,-4217.2611481940276,4808.7317869447252,-1396.831092275758,1000.115220373739,-1000.115220373739,1396.831092275758,9023.7143443735713,0.0
678296.95196600363,3650566.251970998,-47500.0,-3016.1300071622218,520.81516740933625,34.349568157143217,4272.9242649201324,-227.25564189497055,-3564.3292512085,4325.3237620313803,-1550.5334639245955,1094.6634748439144,-1094.6634748439144,1550.5334639245955,8186.6076408450281,0.0
683296.95196600363,3650566.251970998,-47500.0,-3065.6327966897984,466.70210592707139,74.207111328557488,3845.117724680415,-209.24688178498323,-3004.5623334912157,3883.2930287651293,-1626.2079429950115,1134.718823097611,-1134.718823097611,1626.2079429950115,7403.3876746731903,0.0
688296.95196600363,3650566.251970998,-47500.0,-3039.3891656645478,419.41633308012541,95.718397132531265,3440.6229939514451,-191.17927708263136,-2529.5125938346237,3483.346193186786,-1645.8586570328416,1136.586537657201,-1136.586537657201,1645.8586570328416,6681.4215658955573,0.0
693296.95196600363,3650566.251970998,-47500.0,-2960.8668205398621,377.75714077264166,105.00567942706068,3066.834103282888,-173.60993469213386,-2129.1219403890927,3124.0835425006949,-1626.3379624740796,1112.519877527664,-1112.519877527664,1626.3379624740796,6022.9798960589551,0.0
698296.95196600363,3650566.251970998,-47500.0,-2847.8307355202787,340.84580602262588,106.36960903648607,2726.8299241345253,-156.92844119071563,-1793.1971162365701,2802.9620279584965,-1580.307803932707,1071.5521559907211,-1071.5521559907211,1580.307803932707,5427.0769524775942,0.0
703296.95196600363,3650566.251970998,-47500.0,-2713.4816882477248,308.01507054190131,102.7883993200454,2420.978849813775,-141.37393088551494,-1512.1616953357313,2516.8835690036267,-1517.1373948132566,1020.2342465905907,-1020.2342465905907,1517.1373948132566,4890.7362185713546,0.0
708296.95196600363,3650566.251970998,-47500.0,-2567.4664264100047,278.73830869157587,96.295450256512282,2148.0230531143657,-127.0668258846471,-1277.4088086611116,2262.5651799590159,-1443.6669946517686,963.24388374323598,-963.24388374323598,1443.6669946517686,4409.8754938072052,0.0
713296.95196600363,3650566.251970998,-47500.0,-2416.6997016075907,252.58422044511411,88.257064794745247,1905.7859106910632,-114.04109296562498,-1081.4132183748534,2036.7503850301437,-1364.8146291296835,903.86106710522017,-903.86106710522017,1364.8146291296835,3979.8788640689991,0.0
718296.95196600363,3650566.251970998,-47500.0,-2266.034323975789,229.1896038542846,79.573943180700809,1691.6450473839855,-102.27216650612425,-917.72309993622957,1836.3419301030196,-1284.0586231935142,844.33832492599902,-844.33832492599902,1284.0586231935142,3595.9925829600043,0.0
513296.95196600363,3655566.251970998,-47500.0,-2297.7348501619235,550.61247905492155,30.852908305454925,-1866.4053746587485,307.68825978573477,-1077.6726524603869,2030.9490958011477,-1080.7159008127278,854.12758141975792,-854.12758141975792,1080.7159008127278,3964.0631158668434,0.0
518296.95196600363,3655566.251970998,-47500.0,-2425.686440513497,618.32707787451443,28.064418361924449,-2097.1378945198276,356.96991839609478,-1270.1346180027181,2253.9436927828119,-1115.4199857375661,902.40864472437056,-902.40864472437056,1115.4199857375661,4386.7968672471925,0.0
523296.95196600363,3655566.251970998,-47500.0,-2544.1958935031171,695.11872339531931,21.348173379608721,-2355.1414133902986,415.05021814193549,-1499.5884496326842,2504.4217480432731,-1137.3401197599301,945.61774718511197,-945.61774718511197,1137.3401197599301,4857.949983464704,0.0
528296.95196600363,3655566.251970998,-47500.0,-2645.4125698382772,782.01869234107494,8.7634769835270987,-2641.5478901254151,483.47260320361858,-1772.7785852673676,2785.3079687336053,-1140.4472787921361,979.80336018194168,-979.80336018194168,1140.4472787921361,5381.3789205180519,0.0
533296.95196600363,3655566.251970998,-47500.0,-2718.6176790187933,880.03466427336434,-12.437283281066426,-2956.2671074351902,563.96639833904055,-2097.2100907285085,3099.4588386101268,-1116.7520156587491,999.45468528791866,-999.45468528791866,1116.7520156587491,5960.2031550703496,0.0
538296.95196600363,3655566.251970998,-47500.0,-2749.4053543948876,990.05888073313849,-46.115209511862446,-3297.1860313676134,658.40941989684643,-2480.9049609488584,3449.415524402471,-1055.7837144174639,996.99113088930824,-996.99113088930824,1055.7837144174639,6596.1732415183005,0.0
543296.95196600363,3655566.251970998,-47500.0,-2718.7205837743409,1112.7225908714388,-97.651464454143124,-3658.9805134402854,768.74380477667182,-2931.8771452307587,3837.0029933336382,-943.99321612811991,962.12430526989419,-962.12430526989419,943.99321612811991,7288.7521652764053,0.0
548296.95196600363,3655566.251970998,-47500.0,-2601.8234828937361,1248.1668945284032,-174.46955205924488,-4031.3633381703958,896.81310255098265,-3457.1230147730712,4262.6848999881076,-764.13846849791571,881.10104284635759,-881.10104284635759,764.13846849791571,8033.800668492051,0.0
553296.95196600363,3655566.251970998,-47500.0,-2367.3985883502669,1395.6887561876854,-286.67443306909479,-4396.527074497747,1044.071126481592,-4060.7602856795838,4724.5256665293573,-494.81694394823433,735.89556973900574,-735.89556973900574,494.81694394823433,8821.7204246049714,0.0
558296.95196600363,3655566.251970998,-47500.0,-1977.3712063589987,1553.2009619743378,-447.76700511637961,-4725.5171531486267,1211.0747810913449,-4740.6386622991404,5216.5266542991185,-110.54615255287712,503.56336362594431,-503.56336362594431,110.54615255287712,9634.8837414058144,0.0
563296.95196600363,3655566.251970998,-47500.0,-1388.6974474128604,1716.4361011398023,-675.29439273215826,-4973.4721878180935,1396.6088745774612,-5482.2214773053129,5726.0211670967874,416.73784254838097,156.27705608431734,-156.27705608431734,-416.73784254838097,10444.256793645134,0.0
568296.95196600363,3655566.251970998,-47500.0,-559.6153691103176,1877.8668533826369,-991.09261095397005,-5074.5722843328522,1596.1956127628575,-6247.8729237798452,6229.8507711782468,1113.1122719408029,-336.87078139815532,336.87078139815532,-1113.1122719408029,11205.561904891965,0.0
573296.95196600363,3655566.251970998,-47500.0,535.67103408618266,2025.5095481636513,-1420.3867616654245,-4940.0824387777393,1799.6565860379742,-6959.6134672368207,6689.5393451714053,1992.4900452044194,-1004.4055809689517,1004.4055809689517,-1992.4900452044194,11856.721467327327,0.0
578296.95196600363,3655566.251970998,-47500.0,1879.8984980366067,2142.3091815766002,-1988.3802265383342,-4468.0779596455186,1987.5383072338138,-7476.3715516085795,7047.3450819499885,3038.4976550270412,-1860.9313884244757,1860.9313884244757,-3038.4976550270412,12321.577113967371,0.0
583296.95196600363,3655566.251970998,-47500.0,3375.547525169362,2207.7806940381852,-2712.2349343140031,-3579.9033118933189,2127.1336726509699,-7577.8283429610783,7229.1876154570909,4180.4833503530308,-2888.5624066104956,2888.5624066104956,-4180.4833503530308,12529.958963651756,0.0
588296.95196600363,3655566.251970998,-47500.0,4819.0062932949722,2204.4753770235466,-3586.3815624360304,-2296.1540443593913,2171.355309187993,-6989.9980306714479,7170.1981350874275,5278.3127218626769,-4016.7361911295511,4016.7361911295511,-5278.3127218626769,12465.324844623803,0.0
593296.95196600363,3655566.251970998,-47500.0,5934.8892440387817,2130.5197645188928,-4562.0575683756324,-831.5159724948154,2067.6189478362821,-5508.0062734321746,6910.5074798168262,6147.4983012018838,-5117.3162626896064,5117.3162626896064,-6147.4983012018838,12228.124498810919,0.0
598296.95196600363,3655566.251970998,-47500.0,6512.8599867630701,2012.7545031979118,-5530.2518336118983,385.84199552744445,1784.6028250177778,-3231.222600080428,6792.02773395853,6649.610229519988,-6036.5525216489268,6036.5525216489268,-6649.610229519988,12032.83829913415,0.0
603296.95196600363,3655566.251970998,-47500.0,6586.9253688907302,1904.7851320249433,-6327.7236435778887,899.463972956102,1352.5012234541782,-766.44361003340418,6931.0215173468569,6804.4958418833921,-6659.9214446721053,6659.9214446721053,-6804.4958418833921,12028.861925606403,0.0
608296.95196600363,3655566.251970998,-47500.0,6459.6419280963692,1855.6216767662734,-6783.0339583657033,581.46340933747513,885.93501024569002,897.09901733964682,6957.8453876358308,6795.0987699718271,-6957.5356161713071,6957.5356161713071,-6795.0987699718271,12097.368822780936,0.0
613296.95196600363,3655566.251970998,-47500.0,6454.8694040958699,1862.8504302567594,-6788.9741939717005,-162.26466902362262,547.59356809438316,940.00964263136723,6899.4623934353331,6798.2250873156881,-6959.5168042616569,6959.5168042616569,-6798.2250873156881,12006.845217833104,0.0
618296.95196600363,3655566.251970998,-47500.0,6614.339665718996,1857.210832632019,-6352.4089359707968,-627.54110434002018,453.99180798029397,-719.87972089152208,6788.949977444433,6795.8043991377472,-6692.4677187311627,6692.4677187311627,-6795.8043991377472,11788.715356777651,0.0
623296.95196600363,3655566.251970998,-47500.0,6665.5898624835627,1749.2365192805,-5583.4039217686959,-307.50077964252193,595.9959304977308,-3380.7674215468837,6448.8886248818999,6583.1699599364156,-6155.628436397853,6155.628436397853,-6583.1699599364156,11765.974856155393,0.0
628296.95196600363,3655566.251970998,-47500.0,6275.4970534630775,1501.1048157596076,-4638.843230068388,809.26910535853358,851.5430066799787,-6043.4647196889573,6495.3863694786505,5962.3617975401639,-5356.6965778954882,5356.6965778954882,-5962.3617975401639,12137.807676682442,0.0
633296.95196600363,3655566.251970998,-47500.0,5314.702953803423,1152.7597675931363,-3665.3241010093966,2339.3435661260864,1077.0608337983972,-7967.6091640991563,7211.8085283021474,4911.8927841027553,-4355.7505606417826,4355.7505606417826,-4911.8927841027553,12714.932530646674,0.0
638296.95196600363,3655566.251970998,-47500.0,3914.7969438137275,784.74609922300351,-2767.8547325237905,3818.0383186909621,1188.6766565753055,-8903.3311976948025,7594.3982459893323,3590.9231828218449,-3265.4645804944735,3265.4645804944735,-3590.9231828218449,13157.573586281193,0.0
643296.95196600363,3655566.251970998,-47500.0,2341.5420094745991,465.57727400588675,-2003.7387986709393,4938.7717250231508,1177.3801901837817,-8981.7901757032687,7620.3560921414228,2223.8394279318873,-2209.7735485052599,2209.7735485052599,-2223.8394279318873,13261.961259014481,0.0
648296.95196600363,3655566.251970998,-47500.0,841.5195192359929,227.21349414217659,-1391.0673035817335,5605.0876752459999,1077.7449447586519,-8486.4597757952215,7376.2353776914242,990.05685347080146,-1281.3003956230907,1281.3003956230907,-990.05685347080146,13002.331404311704,0.0
653296.95196600363,3655566.251970998,-47500.0,-434.17282412673245,70.089619569884704,-922.33848745118985,5862.9417315043029,933.03166052601932,-7687.0329505160807,6959.2352838654315,-17.31702009177431,-525.21060833482034,525.21060833482034,17.31702009177431,12451.920638889789,0.0
658296.95196600363,3655566.251970998,-47500.0,-1429.920905546054,-21.40504483788785,-577.12142147365114,5815.0533153880242,776.83525232105126,-6775.8460648293403,6450.0024382243228,-778.40789545622101,53.155642819061711,-53.155642819061711,778.40789545622101,11709.889569266415,0.0
663296.95196600363,3655566.251970998,-47500.0,-2152.9647573522116,-66.514845875652441,-331.04626408927658,5566.0128673140125,629.27766724826779,-5868.1812369521767,5905.9008209656949,-1315.9439210968831,472.06449207791479,-472.06449207791479,1315.9439210968831,10864.335397805813,0.0
668296.95196600363,3655566.251970998,-47500.0,-2640.7679058381391,-81.917356609023301,-160.9373769978219,5199.9080090099369,499.79958166231233,-5023.9685657476612,5363.7160079988043,-1669.5944109223024,759.33065601282067,-759.33065601282067,1669.5944109223024,9981.2723999440841,0.0
673296.95196600363,3655566.251970998,-47500.0,-2939.6059943637151,-79.941906297316081,-47.080635018829057,4776.8042597006806,391.16217060826222,-4269.1046532438877,4845.0832847002066,-1880.8896464143786,943.65413739561109,-943.65413739561109,1880.8896464143786,9105.5834896627803,0.0
678296.95196600363,3655566.251970998,-47500.0,-3093.6424342932646,-68.880994084181253,26.221054492483134,4336.6002916062389,302.586732338606,-3610.3912132220835,4361.5143559589069,-1986.4679651634158,1050.5096533136364,-1050.5096533136364,1986.4679651634158,8265.5900800073341,0.0
683296.95196600363,3655566.251970998,-47500.0,-3140.6347489895588,-53.943694291134804,70.93957766251998,3904.327413639041,231.73385341286965,-3044.6476368979174,3918.12892221418,-2016.0852551997546,1100.8159231846089,-1100.8159231846089,2016.0852551997546,7477.7204145387432,0.0
688296.95196600363,3655566.251970998,-47500.0,-3111.0336758202106,-38.204504866176975,95.935401059126946,3494.721836803581,175.79873595358953,-2563.9244736158862,3516.1576478634006,-1992.8162260336983,1110.9814850323044,-1110.9814850323044,1992.8162260336983,6750.2409834917544,0.0
693296.95196600363,3655566.251970998,-47500.0,-3028.5432693451489,-23.346799027224748,107.62160779329062,3115.6389686866141,132.05383220741004,-2158.4025913397227,3154.5479138178735,-1934.0452811541143,1093.5003872874856,-1093.5003872874856,1934.0452811541143,6085.9952937920207,0.0
698296.95196600363,3655566.251970998,-47500.0,-2911.1723920204004,-10.18757323436281,110.55807763974401,2770.4604783706736,98.081204478362537,-1817.9736242523261,2830.9795649211601,-1852.6046268317966,1057.6852805992337,-1057.6852805992337,1852.6046268317966,5484.3515082245613,0.0
703296.95196600363,3655566.251970998,-47500.0,-2772.3274247584154,0.97267732834890674,107.93720754567931,2459.7321977107067,71.84251269799347,-1533.057656066766,2542.487473195959,-1757.7982653919946,1010.3535873941034,-1010.3535873941034,1757.7982653919946,4942.5320796742153,0.0
708296.95196600363,3655566.251970998,-47500.0,-2621.8167407761616,10.126506551559729,101.9617897846352,2182.2903756141318,51.670832845591242,-1295.0022855357208,2285.8665373020708,-1656.2630199887501,956.41846267943652,-956.41846267943652,1656.2630199887501,4456.5624048987756,0.0
713296.95196600363,3655566.251970998,-47500.0,-2466.6729536050379,17.420027840480056,94.12805857809353,1935.9970105620559,36.229210400394216,-1096.2190718668062,2057.9023427763605,-1552.6387644026211,899.35793870468592,-899.35793870468592,1552.6387644026211,4021.8760911231743,0.0
513296.95196600363,3660566.251970998,-47500.0,-2100.6556636429432,749.418016730158,-52.587284061292365,-1742.9415286054614,439.71343495409343,-1016.3772183718862,1955.2432787691528,-807.38626695732023,748.20821593075061,-748.20821593075061,807.38626695732023,3811.5651323766388,0.0
518296.95196600363,3660566.251970998,-47500.0,-2198.6749696105321,842.59539834207396,-70.921898148843184,-1948.1842128311414,512.55981135537081,-1192.8185872099093,2164.9499126794226,-803.05285020502652,777.7731405610532,-777.7731405610532,803.05285020502652,4207.5153078715721,0.0
523296.95196600363,3660566.251970998,-47500.0,-2282.5443845744335,947.85084279200521,-96.399961735629915,-2174.8064106608872,598.72328579777422,-1401.5398110128876,2399.346610115696,-780.28451989338339,798.64617553854839,-798.64617553854839,780.28451989338339,4646.4410479556918,0.0
528296.95196600363,3660566.251970998,-47500.0,-2343.8638219846321,1066.2636299866117,-131.63712414396016,-2422.5098636250732,700.55095266848525,-1647.7729127947127,2660.7101289050906,-732.52467773213039,806.19993448754326,-806.19993448754326,732.52467773213039,5131.0145233564599,0.0
533296.95196600363,3660566.251970998,-47500.0,-2371.4556646333008,1198.6892909305266,-180.17160920595697,-2689.4482196711529,820.64163959479765,-1936.9949373512723,2951.0973993494608,-651.41903301337811,794.17130119283297,-794.17130119283297,651.41903301337811,5662.9300189990108,0.0
538296.95196600363,3660566.251970998,-47500.0,-2350.6790832659472,1345.5401752709986,-246.7665953418032,-2971.384246927717,961.75216696635664,-2274.5030925786882,3272.0715534997375,-526.46337544619189,754.18483868711371,-754.18483868711371,526.46337544619189,6242.2506142242009,0.0
543296.95196600363,3660566.251970998,-47500.0,-2262.6947573929224,1506.4521971605302,-337.78942881790516,-3260.4886725056231,1126.6001453771457,-2664.6466064867641,3624.2807732843376,-344.67813673519197,675.19062335147726,-675.19062335147726,344.67813673519197,6866.4971091096386,0.0
548296.95196600363,3660566.251970998,-47500.0,-2083.8044758230049,1679.7875605622946,-461.6625145431409,-3543.6526341977287,1317.4931997411295,-3109.5009273067431,4006.8181171048709,-90.421903015578806,542.8566266816747,-542.8566266816747,90.421903015578806,7529.41357093234,0.0
553296.95196600363,3660566.251970998,-47500.0,-1785.1598623651166,1861.9119331930826,-629.35158744887076,-3800.1643555420933,1535.6703599365619,-3606.6168748424079,4416.25001080119,254.42371718534025,339.0329756519742,-339.0329756519742,-254.42371718534025,8219.3430026708629,0.0
558296.95196600363,3660566.251970998,-47500.0,-1333.4914880309186,2046.1851328472112,-854.78935830721173,-3998.6717395945439,1780.1703526702786,-4145.2279094921632,4845.1665484987161,709.42727398267334,41.575175990066896,-41.575175990066896,-709.42727398267334,8917.2175557333303,0.0
563296.95196600363,3660566.251970998,-47500.0,-694.16350175830951,2221.6623990529456,-1155.0019859472086,-4093.6903436954917,2045.9399423578081,-4699.9234733989224,5280.1087122447325,1292.8679690427284,-374.86471220832647,374.86471220832647,-1292.8679690427284,9594.3911106985652,0.0
568296.95196600363,3660566.251970998,-47500.0,161.13674887421809,2371.7171641772966,-1549.4679098057138,-4022.976278450918,2320.8030079435775,-5220.4845958568785,5698.9255924899517,2015.8720197505259,-935.93441129135851,935.93441129135851,-2015.8720197505259,10211.205178104596,0.0
573296.95196600363,3660566.251970998,-47500.0,1238.869070780846,2473.3543861186163,-2057.8680139109688,-3709.6106309466732,2581.0135341682139,-5617.1763155872104,6068.4038172963492,2871.7381690819702,-1660.7866379878399,1660.7866379878399,-2871.7381690819702,10718.779133573198,0.0
578296.95196600363,3660566.251970998,-47500.0,2498.187129982698,2499.068717474534,-2694.9582716200016,-3077.0769211909001,2785.9333569603618,-5744.60215272607,6345.2510357930296,3820.086983037836,-2549.5581595403601,2549.5581595403601,-3820.086983037836,11069.410353333027,0.0
583296.95196600363,3660566.251970998,-47500.0,3820.9828938922819,2424.4153592616922,-3461.2261229115884,-2089.6188830081674,2874.8847678537545,-5398.2275892717335,6489.0700003584925,4771.0143684416716,-3565.6130992865478,3565.6130992865478,-4771.0143684416716,11243.485687528073,0.0
588296.95196600363,3660566.251970998,-47500.0,5001.1000455348121,2244.0561026753526,-4329.3227891627103,-823.52001842297818,2774.0082588709433,-4356.7723317001401,6507.2405371084787,5585.8776349256013,-4620.1918238702156,4620.1918238702156,-5585.8776349256013,11293.402679842331,0.0
593296.95196600363,3660566.251970998,-47500.0,5796.5873191543606,1992.634343602738,-5230.4400226401658,460.65631462704067,2424.8387270364406,-2512.9850344138777,6534.1953568449062,6120.6885183532604,-5577.6594085399547,5577.6594085399547,-6120.6885183532604,11366.721572792763,0.0
598296.95196600363,3660566.251970998,-47500.0,6069.614439176521,1752.4623130361026,-6051.3904684592553,1337.314949408503,1838.0075994106912,-83.278361643219171,6705.9482991808645,6318.0473487947147,-6299.4985414643652,6299.4985414643652,-6318.0473487947147,11615.120664825725,0.0
603296.95196600363,3660566.251970998,-47500.0,5935.1526788322835,1621.4354515156458,-6655.7040526957926,1425.4605328618311,1143.5761903711009,2258.7549903659519,6829.0851391461847,6283.7194786451282,-6713.2451773873772,6713.2451773873772,-6283.7194786451282,11985.943771189335,0.0
608296.95196600363,3660566.251970998,-47500.0,5734.3021501383373,1641.3612977439184,-6929.6660459190862,713.91491354096922,576.15874646477766,3575.3145048990855,6670.0120028023393,6233.0200379642674,-6845.2084835878077,6845.2084835878077,-6233.0200379642674,12177.974716346145,0.0
613296.95196600363,3660566.251970998,-47500.0,5766.516526949843,1743.5128526973731,-6828.8717474206906,-311.5431308685566,362.63710594607068,3200.5945602157831,6554.4168693236406,6297.8753200502852,-6770.7435186736639,6770.7435186736639,-6297.8753200502852,11946.304175364485,0.0
618296.95196600363,3660566.251970998,-47500.0,6021.3323423682332,1778.0196445325882,-6390.9039371114031,-951.24203661736988,580.78089348506569,1198.6330309492178,6559.3172343103306,6381.2796366565817,-6530.3049265624286,6530.3049265624286,-6381.2796366565817,11431.190659428372,0.0
623296.95196600363,3660566.251970998,-47500.0,6194.4366383414399,1615.6352351403737,-5707.3404689282161,-753.20291079272806,1109.5591354316225,-1688.5960833763868,6347.7235505078097,6228.2143136537443,-6103.1669815178802,6103.1669815178802,-6228.2143136537443,11099.483986124031,0.0
628296.95196600363,3660566.251970998,-47500.0,5948.1222714601572,1233.8420700929407,-4883.9472934618643,258.34655882164247,1713.0835945827378,-4519.9789572818036,6288.3370956854988,5636.428187292111,-5456.2113045990627,5456.2113045990627,-5636.428187292111,11273.640382474716,0.0
633296.95196600363,3660566.251970998,-47500.0,5147.7324679443391,718.11195857423138,-4016.3029359611987,1709.1737503923484,2179.9971859744605,-6626.381652268271,6733.4542240086776,4599.6698050370078,-4605.243371843967,4605.243371843967,-4599.6698050370078,11801.650385745799,0.0
638296.95196600363,3660566.251970998,-47500.0,3902.9749352951917,194.19195541841958,-3180.9982274296522,3159.1844159970974,2410.1359385570772,-7780.7848718824353,7103.922351769701,3286.8441159876165,-3629.7610546197411,3629.7610546197411,-3286.8441159876165,12304.723234787254,0.0
643296.95196600363,3660566.251970998,-47500.0,2453.3131187148861,-240.88774306973326,-2431.7800526359752,4308.8145671756301,2412.0618099121493,-8093.1403917725638,7189.1658113480962,1923.9101289142868,-2639.1474966982182,2639.1474966982182,-1923.9101289142868,12525.863845552092,0.0
648296.95196600363,3660566.251970998,-47500.0,1031.4229472083409,-545.43604566888871,-1797.9354314988323,5046.8877113865765,2251.5804049927933,-7815.3746920586491,7022.4380264245028,690.53378676579996,-1728.5349479766519,1728.5349479766519,-690.53378676579996,12399.794651289003,0.0
653296.95196600363,3660566.251970998,-47500.0,-209.67273249538667,-722.69192878154115,-1286.9696587412018,5396.5881496645698,2002.9506497036057,-7197.3897144116645,6680.7395243138435,-318.01431826747671,-955.17680398041148,955.17680398041148,318.01431826747671,11976.338631613924,0.0
658296.95196600363,3660566.251970998,-47500.0,-1203.2788745056,-798.45365461321671,-890.99563860268722,5441.7991016620745,1724.0175777555737,-6426.5577175273656,6236.5801555196394,-1078.8252937828406,-338.47207262569327,338.47207262569327,1078.8252937828406,11343.72654994748,0.0
663296.95196600363,3660566.251970998,-47500.0,-1943.9148066283415,-803.4704683477247,-593.9046143021751,5276.1860802148312,1451.1273670282526,-5622.379803136294,5745.2078494335519,-1612.4024091316078,128.24362862267969,-128.24362862267969,1612.4024091316078,10587.163096552993,0.0
668296.95196600363,3660566.251970998,-47500.0,-2458.7753583040458,-764.45954668186573,-377.00950532920206,4979.5737106954348,1203.2000001045744,-4852.320823139471,5244.1637835043666,-1957.607253090679,464.94173743929878,-464.94173743929878,1957.607253090679,9773.9623035964833,0.0
673296.95196600363,3660566.251970998,-47500.0,-2787.3259055977446,-701.37940223131943,-222.49187147318057,4611.8075722625226,987.70294683664611,-4149.76987171988,4756.9304462325263,-2156.3191232101085,695.810317943884,-695.810317943884,2156.3191232101085,8951.9745095286235,0.0
678296.95196600363,3660566.251970998,-47500.0,-2969.8484161901943,-627.79232184914338,-115.02041707385985,4214.4394948566278,805.53896593225613,-3527.6774589975184,4297.0259004984564,-2246.1448208722609,844.17801436392767,-844.17801436392767,2246.1448208722609,8152.7462586609827,0.0
683296.95196600363,3660566.251970998,-47500.0,-3042.2371886508608,-552.26220361596063,-42.203330366940435,3814.7339917257118,654.30548794466415,-2987.4869379736606,3871.3545119512087,-2257.9841355375602,930.28168599356445,-930.28168599356445,2257.9841355375602,7395.5974780400593,0.0
688296.95196600363,3660566.251970998,-47500.0,-3034.3002338361407,-479.81009940736107,5.5731251717935093,3429.6008438711569,530.22708745691716,-2524.5749105390405,3482.5959903695839,-2215.9646161014134,970.65637860614038,-970.65637860614038,2215.9646161014134,6691.1666281343087,0.0
693296.95196600363,3660566.251970998,-47500.0,-2969.7633003881638,-413.09631341814816,35.55878891379944,3068.7635620067717,429.21010696207651,-2131.465527764738,3130.8233560765907,-2138.3178403390089,978.31271912094542,-978.31271912094542,2138.3178403390089,6044.1615002653225,0.0
698296.95196600363,3660566.251970998,-47500.0,-2866.9712462197558,-353.28131099998399,53.109256377590569,2737.108190133717,347.36932559153632,-1799.6833477413691,2814.5664265026735,-2038.4923556539284,963.2242333964133,-963.2242333964133,2038.4923556539284,5455.3744279898265,0.0
703296.95196600363,3660566.251970998,-47500.0,-2739.7933193511476,-300.61609478942984,62.118818114245919,2436.3594360943698,281.25578940501708,-1520.7882740902462,2531.5028482500493,-1926.2072965771997,932.88556752052705,-932.88556752052705,1926.2072965771997,4923.1195767113413,0.0
708296.95196600363,3660566.251970998,-47500.0,-2598.5093527789177,-254.83107167791229,65.382863406895609,2166.2490290742207,227.92409861006507,-1286.91762058317,2278.9011878850984,-1808.3451333409171,892.83434174136926,-892.83434174136926,1808.3451333409171,4444.2350278269332,0.0
713296.95196600363,3660566.251970998,-47500.0,-2450.5931187986589,-215.38493494089462,64.885284379586352,1925.3189701101508,184.91955729358233,-1091.0356239660919,2053.9035877577753,-1689.6707708043853,847.09853303079967,-847.09853303079967,1689.6707708043853,4014.7736936328834,0.0
513296.95196600363,3665566.251970998,-47500.0,-1854.3378866982123,909.47688583856859,-159.81580404025206,-1587.5743373984251,549.70152385509607,-939.04107526313089,1861.8265632933651,-523.47168492221454,604.03587808007501,-604.03587808007501,523.47168492221454,3620.4032132323869,0.0
518296.95196600363,3665566.251970998,-47500.0,-1915.0087284092554,1019.5895916317262,-197.73778678472121,-1760.6263376674797,640.20216192820487,-1095.1995909376112,2054.9371325328689,-480.17994052935614,608.49287909044233,-608.49287909044233,480.17994052935614,3982.5811520345424,0.0
523296.95196600363,3665566.251970998,-47500.0,-1955.8544399468472,1142.6985417679423,-246.65827371979108,-1947.6845048233884,746.75555955786285,-1277.6992988042423,2269.2788486226996,-413.42794325511073,599.6160530858815,-599.6160530858815,413.42794325511073,4380.956747448,0.0
528296.95196600363,3665566.251970998,-47500.0,-1967.9355155584929,1279.4018407662525,-309.90475905806949,-2146.71594450576,871.92671585295386,-1489.8948236225601,2506.3546030854368,-316.47880694921741,572.02076912986479,-572.02076912986479,316.47880694921741,4816.796296883208,0.0
533296.95196600363,3665566.251970998,-47500.0,-1939.7285462618274,1429.7508236698666,-391.7936241062622,-2353.7814055094027,1018.3958902674374,-1734.7670137679079,2767.2847585338327,-181.11735340079929,518.66772204554661,-518.66772204554661,181.11735340079929,5290.1472734929994,0.0
538296.95196600363,3665566.251970998,-47500.0,-1856.6444313815155,1592.890972861589,-497.88523510643876,-2562.1741040203669,1188.7395847945947,-2014.2954119419214,3052.5180455588406,2.4717274929194559,430.47438514743112,-430.47438514743112,-2.4717274929194559,5799.1989859250716,0.0
543296.95196600363,3665566.251970998,-47500.0,-1700.6266675857785,1766.5447163019521,-635.26498136335204,-2761.259228747308,1385.0318833440538,-2328.4305606231869,3361.4164793033256,245.67709771432186,295.91704993229399,-295.91704993229399,-245.67709771432186,6339.4486911272706,0.0
548296.95196600363,3665566.251970998,-47500.0,-1450.0216608258427,1946.2883618895221,-812.81145149075826,-2934.956625571464,1608.1594526574586,-2673.4526363715463,3691.6740718255814,561.12504007208793,100.71125110950766,-100.71125110950766,-561.12504007208793,6902.6777218114439,0.0
553296.95196600363,3665566.251970998,-47500.0,-1080.0974201108213,2124.5833498320039,-1041.3636182137775,-3059.8521588181707,1856.6865641175611,-3039.384221884814,4038.5232334528655,961.75320320060086,-172.24255021872051,172.24255021872051,-961.75320320060086,7475.8076239695529,0.0
558296.95196600363,3665566.251970998,-47500.0,-564.92847513564698,2289.574846647859,-1333.6079602385171,-3103.0968195078344,2125.0326522556661,-3405.9636188526233,4393.7138802395284,1458.813026219445,-542.27383261376781,542.27383261376781,-1458.813026219445,8039.8932378238915,0.0
563296.95196600363,3665566.251970998,-47500.0,118.10009872400479,2423.8365762234453,-1703.3599457686223,-3020.7318826511964,2400.6580597251063,-3736.5284693614331,4744.3817928791341,2058.0618382173611,-1029.0377428410052,1029.0377428410052,-2058.0618382173611,8569.9310436512551,0.0
568296.95196600363,3665566.251970998,-47500.0,979.28285760868835,2503.650070660191,-2163.7006695259079,-2758.2252522439699,2660.0008861065617,-3969.2885295513693,5072.3487671066014,2753.2311922085792,-1648.1974541266391,1648.1974541266391,-2753.2311922085792,9037.0598465721869,0.0
573296.95196600363,3665566.251970998,-47500.0,2001.125350377042,2500.2347545923417,-2723.229790935985,-2257.2340130917755,2863.3907311358857,-4006.742165922878,5355.5473333230093,3516.3182346014942,-2403.339594107159,2403.339594107159,-3516.3182346014942,9416.2923115713475,0.0
578296.95196600363,3665566.251970998,-47500.0,3116.8597777715386,2385.5764776426099,-3379.7606572802306,-1475.6814025443032,2950.7684727896094,-3708.3082569327557,5575.9457112884929,4286.5730657104505,-3273.4872963482167,3273.4872963482167,-4286.5730657104505,9704.4013514321123,0.0
583296.95196600363,3665566.251970998,-47500.0,4191.5843514310354,2146.1954580526885,-4111.7282494225237,-428.97030154293014,2843.6328861014131,-2900.8477136973934,5742.5297776735642,4965.8526061919438,-4198.9470286587439,4198.9470286587439,-4965.8526061919438,9949.1792411708284,0.0
588296.95196600363,3665566.251970998,-47500.0,5029.8575907014001,1805.3214692968313,-4870.1529151790128,750.57478125554246,2463.6292614244021,-1434.3570477771111,5928.7341387315573,5436.1974228817871,-5075.531538201265,5075.531538201265,-5436.1974228817871,10270.177107439842,0.0
593296.95196600363,3665566.251970998,-47500.0,5443.4106956671458,1443.1001242982718,-5577.8525432210618,1772.528547168185,1778.4477198148261,692.81813460693888,6239.3960085999533,5615.3474068988035,-5774.5153903790415,5774.5153903790415,-5615.3474068988035,10809.285685931873,0.0
598296.95196600363,3665566.251970998,-47500.0,5381.6994295441327,1188.1211589188611,-6143.8346057466833,2245.1064551584909,867.58312538861651,3171.0240763258953,6626.536386669497,5536.0553349810998,-6197.9802076466167,6197.9802076466167,-5536.0553349810998,11569.801743316544,0.0
603296.95196600363,3665566.251970998,-47500.0,5035.7455131701854,1154.8439893232601,-6492.7409401336454,1887.449227384026,-40.295939051857431,5322.3911409541424,6863.1087340295217,5376.3718902341943,-6342.1568366670208,6342.1568366670208,-5376.3718902341943,12287.636665434975,0.0
608296.95196600363,3665566.251970998,-47500.0,4764.9781588015667,1349.5243512737723,-6592.9277969806762,794.16145543310688,-628.22224693801434,6327.1556804630809,6725.2881064592493,5358.115160433731,-6303.7634285209488,6303.7634285209488,-5358.115160433731,12558.869632153204,0.0
613296.95196600363,3665566.251970998,-47500.0,4834.1093687537123,1629.4073982673222,-6460.7150179644141,-513.41401628811627,-653.73866003640433,5684.7041271238986,6393.3760443606907,5556.3051015546935,-6199.2280373615777,6199.2280373615777,-5556.3051015546935,12163.128617327469,0.0
618296.95196600363,3665566.251970998,-47500.0,5193.7480577754532,1776.6548603197123,-6137.873304181554,-1376.3209836598348,-98.753616119561499,3544.7046078467738,6297.1060068200095,5805.6626584649166,-6066.4158054566487,6066.4158054566487,-5805.6626584649166,11296.910801846507,0.0
623296.95196600363,3665566.251970998,-47500.0,5527.3693700545145,1634.8287204244775,-5665.3461564044756,-1393.3430351693801,821.95371639330313,606.02421209059673,6057.1413852735905,5814.1620519216276,-5846.2063886204769,5846.2063886204769,-5814.1620519216276,10501.539680992597,0.0
628296.95196600363,3665566.251970998,-47500.0,5496.4301624847121,1193.9598149110248,-5076.1601880849157,-591.40286813054502,1792.9071334481857,-2297.4839132978746,5878.7149078524944,5370.9099515905946,-5450.3160319267299,5450.3160319267299,-5370.9099515905946,10251.455639787284,0.0
633296.95196600363,3665566.251970998,-47500.0,4947.4321285206242,570.50321080921117,-4405.6655300687144,696.33367226776375,2556.5407123236196,-4571.7434404162168,6055.0781484183917,4464.7411071110473,-4840.5374034863835,4840.5374034863835,-4464.7411071110473,10540.404419621029,0.0
638296.95196600363,3665566.251970998,-47500.0,3949.1932748236491,-77.558719053040917,-3699.5760380832767,2070.1503618166403,2995.0786058005619,-5991.5392330921559,6352.4140455063871,3253.3008478332267,-4056.4119532519953,4056.4119532519953,-3253.3008478332267,11003.343411559175,0.0
643296.95196600363,3665566.251970998,-47500.0,2699.807806397168,-627.47035748411315,-3008.5739222429233,3238.4858577523128,3118.5479382912486,-6619.4282362673275,6487.8425687004401,1952.9629202785688,-3188.3772408763925,3188.3772408763925,-1952.9629202785688,11316.208661002573,0.0
648296.95196600363,3665566.251970998,-47500.0,1410.2354825470918,-1021.27703547383,-2375.7795853237199,4067.8220559695687,3005.9806007356942,-6653.7909651699001,6416.1635740447819,743.66547578959808,-2332.6815859706803,2332.6815859706803,-743.66547578959808,11345.052415370877,0.0
653296.95196600363,3665566.251970998,-47500.0,234.39078119759441,-1255.6483091150787,-1828.0604718331799,4547.8989018112707,2750.3970435044816,-6309.7635587264494,6178.5072079185857,-270.06019447462847,-1560.4084242319818,1560.4084242319818,270.06019447462847,11093.098073129328,0.0
658296.95196600363,3665566.251970998,-47500.0,-746.49476643389573,-1357.3914603968592,-1375.1152324820828,4733.8285698077152,2428.6540122520641,-5761.5731690006451,5831.0411869135878,-1052.9130286121515,-908.88621800245016,908.88621800245016,1052.9130286121515,10622.78723313607,0.0
663296.95196600363,3665566.251970998,-47500.0,-1508.8726894473173,-1362.6225402638004,-1013.7398292865778,4700.966301624745,2093.0334993109805,-5129.8424137580405,5422.7003642511718,-1614.7276232787242,-387.59602245591873,387.59602245591873,1614.7276232787242,10007.960838562087,0.0
668296.95196600363,3665566.251970998,-47500.0,-2064.3603314837801,-1304.9167423985552,-733.36660490570353,4520.332288974053,1774.1276944506965,-4489.5819966331183,4989.8970094799197,-1987.3181052227542,11.482782543081498,-11.482782543081498,1987.3181052227542,9313.0242992180683,0.0
673296.95196600363,3665566.251970998,-47500.0,-2441.2961307128994,-1210.7559217173985,-520.5698583481485,4249.2766905427343,1487.0631893365105,-3883.1734554283094,4557.355421533468,-2208.9195896958777,304.86012591465499,-304.86012591465499,2208.9195896958777,8587.1164521926767,0.0
678296.95196600363,3665566.251970998,-47500.0,-2672.9998912285328,-1099.0532722729918,-361.91508647479702,3930.2535300869054,1237.2536797184625,-3331.7156177513511,4140.6710427274584,-2315.8886468918854,511.54892772565836,-511.54892772565836,2315.8886468918854,7864.7434803333263,0.0
683296.95196600363,3665566.251970998,-47500.0,-2791.5115618140248,-982.35959211452075,-245.41151321908205,3592.87852884628,1024.5994812996182,-2843.2405811038088,3748.9019721910217,-2339.2556428159023,649.76280878892794,-649.76280878892794,2339.2556428159023,7168.5312562930003,0.0
688296.95196600363,3665566.251970998,-47500.0,-2824.8325219190315,-868.45204458363969,-161.04332077670051,3256.7824381636633,846.2031015375768,-2418.1661099387265,3386.6479452542912,-2303.9281680338554,735.42600752420014,-735.42600752420014,2303.9281680338554,6512.1869106336881,0.0
693296.95196600363,3665566.251970998,-47500.0,-2796.114247385985,-761.76436111218243,-100.78978794942631,2934.2625901250017,697.99619489087263,-2052.7654548100072,3055.5776755113734,-2229.1231410643118,781.73044842287879,-781.73044842287879,2229.1231410643118,5903.0430220173794,0.0
698296.95196600363,3665566.251970998,-47500.0,-2723.8100058761961,-664.50215267803412,-58.407078465844997,2632.4315632364182,575.65132074682754,-1741.3119196042774,2755.5001406266615,-2129.2471658235286,799.22580513565708,-799.22580513565708,2129.2471658235286,5344.0455131852405,0.0
703296.95196600363,3665566.251970998,-47500.0,-2622.2370984710947,-577.450979824569,-29.13006462765583,2354.8509460468031,475.05567532962806,-1477.3672863990348,2485.0992682584852,-2014.8488964066455,796.13969108083973,-796.13969108083973,2014.8488964066455,4835.2365540504297,0.0
708296.95196600363,3665566.251970998,-47500.0,-2502.2601657228724,-500.53373994709995,-9.3736601384054925,2102.7263836192415,392.52598990514775,-1254.5226431623755,2242.4269315765919,-1893.4817525625299,778.76615072976722,-778.76615072976722,1893.4817525625299,4374.8223721955592,0.0
713296.95196600363,3665566.251970998,-47500.0,-2371.9603689765077,-433.18398009639662,3.5302675053977648,1875.7611647524207,324.88003542717576,-1066.7962102853051,2025.2303698707644,-1770.4282614881015,751.84327013419966,-751.84327013419966,1770.4282614881015,3959.9280350502067,0.0
513296.95196600363,3670566.251970998,-47500.0,-1572.5437208075307,1023.717175539736,-281.28670793479813,-1408.2329688460729,633.36480960524455,-849.3716009592639,1755.4587646168673,-244.40156635151322,432.484948994349,-432.484948994349,244.40156635151322,3399.0182866836467,0.0
518296.95196600363,3670566.251970998,-47500.0,-1591.9395323516808,1140.9907825492016,-340.17725378247542,-1544.8462951227348,734.60948436016452,-982.34140513060549,1929.9877523963542,-165.83645752938179,408.43530865281747,-408.43530865281747,165.83645752938179,3722.8524206318193,0.0
523296.95196600363,3670566.251970998,-47500.0,-1585.8217535340914,1269.9309603341599,-413.74080235453283,-1687.4500662554219,852.63633690125209,-1135.0364948097058,2122.0608282838243,-60.30210635553334,366.29359259903953,-366.29359259903953,60.30210635553334,4075.56469340789,0.0
528296.95196600363,3670566.251970998,-47500.0,-1544.9835823719354,1410.1507795380635,-505.78471855471145,-1832.2822022823173,989.61150874981286,-1308.812766065003,2332.4430484755035,78.563518209878239,300.12511610970739,-300.12511610970739,-78.563518209878239,4457.0870726639887,0.0
533296.95196600363,3670566.251970998,-47500.0,-1457.9887309615997,1560.3138286109595,-621.03460920759767,-1973.4012545889225,1147.4921707339454,-1504.0464138111536,2561.4087537629071,258.09727172598252,202.46765429976918,-202.46765429976918,-258.09727172598252,4866.0098429164864,0.0
538296.95196600363,3670566.251970998,-47500.0,-1310.9617608036133,1717.6537939734205,-765.27376953884664,-2101.8735376745035,1327.6342378785159,-1719.3419430915867,2808.4777323370117,486.45628055777149,64.10614453439166,-64.10614453439166,-486.45628055777149,5299.0429985220799,0.0
543296.95196600363,3670566.251970998,-47500.0,-1087.6046604256253,1877.3271271857723,-945.43017629059545,-2204.7598500808886,1530.1451685395,-1950.3201802769511,3072.0746347832751,772.19985814652864,-126.05622679667908,126.05622679667908,-772.19985814652864,5750.404326090882,0.0
548296.95196600363,3670566.251970998,-47500.0,-769.68635466709441,2031.5803524523035,-1169.5319156098217,-2263.9294464558784,1752.8528381768003,-2187.8005474775496,3349.1177644484728,1123.4235688195604,-380.8915261650763,380.8915261650763,-1123.4235688195604,6211.2368083550818,0.0
553296.95196600363,3670566.251970998,-47500.0,-338.4309649391891,2168.7622245798138,-1446.3900973502657,-2254.8374101931258,1989.7164292212681,-2415.1295903933997,3634.5865809154461,1546.1672463593891,-714.45519825035854,714.45519825035854,-1546.1672463593891,6669.3126946013354,0.0
558296.95196600363,3670566.251970998,-47500.0,222.49518198591267,2272.334241207478,-1784.7775703285313,-2145.65566603244,2228.4688790868399,-2604.3607226383006,3921.2259903688582,2041.7082049670389,-1140.4866086912152,1140.4866086912152,-2041.7082049670389,7109.587289964189,0.0
563296.95196600363,3670566.251970998,-47500.0,921.36677200981819,2320.3104994221048,-2191.7568550553742,-1897.6926042969283,2447.3187720200362,-2711.0612886886115,4199.8097539684395,2602.3010921672399,-1669.3539067213403,1669.3539067213403,-2602.3010921672399,7516.7290979658237,0.0
568296.95196600363,3670566.251970998,-47500.0,1748.9657637146754,2286.1022699162031,-2669.7320089301302,-1469.0875404415149,2610.8216007585256,-2668.0356440920041,4460.9969143176895,3205.1697771355375,-2302.6255072497488,2302.6255072497488,-3205.1697771355375,7881.6248846953795,0.0
573296.95196600363,3670566.251970998,-47500.0,2664.9154055048907,2142.6014376063313,-3211.9258344996783,-825.37263730375184,2665.9323993216813,-2379.920444079798,4701.0203296382288,3805.6349782591815,-3024.7093885308714,3024.7093885308714,-3805.6349782591815,8214.4666135645712,0.0
578296.95196600363,3670566.251970998,-47500.0,3582.647790606859,1872.165298438272,-3796.6928049531766,38.172105689119903,2541.3690960310055,-1724.6372392901849,4934.8531149825149,4333.0203475966855,-3792.5344932255666,3792.5344932255666,-4333.0203475966855,8564.620763950632,0.0
583296.95196600363,3670566.251970998,-47500.0,4363.468571357751,1484.4676788924614,-4382.8498817934924,1059.6938477644003,2157.0140174920843,-574.5721174772824,5216.0518157870392,4697.6712875840722,-4528.1791135201356,4528.1791135201356,-4697.6712875840722,9034.9637722751831,0.0
588296.95196600363,3670566.251970998,-47500.0,4840.3154511153834,1038.7976135030599,-4910.9330713248719,2069.2548711364793,1453.1326894374245,1144.1942906421459,5630.9822225529988,4820.8196200206603,-5125.3449270062738,5125.3449270062738,-4820.8196200206603,9753.1479956179537,0.0
593296.95196600363,3670566.251970998,-47500.0,4891.2346951919035,654.93458139388088,-5316.5794420909006,2778.988218534912,444.25706561973169,3347.695756663466,6210.7232863883273,4690.7402826638745,-5482.6893192607922,5482.6893192607922,-4690.7402826638745,10764.434997386094,0.0
598296.95196600363,3670566.251970998,-47500.0,4546.7856206440902,484.77074797210895,-5556.7225823562994,2862.8416777719167,-720.96212307363135,5687.1981639078404,6845.1052001562457,4417.1070133021731,-5562.2502711376274,5562.2502711376274,-4417.1070133021731,11906.113591829708,0.0
603296.95196600363,3670566.251970998,-47500.0,4045.8229703544298,630.44393556889713,-5634.5958844173301,2145.0369484157463,-1748.781518314436,7552.3141147338729,7319.2524352546498,4217.478870857628,-5435.4847736557049,5435.4847736557049,-4217.478870857628,12810.969203454541,0.0
608296.95196600363,3670566.251970998,-47500.0,3734.6998908635364,1050.4502061469809,-5598.7692431340674,790.1838661927012,-2294.5887821686779,8286.6140400524073,7419.2386348727268,4292.0550992778299,-5258.937903936212,5258.937903936212,-4292.0550992778299,13088.072443284094,0.0
613296.95196600363,3670566.251970998,-47500.0,3834.8297004286169,1542.980609060927,-5507.4302359471558,-700.03264233165407,-2137.8031231105551,7539.0923702053733,7072.4239447303607,4659.229400806149,-5171.7334198479493,5171.7334198479493,-4659.229400806149,12566.967754376099,0.0
618296.95196600363,3670566.251970998,-47500.0,4276.2696130788318,1847.8822255283114,-5385.0960294281113,-1743.0351235742667,-1311.9452954472911,5481.9751409796963,6453.9367288935155,5109.0431534801064,-5196.7483101280304,5196.7483101280304,-5109.0431534801064,11444.063776452676,0.0
623296.95196600363,3670566.251970998,-47500.0,4755.1829900537477,1793.0973927215932,-5210.1376094098005,-1987.845237462295,-82.667051870029425,2706.8854894601391,5859.5932564635295,5332.9856024887231,-5234.7846256249377,5234.7846256249377,-5332.9856024887231,10227.99483733685,0.0
628296.95196600363,3670566.251970998,-47500.0,4945.1177523458991,1371.6532262434775,-4940.7045093469569,-1442.6484773828006,1199.3338220104565,-94.050465127595828,5462.2822799517926,5112.8193544304968,-5146.2006553483816,5146.2006553483816,-5112.8193544304968,9460.9504398867975,0.0
633296.95196600363,3670566.251970998,-47500.0,4673.6716052667116,711.26562338633221,-4552.2861307755702,-377.82441422837104,2253.1115191111612,-2410.1849683920705,5385.3609335551846,4419.4896013247781,-4841.1729301059604,4841.1729301059604,-4419.4896013247781,9333.7797019371883,0.0
638296.95196600363,3670566.251970998,-47500.0,3962.5700650801132,-14.160646336214455,-4057.0656564493679,862.43479052040186,2942.2715348138663,-4015.8074696253834,5540.5347180065301,3384.1349241111825,-4317.0273041482305,4317.0273041482305,-3384.1349241111825,9601.4713426794242,0.0
643296.95196600363,3670566.251970998,-47500.0,2960.3048812111579,-662.37816115661406,-3497.2015112839545,2004.3749156098888,3262.9857242182702,-4920.200867837797,5676.7611086694433,2203.0477830264017,-3639.1534335717279,3639.1534335717279,-2203.0477830264017,9910.7699913174038,0.0
648296.95196600363,3670566.251970998,-47500.0,1847.8293097178575,-1155.9630307629056,-2924.6648190447045,2897.2000819876798,3288.8287493167154,-5259.404721840905,5679.0014447606309,1052.2454791298223,-2898.1171344967797,2898.1171344967797,-1052.2454791298223,10050.347419803005,0.0
653296.95196600363,3670566.251970998,-47500.0,773.62764967743215,-1476.7246432811751,-2383.5426838530511,3497.4798607909656,3116.5753854571999,-5203.2490406510005,5542.1697363923086,46.555621275500698,-2174.230336012527,2174.230336012527,-46.555621275500698,9959.8760664122547,0.0
658296.95196600363,3670566.251970998,-47500.0,-169.58767159402558,-1643.489520104943,-1901.9698264786116,3828.2958536749629,2833.0880088413764,-4902.982441255399,5298.2913625887559,-762.11355776893663,-1521.3719547172386,1521.3719547172386,762.11355776893663,9662.0913461028777,0.0
663296.95196600363,3670566.251970998,-47500.0,-940.21403349302136,-1690.6003563895226,-1492.3275587358548,3942.001531536911,2502.815745928975,-4472.9666130876349,4984.8939501166351,-1367.6185073480622,-966.35886701651873,966.35886701651873,1367.6185073480622,9209.7484518340116,0.0
668296.95196600363,3670566.251970998,-47500.0,-1532.415682430365,-1653.9096782407366,-1155.4106553711213,3896.3812853688073,2167.6699992906042,-3991.1723300376216,4634.0905961672961,-1789.7974790109624,-515.63840638189549,515.63840638189549,1789.7974790109624,8658.0929407560379,0.0
673296.95196600363,3670566.251970998,-47500.0,-1960.8397443827305,-1564.0459434969857,-885.16087654650096,3742.9168372013432,1851.8202308351113,-3506.631300525326,4270.0002681380065,-2059.3975855191111,-163.16971625423275,163.16971625423275,2059.3975855191111,8053.8217552593096,0.0
678296.95196600363,3670566.251970998,-47500.0,-2249.3831005958273,-1444.4210767816242,-672.40054114098268,3522.7691845392692,1567.2012741081812,-3047.7270302320512,3909.3278801411443,-2208.8912004160775,103.27454173148635,-103.27454173148635,2208.8912004160775,7432.3835948345049,0.0
683296.95196600363,3670566.251970998,-47500.0,-2424.235262436664,-1311.6157663009299,-507.24107318276697,3266.6713827567341,1318.0457058006757,-2629.0471319398439,3562.8600825241988,-2267.8354680130597,297.95822079518553,-297.95822079518553,2267.8354680130597,6818.7685661695668,0.0
688296.95196600363,3670566.251970998,-47500.0,-2510.1367493985194,-1176.6539772282497,-380.40616025409082,2996.4139310516298,1104.1193324841354,-2256.4173041162353,3237.0077545965678,-2261.0748893659429,434.8131306362377,-434.8131306362377,2261.0748893659429,6229.449691718446,0.0
693296.95196600363,3670566.251970998,-47500.0,-2528.6896299073605,-1046.4019043940393,-283.82141665178119,2726.7241456980892,922.84020259767487,-1930.3701132746053,2935.0920407545982,-2208.4750962853946,526.28563764477178,-526.28563764477178,2208.4750962853946,5674.4266432793456,0.0
698296.95196600363,3670566.251970998,-47500.0,-2497.8531393681678,-924.78653108713127,-210.77482971018136,2467.03370756192,770.5884873567793,-1648.4508526386651,2658.3373090805603,-2125.3755994198759,582.91660351376265,-582.91660351376265,2125.3755994198759,5159.0152229449259,0.0
703296.95196600363,3670566.251970998,-47500.0,-2432.0562270802443,-813.74642976158214,-155.85246971776104,2222.9491962640036,643.46939939652862,-1406.6975696085151,2406.5972503825824,-2023.3023478748496,613.32296463859154,-613.32296463859154,2023.3023478748496,4685.2701565590341,0.0
708296.95196600363,3670566.251970998,-47500.0,-2342.591386254147,-713.93040833627003,-114.77663580267378,1997.4014715357437,537.72896201683272,-1200.5590653251497,2178.8711722305288,-1910.7117756570112,624.37298958069164,-624.37298958069164,1910.7117756570112,4253.0630189798303,0.0
713296.95196600363,3670566.251970998,-47500.0,-2238.1093211972225,-625.19012502444798,-84.215777378979183,1791.5131076724228,449.95729204775864,-1025.4417350698595,1973.6670460835628,-1793.6682767806226,621.43858990997137,-621.43858990997137,1793.6682767806226,3860.879900250708,0.0
513296.95196600363,3675566.251970998,-47500.0,-1270.3974745025184,1088.9899697175779,-406.69574928576691,-1213.7277231334349,688.53496864559509,-751.515063942648,1640.9068008297261,15.961408434051293,245.87216207239442,-245.87216207239442,-15.961408434051293,3156.9611372700624,0.0
518296.95196600363,3675566.251970998,-47500.0,-1248.2230667430931,1203.6176529218687,-485.23594043115554,-1312.2730863150327,793.38063182420979,-859.85934739676372,1796.2124071255355,123.21320564972851,193.11953013536478,-193.11953013536478,-123.21320564972851,3440.5357167992784,0.0
523296.95196600363,3675566.251970998,-47500.0,-1195.7355696826071,1326.5763967029832,-581.18937992143458,-1408.9934327773597,913.81257513716491,-981.20392978719747,1965.5772649659734,258.85237216372764,118.2840642130915,-118.2840642130915,-258.85237216372764,3745.959663306493,0.0
528296.95196600363,3675566.251970998,-47500.0,-1103.9338240534114,1456.1563451248749,-698.40475504490723,-1498.6832165311578,1051.0794776395585,-1115.0188266754537,2149.214026741106,428.248307697114,15.325699071797658,-15.325699071797658,-428.248307697114,4072.1866673460922,0.0
533296.95196600363,3675566.251970998,-47500.0,-962.12065734893088,1589.3046108637907,-841.39713298976085,-1573.8592289062644,1205.7802984477269,-1259.3025834893895,2346.8463267235052,637.09495342440277,-123.00158786295594,123.00158786295594,-637.09495342440277,4416.9279545868549,0.0
538296.95196600363,3675566.251970998,-47500.0,-758.00651257366337,1721.0829612311445,-1015.307894840447,-1624.0811913974198,1377.296970291427,-1409.7064633127763,2557.5286142718378,890.97893256935834,-305.14454366655525,305.14454366655525,-890.97893256935834,4776.3347023796705,0.0
543296.95196600363,3675566.251970998,-47500.0,-478.1718712086145,1843.9974677564901,-1225.7223247251895,-1635.2028962152913,1562.9238776398465,-1558.2704863251524,2779.4683511305384,1194.6066425274812,-540.53414651058711,540.53414651058711,-1194.6066425274812,5144.7891258919926,0.0
548296.95196600363,3675566.251970998,-47500.0,-109.15698668121739,1947.2374558692827,-1478.2350807987691,-1588.6669162921949,1756.5731357042555,-1691.6434213170469,3009.9157115078274,1550.5222338348481,-838.98286375583439,838.98286375583439,-1550.5222338348481,5515.0273812846453,0.0
553296.95196600363,3675566.251970998,-47500.0,360.41247465330781,2015.9540227027328,-1777.6004801950844,-1461.105743425599,1946.9219532465067,-1788.6586054210304,3245.2714180849307,1957.1101202192767,-1209.4243112292174,1209.4243112292174,-1957.1101202192767,5879.0374393849424,0.0
558296.95196600363,3675566.251970998,-47500.0,936.09720578916733,2030.8931245079114,-2126.2467965925416,-1224.794312033637,2114.9035621362327,-1817.2012008663919,3481.7286665465476,2405.6857142334666,-1657.6082966150675,1657.6082966150675,-2405.6857142334666,6230.5257598317057,0.0
563296.95196600363,3675566.251970998,-47500.0,1611.6705846892239,1969.038418147793,-2521.9166911178822,-849.99948415318602,2230.6189062497388,-1730.5553296024234,3717.0783380143644,2876.6511496504363,-2182.2890515616336,2182.2890515616336,-2876.6511496504363,6570.1941886867053,0.0
568296.95196600363,3675566.251970998,-47500.0,2360.5644316295698,1806.4488509769828,-2954.3242113421416,-311.03239671573726,2250.2463959937222,-1464.124189694943,3954.7924057629748,3335.2639281368674,-2769.5845119333235,2769.5845119333235,-3335.2639281368674,6915.1509425286386,0.0
573296.95196600363,3675566.251970998,-47500.0,3125.7578338975022,1525.0741294457387,-3401.2165791202951,401.4000937161108,2114.6699834923897,-935.05382353723792,4211.797275883594,3728.9234421257097,-3385.9418524084549,3385.9418524084549,-3728.9234421257097,7311.8519777862703,0.0
578296.95196600363,3675566.251970998,-47500.0,3812.5262506504878,1125.3548993623097,-3825.3933376407576,1259.2163713725497,1753.6086674090957,-50.308359665467577,4529.0288692670993,3990.2812316440709,-3972.1380028691406,3972.1380028691406,-3990.2812316440709,7844.5436681165484,0.0
583296.95196600363,3675566.251970998,-47500.0,4294.1804800513837,644.25766562463116,-4176.1298729638365,2169.013586235566,1101.5520916935341,1267.5469976784068,4971.7238365335234,4053.0573451477248,-4444.2905087508007,4444.2905087508007,-4053.0573451477248,8617.9729319374546,0.0
588296.95196600363,3675566.251970998,-47500.0,4445.4101989576156,171.80846914720956,-4399.9633135392351,2950.0578499734097,131.94015693583293,3027.6868346926467,5589.4693270846383,3886.24366807363,-4711.188740042393,4711.188740042393,-3886.24366807363,9693.2751141533336,0.0
593296.95196600363,3675566.251970998,-47500.0,4210.0987073197366,-151.35195925745492,-4463.5763848433489,3348.077729632259,-1092.5904304236346,5096.290982611109,6345.9056589886641,3540.0687152634823,-4714.1664061522779,4714.1664061522779,-3540.0687152634823,10999.244404135688,0.0
598296.95196600363,3675566.251970998,-47500.0,3677.87774233256,-177.23470513400048,-4381.5507045793147,3119.2036268374827,-2378.361900096595,7139.7540903149793,7095.6348912001231,3171.5793480594275,-4477.9354981483411,4477.9354981483411,-3171.5793480594275,12291.951255226613,0.0
603296.95196600363,3675566.251970998,-47500.0,3100.0588987084275,165.03593107051142,-4227.4757088717033,2177.6302408371494,-3415.0524066567491,8660.684846369355,7630.0322699854987,3001.354512405479,-4133.3039668338724,4133.3039668338724,-3001.354512405479,13215.698362934596,0.0
608296.95196600363,3675566.251970998,-47500.0,2783.3061862889076,792.30524365109738,-4106.3552676356539,716.49217934277181,-3880.0735647024244,9173.3801809302677,7762.6499438471001,3189.9983926691211,-3869.5471056911329,3869.5471056911329,-3189.9983926691211,13450.433659340833,0.0
613296.95196600363,3675566.251970998,-47500.0,2903.1315984581261,1473.0146175898121,-4095.1996199915284,-823.89296391691653,-3593.8634674319392,8445.3435873765884,7422.905049306326,3711.7988271995891,-3827.4646171298909,3827.4646171298909,-3711.7988271995891,12875.257964835255,0.0
618296.95196600363,3675566.251970998,-47500.0,3385.5919450636511,1935.3339753873229,-4194.6600679793501,-1958.6134761286803,-2618.5592117462102,6630.2100477181502,6712.3103969565564,4341.2045113590275,-4012.3020735356613,4012.3020735356613,-4341.2045113590275,11657.546919882649,0.0
623296.95196600363,3675566.251970998,-47500.0,3960.3871068008407,2003.0896986124039,-4330.9063035080362,-2388.4252122491303,-1223.7885524754774,4185.7161324000435,5883.0112802341919,4776.1932131440226,-4298.1622479512735,4298.1622479512735,-4776.1932131440226,10213.148090564644,0.0
628296.95196600363,3675566.251970998,-47500.0,4328.8110603073592,1662.7313106720389,-4402.7781649676335,-2096.0885700252561,247.45069521202083,1651.3788346227818,5216.2445477083111,4798.1661090455609,-4511.7978816945752,4511.7978816945752,-4798.1661090455609,9038.2265408211042,0.0
633296.95196600363,3675566.251970998,-47500.0,4309.030905486723,1033.9994959693838,-4335.350614001587,-1281.27856823807,1514.5659183537537,-552.50338569879182,4876.7579505053836,4355.5361158596852,-4523.9944978717331,4523.9944978717331,-4355.5361158596852,8446.8401950167499,0.0
638296.95196600363,3675566.251970998,-47500.0,3880.0633376690571,289.12900528318431,-4106.8960321470186,-222.955826663897,2427.0455316751063,-2209.4457348002584,4835.8655881479954,3543.9778530632061,-4292.9697651691613,4292.9697651691613,-3543.9778530632061,8385.0190137131231,0.0
643296.95196600363,3675566.251970998,-47500.0,3139.6751630985559,-420.54812674417701,-3743.643967590428,835.25483857274298,2959.050241478737,-3284.8399565368381,4904.1079219769299,2530.4602769768126,-3854.3731969748524,3854.3731969748524,-2530.4602769768126,8562.9409702819739,0.0
648296.95196600363,3675566.251970998,-47500.0,2232.6675443217814,-1000.6352863425756,-3297.0650581737486,1737.3021598270568,3164.9911857156576,-3856.0613670657249,4930.8596700647231,1479.4789790135587,-3284.4162316174165,3284.4162316174165,-1479.4789790135587,8723.0439968984283,0.0
653296.95196600363,3675566.251970998,-47500.0,1293.8078187186504,-1414.7460299885156,-2821.1041494198134,2414.628892216354,3131.6423920905395,-4044.5936113448979,4865.0617471797232,511.51634945899264,-2664.0771979534275,2664.0771979534275,-511.51634945899264,8739.6423075567654,0.0
658296.95196600363,3675566.251970998,-47500.0,420.15313963938138,-1667.6167674068747,-2358.4555473514747,2861.1739445449284,2945.1815129510564,-3971.7243263296759,4709.3525892539301,-306.21702749518727,-2057.872173732736,2057.872173732736,306.21702749518727,8586.6182829266818,0.0
663296.95196600363,3675566.251970998,-47500.0,-332.93018569885965,-1785.5160510800713,-1936.3117552255228,3105.2992254971023,2675.4777035715915,-3737.9440055962077,4485.0740678335633,-950.2983140862018,-1507.2577546686214,1507.2577546686214,950.2983140862018,8286.9059691130406,0.0
668296.95196600363,3675566.251970998,-47500.0,-943.65470850735846,-1801.5099640655026,-1567.9965707258386,3188.6771258968556,2372.3923364678726,-3417.8786208584934,4216.3867299746844,-1425.9231374874182,-1032.9521688628745,1032.9521688628745,1425.9231374874182,7879.7754568461905,0.0
673296.95196600363,3675566.251970998,-47500.0,-1412.6012871900055,-1746.9619412146819,-1256.8342348239116,3153.722445155629,2068.0987686693252,-3062.7918765072018,3924.2386660831839,-1753.4095207096652,-640.62067940224279,640.62067940224279,1753.4095207096652,7404.6646842326145,0.0
678296.95196600363,3675566.251970998,-47500.0,-1752.9487517762418,-1647.8315794873499,-1000.0311166134907,3037.5618355369929,1781.3456444259969,-2705.5882113579114,3624.7389179208471,-1958.7678607854332,-326.60909910374676,326.60909910374676,1958.7678607854332,6894.7541889692038,0.0
683296.95196600363,3675566.251970998,-47500.0,-1983.5033147056829,-1523.8489535900867,-791.6714619683537,2870.0173427037003,1521.6182071977917,-2365.8580785737122,3329.3413344376704,-2068.12018128401,-82.398480784282583,82.398480784282583,2068.12018128401,6375.3958594769583,0.0
688296.95196600363,3675566.251970998,-47500.0,-2124.3362952934554,-1389.0858841695006,-624.70401551068755,2673.6751448537616,1292.4597959236742,-2054.0600159532155,3045.6433889972618,-2104.9006424188137,102.40634635940614,-102.40634635940614,2104.9006424188137,5864.6482628255872,0.0
693296.95196600363,3675566.251970998,-47500.0,-2194.363627893083,-1253.0294449369735,-492.10766486603774,2464.8539363159243,1093.8598579279696,-1774.6773369409041,2778.2844043393916,-2088.7873256911457,238.28957417587833,-238.28957417587833,2088.7873256911457,5374.5464713975998,0.0
698296.95196600363,3675566.251970998,-47500.0,-2210.2031906680754,-1121.7014047243608,-387.48861972182544,2254.8343023507746,923.85970340339895,-1528.4729083772388,2529.7471401126918,-2035.5918140397991,334.87950406834375,-334.87950406834375,2035.5918140397991,4912.4810877924074,0.0
703296.95196600363,3675566.251970998,-47500.0,-2185.8023232988203,-998.63035422493681,-305.32235536596522,2051.0405048426151,779.57583539440611,-1314.0337830331182,2301.0038329058466,-1957.613385548226,400.53963815924885,-400.53963815924885,1957.613385548226,4482.4264278397395,0.0
708296.95196600363,3675566.251970998,-47500.0,-2132.4897885908854,-885.62319719200798,-240.9944122336091,1858.0527203092684,657.82123282119585,-1128.7937757434108,2092.0103203551139,-1864.171608939645,442.27211704543788,-442.27211704543788,1864.171608939645,4085.9424221382064,0.0
513296.95196600363,3680566.251970998,-47500.0,-962.89819251849974,1106.0139555585949,-526.17222537889666,-1012.9304357729436,715.16539767059726,-649.68540987176232,1522.6356589185832,246.48384513140576,56.574264550591465,-56.574264550591465,-246.48384513140576,2904.1888907331913,0.0
518296.95196600363,3680566.251970998,-47500.0,-902.13837620093534,1209.2505979628984,-620.72162005670589,-1074.2421262134831,816.9506531610175,-733.38161124669341,1659.2828461344534,373.96137030688902,-22.152756101674186,22.152756101674186,-373.96137030688902,3148.2150224059142,0.0
523296.95196600363,3680566.251970998,-47500.0,-807.83512652815932,1316.0348345092279,-733.95780342523176,-1126.8249804441539,931.53628472908986,-823.74918666076348,1807.0547160465344,528.97627628053442,-125.50500671652171,125.50500671652171,-528.97627628053442,3408.109889693375,0.0
528296.95196600363,3680566.251970998,-47500.0,-671.75147466307351,1423.2439489771948,-869.24492105363697,-1164.5098389324244,1058.9236414650768,-918.6692707085756,1965.8978906212469,715.37800482256989,-259.06327794874989,259.06327794874989,-715.37800482256989,3682.4291925341668,0.0
533296.95196600363,3680566.251970998,-47500.0,-484.62944406224818,1526.1253050424937,-1030.1983279094738,-1178.9607431809065,1198.0060608298243,-1014.2359297232143,2135.4034097028502,936.63531126593102,-429.11344672686414,429.11344672686414,-936.63531126593102,3968.8622834169119,0.0
538296.95196600363,3680566.251970998,-47500.0,-236.60329420381987,1617.7812335519811,-1220.4356041807573,-1159.203462989422,1345.8737114431826,-1103.8928859175662,2314.7658642922634,1195.1815848240535,-642.38061299654009,642.38061299654009,-1195.1815848240535,4264.2565862991069,0.0
543296.95196600363,3680566.251970998,-47500.0,81.941678080216292,1688.6094449151344,-1443.1107512938329,-1091.2228659892401,1496.8131298999735,-1177.2589837726789,2502.8367404162318,1491.4032177844097,-905.45895167856497,905.45895167856497,-1491.4032177844097,4564.9622594703078,0.0
548296.95196600363,3680566.251970998,-47500.0,478.81784226013843,1725.8036749821451,-1700.1185430737062,-957.80813584823545,1640.9200060195985,-1218.588625868249,2698.3876143851421,1822.1601982610759,-1223.7598101093095,1223.7598101093095,-1822.1601982610759,4867.8179323771747,0.0
553296.95196600363,3680566.251970998,-47500.0,957.47210285425331,1713.1422320298366,-1990.8314331155468,-738.97978931950388,1762.2754947477977,-1204.8645389183575,2900.7926668290315,2178.758442264209,-1599.7448048133231,1599.7448048133231,-2178.758442264209,5172.2969551636943,0.0
558296.95196600363,3680566.251970998,-47500.0,1513.0707702863103,1631.5007626594493,-2310.2402598054896,-413.58253685625641,1836.7481527021575,-1103.6628039557825,3111.4805285829557,2544.4200882272726,-2030.1874691241781,2030.1874691241781,-2544.4200882272726,5484.5129759708771,0.0
563296.95196600363,3680566.251970998,-47500.0,2127.0555111380918,1460.837561221477,-2646.4768644855258,37.016817314992821,1829.7666118097043,-871.26084086355638,3336.6520622454009,2891.6301537392869,-2502.3064785756192,2502.3064785756192,-2891.6301537392869,5823.6019391237087,0.0
568296.95196600363,3680566.251970998,-47500.0,2760.619576070007,1184.7657044299619,-2978.0279272202124,621.80591019649762,1695.0147774116201,-452.15739174914444,3591.6791813499203,3180.4458628815923,-2989.0275405868374,2989.0275405868374,-3180.4458628815923,6229.5408231218853,0.0
573296.95196600363,3680566.251970998,-47500.0,3349.0831184134749,798.96892035865255,-3271.6704768649774,1328.2287253759255,1376.085220272219,217.57256087532684,3906.370688435778,3360.0685084415691,-3444.6596821207613,3444.6596821207613,-3360.0685084415691,6767.2917040043139,0.0
578296.95196600363,3680566.251970998,-47500.0,3801.9159279080677,323.92213113228155,-3483.3604096583758,2105.4469133206576,814.62318406695215,1198.9138248277632,4325.7437011063321,3377.455400813144,-3804.1717662471033,3804.1717662471033,-3377.455400813144,7516.0901529148632,0.0
583296.95196600363,3680566.251970998,-47500.0,4016.3927311330517,-180.60515929714271,-3565.5622522524291,2846.9235625192755,-30.529339198590797,2525.2630288710393,4893.2835158402058,3197.0884867518707,-3991.5913619941111,3991.5913619941111,-3197.0884867518707,8533.4285599016202,0.0
588296.95196600363,3680566.251970998,-47500.0,3912.8297182592532,-607.80655800945328,-3484.1900944567019,3384.6311593638511,-1150.8946018119702,4162.1476689351894,5610.8709772160482,2831.9461757704739,-3943.4572492943116,3943.4572492943116,-2831.9461757704739,9801.6027880742568,0.0
593296.95196600363,3680566.251970998,-47500.0,3488.8979801406522,-817.93237598195333,-3243.5600435467341,3515.3691138159074,-2449.6596445789951,5960.9401851189414,6405.2199135410401,2373.7996680883202,-3646.9489148894113,3646.9489148894113,-2373.7996680883202,11187.62268485554,0.0
598296.95196600363,3680566.251970998,-47500.0,2866.1408791068548,-686.99885854534045,-2907.3280827276726,3074.7133957425326,-3720.2433772576696,7637.0880211541617,7133.7532988521771,1994.8762744517553,-3176.2131936110927,3176.2131936110927,-1994.8762744517553,12447.406066306796,0.0
603296.95196600363,3680566.251970998,-47500.0,2280.0435365080625,-180.45085619321071,-2594.2012951875131,2041.0898165987664,-4676.1199531848679,8815.601905784757,7624.9839465189707,1892.0528882494739,-2693.8939713727887,2693.8939713727887,-1892.0528882494739,13286.151488814161,0.0
608296.95196600363,3680566.251970998,-47500.0,1984.2186819114795,593.07195450921279,-2434.9264500823037,604.1405382202696,-5045.9538642617208,9158.4099259938594,7738.3793476264273,2181.7313490960596,-2393.1691657821293,2393.1691657821293,-2181.7313490960596,13462.420570491215,0.0
613296.95196600363,3680566.251970998,-47500.0,2111.7348039852272,1401.3525661700739,-2507.3554867745029,-875.38762664483704,-4694.5418495697559,8517.7402241252585,7423.9244642424865,2811.406113583259,-2401.2786848176256,2401.2786848176256,-2811.406113583259,12894.544003672476,0.0
618296.95196600363,3680566.251970998,-47500.0,2595.1222232771925,1986.4716745753212,-2793.2168445793873,-2013.1129373109529,-3691.0730170687948,7013.0679823000164,6753.468992636409,3564.4909966065256,-2710.2045536225955,2710.2045536225955,-3564.4909966065256,11714.349007164134,0.0
623296.95196600363,3680566.251970998,-47500.0,3208.5128162753745,2178.7574794063662,-3188.5887269532182,-2561.6511684299267,-2276.0661994499064,4975.3631720793146,5906.898350342366,4164.2625207445999,-3186.1200589691043,3186.1200589691043,-4164.2625207445999,10237.96581812751,0.0
628296.95196600363,3680566.251970998,-47500.0,3692.5156068937422,1953.4141353953087,-3557.7111448919859,-2482.9454741720128,-754.37773562759355,2803.5198526633367,5115.2969530119926,4401.4876388525399,-3644.7454386981944,3644.7454386981944,-4401.4876388525399,8863.4346020070716,0.0
633296.95196600363,3680566.251970998,-47500.0,3868.6342522775049,1408.9652827440864,-3791.2645981369201,-1911.1650509073811,614.24947442439452,828.13521458278012,4570.2370355579997,4204.9039655270644,-3934.9903240853419,3934.9903240853419,-4204.9039655270644,7916.6837768812384,0.0
638296.95196600363,3680566.251970998,-47500.0,3684.2621508471771,701.11727247504882,-3837.7994350061231,-1059.0572285799183,1674.7806103238056,-755.82233697030165,4323.9368591547054,3632.7921309487406,-3984.3857682263847,3984.3857682263847,-3632.7921309487406,7493.4201139554971,0.0
643296.95196600363,3680566.251970998,-47500.0,3191.7417318176813,-21.738476782913374,-3702.6871914044605,-131.23579069102834,2379.8278706951605,-1886.4266803843627,4269.2342647428959,2817.0632137772582,-3798.3033529656013,3798.3033529656013,-2817.0632137772582,7440.0068337855419,0.0
648296.95196600363,3680566.251970998,-47500.0,2497.8176953646321,-655.27893413621484,-3427.6360365958003,723.79561685297313,2758.7274850208482,-2594.4917996951422,4263.6131260470502,1902.7597352651715,-3431.913262867391,3431.913262867391,-1902.7597352651715,7520.6327766088552,0.0
653296.95196600363,3680566.251970998,-47500.0,1716.6874568863843,-1146.7840037290318,-3067.0662782796994,1423.7423786184038,2879.2209797340624,-2957.5303893251698,4225.0966607957726,1008.3872788407785,-2957.85892861405,2957.85892861405,-1008.3872788407785,7567.5962681576875,0.0
658296.95196600363,3680566.251970998,-47500.0,941.68788887814765,-1484.8971490079616,-2671.1847001538708,1940.4199911489748,2817.627443828027,-3065.0746086477229,4127.5660444878758,211.1470998344555,-2443.1826846820341,2443.1826846820341,-211.1470998344555,7507.236026013321,0.0
663296.95196600363,3680566.251970998,-47500.0,235.43000128667106,-1683.8701122197549,-2277.9427828673815,2280.7617069506164,2641.7900137714319,-2998.9231326677886,3973.4570677219399,-450.64739068329936,-1938.3813651614023,1938.3813651614023,450.64739068329936,7327.8911559034477,0.0
668296.95196600363,3680566.251970998,-47500.0,-368.32441539020994,-1769.7404941593647,-1911.6690101065985,2469.8617692058588,2404.432367314063,-2825.0351074958244,3775.9725583499462,-967.58043827950928,-1475.5253002291258,1475.5253002291258,967.58043827950928,7047.4299960497738,0.0
673296.95196600363,3680566.251970998,-47500.0,-857.78117601089673,-1771.0175435709045,-1585.2052998771267,2539.1318588192321,2142.7829483889291,-2592.3723951054671,3550.3452562297484,-1348.1989979057394,-1071.1267592490512,1071.1267592490512,1348.1989979057394,6693.4151638431813,0.0
678296.95196600363,3680566.251970998,-47500.0,-1235.5525461541397,-1713.6111856726627,-1303.1385311473186,2519.3715149975287,1881.0398740098519,-2335.0016225396239,3310.1569815531161,-1610.2069245456205,-730.50423086734918,730.50423086734918,1610.2069245456205,6293.2559291459211,0.0
683296.95196600363,3680566.251970998,-47500.0,-1512.3905104156413,-1618.751039048961,-1064.8230931224534,2437.4165727598515,1633.5871793996814,-2075.2359875859538,3066.1518987974255,-1774.4897718828206,-451.88384502990027,451.88384502990027,1774.4897718828206,5870.1709996900672,0.0
688296.95196600363,3680566.251970998,-47500.0,-1702.716106080303,-1502.6529179355655,-866.70935413743587,2315.0039086283186,1407.9556754353118,-1826.7173424158746,2826.1790881571133,-1861.5731419586677,-229.57731974927867,229.57731974927867,1861.5731419586677,5442.1129798028005,0.0
693296.95196600363,3680566.251970998,-47500.0,-1821.7624789797308,-1377.0390652823155,-703.93547203248625,2168.8407620153935,1207.179424768756,-1597.0077632525704,2595.5846990163186,-1889.8201260609358,-56.169027974924006,56.169027974924006,1889.8201260609358,5022.0495830047366,0.0
698296.95196600363,3680566.251970998,-47500.0,-1883.9357574674602,-1249.9671670063367,-571.31608284698802,2011.2284596528418,1031.5179743375008,-1389.5941028079199,2377.7257610334927,-1874.7303403767582,76.115963714296072,-76.115963714296072,1874.7303403767582,4618.757733473356,0.0
703296.95196600363,3680566.251970998,-47500.0,-1902.0018454546632,-1126.6831820884163,-463.89959005675877,1850.8658363511352,879.64372988325158,-1205.3545856702633,2174.4614826910724,-1828.8685806802007,174.63597858497019,-174.63597858497019,1828.8685806802007,4237.7214150436657,0.0
708296.95196600363,3680566.251970998,-47500.0,-1886.7951909365167,-1010.370128234913,-377.2408593868588,1693.6445254255268,749.42283342484404,-1043.5918123818251,1986.5726366726196,-1762.1154673509718,245.95279059178847,-245.95279059178847,1762.1154673509718,3881.9617950731154,0.0
518296.95196600363,3685566.251970998,-47500.0,-569.82274126895402,1163.822721696522,-736.5532328648884,-841.01080896420376,808.19206375575902,-608.07619956882252,1524.239163544358,577.95749130377362,-223.90017910869869,223.90017910869869,-577.95749130377362,2857.9284677438468,0.0
523296.95196600363,3685566.251970998,-47500.0,-441.17880037836443,1246.832714381462,-860.09128312981284,-853.74811787187105,910.21771971402904,-669.44662739291005,1652.7384229373677,741.08134366450463,-348.95052503134957,348.95052503134957,-741.08134366450463,3076.9939093240046,0.0
528296.95196600363,3685566.251970998,-47500.0,-270.73469196087495,1323.5116118653659,-1004.2914329931219,-845.68401267494744,1019.811481972435,-728.63901391336856,1790.2000656499285,930.83129313101358,-503.92718599594741,503.92718599594741,-930.83129313101358,3306.4365626242388,0.0
533296.95196600363,3685566.251970998,-47500.0,-51.24901010745667,1387.7480101394083,-1171.294151370086,-808.37977548329945,1134.130077306351,-780.44388393603947,1936.5125025379593,1148.1851518464032,-693.50172428143208,693.50172428143208,-1148.1851518464032,3544.8858101411747,0.0
538296.95196600363,3685566.251970998,-47500.0,224.13577382120525,1431.2939792548866,-1362.5443133162187,-731.30408805283378,1248.0953606678088,-816.97547814487575,2091.5758583193315,1392.3133460809756,-921.93762106950931,921.93762106950931,-1392.3133460809756,3791.1747924124061,0.0
543296.95196600363,3685566.251970998,-47500.0,560.75721905926775,1443.4336028685764,-1578.1017346313379,-601.79573045289112,1353.3913944993224,-826.69602658006238,2255.5904856983839,1659.4939990113908,-1192.237629370286,1192.237629370286,-1659.4939990113908,4045.263667143804,0.0
548296.95196600363,3685566.251970998,-47500.0,960.64375615704557,1410.8782474814113,-1815.6165468143204,-405.42309902511488,1437.1806051600943,-793.24724335037672,2429.635692480495,1941.6936119647246,-1504.8005742667476,1504.8005742667476,-1941.6936119647246,4309.9648700656035,0.0
553296.95196600363,3685566.251970998,-47500.0,1419.8906236909504,1318.1767952409025,-2068.9020839617529,-127.07896974492458,1480.5878828067955,-694.18664101707179,2616.7098683248705,2224.8746970628249,-1855.4456305516997,1855.4456305516997,-2224.8746970628249,4593.8065603516961,0.0
558296.95196600363,3685566.251970998,-47500.0,1925.1199700811471,1149.1126547261356,-2326.1205487188954,246.67842343891672,1457.1669948152003,-499.89767199906743,2823.4171539557497,2487.294646042395,-2232.7367722701551,2232.7367722701551,-2487.294646042395,4915.1155245969176,0.0
563296.95196600363,3685566.251970998,-47500.0,2449.2667720364707,889.76558596478981,-2567.8076068337218,723.35580045372319,1331.8857400512948,-173.25889514091435,3062.3316304467935,2698.4455868086034,-2614.7811060974382,2614.7811060974382,-2698.4455868086034,5306.3931229322525,0.0
568296.95196600363,3685566.251970998,-47500.0,2947.6632938556963,534.03152169207237,-2765.3955455411337,1297.6120438692271,1061.7271503360409,328.80423057120476,3354.4536731584253,2819.9160327688928,-2966.2266693093729,2966.2266693093729,-2819.9160327688928,5815.885302176559,0.0
573296.95196600363,3685566.251970998,-47500.0,3356.7148598791832,92.09407025931371,-2881.6083657618433,1941.4561305743039,599.7996810059268,1050.0055824276933,3729.5381727174226,2810.2440638175663,-3237.1862318989411,3237.1862318989411,-2810.2440638175663,6500.7741803645722,0.0
578296.95196600363,3685566.251970998,-47500.0,3599.2215497078428,-398.95776317388629,-2874.9503270501027,2592.9194189910609,-94.420636946584636,2023.0723379589485,4219.2892401943591,2636.2674507745178,-3367.1706614261766,3367.1706614261766,-2636.2674507745178,7407.3495886044439,0.0
583296.95196600363,3685566.251970998,-47500.0,3601.4284261840126,-866.1159942809295,-2710.7950738665618,3147.9815602794515,-1036.4126277165371,3249.6836136580391,4838.3269750259788,2292.2395105765709,-3297.9913112349577,3297.9913112349577,-2292.2395105765709,8541.0705370567775,0.0
588296.95196600363,3685566.251970998,-47500.0,3324.3141366967129,-1201.0858183661555,-2379.8103269094095,3465.2665634632758,-2190.4197113535834,4673.3391676481124,5559.3481115114082,1823.1377475664322,-2997.8903699953735,2997.8903699953735,-1823.1377475664322,9838.5855255712231,0.0
593296.95196600363,3685566.251970998,-47500.0,2801.9746312621287,-1281.1134907835547,-1919.0126044417168,3395.272719622466,-3444.384337208081,6154.7426339914882,6302.2534972696194,1339.6715501758808,-2492.1871763178415,2492.1871763178415,-1339.6715501758808,11155.979784080806,0.0
598296.95196600363,3685566.251970998,-47500.0,2164.6201236307706,-1014.7125023391814,-1422.7250395581952,2838.0154587750849,-4604.4807607987295,7469.6046805157703,6946.5127651661423,1004.9521221046655,-1884.0400312600543,1884.0400312600543,-1004.9521221046655,12284.069602913494,0.0
603296.95196600363,3685566.251970998,-47500.0,1616.1050904796809,-398.44449582138384,-1027.2486491306997,1810.4544224950571,-5429.6111822042267,8350.1105635578315,7361.2497039114223,979.49727058188751,-1341.8050535848049,1341.8050535848049,-979.49727058188751,12995.616557911941,0.0
608296.95196600363,3685566.251970998,-47500.0,1355.9846324286075,450.37853388478766,-864.21975815216433,480.79863711640172,-5707.8637187458371,8570.3945828724245,7445.5476432107434,1340.3712417616441,-1042.108492451209,1042.108492451209,-1340.3712417616441,13116.235445869301,0.0
613296.95196600363,3685566.251970998,-47500.0,1481.8755171223293,1318.8190860116688,-1002.2295538715505,-868.8737334216313,-5342.7105239136099,8038.9567308447949,7166.2146472755321,2023.5322028697699,-1091.374461901273,1091.374461901273,-2023.5322028697699,12592.494352065618,0.0
618296.95196600363,3685566.251970998,-47500.0,1937.2020026696007,1978.355840313332,-1412.7566907089438,-1944.2531262855539,-4397.4433427423437,6841.8052654111889,6576.079457513908,2836.3036473652228,-1474.5008729333069,1474.5008729333069,-2836.3036473652228,11523.980855487294,0.0
623296.95196600363,3685566.251970998,-47500.0,2541.7600246707198,2273.8673039558312,-1983.3262081472594,-2546.7158097526371,-3068.9664515382283,5207.772962326886,5803.8618304180181,3538.2016232228175,-2065.1159854851444,2065.1159854851444,-3538.2016232228175,10142.600055006758,0.0
628296.95196600363,3685566.251970998,-47500.0,3080.0709400666556,2170.0622075885899,-2567.4551031796514,-2626.5958000471483,-1609.8447697044239,3420.5334793328716,5020.1156664958844,3938.1138494185984,-2686.9370304843965,2686.9370304843965,-3938.1138494185984,8748.2891584336267,0.0
633296.95196600363,3685566.251970998,-47500.0,3387.8210938448701,1739.0811722602723,-3039.2310856205286,-2265.6653335532428,-245.78144231512928,1730.0454581362947,4386.4940253232035,3952.4909895956876,-3184.2995600671798,3184.2995600671798,-3952.4909895956876,7619.3676245249671,0.0
638296.95196600363,3685566.251970998,-47500.0,3393.9866403743226,1111.0840963190717,-3325.8628450981764,-1617.3619228400566,874.45357451614279,301.54817513164289,3990.500135674572,3606.4167222530441,-3465.6297554019047,3465.6297554019047,-3606.4167222530441,6912.5929488717456,0.0
643296.95196600363,3685566.251970998,-47500.0,3115.0183309458189,421.30470747038021,-3411.6673137243861,-844.49024076169462,1688.3863965962305,-792.06685664484269,3802.8783084224647,2995.9179312054425,-3510.1896115673021,3510.1896115673021,-2995.9179312054425,6602.0113225858577,0.0
648296.95196600363,3685566.251970998,-47500.0,2622.2215371420707,-224.70030127454129,-3322.7845286345969,-78.549863157879443,2201.5067153920454,-1550.0867639551359,3725.40840870491,2241.1734438531967,-3349.66157550969,3349.66157550969,-2241.1734438531967,6531.2121306956924,0.0
653296.95196600363,3685566.251970998,-47500.0,2005.7414584056139,-763.23873606206519,-3106.0810252844349,595.3097200586493,2459.3757064489723,-2015.076162178927,3672.6023907880872,1451.183843267575,-3041.8610926094507,3041.8610926094507,-1451.183843267575,6534.5516461744328,0.0
658296.95196600363,3685566.251970998,-47500.0,1348.6626757193444,-1168.5865111003916,-2811.6766176042611,1135.3141109431206,2522.9262820384679,-2247.7058840168547,3599.0950341014618,706.20255302238297,-2648.7600598304598,2648.7600598304598,-706.20255302238297,6506.8613930055135,0.0
663296.95196600363,3685566.251970998,-47500.0,714.19757739740123,-1441.9517606524978,-2482.5361224867975,1531.8822799676918,2452.0543663962035,-2309.9094906313876,3489.8572328165164,54.660306547280243,-2223.3258102227555,2223.3258102227555,-54.660306547280243,6404.0956720619797,0.0
668296.95196600363,3685566.251970998,-47500.0,142.99357001550027,-1599.864207580983,-2150.4318750243738,1795.3052153438377,2297.3083977652727,-2255.9625912358301,3345.9973201904736,-481.76500210905158,-1804.3823552284298,1804.3823552284298,481.76500210905158,6220.4421349257927,0.0
673296.95196600363,3685566.251970998,-47500.0,-343.89973936292813,-1665.1442348584922,-1836.0142521490441,1945.7435954737964,2097.3037338677404,-2129.1789959810344,3175.3207234060819,-900.3147369541233,-1416.6753561484693,1416.6753561484693,900.3147369541233,5968.3922372878578,0.0
678296.95196600363,3685566.251970998,-47500.0,-739.98108747831179,-1661.1233827816402,-1550.8247383978285,2006.427926042744,1879.3420786583085,-1961.8586614874841,2987.2669611778383,-1209.7218226013663,-1073.4194517936542,1073.4194517936542,1209.7218226013663,5666.6332376948722,0.0
683296.95196600363,3685566.251970998,-47500.0,-1048.2677213817685,-1608.5789666650376,-1299.8094160645089,1999.6694588417954,1661.4000152299234,-1776.7641153764321,2790.5509962214364,-1424.4741782075482,-779.50266824870891,779.50266824870891,1424.4741782075482,5333.8631163908576,0.0
688296.95196600363,3685566.251970998,-47500.0,-1277.2078566105222,-1524.522823020804,-1083.5945304739582,1944.9017807688447,1454.4098679885549,-1589.0827841173184,2592.2749868956457,-1560.9451990441753,-534.40124516565322,534.40124516565322,1560.9451990441753,4986.130538711669,0.0
693296.95196600363,3685566.251970998,-47500.0,-1437.7419380764065,-1422.0736521565202,-900.25255302036715,1858.008681371128,1264.3119930598182,-1408.3346512384396,2397.7707022512586,-1635.0730400638627,-334.45183972116922,334.45183972116922,1635.0730400638627,4636.0411092933437,0.0
698296.95196600363,3685566.251970998,-47500.0,-1541.3820313722499,-1310.866315781313,-746.54442372887638,1751.3714171340039,1093.694404100032,-1239.9902843080811,2210.7626297533761,-1661.1493333387652,-174.4549363968855,174.4549363968855,1661.1493333387652,4292.8505304766877,0.0
703296.95196600363,3685566.251970998,-47500.0,-1599.0765204542702,-1197.6668090158798,-618.73037546562443,1634.2726310742598,943.01599641752193,-1086.7490841404024,2033.6535495172452,-1651.3321779035293,-48.719555191319614,48.719555191319614,1651.3321779035293,3962.9402848919922,0.0
708296.95196600363,3685566.251970998,-47500.0,-1620.6224616076777,-1087.0034690613543,-513.05761666304011,1513.4248260588613,811.46821318908758,-949.49242105271264,1867.8203767622981,-1615.5852784497101,48.311906715378996,-48.311906715378996,1615.5852784497101,3650.3878011088914,0.0
518296.95196600363,3690566.251970998,-47500.0,-264.12963598142505,1076.2070893268221,-825.57541353643705,-621.05044325778215,771.78270259400779,-488.30065358878949,1395.3479677361709,731.40560149982866,-401.57647163721003,401.57647163721003,-731.40560149982866,2580.3751300184117,0.0
523296.95196600363,3690566.251970998,-47500.0,-110.293543734872,1130.8814076533206,-951.6769169078101,-599.9656988687899,856.4743978264155,-523.83067936331599,1507.6918014916616,892.15972722331094,-540.0562029035359,540.0562029035359,-892.15972722331094,2765.5371357965705,0.0
528296.95196600363,3690566.251970998,-47500.0,83.028595554400496,1172.8367037491842,-1095.0931587974408,-554.35544785407967,943.05455903794245,-551.90918800176996,1628.0276833244714,1073.1206795048327,-705.91785175833706,705.91785175833706,-1073.1206795048327,2959.680089848192,0.0
533296.95196600363,3690566.251970998,-47500.0,320.72511714886861,1195.161428171396,-1256.1543937889592,-476.34290131420471,1027.1790701519878,-566.63665618230323,1756.8737020237302,1272.8579977731119,-901.79814687262672,901.79814687262672,-1272.8579977731119,3163.2148256430296,0.0
538296.95196600363,3690566.251970998,-47500.0,606.43547291157108,1189.0822003225464,-1433.8599026578688,-356.62833080950173,1102.0605721809152,-559.63842340939959,1895.1960113507982,1487.6308285795242,-1129.1379114473882,1129.1379114473882,-1487.6308285795242,3377.9152777507793,0.0
543296.95196600363,3690566.251970998,-47500.0,941.29467986183704,1143.9251394737441,-1625.0776180399052,-184.7711973422374,1157.5827394756564,-519.34362733902572,2044.8499682456318,1710.3965597982722,-1387.1758290861392,1387.1758290861392,-1710.3965597982722,3608.2264484790185,0.0
548296.95196600363,3690566.251970998,-47500.0,1322.1510911148941,1047.4409380639629,-1823.4759323040789,50.058906788020408,1179.2749396169318,-430.22643539440901,2209.2781920263533,1929.66974394825,-1671.5287244577275,1671.5287244577275,-1929.66974394825,3863.2180434875463,0.0
553296.95196600363,3690566.251970998,-47500.0,1739.2242459422903,886.78982195072706,-2018.21377432279,357.57563335937891,1147.2808331178549,-272.16546799512747,2394.5098843757978,2128.4118970486461,-1972.3341500703325,1972.3341500703325,-2128.4118970486461,4159.0727774986499,0.0
558296.95196600363,3690566.251970998,-47500.0,2173.3463702524296,650.59908039015158,-2192.5477337557877,743.74707411312363,1035.6306851626878,-20.232182304502302,2610.3835240135604,2283.3502117035969,-2272.0753794338743,2272.0753794338743,-2283.3502117035969,4521.3710192246926,0.0
563296.95196600363,3690566.251970998,-47500.0,2593.3048134874302,332.57736960087158,-2322.7724985744753,1206.6662852194447,812.41987020703652,354.53607895889678,2871.6170776217159,2365.4622611977725,-2543.5160466814636,2543.5160466814636,-2365.4622611977725,4985.3759367366138,0.0
568296.95196600363,3690566.251970998,-47500.0,2954.4551300833032,-62.952009674325978,-2378.3229979057478,1730.7437811825491,441.90713046618839,882.49377332291181,3197.7749762240869,2342.7842599278533,-2748.7072364656874,2748.7072364656874,-2342.7842599278533,5591.6359798934782,0.0
573296.95196600363,3690566.251970998,-47500.0,3200.6745508062486,-513.81534890559522,-2324.3819798881036,2279.7039750433337,-110.02844158331328,1589.6687787262736,3610.3059543705895,2186.9976154110213,-2840.7741871382727,2840.7741871382727,-2186.9976154110213,6374.9650474882083,0.0
578296.95196600363,3690566.251970998,-47500.0,3272.5008603136457,-972.6486639192475,-2128.6741781084243,2790.2967799759463,-865.55046722930626,2487.7643059126317,4124.2121217027288,1884.8972864545249,-2770.8487793155273,2770.8487793155273,-1884.8972864545249,7347.988924282984,0.0
583296.95196600363,3690566.251970998,-47500.0,3123.8873653633445,-1363.3481964939335,-1773.6008155835584,3170.8744714004861,-1819.1473238955957,3559.6729434667768,4734.142788675922,1453.9516170692295,-2502.2367937067565,2502.2367937067565,-1453.9516170692295,8483.9221403595766,0.0
588296.95196600363,3690566.251970998,-47500.0,2746.6887302516225,-1587.5492050252576,-1272.4875795844764,3311.0820274917714,-2919.1134629387884,4743.1411089114945,5401.77889658188,957.00536036062908,-2031.2991453024708,2031.2991453024708,-957.00536036062908,9704.5398992341525,0.0
593296.95196600363,3690566.251970998,-47500.0,2194.789158645031,-1547.1180050203002,-684.09645823662686,3108.1524138290024,-4054.0574887786643,5919.9848956517344,6054.3574491756508,505.79646453269413,-1408.6789738820871,1408.6789738820871,-505.79646453269413,10879.254621321854,0.0
598296.95196600363,3690566.251970998,-47500.0,1591.6108869127056,-1182.1448890637332,-114.74228325529778,2508.1230737446272,-5056.9557119958999,6922.3781087218313,6596.4543572101857,241.04922488459229,-747.51613451262847,747.51613451262847,-241.04922488459229,11840.934876835185,0.0
603296.95196600363,3690566.251970998,-47500.0,1104.4188599199633,-510.86857987430955,302.17758435689211,1546.7645024519682,-5737.1751433337422,7565.3741200561362,6931.5750332082516,285.42983709724979,-204.10504294915469,204.10504294915469,-285.42983709724979,12420.817855465484,0.0
608296.95196600363,3690566.251970998,-47500.0,885.0365903322396,353.10407099427465,448.69318127495455,364.34748852083817,-5937.0956157488845,7701.5232546299421,6988.9326106467652,685.51038803000256,71.412837713930969,-71.412837713930969,-685.51038803000256,12495.952257740724,0.0
613296.95196600363,3690566.251970998,-47500.0,1003.4919484738476,1225.6845042800373,269.13704501709537,-824.8160363518549,-5590.1486159584256,7274.9358596885868,6747.2053274967766,1376.1221518263383,-5.4739597423482564,5.4739597423482564,-1376.1221518263383,12032.161405282501,0.0
618296.95196600363,3690566.251970998,-47500.0,1414.590633864321,1913.6788951668507,-204.98967070634257,-1800.2266957630188,-4748.6873734520623,6345.1197401273639,6245.3620807130283,2194.3569598808781,-417.4463314921768,417.4463314921768,-2194.3569598808781,11103.044176461693,0.0
623296.95196600363,3690566.251970998,-47500.0,1978.9723033368655,2281.0702875106549,-867.30789679337363,-2406.1139453657734,-3565.267067506386,5066.3959387140767,5575.6891054927537,2939.2650975324432,-1054.2513997247097,1054.2513997247097,-2939.2650975324432,9875.8571352873969,0.0
628296.95196600363,3690566.251970998,-47500.0,2523.5941514765036,2285.8886276894364,-1577.7337314272513,-2589.7871150026544,-2239.0925444214572,3635.5836175626846,4862.0746007043581,3443.3121161930239,-1759.2898741830704,1759.2898741830704,-3443.3121161930239,8570.6185893246547,0.0
633296.95196600363,3690566.251970998,-47500.0,2904.8261844461767,1975.2059795266441,-2208.8311474237489,-2395.6634175412805,-956.83180103588609,2236.0970986852826,4228.894119040383,3618.9939632162359,-2385.4500628457563,2385.4500628457563,-3618.9939632162359,7405.7778394321704,0.0
638296.95196600363,3690566.251970998,-47500.0,3044.9208418514536,1450.88898816809,-2676.4767763622226,-1929.1344096665521,147.32734090965522,1001.1687681042577,3761.9207266114436,3465.9556277327274,-2833.6431584541097,2833.6431584541097,-3465.9556277327274,6539.3597785616594,0.0
643296.95196600363,3690566.251970998,-47500.0,2935.3208708488787,828.72347515427646,-2947.8690079834437,-1313.8591961773532,1004.2198153930311,2.7010217627941056,3474.8231078916788,3047.8827330769918,-3064.2566421665178,3064.2566421665178,-3047.8827330769918,6018.5896175833068,0.0
648296.95196600363,3690566.251970998,-47500.0,2617.7246672226552,207.8932000317435,-3032.2314089692982,-659.6159408492008,1601.0154279600949,-740.66828605311991,3318.1418267997205,2458.4130808382824,-3087.2795428371774,3087.2795428371774,-2458.4130808382824,5775.0085486286762,0.0
653296.95196600363,3690566.251970998,-47500.0,2158.3187564761529,-343.45464244890559,-2964.1511285786464,-46.310732924222663,1962.7138801389074,-1246.8359221252692,3225.6852208429896,1791.7329129371201,-2942.9633171882524,2942.9633171882524,-1791.7329129371201,5684.1031364223227,0.0
658296.95196600363,3690566.251970998,-47500.0,1626.1104699812699,-789.27132591687143,-2787.6866088793195,478.54314997160787,2133.2778320382981,-1553.1944018919949,3148.1443568513632,1124.7391551905398,-2682.9695877667937,2682.9695877667937,-1124.7391551905398,5636.0676724370442,0.0
663296.95196600363,3690566.251970998,-47500.0,1079.628804872923,-1119.1630845006155,-2545.239560545604,894.54601516051036,2161.3325730552488,-1703.5220767111609,3059.2980829448452,510.46498363223554,-2357.0158221836605,2357.0158221836605,-510.46498363223554,5565.0098950790498,0.0
668296.95196600363,3690566.251970998,-47500.0,561.49174193938939,-1339.661556538025,-2271.7181431801687,1200.3800828930762,2091.5249167509542,-1739.7459807242451,2949.7891053760463,-20.8718119925868,-2005.8064128441845,2005.8064128441845,20.8718119925868,5443.6320197158566,0.0
673296.95196600363,3690566.251970998,-47500.0,98.33165766768812,-1466.3546078832685,-1992.7414095417262,1406.1450418656734,1960.5578873441575,-1697.7883336483001,2819.7600230981197,-457.12561282496847,-1658.8298421276136,1658.8298421276136,457.12561282496847,5268.4434408703837,0.0
678296.95196600363,3690566.251970998,-47500.0,-296.52544148871345,-1518.1229390123922,-1725.2409355497753,1527.4146498065468,1796.3100639564659,-1606.199617813189,2673.6689739215949,-798.60677330367298,-1335.0734667091629,1335.0734667091629,798.60677330367298,5047.6321648894518,0.0
683296.95196600363,3690566.251970998,-47500.0,-619.5099054292665,-1513.5403268484479,-1479.1204263903173,1581.233866678461,1618.6165040869098,-1486.3931822677557,2517.274059093219,-1053.1104771550777,-1045.0446371507278,1045.0446371507278,1053.1104771550777,4793.569403532555,0.0
688296.95196600363,3690566.251970998,-47500.0,-873.45354748730847,-1468.9901484474478,-1259.1378356016335,1583.7606861880179,1440.7365568853077,-1353.6454421920416,2356.1071878063003,-1232.1504544487977,-793.076866859799,793.076866859799,1232.1504544487977,4518.8482534667291,0.0
693296.95196600363,3690566.251970998,-47500.0,-1064.8838281667129,-1397.9344622132437,-1066.5777835473052,1549.0879326166937,1270.9243052821428,-1218.3267718267887,2194.8151970881831,-1348.4068381612049,-579.38925504337499,579.38925504337499,1348.4068381612049,4234.4676171959136,0.0
698296.95196600363,3690566.251970998,-47500.0,-1202.0604231531847,-1310.8720060394367,-900.56902412087754,1488.8354850766821,1113.8326038774685,-1087.0926185407507,2036.9806169889562,-1414.1732104535968,-401.71048979052455,401.71048979052455,1414.1732104535968,3949.2241791821707,0.0
703296.95196600363,3690566.251970998,-47500.0,-1293.6680072814893,-1215.6437836322434,-759.03567751370383,1412.185467161451,971.64460707295211,-963.90303241007678,1885.1716302112984,-1440.5261588050034,-256.45090251745012,256.45090251745012,1440.5261588050034,3669.7038278712039,0.0
518296.95196600363,3695566.251970998,-47500.0,5.9186010402220175,956.86411176331558,-883.84363858687743,-420.66402992127945,713.47718641309621,-377.40036872601968,1275.9382725484688,834.67805119132163,-548.11129553973683,548.11129553973683,-834.67805119132163,2324.2930281194313,0.0
523296.95196600363,3695566.251970998,-47500.0,175.33685759129355,981.63006680604269,-1005.0409160141726,-372.66934881607068,778.08760878185296,-390.95953513530878,1375.607415856238,984.32918601670281,-691.47058649694054,691.47058649694054,-984.32918601670281,2483.7956222730982,0.0
528296.95196600363,3695566.251970998,-47500.0,380.03006004154417,988.37220106545237,-1138.7537412452464,-298.51223335651474,839.12040613493457,-393.3126850841723,1483.2915243575148,1146.9689351951699,-857.84435752282718,857.84435752282718,-1146.9689351951699,2653.405256313798,0.0
533296.95196600363,3695566.251970998,-47500.0,622.47795383910295,970.01407110420826,-1283.4485985213098,-191.36458836191832,891.13758830774475,-378.40928148831398,1600.2927834228065,1319.1311171305847,-1047.7073002541451,1047.7073002541451,-1319.1311171305847,2835.7953802146526,0.0
538296.95196600363,3695566.251970998,-47500.0,903.27115628607169,918.09289557629302,-1435.795836988143,-43.657772534820559,926.27967038514714,-338.07396942101082,1728.7008563973529,1494.8476797359165,-1259.7292213942376,1259.7292213942376,-1494.8476797359165,3035.9457324985046,0.0
543296.95196600363,3695566.251970998,-47500.0,1219.8914031320667,823.0134449049383,-1589.8851929357265,152.40487086850115,933.57862836783545,-261.54388390312772,1871.844546643561,1664.876441423088,-1489.7606740317049,1489.7606740317049,-1664.876441423088,3262.4277958132066,0.0
548296.95196600363,3695566.251970998,-47500.0,1565.1413402075441,674.74323269484819,-1736.290203255865,403.87003325822155,898.27133758634341,-135.08236128961371,2034.8681886541751,1815.966867615753,-1729.5416979089873,1729.5416979089873,-1815.966867615753,3528.8640100637213,0.0
553296.95196600363,3695566.251970998,-47500.0,1925.3134145959009,464.20267924451053,-1861.0922973377535,715.38674517435197,801.29629173303306,58.15985593781825,2225.3470466171852,1930.4123407900188,-1965.2176335141107,1965.2176335141107,-1930.4123407900188,3855.0413663948216,0.0
558296.95196600363,3695566.251970998,-47500.0,2278.3872001143359,185.64297835571602,-1945.1248833943544,1086.6831510306333,619.3105121426704,337.74830251464567,2453.7116917777248,1986.3218502221437,-2175.9188173473303,2175.9188173473303,-1986.3218502221437,4266.6719004949,0.0
563296.95196600363,3695566.251970998,-47500.0,2592.8807790699871,-159.74785873298626,-1963.9354702650442,1509.056386229664,325.77886151174118,724.59294412840984,2733.0507955872667,1959.2734869145459,-2332.9544742433663,2332.9544742433663,-1959.2734869145459,4792.5292555280548,0.0
568296.95196600363,3695566.251970998,-47500.0,2828.4489569697639,-559.04105336233692,-1889.2658693753776,1961.0602218655563,-106.07933725862473,1238.0106584263206,3077.621899417381,1826.1937087717083,-2400.5796506702968,2400.5796506702968,-1826.1937087717083,5458.1776793659119,0.0
573296.95196600363,3695566.251970998,-47500.0,2939.7832388595234,-982.25182014369238,-1693.098454976395,2404.2015260477729,-697.58913903120174,1890.593740682106,3499.1467520533156,1572.2180472066348,-2339.7030779900024,2339.7030779900024,-1572.2180472066348,6276.8242958884648,0.0
578296.95196600363,3695566.251970998,-47500.0,2885.429277294636,-1378.3554674207471,-1355.2125803074371,2780.4804804291143,-1455.5736911622528,2680.558677730729,4000.0742524389598,1200.5403875277357,-2115.9736835463564,2115.9736835463564,-1200.5403875277357,7239.1382973506425,0.0
583296.95196600363,3695566.251970998,-47500.0,2642.0686073330803,-1675.9291866631258,-874.24396480026121,3014.8048895145639,-2360.5448673180654,3582.2355876871825,4564.9095815202973,743.41649940777143,-1712.7827080336606,1712.7827080336606,-743.41649940777143,8304.4666729616438,0.0
588296.95196600363,3695566.251970998,-47500.0,2221.8516196109272,-1792.5342087469769,-279.99136342072245,3025.809314033871,-3355.0708107366117,4537.2572233708561,5154.4203092591688,269.58750983425159,-1147.1595399850871,1147.1595399850871,-269.58750983425159,9396.2069902032144,0.0
593296.95196600363,3695566.251970998,-47500.0,1685.7633475018827,-1655.3819412466635,358.49411500687603,2746.8640586050606,-4338.2972913577505,5451.3883252837586,5707.5533119133261,-119.1781692010403,-482.46104029107562,482.46104029107562,119.1781692010403,10404.744014685733,0.0
598296.95196600363,3695566.251970998,-47500.0,1142.4450580870061,-1230.3202897151418,936.67408322752988,2153.8040949352931,-5174.187734701929,6203.0490786244445,6151.197860221293,-308.80606584641339,171.63864081544517,-171.63864081544517,308.80606584641339,11201.23727965853,0.0
603296.95196600363,3695566.251970998,-47500.0,724.35299717615976,-548.01102244919844,1335.4977678310311,1288.5311220881299,-5717.9245003363294,6666.7920521325796,6415.4519037823793,-209.83912174882008,679.7355553276459,-679.7355553276459,209.83912174882008,11662.772255076598,0.0
608296.95196600363,3695566.251970998,-47500.0,544.5744273633054,288.70299511635778,1456.4241180215765,263.69387294035783,-5855.7345275082153,6747.2735016383631,6451.2433667102905,202.78956903612249,920.16108873848452,-920.16108873848452,-202.78956903612249,11703.698075234346,0.0
613296.95196600363,3695566.251970998,-47500.0,652.65042889330675,1126.5872016346884,1256.5550776542616,-760.43014485464641,-5542.6789588655802,6410.5133742428416,6245.1933486572361,868.58520097519045,828.03657311647476,-828.03657311647476,-868.58520097519045,11302.509218311881,0.0
618296.95196600363,3695566.251970998,-47500.0,1013.4144657712828,1807.2718600051383,765.95190023448527,-1620.5552600993908,-4819.785826365237,5697.0446091295125,5826.0668677604945,1654.225552472413,420.04599357470602,-420.04599357470602,-1654.225552472413,10513.084760883317,0.0
623296.95196600363,3695566.251970998,-47500.0,1521.1256162808661,2215.1954017158878,77.594939730483304,-2196.5386662760784,-3801.3959674616672,4709.9166423361285,5260.1458036576514,2396.3148872193688,-212.47706535430848,212.47706535430848,-2396.3148872193688,9455.3021598572213,0.0
628296.95196600363,3695566.251970998,-47500.0,2040.0905603762087,2306.066294363467,-684.19452748078209,-2438.4613303419237,-2639.636658258195,3583.9666146934883,4637.2303506725648,2952.7030053872659,-937.32392981970406,937.32392981970406,-2952.7030053872659,8288.9319171331263,0.0
633296.95196600363,3695566.251970998,-47500.0,2449.5741825947562,2106.6239308696331,-1400.6059730662321,-2366.4888121602985,-1483.405267645657,2451.118694640591,4050.5547443551141,3238.7293064524933,-1623.629899657672,1623.629899657672,-3238.7293064524933,7179.5341689420384,0.0
638296.95196600363,3695566.251970998,-47500.0,2673.5148459086622,1692.314822887311,-1985.1455590138874,-2049.9996522849087,-447.92150680456717,1414.8768469799106,3572.4149641816193,3237.1177407394443,-2174.0044268782349,2174.0044268782349,-3237.1177407394443,6262.9788840592037,0.0
643296.95196600363,3695566.251970998,-47500.0,2688.2475442729033,1157.3195455591149,-2393.833505544028,-1579.4176197676411,398.21837596366896,539.40008427719363,3232.1658708348609,2985.3207346593749,-2537.8901129301262,2537.8901129301262,-2985.3207346593749,5612.6691972010321,0.0
648296.95196600363,3695566.251970998,-47500.0,2513.0222437655693,589.40829859881967,-2621.0989087186749,-1042.1989759862265,1030.6364119223113,-148.8297622650058,3013.6782808935072,2552.063747528171,-2708.0961485063799,2708.0961485063799,-2552.063747528171,5221.6627817394474,0.0
653296.95196600363,3695566.251970998,-47500.0,2192.7889186049642,55.398687368086975,-2688.0001939960357,-508.30462396926703,1458.0212215654778,-652.16232947774165,2876.1876688618722,2014.320995981059,-2707.9345193188101,2707.9345193188101,-2014.320995981059,5019.1680935855202,0.0
658296.95196600363,3695566.251970998,-47500.0,1781.3660055850762,-403.08885785576149,-2629.1516254582975,-25.045530822661803,1708.7316755323577,-990.9586273018233,2778.5755033199785,1441.0371229104946,-2576.4118411948111,2576.4118411948111,-1441.0371229104946,4915.2495873821299,0.0
663296.95196600363,3695566.251970998,-47500.0,1329.300308010809,-766.96700783102381,-2482.2427968168076,381.56904298765892,1819.307501524567,-1194.104496728424,2691.7187000687363,884.92880347569519,-2356.1520695380786,2356.1520695380786,-884.92880347569519,4838.2337476254015,0.0
668296.95196600363,3695566.251970998,-47500.0,877.28934658557216,-1033.8706605551617,-2281.4290692028276,702.25233196870067,1826.5069830081434,-1292.1950915499165,2599.7183568372561,380.71592682241214,-2085.6923442655593,2085.6923442655593,-380.71592682241214,4746.1456181323802,0.0
673296.95196600363,3695566.251970998,-47500.0,454.10103158229623,-1211.9435798913003,-2054.2194550355616,939.09276786857151,1762.8125444982982,-1313.4305908155184,2496.4114732002872,-52.779747679453521,-1795.8183050813259,1795.8183050813259,52.779747679453521,4621.3564593296451,0.0
678296.95196600363,3695566.251970998,-47500.0,77.323291890329529,-1314.6668991773349,-1820.8026535993065,1100.8217060589013,1654.5642901371227,-1281.6418823555391,2381.4149357759111,-408.90375404156634,-1508.7569037687247,1508.7569037687247,408.90375404156634,4461.3229895470367,0.0
683296.95196600363,3695566.251970998,-47500.0,-244.52689768144614,-1357.1929954578372,-1594.7527894328507,1199.2361840340075,1521.7665524874135,-1215.7457901536943,2257.1833876778837,-689.27040584517533,-1239.0046592472713,1239.0046592472713,689.27040584517533,4271.1535066693414,0.0
688296.95196600363,3695566.251970998,-47500.0,-509.54258665705083,-1354.0835496236919,-1384.314971446948,1246.8010867430205,1378.7771375671971,-1130.0212593907704,2127.1819317228933,-900.44037687121477,-994.8535446872304,994.8535446872304,900.44037687121477,4058.9022793458644,0.0
693296.95196600363,3695566.251970998,-47500.0,-720.1755289436345,-1318.1304098871321,-1193.780513286536,1255.2263802216582,1235.3450890107806,-1034.7745762342788,1994.8877200476622,-1051.4239784497413,-780.03034729751937,780.03034729751937,1051.4239784497413,3832.9745839144525,0.0
698296.95196600363,3695566.251970998,-47500.0,-881.42734537541128,-1259.9062742343497,-1024.7032202416142,1234.7511837055667,1097.6830097554848,-937.12118593768923,1863.317878045877,-1151.9788353177701,-595.14997776430801,595.14997776430801,1151.9788353177701,3600.8744886115855,0.0
523296.95196600363,3700566.251970998,-47500.0,411.06216360258526,812.43278381282255,-1020.329299569775,-176.0611209627308,683.04756558265126,-273.39107585526153,1258.6828829131002,1023.5295044680688,-800.28592959104049,800.28592959104049,-1023.5295044680688,2238.399607772727,0.0
528296.95196600363,3700566.251970998,-47500.0,616.77010455068057,786.46528675092043,-1137.1182799148735,-82.19053439291504,718.34523190988546,-255.58975425327594,1357.8342912644223,1161.3945892750564,-958.10955782657834,958.10955782657834,-1161.3945892750564,2393.9554664263037,0.0
533296.95196600363,3700566.251970998,-47500.0,852.52516167565921,732.02086761157739,-1257.6118178226732,43.203027489983661,739.24077001895932,-218.46064347117257,1467.7557792045607,1300.0908236861826,-1131.8476205911836,1131.8476205911836,-1300.0908236861826,2567.5583381684287,0.0
538296.95196600363,3700566.251970998,-47500.0,1116.3320473196213,641.63440811770522,-1376.5712001524544,205.75756662043511,737.46545544424646,-154.51228744069098,1591.4209517353088,1432.2607626654585,-1317.7884641192281,1317.7884641192281,-1432.2607626654585,2766.7993275481431,0.0
543296.95196600363,3700566.251970998,-47500.0,1402.8706582568038,507.5247054271303,-1486.0573133108871,410.60691344853626,702.08450283844047,-54.309447881713567,1733.0709546960347,1547.6496676833788,-1509.1516693408973,1509.1516693408973,-1547.6496676833788,3002.8147391649259,0.0
548296.95196600363,3700566.251970998,-47500.0,1702.2659701866892,322.53887528744934,-1574.7485214510812,661.33488220747506,619.15349083017634,93.621813976296565,1898.5161314958411,1632.8056910187681,-1695.0703422922468,1695.0703422922468,-1632.8056910187681,3290.7823357119369,0.0
553296.95196600363,3700566.251970998,-47500.0,1998.8575190416695,81.728471294806852,-1627.4038657428641,958.4059834275954,471.67978480963063,302.5909126573996,2095.2748882680607,1671.2295943578981,-1859.6114137410548,1859.6114137410548,-1671.2295943578981,3649.5336842050451,0.0
558296.95196600363,3700566.251970998,-47500.0,2270.3165096189941,-215.28853424306575,-1624.7729702815236,1297.004264507885,240.19617536768658,587.01252213122655,2332.3427725752649,1644.3614235922589,-1981.155771055471,1981.155771055471,-1644.3614235922589,4099.6835208286511,0.0
563296.95196600363,3700566.251970998,-47500.0,2487.7062909976071,-561.15828196202335,-1544.4277817744423,1664.3524986913437,-95.619903074946777,960.8472809690096,2619.3296098397905,1533.8981957844273,-2032.6854711894791,2032.6854711894791,-1533.8981957844273,4659.9609921324209,0.0
568296.95196600363,3700566.251970998,-47500.0,2617.3472560554592,-937.11352360333456,-1363.1536910380275,2036.8756022889545,-553.76681175914189,1434.8828331704738,2964.6519506169352,1325.927279629655,-1983.76882396478,1983.76882396478,-1325.927279629655,5341.9953310894252,0.0
573296.95196600363,3700566.251970998,-47500.0,2625.4660932485158,-1309.6674338761011,-1061.5508068443396,2378.0504836073246,-1144.7494637081991,2012.6233579508901,3372.3759177065467,1017.0546746958464,-1805.1469066941856,1805.1469066941856,-1017.0546746958464,6144.3080156709693,0.0
578296.95196600363,3700566.251970998,-47500.0,2486.2865704703331,-1629.3625273313339,-631.13577918068006,2638.4026545835368,-1864.4391158010137,2684.9189382085974,3837.4949134144867,621.89320173493638,-1476.5391356448106,1476.5391356448106,-621.89320173493638,7046.5147410127447,0.0
583296.95196600363,3700566.251970998,-47500.0,2193.0468987496561,-1833.9755234613804,-83.21575516110282,2759.5838345250972,-2685.9885418536387,3424.2122480033813,4340.8226194469225,179.83934173685685,-997.22042952249421,997.22042952249421,-179.83934173685685,8004.9676023252814,0.0
588296.95196600363,3700566.251970998,-47500.0,1769.24161232082,-1858.4870225794782,542.92801151583205,2684.2138067067262,-3553.3759643182211,4180.3821159195313,4846.6941290003479,-242.63090067296469,-396.90229488698299,396.90229488698299,242.63090067296469,8951.5715670292138,0.0
593296.95196600363,3700566.251970998,-47500.0,1274.8126656065592,-1652.2577644837124,1176.8861479166492,2371.4502572680749,-4380.6455302061759,4881.1727832988272,5305.9095870444171,-558.71697499580966,257.99793719303113,-257.99793719303113,558.71697499580966,9797.956067575331,0.0
598296.95196600363,3700566.251970998,-47500.0,800.96443149393372,-1199.8408204581756,1723.8555368626307,1814.8586245726956,-5060.9958819175745,5440.1292530799383,5663.4118872134577,-679.79464801131428,868.78712340655932,-868.78712340655932,679.79464801131428,10446.681851155405,0.0
603296.95196600363,3700566.251970998,-47500.0,450.21947270807868,-537.20872386395342,2083.4764586770161,1055.4372464350574,-5487.0633189871214,5772.7639340556298,5868.9652183737535,-542.8512362017749,1323.2857283691978,-1323.2857283691978,542.8512362017749,10809.030464514726,0.0
608296.95196600363,3700566.251970998,-47500.0,305.78874675505392,246.46016430320282,2176.9540615221481,181.63332043083074,-5578.0884393416336,5817.4488610852741,5888.6948172391676,-136.93988412928229,1525.8724037191805,-1525.8724037191805,136.93988412928229,10825.564251195105,0.0
613296.95196600363,3700566.251970998,-47500.0,402.44516082690427,1026.5855934700703,1972.3151589489048,-687.53207135751438,-5304.1043540700612,5553.5053865890786,5714.3879104289963,484.65938055406218,1427.7846003436819,-1427.7846003436819,-484.65938055406218,10482.925275879828,0.0
618296.95196600363,3700566.251970998,-47500.0,713.16604917379721,1675.8260671179266,1496.1370349104873,-1431.6971333830472,-4696.3825539873542,5008.5094728703862,5367.3686887852864,1214.9870473447081,1043.786533065299,-1043.786533065299,-1214.9870473447081,9820.5074087120192,0.0
623296.95196600363,3700566.251970998,-47500.0,1158.5309129803154,2098.1907018897341,825.89761604294574,-1959.1657073960287,-3839.0981542094837,4251.2909579939569,4895.4633354641583,1923.5261749584433,447.09905368149055,-447.09905368149055,-1923.5261749584433,8924.2810332954286,0.0
628296.95196600363,3700566.251970998,-47500.0,1633.7724665730991,2250.5370151491475,66.789395136064698,-2225.7816227316971,-2846.1765575966119,3373.8684805461407,4363.9109068820908,2492.543043841431,-254.40190496273635,254.40190496273635,-2492.543043841431,7910.0756088398539,0.0
633296.95196600363,3700566.251970998,-47500.0,2040.2249837467548,2144.8512984516474,-676.31843887427965,-2237.2207563329102,-1833.4656578372196,2470.0441472958119,3842.0638835037953,2844.5862077391407,-949.12521083136414,949.12521083136414,-2844.5862077391407,6901.6951158762595,0.0
638296.95196600363,3700566.251970998,-47500.0,2308.4936307245284,1834.4303649112785,-1321.0281059257154,-2037.4089594245702,-896.31900817746703,1618.1748573074772,3387.5334507346315,2952.851452771049,-1547.3438376754616,1547.3438376754616,-2952.851452771049,6008.5867257309801,0.0
643296.95196600363,3700566.251970998,-47500.0,2407.5123986889303,1392.7864281816062,-1818.086024778416,-1690.4877398739704,-97.924178096137879,872.02241980169265,3032.076667647797,2835.3285388878239,-1994.3853045722374,1994.3853045722374,-2835.3285388878239,5305.3391419566851,0.0
648296.95196600363,3700566.251970998,-47500.0,2340.9928275474895,893.98038953924743,-2150.9918569924625,-1263.6412616297093,531.78264647406343,259.53510049983782,2777.3616852822929,2539.5088788210005,-2271.2927186185234,2271.2927186185234,-2539.5088788210005,4816.3124191031184,0.0
653296.95196600363,3700566.251970998,-47500.0,2136.7021875553478,399.40908037636672,-2328.5531268609534,-815.08344949975606,990.12158418941544,-213.00530508799264,2603.1981370014819,2125.277749517425,-2387.1852724244636,2387.1852724244636,-2125.277749517425,4514.4517539672106,0.0
658296.95196600363,3700566.251970998,-47500.0,1834.1854083379862,-47.99679023054108,-2374.9999188664729,-388.17695282614147,1292.7756800641023,-554.51462869020293,2481.2143431586792,1651.1749694835712,-2368.4942399699817,2368.4942399699817,-1651.1749694835712,4340.6692838004883,0.0
663296.95196600363,3700566.251970998,-47500.0,1474.6202467650919,-423.79566030980129,-2321.0000835856836,-10.50764257577779,1465.1601167554516,-782.63628248044643,2385.813346428065,1166.0079709939441,-2248.9486344679867,2248.9486344679867,-1166.0079709939441,4232.4312135833543,0.0
668296.95196600363,3700566.251970998,-47500.0,1094.2495605021068,-718.74592285014307,-2197.1616399549803,304.01370821153699,1535.7070046222657,-918.52789187895291,2299.0862839987071,705.44976878248781,-2062.2312924419548,2062.2312924419548,-705.44976878248781,4142.7081280044131,0.0
673296.95196600363,3700566.251970998,-47500.0,721.24166445249989,-934.35216035964254,-2030.2428623763237,551.77313777467316,1531.4890822231187,-983.28825681335661,2210.9417436407748,292.16058201789576,-1837.6513828227685,1837.6513828227685,-292.16058201789576,4044.1168062149764,0.0
678296.95196600363,3700566.251970998,-47500.0,375.07990590665383,-1078.6263724883156,-1841.5461660039598,735.98631017509604,1475.8832616471818,-995.87880990605834,2117.1302435680827,-62.157980973728058,-1598.2962756653087,1598.2962756653087,62.157980973728058,3924.8034876617062,0.0
683296.95196600363,3700566.251970998,-47500.0,67.460109794870462,-1162.7239494761106,-1646.7686147014758,863.77117772490487,1387.7175391851631,-972.18428807318196,2017.0302606397836,-354.0145433019843,-1360.8566442801491,1360.8566442801491,354.0145433019843,3782.6730099186243,0.0
688296.95196600363,3700566.251970998,-47500.0,-196.13751572929476,-1198.60118404536,-1456.6435877651343,943.9686533173641,1281.3330602367971,-924.82128464754237,1911.9224787848536,-585.45365438450108,-1136.3713368314577,1136.3713368314577,585.45365438450108,3620.7669576621893,0.0
693296.95196600363,3700566.251970998,-47500.0,-414.75166357571061,-1197.5790367519307,-1277.9035012346826,985.6863474467666,1167.1255134026683,-863.37873802204535,1803.8603966526052,-761.82927276959003,-931.34903394559933,931.34903394559933,761.82927276959003,3444.2603457907521,0.0
698296.95196600363,3700566.251970998,-47500.0,-590.42019397772697,-1169.5944655124561,-1114.2734990684708,997.42952064371536,1052.2670345823476,-794.85956322678203,1695.0140576329925,-890.13585798574468,-748.92812275607821,748.92812275607821,890.13585798574468,3258.7374587583163,0.0
528296.95196600363,3705566.251970998,-47500.0,794.5983514348145,581.22202377056578,-1095.5102055772666,93.912274675898956,589.99371880862316,-139.66220733303589,1251.5715896906634,1127.7542917988942,-1009.5476687715119,1009.5476687715119,-1127.7542917988942,2182.5885333261181,0.0
533296.95196600363,3705566.251970998,-47500.0,1014.9214578074289,497.36160813261006,-1186.9472267594956,228.13342498620335,582.83657979384543,-87.09689280458872,1357.8359554466508,1230.8267104974982,-1159.9281925639032,1159.9281925639032,-1230.8267104974982,2356.5878247774567,0.0
538296.95196600363,3705566.251970998,-47500.0,1253.3705710931467,377.72727463545755,-1268.4462498758594,394.72654260718662,549.23130317803839,-8.0984525053941478,1479.8554911929011,1319.3800886991123,-1312.9773198722921,1312.9773198722921,-1319.3800886991123,2563.2199005698139,0.0
543296.95196600363,3705566.251970998,-47500.0,1502.7820832906496,216.72451239772937,-1330.9167432903027,596.4365114890395,478.96849015434157,105.20865652693874,1622.0915530773063,1383.1904480343635,-1460.210434859345,1460.210434859345,-1383.1904480343635,2814.0911262248096,0.0
548296.95196600363,3705566.251970998,-47500.0,1751.9345629842458,10.233069700930914,-1362.3550244627459,834.00650647098564,359.67822274504493,261.94687052669099,1790.0566771276526,1409.8119229624199,-1589.4766000584377,1589.4766000584377,-1409.8119229624199,3123.0961848006609,0.0
553296.95196600363,3705566.251970998,-47500.0,1984.8908972787967,-242.83356163730343,-1347.7441173041752,1104.8262130482792,177.13466962073664,472.09124056513002,1990.1079542406824,1385.1721670116799,-1684.4942173831173,1684.4942173831173,-1385.1721670116799,3505.1914652979372,0.0
558296.95196600363,3705566.251970998,-47500.0,2180.8630126671646,-538.43205591374874,-1269.5189313577334,1401.2455948924858,-83.839038182215219,745.62287216096092,2228.9011811884657,1294.9763520488507,-1724.9196707411331,1724.9196707411331,-1294.9763520488507,3974.1923702211739,0.0
563296.95196600363,3705566.251970998,-47500.0,2315.0841067994884,-864.88762112835104,-1108.9816297363966,1708.7223418899109,-437.56996589300201,1091.0500405439675,2512.4001314616107,1127.2233551541144,-1687.4092078193248,1687.4092078193248,-1127.2233551541144,4539.7139555894983,0.0
568296.95196600363,3705566.251970998,-47500.0,2361.2733794326427,-1200.4152392268957,-849.09049418266625,2004.2065446779145,-894.56124820277887,1513.1527085723746,2844.3093408055915,876.01268814982677,-1548.2285687348872,1548.2285687348872,-876.01268814982677,5203.5766788249366,0.0
573296.95196600363,3705566.251970998,-47500.0,2296.1898611506272,-1511.5231785705016,-478.91192792353507,2255.4775938158496,-1457.2410226751929,2009.9444764592552,3223.720072845349,546.45078304580727,-1287.8837647265441,1287.8837647265441,-546.45078304580727,5956.0947744301711,0.0
578296.95196600363,3705566.251970998,-47500.0,2106.3157219182931,-1753.6254794349702,0.42282738738628711,2422.4538489287729,-2114.7619621635645,2569.1538055235565,3641.9578499121312,159.77035646960678,-897.81443830210094,897.81443830210094,-159.77035646960678,6772.7985938779757,0.0
583296.95196600363,3705566.251970998,-47500.0,1795.7222490238203,-1875.4048555497247,569.27813065710757,2461.5674595608207,-2837.9112506736928,3165.0116614703634,4079.6690679018247,-243.17738651196794,-388.24786876657447,388.24786876657447,243.17738651196794,7612.4286274103715,0.0
588296.95196600363,3705566.251970998,-47500.0,1392.7510982071256,-1827.9687362275695,1184.7707624405866,2333.8070572764718,-3576.089331674646,3756.7023642890654,4506.2802076879934,-602.71829266583609,205.07111499320007,-205.07111499320007,602.71829266583609,8417.4103354024355,0.0
593296.95196600363,3705566.251970998,-47500.0,951.89958869974146,-1578.1995790978162,1780.8107476549103,2015.6941911144154,-4258.8997284567031,4290.1567545526295,4883.0156201747259,-847.99831044357052,818.82375386390459,-818.82375386390459,847.99831044357052,9118.1043885441177,0.0
598296.95196600363,3705566.251970998,-47500.0,547.39982099346207,-1123.053864128125,2275.714257244807,1510.4493945005847,-4804.4239002707345,4704.4721213251742,5168.7617236964215,-912.15587553252715,1368.3177856697907,-1368.3177856697907,912.15587553252715,9641.5342107599809,0.0
603296.95196600363,3705566.251970998,-47500.0,257.49471354134317,-499.12816470042253,2587.8671293079756,854.86673954100934,-5134.1491013791592,4942.760210547528,5327.4832022717992,-752.00444552185468,1763.2500300894851,-1763.2500300894851,752.00444552185468,9923.8185234276389,0.0
608296.95196600363,3705566.251970998,-47500.0,143.04164989177974,218.35852336893041,2655.9418375322448,117.4963642554265,-5191.1975826084945,4964.9815255931298,5335.7809843548448,-365.30317813204567,1929.875985959919,-1929.875985959919,365.30317813204567,9923.647134272016,0.0
613296.95196600363,3705566.251970998,-47500.0,228.35618767485903,929.5328860269276,2456.6211865615655,-613.41979652843122,-4955.716674323703,4758.5057440089522,5188.7452081141782,202.48492363338278,1832.0027417644117,-1832.0027417644117,-202.48492363338278,9632.8279949016942,0.0
618296.95196600363,3705566.251970998,-47500.0,492.76316908157617,1533.1540249295269,2012.4218007138493,-1249.1628641483271,-4451.2442472453549,4342.2169555894052,4902.3066955834447,866.51653135465585,1482.1171218612858,-1482.1171218612858,-866.51653135465585,9080.2772292093032,0.0
623296.95196600363,3705566.251970998,-47500.0,876.8524364603303,1950.7034591969973,1386.0747410936408,-1720.1408680333823,-3739.2633660099787,3762.3775628016992,4511.2373959253118,1523.6509750048153,937.77338421400054,-937.77338421400054,-1523.6509750048153,8327.9557030119158,0.0
628296.95196600363,3705566.251970998,-47500.0,1300.472319571332,2142.3804282404171,663.9209499425433,-1988.9509925172347,-2904.2018574427084,3081.9068091850827,4063.1768276384955,2078.0087851026055,285.07618319283688,-285.07618319283688,-2078.0087851026055,7460.0942478884963,0.0
633296.95196600363,3705566.251970998,-47500.0,1684.553540724814,2110.3890214514668,-64.828071637654034,-2053.3389681298495,-2034.7587886220224,2367.1564315332816,3609.6652416696861,2461.4693787576862,-383.54825602136748,383.54825602136748,-2461.4693787576862,6568.9400881170923,0.0
638296.95196600363,3705566.251970998,-47500.0,1968.6320469931327,1890.7806978062952,-725.6595605147013,-1940.0252185114844,-1207.7943949198327,1676.4550223524145,3195.5230513483993,2643.2084904511194,-989.05041348052282,989.05041348052282,-2643.2084904511194,5740.201648269026,0.0
643296.95196600363,3705566.251970998,-47500.0,2119.5388825851833,1539.0710986502279,-1268.7433851281787,-1693.4109419990034,-478.62717759241741,1053.0495114374016,2849.6791958330596,2627.8901718040929,-1477.5867632684017,1477.5867632684017,-2627.8901718040929,5039.9089873175826,0.0
648296.95196600363,3705566.251970998,-47500.0,2131.2099905344571,1115.4656379797493,-1670.7785723003992,-1363.683920391911,121.62355242799556,522.90683511439431,2581.6593562056278,2446.2110110375143,-1823.4229607261259,1823.4229607261259,-2446.2110110375143,4503.6735014258747,0.0
653296.95196600363,3705566.251970998,-47500.0,2018.5229417953071,673.68112096205357,-1930.893963604201,-997.48365186672402,583.33382629839718,96.276002729297247,2384.5626449291426,2142.7412508883253,-2025.0653072550965,2025.0653072550965,-2142.7412508883253,4131.4001687154778,0.0
658296.95196600363,3705566.251970998,-47500.0,1808.8203795330969,254.79055805393617,-2063.7119096601509,-632.36386977657367,912.84519411270071,-228.67669181465533,2241.7722110187265,1764.9952171023833,-2097.9813302016705,2097.9813302016705,-1764.9952171023833,3892.5433036415643,0.0
663296.95196600363,3705566.251970998,-47500.0,1533.9778850100968,-114.44023599024946,-2092.1993661882229,-294.78788434728614,1126.341369447448,-461.67099571910586,2134.187706218001,1355.7595588654397,-2066.8577272995626,2066.8577272995626,-1355.7595588654397,3741.8075009659342,0.0
668296.95196600363,3705566.251970998,-47500.0,1224.5300200054351,-420.18370636165605,-2041.8664422870295,-0.63715837439464496,1244.5537963428835,-616.55230681654223,2045.4298522065287,949.01451358346321,-1959.210637808897,1959.210637808897,-949.01451358346321,3636.1561983851525,0.0
673296.95196600363,3705566.251970998,-47500.0,906.20082999332658,-658.68439124125871,-1936.8576546354277,242.9065557893299,1288.8974199892048,-708.42758684809758,1964.028570716524,568.7743668126484,-1801.0328059340834,1801.0328059340834,-568.7743668126484,3544.2769778282118,0.0
678296.95196600363,3705566.251970998,-47500.0,598.4819566592048,-833.06264920944864,-1797.8148773322348,435.01896720698187,1279.0679393174166,-751.77420370673849,1883.3063621277306,229.8261386989351,-1614.3958481993172,1614.3958481993172,-229.8261386989351,3447.8347801516547,0.0
683296.95196600363,3705566.251970998,-47500.0,314.63240766177057,-950.47646962267436,-1641.0844987648304,579.00864011845999,1231.8327133581822,-759.38082684938206,1800.2232647213204,-60.575740568626316,-1416.5578491093734,1416.5578491093734,60.575740568626316,3338.5733900187561,0.0
688296.95196600363,3705566.251970998,-47500.0,62.484694020032492,-1019.9320149184465,-1478.7858266498649,680.49459258064883,1160.6588302388295,-741.90347973365317,1714.082047110986,-300.7444104758892,-1220.0459976643319,1220.0459976643319,300.7444104758892,3214.6795718973631,0.0
693296.95196600363,3705566.251970998,-47500.0,-154.41439260755263,-1050.7773010846474,-1319.3412387114565,746.06583312483895,1075.8539766094659,-707.8239290858927,1625.4870512778816,-492.73308453604335,-1033.2656866189798,1033.2656866189798,492.73308453604335,3077.866448427777,0.0
528296.95196600363,3710566.251970998,-47500.0,918.31634126962877,383.74780550352182,-1021.3532745123198,231.62801187227032,461.70311789103692,-45.024840337430653,1162.8661981734863,1058.0566416961487,-1018.0239235495668,1018.0239235495668,-1058.0566416961487,2015.9444140456878,0.0
533296.95196600363,3710566.251970998,-47500.0,1117.3212668527415,278.01939178913483,-1081.7369625727476,367.11441003384016,430.81802552690925,17.143237127696409,1267.4101763332949,1126.3558501096343,-1140.779653012243,1140.779653012243,-1126.3558501096343,2195.4291319799568,0.0
538296.95196600363,3710566.251970998,-47500.0,1325.6030315577812,138.71796259271974,-1125.2114975858597,529.55816115174844,371.610229514178,104.13565117075106,1388.9224380704563,1174.4817228745976,-1257.8641126670502,1257.8641126670502,-1174.4817228745976,2412.0925480767096,0.0
543296.95196600363,3710566.251970998,-47500.0,1535.0586652125139,-37.520831696806532,-1142.3663650843137,719.75295808142903,275.04764675639859,222.2538643873761,1531.5057015406178,1193.0227734002899,-1359.9990662966222,1359.9990662966222,-1193.0227734002899,2676.2725624830696,0.0
548296.95196600363,3710566.251970998,-47500.0,1734.234675243508,-252.02519956105502,-1121.5360556551,936.3352100248469,130.72848517679384,378.43580698032241,1699.7640751617937,1171.3073853921351,-1434.900511389958,1434.900511389958,-1171.3073853921351,2998.9593369063027,0.0
553296.95196600363,3710566.251970998,-47500.0,1908.1394584075276,-502.69197044869924,-1049.058949264421,1174.7109176371214,-72.605290350234398,579.78828575528405,1898.442587156844,1098.2659102335042,-1467.2542753015045,1467.2542753015045,-1098.2659102335042,3390.441083944178,0.0
558296.95196600363,3710566.251970998,-47500.0,2038.6299419572306,-782.29268014909883,-910.1206524642954,1425.846511316925,-346.0318983855621,832.76672796224204,2131.8331892389333,963.98091197555163,-1439.2819136546389,1439.2819136546389,-963.98091197555163,3858.4609428836166,0.0
563296.95196600363,3710566.251970998,-47500.0,2105.7201420796437,-1076.6925667490095,-690.45045502857954,1675.1215050827134,-698.71797449854114,1141.9133223318479,2402.9149143635614,762.06394739129883,-1332.2343586647971,1332.2343586647971,-762.06394739129883,4406.0234392437369,0.0
568296.95196600363,3710566.251970998,-47500.0,2090.1478409251495,-1363.4272990237509,-379.09355181705865,1901.6027338866102,-1135.3868229284906,1508.121523814016,2712.1529990303916,492.82573793110521,-1129.1384398341424,1129.1384398341424,-492.82573793110521,5029.0292105285043,0.0
573296.95196600363,3710566.251970998,-47500.0,1977.3579816535027,-1611.3595494744868,27.714505621596082,2078.2767551585252,-1653.0690338026491,1926.5246907853623,3055.8244730874067,166.86820926860582,-818.94761400168397,818.94761400168397,-166.86820926860582,5713.9863677544972,0.0
578296.95196600363,3710566.251970998,-47500.0,1762.6228977283724,-1782.3478913603499,521.96182137350661,2173.8826344849699,-2237.5606957038399,2384.3253668789694,3423.9487306100941,-191.78034136017669,-401.81699186059137,401.81699186059137,191.78034136017669,6436.2021926762645,0.0
583296.95196600363,3710566.251970998,-47500.0,1456.2985756176902,-1835.7983108800136,1079.5903698417785,2156.879787663383,-2860.489935118328,2859.1673313058427,3798.6962128620157,-544.41922859117835,105.49478709933092,-105.49478709933092,544.41922859117835,7159.0842687177064,0.0
588296.95196600363,3710566.251970998,-47500.0,1087.3907671165516,-1736.376207950261,1658.2475699352467,2001.6034147147623,-3478.3489263405349,3318.9066785338855,4154.6998967338968,-840.02875190097211,665.93431984035328,-665.93431984035328,840.02875190097211,7835.3464613714477,0.0
593296.95196600363,3710566.251970998,-47500.0,703.12280823485366,-1463.9113539333616,2199.081412242203,1695.7443493557785,-4034.9806300408795,3723.6745173172376,4461.7742308307716,-1022.4840125341547,1222.5410017048082,-1222.5410017048082,1022.4840125341547,8410.8243686424521,0.0
598296.95196600363,3710566.251970998,-47500.0,362.70277335754554,-1022.902741363354,2634.0145952433604,1247.1649674459647,-4468.4352698069306,4030.7187412831681,4689.3101491740044,-1042.3684727355858,1704.8569949498269,-1704.8569949498269,1042.3684727355858,8831.0805231683444,0.0
603296.95196600363,3710566.251970998,-47500.0,125.36230109231327,-447.86377507586531,2898.1633683077343,687.32693237807177,-4721.678221895444,4201.5903801847726,4811.4083046702035,-870.78478695040451,2041.4986428769316,-2041.4986428769316,870.78478695040451,9050.0402239752075,0.0
608296.95196600363,3710566.251970998,-47500.0,35.523204730857231,198.87500801030419,2944.5656127239458,68.996433729363531,-4754.7354608313053,4210.0674973266787,4811.8484386361952,-510.50385204332429,2176.2124239285185,-2176.2124239285185,510.50385204332429,9038.8541662444786,0.0
613296.95196600363,3710566.251970998,-47500.0,110.16946481951891,837.86373771703109,2756.4615048313799,-542.29417342356794,-4554.4974794021555,4048.4008898412749,4687.8082300064034,0.42906708343070932,2082.315151014775,-2082.315151014775,-0.42906708343070932,8792.5795735081119,0.0
618296.95196600363,3710566.251970998,-47500.0,333.47618079666034,1389.0866316869465,2352.4742141044576,-1080.968645572802,-4138.614085633214,3729.6531216630392,4451.3073482967729,595.09407275474837,1770.1112140304824,-1770.1112140304824,-595.09407275474837,8332.5890698109179,0.0
623296.95196600363,3710566.251970998,-47500.0,661.003149818118,1788.9494650934,1782.5539428398856,-1494.3199900871418,-3551.9280699847222,3285.208869228562,4127.8709423672753,1192.4485077956842,1284.3497246796123,-1284.3497246796123,-1192.4485077956842,7703.8774744143893,0.0
628296.95196600363,3710566.251970998,-47500.0,1031.7091090259621,2002.0717924366238,1116.2369414215243,-1751.5308841832898,-2856.7392822837487,2758.3213925446876,3752.5356500913886,1715.2740776292967,692.83589510580123,-692.83589510580123,-1715.2740776292967,6968.0500730202775,0.0
633296.95196600363,3710566.251970998,-47500.0,1383.043715699205,2024.7142872453583,427.56230988563829,-1846.5035910417455,-2120.3196619897499,2195.8876081715084,3363.7004582411764,2105.2807780061667,70.639316573883889,-70.639316573883889,-2105.2807780061667,6193.9255656367895,0.0
638296.95196600363,3710566.251970998,-47500.0,1663.9362659646231,1880.1997334842385,-218.47640697239086,-1794.7270748917974,-1403.5112851052725,1640.8886971394961,2995.8670095594807,2331.263797425253,-514.7339669087944,514.7339669087944,-2331.263797425253,5447.8201458666908,0.0
643296.95196600363,3710566.251970998,-47500.0,1842.3553491188286,1609.3418212320062,-774.62990187372395,-1626.3190129297952,-753.06348312608009,1127.1951913297657,2673.5748792388908,2389.4753343760985,-1013.3217946587665,1013.3217946587665,-2389.4753343760985,4784.8197444808511,0.0
648296.95196600363,3710566.251970998,-47500.0,1906.7914762598202,1259.67950485293,-1214.3263174389685,-1377.9753005434957,-198.54148489330751,677.29905012621862,2408.8802150119755,2298.1065831555429,-1396.5338562276681,1396.5338562276681,-2298.1065831555429,4241.5467149229798,0.0
653296.95196600363,3710566.251970998,-47500.0,1863.0843198631724,876.48754920623719,-1529.8909607259595,-1086.0173977468073,246.89145763751398,302.57254358272587,2202.3158419368351,2088.9673848138418,-1655.7552086215148,1655.7552086215148,-2088.9673848138418,3831.2607831549503,0.0
658296.95196600363,3710566.251970998,-47500.0,1728.8628246068652,497.01165570822246,-1728.0201491511343,-781.67456252089482,583.27189848651653,5.166866511235475,2045.9124318529075,1799.1821990640367,-1797.7769481301632,1797.7769481301632,-1799.1821990640367,3543.6249641060012,0.0
663296.95196600363,3710566.251970998,-47500.0,1527.6625567022352,147.99617825319606,-1824.4347259369556,-488.75596087870349,819.70608718751089,-219.38635972561764,1927.2370403568077,1464.6727774622018,-1839.1564918872441,1839.1564918872441,-1464.6727774622018,3351.2039874657075,0.0
668296.95196600363,3710566.251970998,-47500.0,1284.0476796389912,-154.25093017512555,-1839.056716615682,-223.25178012964651,970.41187844207604,-379.58460767946303,1833.3247011754161,1116.0621365060776,-1801.0238549785456,1801.0238549785456,-1116.0621365060776,3220.5213722121903,0.0
673296.95196600363,3710566.251970998,-47500.0,1020.2901200287703,-402.26801033728259,-1792.3771949752938,5.8200977509778689,1051.5390127485591,-485.7916104261418,1753.3596669245076,776.82800274156602,-1705.1211691912579,1705.1211691912579,-776.82800274156602,3121.8641722149332,0.0
678296.95196600363,3710566.251970998,-47500.0,754.57921355808492,-595.22220600325863,-1703.1384094992279,194.966179644184,1078.9555549607678,-548.65966743743741,1679.7232392661249,463.12411079025378,-1571.2547497147223,1571.2547497147223,-463.12411079025378,3033.9995808609056,0.0
683296.95196600363,3710566.251970998,-47500.0,500.43907737773986,-736.68464777833003,-1587.1424302955827,344.63913772892892,1066.9255004710551,-578.12044732464744,1607.8366188473638,184.61580834605047,-1415.9807153602967,1415.9807153602967,-184.61580834605047,2944.3399206034169,0.0
688296.95196600363,3710566.251970998,-47500.0,266.94852492727171,-832.74142726882712,-1456.8846973449015,457.81390964243298,1027.4876237527703,-582.84451470378986,1535.460587755214,-54.217997110221631,-1252.2035536830908,1252.2035536830908,54.217997110221631,2846.9625475572675,0.0
533296.95196600363,3715566.251970998,-47500.0,1169.2342373536603,81.844906848526776,-952.66539221089079,465.5941710129386,289.51999132553817,96.86763833077697,1192.5217049602534,1000.2184899464318,-1084.6013740013143,1084.6013740013143,-1000.2184899464318,2073.3713874094665,0.0
538296.95196600363,3715566.251970998,-47500.0,1345.5598262165386,-68.235898277178492,-960.2729341762323,618.21538450634318,211.17864232529391,186.38033563583025,1313.2017252624153,1013.1516196108978,-1165.7403650485576,1165.7403650485576,-1013.1516196108978,2298.2637405250548,0.0
543296.95196600363,3715566.251970998,-47500.0,1515.5003475228914,-249.61467172808889,-936.69417410665221,791.67921782233122,96.615698776378636,303.2247307526568,1454.5152260314476,994.39714706237737,-1225.1972613933804,1225.1972613933804,-994.39714706237737,2570.08340357814,0.0
548296.95196600363,3715566.251970998,-47500.0,1668.1865562300775,-461.30724976748178,-871.33123457213946,983.22258155542306,-62.50726845668683,452.45862022429162,1619.9318626701288,935.41615352706617,-1251.418003834772,1251.418003834772,-935.41615352706617,2896.5663894444569,0.0
553296.95196600363,3715566.251970998,-47500.0,1790.3245745105214,-698.86236287500174,-752.54999820284877,1187.1942892879715,-274.63144311700307,638.88132806978513,1812.6124337291517,828.20821089582375,-1230.8945658632967,1230.8945658632967,-828.20821089582375,3283.8758846763212,0.0
558296.95196600363,3715566.251970998,-47500.0,1866.8877844347198,-953.1059118381163,-568.71978113789953,1394.2601243351517,-547.27876522980932,866.31609656082026,2034.8929202467459,666.80756894263016,-1149.0255034747011,1149.0255034747011,-666.80756894263016,3735.2358164185412,0.0
563296.95196600363,3715566.251970998,-47500.0,1882.5686038217259,-1209.0126615716467,-309.94310122666144,1590.7910333634707,-885.53374126131791,1136.6075119306245,2287.6177502858782,449.32615692907768,-991.75325666060178,991.75325666060178,-449.32615692907768,4249.4152898551774,0.0
568296.95196600363,3715566.251970998,-47500.0,1824.14009978437,-1445.0983404264987,29.453925015476024,1758.7181914342477,-1290.0309459720409,1448.3593984825766,2569.2638237256519,180.39367457364961,-748.12323056037962,748.12323056037962,-180.39367457364961,4819.1739300276604,0.0
573296.95196600363,3715566.251970998,-47500.0,1683.6836837435044,-1633.8769185109729,447.80119155314378,1876.2204196526741,-1754.6126400704225,1795.5399344416321,2874.7659316476916,-126.42168378426953,-413.713157110086,413.713157110086,126.42168378426953,5429.8642369014306,0.0
578296.95196600363,3715566.251970998,-47500.0,1462.2857782659039,-1743.9762580993186,932.79719942921179,1919.6098209387219,-2264.0618512744209,2166.2208098778206,3194.1686389166985,-446.95626079068012,5.4766587170154821,-5.4766587170154821,446.95626079068012,6058.5148017393221,0.0
583296.95196600363,3715566.251970998,-47500.0,1173.3332117517402,-1744.3244737017803,1458.9377697318473,1866.6213773561176,-2792.5965597516115,2541.8700087619741,3511.8255497654218,-746.57341391588045,489.56927909185004,-489.56927909185004,746.57341391588045,6673.8458871780658,0.0
588296.95196600363,3715566.251970998,-47500.0,844.1051259990079,-1610.2892970961493,1986.8898544565475,1700.9274404122427,-3304.0078722717794,2897.7100459458388,3807.0884491337115,-983.07941705280416,1003.1475370206816,-1003.1475370206816,983.07941705280416,7237.7056555096315,0.0
593296.95196600363,3715566.251970998,-47500.0,514.26727853823593,-1330.7867785810763,2466.0455836507504,1417.1145007901557,-3754.2607075324977,3204.5881053744497,4056.6083036277837,-1112.9339782525622,1496.864843024121,-1496.864843024121,1112.9339782525622,7708.2680373453777,0.0
598296.95196600363,3715566.251970998,-47500.0,230.43443186196808,-914.43508875471321,2840.8897241009527,1024.7630115243285,-4096.8796438622676,3432.4886245727334,4237.5886822661323,-1100.149750282947,1913.2858709671177,-1913.2858709671177,1100.149750282947,8044.9406029702423,0.0
603296.95196600363,3715566.251970998,-47500.0,37.267459261651183,-392.33623368074194,3060.5547515973981,550.00574594256682,-4290.5181309117052,3555.2718828786255,4331.3374240133608,-925.85214916035591,2196.6031648649919,-2196.6031648649919,925.85214916035591,8214.3546749466204,0.0
608296.95196600363,3715566.251970998,-47500.0,-32.784767972155741,184.43030886525091,3089.4115652892015,33.341421390504038,-4307.0419534393359,3555.607157060093,4326.5550229731844,-595.42952412883824,2304.1464528981187,-2304.1464528981187,595.42952412883824,8196.2315837287078,0.0
613296.95196600363,3715566.251970998,-47500.0,32.146496292034726,752.88860491809692,2915.5341852584766,-476.38703681757352,-4137.808891594249,3428.7211196371845,4221.7258354299966,-140.34164681442576,2216.3000445603884,-2216.3000445603884,140.34164681442576,7987.6621820208147,0.0
618296.95196600363,3715566.251970998,-47500.0,219.91233276434588,1249.9445533754865,2554.1228326202408,-930.49506923767035,-3796.0677543121196,3183.7501295408661,4026.016980603129,386.73352330567866,1941.4578438536423,-1941.4578438536423,-386.73352330567866,7604.5769379554413,0.0
623296.95196600363,3715566.251970998,-47500.0,497.18596039251781,1624.3925732371963,2044.5953103014556,-1289.0469542860521,-3314.6033485352905,2842.2100980970949,3758.3673286420099,922.25816807543856,1514.2369566879877,-1514.2369566879877,-922.25816807543856,7079.9412107409162,0.0
628296.95196600363,3715566.251970998,-47500.0,817.53959287741975,1845.5699420067272,1442.3238848342287,-1527.0940338739347,-2739.3762775023511,2434.0489035513465,3444.7614609872162,1404.4631653000395,987.62833580194626,-987.62833580194626,-1404.4631653000395,6459.1384181239391,0.0
633296.95196600363,3715566.251970998,-47500.0,1131.8861582583427,1906.4996648519311,807.76527170020063,-1637.0843868556387,-2121.1644713591168,1992.4816854080082,3113.9378660115854,1784.4053846578108,421.83533858435305,-421.83533858435305,-1784.4053846578108,5793.7026955696174,0.0
638296.95196600363,3715566.251970998,-47500.0,1397.9882190559319,1821.4836829451795,196.20595699690708,-1627.3889052334075,-1507.5608476962107,1549.010618702717,2792.3488156103072,2032.6391896095042,-126.72595782756628,126.72595782756628,-2032.6391896095042,5134.7245211910249,0.0
643296.95196600363,3715566.251970998,-47500.0,1586.6752119711014,1619.85368923899,-349.46853761892055,-1518.0684453541755,-937.11805790618439,1129.7065745244709,2500.095526252841,2140.6105478105237,-613.51465192523688,613.51465192523688,-2140.6105478105237,4526.8819384716217,0.0
648296.95196600363,3715566.251970998,-47500.0,1683.984687534864,1338.3017549455378,-802.03022277029481,-1335.5121107698167,-436.40758691176211,753.23417639696686,2249.201956653998,2117.667874950133,-1009.8149478946178,1009.8149478946178,-2117.667874950133,4003.497758389778,0.0
653296.95196600363,3715566.251970998,-47500.0,1689.8309750679823,1013.9114386131101,-1149.5877507591447,-1107.4089985603393,-19.788314862341092,430.5302303553222,2043.8360580540862,1985.5564604436443,-1302.8117353678088,1302.8117353678088,-1985.5564604436443,3582.8400702194981,0.0
658296.95196600363,3715566.251970998,-47500.0,1614.5456820482091,679.1499439983553,-1392.8647600929569,-858.96706473253391,308.90498878609867,165.69289628758338,1881.5723220894893,1772.3349085156999,-1492.971743013464,1492.971743013464,-1772.3349085156999,3266.476853700271,0.0
663296.95196600363,3715566.251970998,-47500.0,1474.700941346232,359.16002071115469,-1541.4102652319143,-610.67909374099384,553.70405623546458,-42.475393022413265,1755.400555409303,1507.1202651163817,-1590.1477453054995,1590.1477453054995,-1507.1202651163817,3041.1046462220997,0.0
668296.95196600363,3715566.251970998,-47500.0,1289.2765377586522,71.043432055365699,-1609.8104504293913,-377.49088872142306,723.67653462312865,-198.75028731071666,1656.2007177289693,1216.3632763465416,-1609.582446111624,1609.582446111624,-1216.3632763465416,2884.228283576731,0.0
673296.95196600363,3715566.251970998,-47500.0,1076.7443669297461,-175.47995738834146,-1614.5493659518581,-168.99304345121695,830.44401778333417,-309.92380045372289,1575.0105955947854,921.75187548256054,-1568.5480395485802,1568.5480395485802,-921.75187548256054,2771.4520755685126,0.0
678296.95196600363,3715566.251970998,-47500.0,853.22057779716908,-376.67541233804667,-1571.7658697821046,9.7844548849404802,886.28705090377309,-383.56431737764393,1504.477888424869,639.47159082513053,-1483.9233650860933,1483.9233650860933,-639.47159082513053,2682.0633948058457,0.0
683296.95196600363,3715566.251970998,-47500.0,631.57097642932581,-533.1677586867703,-1495.8899109364907,157.32800835357972,902.87653562176843,-427.14349180201907,1439.3811870335846,380.4115559096569,-1370.7132022994613,1370.7132022994613,-380.4115559096569,2601.3862707293351,0.0
538296.95196600363,3720566.251970998,-47500.0,1325.5394331416364,-240.2108037660627,-785.42468905199519,669.12299756289326,71.542824090373315,243.33080942101878,1247.8539450822504,847.67206249402648,-1049.0947480932662,1049.0947480932662,-847.67206249402648,2207.8217836632962,0.0
543296.95196600363,3720566.251970998,-47500.0,1458.6525700090692,-418.70336977905544,-727.370744325901,823.19531967670207,-53.662410775961263,354.75428430485994,1385.775585248522,800.01297291315927,-1070.5069261500532,1070.5069261500532,-800.01297291315927,2480.2560489573821,0.0
548296.95196600363,3720566.251970998,-47500.0,1570.2254145705708,-619.67685184061861,-626.42651925722839,988.47660778620013,-219.06996816241258,493.09429631439241,1545.3104143960131,714.36785705734189,-1055.5773284354636,1055.5773284354636,-714.36785705734189,2801.1854950710722,0.0
553296.95196600363,3720566.251970998,-47500.0,1649.0140448070297,-837.16656530052762,-473.25775845072042,1158.9628356558571,-430.65871726585129,661.39069617945472,1728.2966769996967,585.53623668179625,-993.01359928415991,993.01359928415991,-585.53623668179625,3173.6353335509098,0.0
558296.95196600363,3720566.251970998,-47500.0,1683.1230189799842,-1061.113574931228,-259.38276482229992,1325.73765741646,-693.07870868498458,861.60713932869794,1935.6284241937487,410.80514743994206,-871.48617663671314,871.48617663671314,-410.80514743994206,3597.793638857027,0.0
563296.95196600363,3720566.251970998,-47500.0,1661.4056419682729,-1276.7610099679277,21.230213706508906,1476.7305376236352,-1008.40436348413,1093.8749017978985,2166.763829681373,191.58374411650027,-681.20801209517356,681.20801209517356,-191.58374411650027,4069.9643677256395,0.0
568296.95196600363,3720566.251970998,-47500.0,1575.4707037457908,-1464.610004260036,370.08239812433618,1596.9085324346638,-1374.6181466291539,1355.6156214502237,2419.0974885333017,-64.843212732517372,-416.13436190370794,416.13436190370794,64.843212732517372,4581.5510040989157,0.0
573296.95196600363,3720566.251970998,-47500.0,1422.1529168291238,-1601.3108697002413,781.78143588260696,1669.1304571520159,-1784.0046948801323,1640.6606602369834,2687.1359792851108,-343.82551680299946,-76.627904677808829,76.627904677808829,343.82551680299946,5118.2364738339493,0.0
578296.95196600363,3720566.251970998,-47500.0,1206.049991552401,-1661.8298508043595,1241.8365155952783,1675.8486690241648,-2221.7932947079903,1938.5703900004708,2961.6261265110843,-622.69372358636269,327.8312629937592,-327.8312629937592,622.69372358636269,5659.6104483706531,0.0
583296.95196600363,3720566.251970998,-47500.0,941.44268371810927,-1623.02341439819,1725.3006589908011,1601.6892274640738,-2665.5316512559016,2234.425324104976,3229.2223183947285,-871.61152519546511,776.61288623751477,-776.61288623751477,871.61152519546511,6179.5420369071608,0.0
588296.95196600363,3720566.251970998,-47500.0,652.72270489410107,-1468.3394311086213,2197.0941219297142,1436.6680913867224,-3085.7399208140805,2509.3851490147435,3473.3050984474626,-1056.4844665630314,1237.519017400509,-1237.519017400509,1056.4844665630314,6647.5846998266816,0.0
593296.95196600363,3720566.251970998,-47500.0,372.52765056891661,-1192.7966688150764,2614.7136208256725,1179.446025286949,-3448.2635288142119,2742.2210443849508,3675.8613696006078,-1144.0246668212444,1668.8614611958865,-1668.8614611958865,1144.0246668212444,7031.5493297027051,0.0
598296.95196600363,3720566.251970998,-47500.0,137.2643754249851,-806.8775340623132,2933.523676236523,839.72454692473605,-3718.3709467943941,2911.8095779977798,3819.8735732580558,-1108.3139412675046,2024.4341964280411,-2024.4341964280411,1108.3139412675046,7301.1117532345552,0.0
603296.95196600363,3720566.251970998,-47500.0,-19.432216402718595,-337.81051002011327,3113.9714686619709,438.8253074220865,-3866.0628490325653,3000.2561865143343,3891.7788460742354,-937.3689156950137,2260.8784161679196,-2260.8784161679196,937.3689156950137,7431.9721855099278,0.0
608296.95196600363,3720566.251970998,-47500.0,-73.800066917826086,172.82337846871221,3129.1537311348693,7.8214209107254469,-3871.4681849160952,2995.998343835744,3883.6636864579395,-637.70894736252535,2345.8946944367399,-2345.8946944367399,637.70894736252535,7409.7731301916247,0.0
613296.95196600363,3720566.251970998,-47500.0,-17.533618718415156,675.15050733098292,2970.6478629052094,-416.71142493561058,-3728.8971986805254,2896.0883432811047,3794.8211065303035,-235.16323280648191,2265.0677647520956,-2265.0677647520956,235.16323280648191,7232.8723980111272,0.0
618296.95196600363,3720566.251970998,-47500.0,139.99900400736911,1119.4165471140091,2650.7765008369101,-798.43562589578028,-3448.3318747626163,2706.9867468469884,3632.3195742303719,228.78471418035804,2025.192914697901,-2025.192914697901,-228.78471418035804,6913.2518665663983,0.0
623296.95196600363,3720566.251970998,-47500.0,373.70154146885085,1464.5127288996096,2200.5209675633791,-1107.0273186836976,-3053.8527570545439,2443.6020650139217,3410.3678022685835,704.31307914519994,1653.0157865374549,-1653.0157865374549,-704.31307914519994,6475.29103160661,0.0
628296.95196600363,3720566.251970998,-47500.0,648.22616257732102,1684.3204677580325,1663.7036314805739,-1322.5077935919699,-2579.4459596451215,2126.8361885266495,3148.4120085078016,1142.1876065406298,1189.8039203231876,-1189.8039203231876,-1142.1876065406298,5952.6883183055252,0.0
633296.95196600363,3720566.251970998,-47500.0,925.221149982734,1770.4072923264309,1089.1826716304017,-1437.1796778852204,-2063.3820019745804,1780.3051764080699,2868.0856135223403,1501.8348545006261,683.46401531632546,-683.46401531632546,-1501.8348545006261,5384.2333971220041,0.0
638296.95196600363,3720566.251970998,-47500.0,1170.2446344115215,1730.8912883039923,523.18083168826149,-1455.0290967293893,-1542.6184050349748,1427.0512675966108,2589.6625452883181,1756.6470223142485,180.45277809862068,-180.45277809862068,-1756.6470223142485,4809.2732394511713,0.0
643296.95196600363,3720566.251970998,-47500.0,1357.7041279885593,1586.424986709224,3.4611945216955378,-1389.1791943267815,-1048.4195504506697,1086.9239428630781,2329.3087395858256,1895.7338235272969,-280.60401248662913,280.60401248662913,-1895.7338235272969,4263.5470629267538,0.0
648296.95196600363,3720566.251970998,-47500.0,1473.0998741338301,1364.8210740486011,-443.81219847455554,-1258.3579640037738,-603.80987833154506,774.99123301330235,2097.9232490568738,1922.4858551974478,-672.55963871086374,672.55963871086374,-1922.4858551974478,3775.7195054044614,0.0
653296.95196600363,3720566.251970998,-47500.0,1512.7545148882991,1095.7925223111499,-804.58068430404603,-1083.3365623280206,-222.88423111470047,501.01817126098507,1901.1073420542784,1851.0474232952633,-980.60084708569639,980.60084708569639,-1851.0474232952633,3364.7125928034943,0.0
658296.95196600363,3720566.251970998,-47500.0,1481.7881117917484,806.81251580226478,-1075.4279624771252,-884.01620563031031,88.434077769949681,269.79879347747971,1739.6285680784067,1701.9869600798349,-1200.9422373441823,1200.9422373441823,-1701.9869600798349,3038.0435501027987,0.0
663296.95196600363,3720566.251970998,-47500.0,1391.2664320579363,520.51771725323306,-1261.0279791935282,-677.4816957452731,330.76405183999418,82.028356194779647,1610.3204717731387,1498.2235435441214,-1338.2737348223479,1338.2737348223479,-1498.2235435441214,2791.8202219588193,0.0
668296.95196600363,3720566.251970998,-47500.0,1255.3156827679973,253.59871304692822,-1371.3060186518212,-477.03062880176276,509.31968701546168,-64.596315068387341,1507.4600238264952,1261.8495066680159,-1402.8238820328909,1402.8238820328909,-1261.8495066680159,2613.0883953451166,0.0
673296.95196600363,3720566.251970998,-47500.0,1088.7103315127904,16.839919352385511,-1418.8687113825883,-291.99215579882235,632.05097346045909,-174.28799463106802,1424.3530355352443,1012.0684130023009,-1407.6546921556262,1407.6546921556262,-1012.0684130023009,2484.1786568828884,0.0
678296.95196600363,3720566.251970998,-47500.0,905.15962901504565,-184.11502269486382,-1416.9956095242098,-128.0793994423758,708.10804433720477,-252.23717207381327,1354.6845342631291,764.17563375665486,-1366.5252930300476,1366.5252930300476,-764.17563375665486,2387.3575961980423,0.0
543296.95196600363,3725566.251970998,-47500.0,1376.9520424832165,-547.14882219116078,-524.63467467938824,824.27846970253472,-175.76816487360173,383.10544393872306,1321.5941101561193,618.39910651522939,-907.89405702396959,907.89405702396959,-618.39910651522939,2396.4518448548793,0.0
548296.95196600363,3725566.251970998,-47500.0,1453.6134189414724,-732.21115041647681,-397.12481310367764,964.00798809710966,-340.82570886567214,508.4811967868194,1472.822474058431,515.42973019206079,-859.96455068051364,859.96455068051364,-515.42973019206079,2704.4657114166421,0.0
553296.95196600363,3725566.251970998,-47500.0,1497.496700744678,-925.84617773863408,-220.6484981220849,1103.6700828611808,-545.14697469372948,657.5573740907472,1643.6121181212786,375.25624536336369,-765.93533771728676,765.93533771728676,-375.25624536336369,3054.7954657194718,0.0
558296.95196600363,3725566.251970998,-47500.0,1499.5703577577199,-1117.9187000234012,10.450733967303659,1235.180824511596,-791.19575552971878,831.05218986212492,1833.878599285423,197.64452204046628,-617.50882399369766,617.50882399369766,-197.64452204046628,3445.7370924237175,0.0
563296.95196600363,3725566.251970998,-47500.0,1452.1490059457331,-1294.6936701957338,299.05238502357383,1348.2362407902438,-1078.9697292800377,1028.0957013320087,2042.2614375475191,-13.794928919383125,-408.49066263625969,408.49066263625969,13.794928919383125,3872.3279305449059,0.0
568296.95196600363,3725566.251970998,-47500.0,1350.5039331447347,-1439.1394227943149,643.61572482603412,1430.6689975342233,-1404.9074239016265,1245.6430009325336,2265.6750922863512,-250.4291747918688,-136.57256245706205,136.57256245706205,250.4291747918688,4325.6981613504922,0.0
573296.95196600363,3725566.251970998,-47500.0,1194.6692671809606,-1531.9926926386204,1036.4832646248021,1469.3016456602948,-1760.8386424231717,1477.9436825521318,2498.7245445382855,-497.79358787402987,194.69709689486783,-194.69709689486783,497.79358787402987,4792.6279050088124,0.0
578296.95196600363,3725566.251970998,-47500.0,991.1003926869804,-1553.7543653884275,1462.5041096948976,1451.3732925876943,-2133.2371541214429,1716.211376901193,2733.1460368735029,-735.56154035199825,574.12628586021697,-574.12628586021697,735.56154035199825,5255.49244552867,0.0
583296.95196600363,3725566.251970998,-47500.0,753.68333755639867,-1487.5972234261844,1898.4815499679307,1366.491361434362,-2503.1000455619696,1948.663848495424,2957.7508556225553,-938.70798476885227,981.8174167728065,-981.8174167728065,938.70798476885227,5692.7841826484346,0.0
588296.95196600363,3725566.251970998,-47500.0,503.53105119441636,-1322.8674416050014,2313.9817147301501,1208.8763938887444,-2846.7785612861321,2161.0957165251825,3159.247236750205,-1080.1307215576915,1389.4495210861148,-1389.4495210861148,1080.1307215576915,6080.3650317167376,0.0
593296.95196600363,3725566.251970998,-47500.0,267.13319366744446,-1058.5083464369939,2673.8755750496562,979.46275450151518,-3137.9556042205959,2338.0684228095774,3323.7428274538056,-1134.6411096627187,1762.3970369956012,-1762.3970369956012,1134.6411096627187,6393.4835396319922,0.0
598296.95196600363,3725566.251970998,-47500.0,72.795857213788707,-705.46644459031802,2942.5950818803617,687.27500136387505,-3350.7038058020294,2464.6603166983887,3438.4894052210784,-1083.7391268176298,2063.794753696819,-2063.794753696819,1083.7391268176298,6609.4122196744911,0.0
603296.95196600363,3725566.251970998,-47500.0,-54.130538873273736,-287.1314519314206,3089.5192696293811,349.51925629836035,-3463.1986985204021,2528.5312885009998,3493.5889319838589,-920.10340362004536,2260.0550511019337,-2260.0550511019337,920.10340362004536,6710.3466448431536,0.0
608296.95196600363,3725566.251970998,-47500.0,-96.181997193475482,162.76978969296192,3094.3691107111767,-9.9298960627499326,-3461.338976589308,2521.8957712198935,3483.470953965525,-650.50166750828259,2326.722032578316,-2326.722032578316,650.50166750828259,6686.0464404165323,0.0
613296.95196600363,3725566.251970998,-47500.0,-47.536228118207006,604.70406820888786,2951.2344226128403,-363.5362480619483,-3341.386147261177,2442.9329995413427,3407.9209931795504,-296.0568255813547,2253.1884750446757,-2253.1884750446757,296.0568255813547,6535.6543176462028,0.0
618296.95196600363,3725566.251970998,-47500.0,84.545741743019448,999.37177256027201,2670.0765362713578,-684.01824978330762,-3110.898454629852,2296.2586592814855,3272.447068363997,110.49968654811028,2044.9430172638599,-2044.9430172638599,-110.49968654811028,6268.2640311847763,0.0
623296.95196600363,3725566.251970998,-47500.0,281.06854839465836,1313.7990343202573,2275.2255879286249,-948.27453529861521,-2787.6671458224432,2092.3109127413877,3087.8275704469602,530.03224009805831,1722.6748340979045,-1722.6748340979045,-530.03224009805831,5902.0760184774381,0.0
628296.95196600363,3725566.251970998,-47500.0,515.05108313778032,1525.9948664927977,1801.2699654757309,-1140.4077526920348,-2396.9236612350564,1845.7998530351433,2868.7526052911726,923.34708731016974,1318.4976515134736,-1318.4976515134736,-923.34708731016974,5462.3178912096319,0.0
633296.95196600363,3725566.251970998,-47500.0,756.58289869937892,1627.1762384524509,1287.4509432179352,-1253.2313060502943,-1967.5328367643322,1573.5997918405367,2631.6138034199053,1257.0880548439588,870.37006000677161,-870.37006000677161,-1257.0880548439588,4978.35709522254,0.0
638296.95196600363,3725566.251970998,-47500.0,977.8362696027275,1621.3489502064583,771.96348376746289,-1288.115925614075,-1528.0805311248916,1292.571236190254,2391.9798175919377,1507.8801103642309,416.17381212154112,-416.17381212154112,-1507.8801103642309,4480.5549393784831,0.0
643296.95196600363,3725566.251970998,-47500.0,1156.9065710486695,1522.7630707536796,287.36006863195678,-1253.4741651259578,-1103.6354253095071,1017.7285386332237,2162.7247579845071,1664.0882121243571,-11.234306202589437,11.234306202589437,-1664.0882121243571,3997.3125829905448,0.0
648296.95196600363,3725566.251970998,-47500.0,1279.8854040558999,1352.1929580239753,-142.25336927875122,-1162.4518942495738,-713.6611562392219,761.02016771153717,1953.2649800255067,1725.2906672262079,-387.18664489727928,387.18664489727928,-1725.2906672262079,3552.5904348325848,0.0
653296.95196600363,3725566.251970998,-47500.0,1341.1505004157209,1133.0424866327169,-502.12841683603676,-1030.4401569382617,-371.17797111057422,530.78644671539155,1769.4544880321823,1700.0947923534764,-696.39629581880808,696.39629581880808,-1700.0947923534764,3163.9747044154192,0.0
658296.95196600363,3725566.251970998,-47500.0,1342.2782213122227,888.03871300004835,-786.23623630081886,-872.89118347742249,-82.984067273373981,331.80563497059961,1613.6989282553673,1603.1301687378973,-932.48253404536945,932.48253404536945,-1603.1301687378973,2841.3267188353702,0.0
663296.95196600363,3725566.251970998,-47500.0,1290.1691732168624,636.92335102302923,-995.64031557258056,-703.717740878276,149.40252165307106,165.75661682741688,1485.2998949689534,1451.9853043123485,-1096.3955381414708,1096.3955381414708,-1451.9853043123485,2586.2461420834807,0.0
668296.95196600363,3725566.251970998,-47500.0,1194.9497376507427,395.21085050971544,-1136.4528720947594,-534.34673213183567,328.45097145938587,31.900596665090184,1381.1448554031356,1264.6143510420334,-1194.3434231663205,1194.3434231663205,-1264.6143510420334,2392.7766072032259,0.0
548296.95196600363,3730566.251970998,-47500.0,1328.456383893232,-805.4584955165036,-189.85914522189799,919.55563821544001,-431.29769954307909,505.52183930627331,1401.0010990121687,342.05082274162817,-673.41883789606254,673.41883789606254,-342.05082274162817,2602.7139697533112,0.0
553296.95196600363,3730566.251970998,-47500.0,1345.2237791708242,-973.87988352114564,0.33671180724948579,1031.9398987119273,-623.87794806794727,635.6823793440393,1558.2064913481183,198.46703941458159,-557.44603185057963,557.44603185057963,-198.46703941458159,2926.7070571108598,0.0
558296.95196600363,3730566.251970998,-47500.0,1324.1632589246176,-1134.8270740197302,238.27509776740163,1133.5677780859967,-850.05805989906719,784.24479733719716,1730.6450483862366,25.389697644291573,-392.83152976436736,392.83152976436736,-25.389697644291573,3281.8585100828836,0.0
563296.95196600363,3730566.251970998,-47500.0,1260.3242981687517,-1276.0030476370389,524.43193453857134,1215.8813793259817,-1108.5046777812581,949.82396728950687,1916.5348097152835,-172.26731527103854,-176.22424463204479,176.22424463204479,172.26731527103854,3662.7114252186784,0.0
568296.95196600363,3730566.251970998,-47500.0,1151.6175728992534,-1382.9563187845304,855.22504651973486,1269.2383730583517,-1394.9062549348255,1129.3384591779152,2112.6846861660683,-385.46305276327257,92.015010506053159,-92.015010506053159,385.46305276327257,4060.743107843562,0.0
573296.95196600363,3730566.251970998,-47500.0,1000.0841674033286,-1440.1557129111536,1221.8573208973542,1283.6806838529017,-1701.3221205360987,1317.7087327732352,2314.0732039626337,-600.68424991129723,406.41921307309735,-406.41921307309735,600.68424991129723,4464.1653973287384,0.0
578296.95196600363,3730566.251970998,-47500.0,812.92329611400419,-1432.714853970589,1609.5336848633312,1250.0758380408874,-2015.8234486438621,1507.7275051836282,2513.4952794935616,-800.2643123336228,755.30620893400908,-755.30620893400908,800.2643123336228,4858.041749362048,0.0
583296.95196600363,3730566.251970998,-47500.0,602.92843876263601,-1348.6796203278852,1997.4057483009742,1161.5565721419816,-2322.6375817413564,1690.2071525568736,2701.6672228795751,-963.60807471183261,1120.3425175853881,-1120.3425175853881,963.60807471183261,5224.8391024826051,0.0
588296.95196600363,3730566.251970998,-47500.0,387.982757172204,-1181.5843170954497,2359.5722218053311,1015.0652894101214,-2602.9783779214613,1854.4882681358438,2867.9930578818394,-1069.4204537376875,1477.1705324077141,-1477.1705324077141,1069.4204537376875,5545.4885306697888,0.0
593296.95196600363,3730566.251970998,-47500.0,189.39486631709798,-932.77036827975894,2667.3113130835004,812.69452547028402,-2836.6402040909466,1989.3365652578725,3001.7472043174985,-1098.7815080120395,1797.357373794242,-1797.357373794242,1098.7815080120395,5800.9427419274689,0.0
598296.95196600363,3730566.251970998,-47500.0,29.1279296636848,-612.83402211257237,2892.4316043461181,562.45447190015432,-3004.2519009474145,2084.1622174744548,3093.3404815440485,-1038.5909735754158,2051.6330715558502,-2051.6330715558502,1038.5909735754158,5974.0971533393031,0.0
603296.95196600363,3730566.251970998,-47500.0,-73.671015992350348,-241.61738293841753,3011.2683621112842,278.1403246078886,-3089.875373495704,2130.3920624629391,3135.5071336016517,-884.6344440695666,2213.9971674983744,-2213.9971674983744,884.6344440695666,6051.8225774366356,0.0
608296.95196600363,3730566.251970998,-47500.0,-106.11074548016794,153.56373652065992,3008.5323753428033,-21.856980938643648,-3083.4497026973968,2122.7369646583843,3124.3081816841645,-643.43296207755873,2265.8983619194869,-2265.8983619194869,643.43296207755873,6026.7622776162762,0.0
613296.95196600363,3730566.251970998,-47500.0,-64.102605647833499,541.30656174242631,2880.1031511177471,-316.68801270168427,-2982.527334439294,2060.0755818394155,3059.8214258313719,-332.23016763043574,2199.5134325792696,-2199.5134325792696,332.23016763043574,5898.5407549603424,0.0
618296.95196600363,3730566.251970998,-47500.0,46.694580877039677,890.48537698308974,2634.0298447850182,-585.74406398096835,-2792.8634178975426,1945.7373078807591,2946.3817792469613,23.071821591075945,2019.2760359256431,-2019.2760359256431,-23.071821591075945,5674.1207239556343,0.0
623296.95196600363,3730566.251970998,-47500.0,211.82083128132069,1174.6353238688246,2289.4428141258563,-811.35408621845727,-2527.6887483877908,1787.104050689019,2792.2545767082929,391.64371178812826,1741.2353930951176,-1741.2353930951176,-391.64371178812826,5367.2161589774742,0.0
628296.95196600363,3730566.251970998,-47500.0,410.60645744159405,1375.3806631263719,1873.6323317105603,-980.90903142165303,-2205.8270907076562,1594.6138745573062,2608.6413857273633,742.27189671981364,1390.4100513692881,-1390.4100513692881,-742.27189671981364,4996.8657914314408,0.0
633296.95196600363,3730566.251970998,-47500.0,619.7216169896293,1484.2292263477095,1418.0146600769008,-1088.0139645906472,-1849.1004829252265,1380.3937063278918,2408.0514519570747,1047.6729705879995,996.82345628825954,-996.82345628825954,-1047.6729705879995,4585.4448760703926,0.0
638296.95196600363,3730566.251970998,-47500.0,816.80965843661511,1502.5369839357086,953.90847100867632,-1132.5445615523702,-1479.58431109512,1156.8041991565005,2202.4787202856091,1287.695439208102,591.17263375368975,-591.17263375368975,-1287.695439208102,4156.4543112152905,0.0
643296.95196600363,3730566.251970998,-47500.0,983.43274814154267,1439.9200748493138,508.95875995557645,-1119.757721851762,-1117.2335135289056,935.16478681478486,2002.126383419562,1450.9203530844372,201.03515848362827,-201.03515848362827,-1450.9203530844372,3732.4076912231808,0.0
648296.95196600363,3730566.251970998,-47500.0,1106.8660488093017,1311.7033756196854,104.74403232711876,-1058.7909504268214,-778.22462922161935,724.84034554132393,1814.9145232085939,1534.6388528503671,-151.77155639449791,151.77155639449791,-1534.6388528503671,3333.0269415808179,0.0
653296.95196600363,3730566.251970998,-47500.0,1180.6441453711886,1136.0753848892216,-244.27769902382309,-960.94010860699507,-474.12952916486165,532.75483818643033,1646.3677366919449,1543.5534613204406,-452.45895760154644,452.45895760154644,-1543.5534613204406,2973.8169310099856,0.0
658296.95196600363,3730566.251970998,-47500.0,1204.0608716185029,931.51309056783884,-530.63821222784998,-838.0536956503945,-211.85084957882395,363.30615950070847,1499.5840508592119,1487.7357962808442,-693.28359738602239,693.28359738602239,-1487.7357962808442,2665.0304351122913,0.0
663296.95196600363,3730566.251970998,-47500.0,1180.9854722131531,714.82509476083851,-752.88959636176037,-701.26350453545331,5.8785603531784005,218.58632183628075,1375.3146667590756,1380.3756393165168,-872.64938681765989,872.64938681765989,-1380.3756393165168,2411.0713617944361,0.0
553296.95196600363,3735566.251970998,-47500.0,1198.4898618604816,-989.92381947057811,188.13200424324518,951.68684143397036,-672.97816176051799,602.2282603570867,1472.5565846181871,53.744729538372724,-371.75361006111933,371.75361006111933,-53.744729538372724,2790.9824721346686,0.0
558296.95196600363,3735566.251970998,-47500.0,1161.559131845426,-1121.9493333868813,424.95106232564495,1028.6178598783829,-877.77345530073171,728.31198013042069,1627.365951317513,-109.91465540548236,-199.48548232311961,199.48548232311961,109.91465540548236,3110.1599534488582,0.0
563296.95196600363,3735566.251970998,-47500.0,1088.3787684987867,-1231.7384315968791,701.27127186826669,1086.5755969978461,-1107.0675119166308,866.48970221459808,1791.913040767932,-290.47675875070303,16.437881214877279,-16.437881214877279,290.47675875070303,3447.2403098885907,0.0
568296.95196600363,3735566.251970998,-47500.0,978.67054144688018,-1307.3023409617626,1012.278250679419,1118.0443504334007,-1356.3318083124134,1013.8797218544303,1963.1190608531265,-479.11566200677504,273.872862598832,-273.872862598832,479.11566200677504,3794.3749851573566,0.0
573296.95196600363,3735566.251970998,-47500.0,835.61703353746816,-1336.3484340816542,1348.840145347036,1115.6040394909567,-1618.2365478229046,1166.1461604028275,2136.4553382628101,-663.66650501721927,566.37031147648497,-566.37031147648497,663.66650501721927,4141.2895798169939,0.0
578296.95196600363,3735566.251970998,-47500.0,666.45653653490774,-1307.7094057648746,1697.1285233868443,1072.8154724370422,-1882.5269290956867,1317.4784883836001,2305.7302857644036,-829.11134605430925,882.54128154718751,-882.54128154718751,829.11134605430925,4475.484100906192,0.0
583296.95196600363,3735566.251970998,-47500.0,482.57771204571634,-1213.099942443501,2038.8436237725266,985.26339091672401,-2136.2865242350972,1460.7708387329621,2463.287636655909,-958.73039716704784,1205.9997334242114,-1205.9997334242114,958.73039716704784,4782.7526972810401,0.0
588296.95196600363,3735566.251970998,-47500.0,298.90679998018402,-1048.9545607421055,2352.2357375306628,851.60741903341909,-2364.685437067747,1588.0428895049413,2600.6919232808946,-1035.9288866221527,1516.1196931971112,-1516.1196931971112,1035.9288866221527,5048.053624402145,0.0
593296.95196600363,3735566.251970998,-47500.0,132.48996924501967,-817.97761153208955,2613.987407115188,674.42851484881146,-2552.2310638899721,1691.1028891317928,2709.6462071723931,-1046.5714684771306,1789.7273390369555,-1789.7273390369555,1046.5714684771306,5256.6989256704992,0.0
598296.95196600363,3735566.251970998,-47500.0,0.36453803096649762,-529.98313929591154,2801.8173549503886,460.63781517407062,-2684.420210664508,1762.3965325925301,2782.9067660481469,-981.45540262739064,2003.6401855419865,-2003.6401855419865,981.45540262739064,5395.756547233098,0.0
603296.95196600363,3735566.251970998,-47500.0,-82.963484410896115,-201.66646676662705,2897.4359394792641,221.25776752541114,-2749.5605344054702,1795.9234018669417,2815.1097468857693,-838.40403968123405,2137.7133884140312,-2137.7133884140312,838.40403968123405,5455.4821740649177,0.0
608296.95196600363,3735566.251970998,-47500.0,-107.93235372835062,144.8480385583382,2889.2985445147442,-29.496601283012051,-2740.4329625471155,1788.0599053444953,2803.4595376126586,-623.43835128905312,2177.8338443878415,-2177.8338443878415,623.43835128905312,5430.5547230511356,0.0
613296.95196600363,3735566.251970998,-47500.0,-71.666706499117055,484.54308174431492,2774.5536541610659,-275.74537777362838,-2655.4443578296273,1738.1199593607926,2748.1988947604814,-350.63172942532037,2118.2145338142222,-2118.2145338142222,350.63172942532037,5320.8883851680393,0.0
618296.95196600363,3735566.251970998,-47500.0,21.39834603203316,792.68265113130303,2559.7128959664165,-501.82239213113189,-2499.0035047781303,1648.5274798525563,2652.7718901301009,-40.556026205804073,1962.442622969359,-1962.442622969359,40.556026205804073,5131.8607214307531,0.0
623296.95196600363,3735566.251970998,-47500.0,160.18859545316209,1047.9906296658767,2259.8562578943752,-694.14810462028447,-2281.0161096210495,1524.5522767636362,2523.5824888654111,282.41595621303748,1723.0153221539467,-1723.0153221539467,-282.41595621303748,4873.896139252668,0.0
628296.95196600363,3735566.251970998,-47500.0,328.80006498655581,1235.1840437678661,1896.5432527060379,-842.73195421719186,-2015.6041962768165,1373.6628809138583,2369.2538736271081,593.38555045446901,1419.4712983344114,-1419.4712983344114,-593.38555045446901,4561.4790999231254,0.0
633296.95196600363,3735566.251970998,-47500.0,509.00840263636047,1346.4003342532162,1494.8968216548765,-942.04495905869715,-1719.3205962902853,1204.6276144214091,2199.4033841115247,870.09764890331712,1075.5579665656562,-1075.5579665656562,-870.09764890331712,4211.7664668156476,0.0
638296.95196600363,3735566.251970998,-47500.0,682.90786020607607,1381.3520236492898,1080.474788459285,-991.16322771257171,-1409.2160779581825,1026.5362465137193,2023.3096468318297,1095.3989940825616,716.06041528193987,-716.06041528193987,-1095.3989940825616,3843.0207367471285,0.0
643296.95196600363,3735566.251970998,-47500.0,835.15217868840944,1346.3537657533434,676.51248002363047,-993.25605128504151,-1101.1064796640369,847.91409233924321,1849.0446063003328,1258.619372886626,363.91432313196634,-363.91432313196634,-1258.619372886626,3473.0877534494439,0.0
648296.95196600363,3735566.251970998,-47500.0,954.44873726636615,1252.5838491114027,301.93791118768081,-954.6138131195288,-808.28015765469354,676.04651735992877,1683.1646031498653,1355.8061397384577,38.054676227665254,-38.054676227665254,-1355.8061397384577,3118.0650482695764,0.0
653296.95196600363,3735566.251970998,-47500.0,1034.187177234342,1114.027234495021,-29.673247117855166,-883.46405091254178,-540.75978314480415,516.57535054429979,1530.6162804636751,1388.9951937603582,-247.78812444274922,247.78812444274922,-1388.9951937603582,2791.2387792152012,0.0
658296.95196600363,3735566.251970998,-47500.0,1072.289882269258,945.50444930169783,-310.25760462684173,-788.80583760892932,-305.10060681539471,373.3632693847216,1394.6499252105702,1364.8523102970071,-485.37032430944743,485.37032430944743,-1364.8523102970071,2502.2941097472362,0.0
563296.95196600363,3740566.251970998,-47500.0,936.7344310492839,-1170.7258564044648,835.03376456609215,964.52399055032856,-1083.15568379928,783.09844247638819,1670.352642905425,-375.2177321933226,172.41287155681343,-172.41287155681343,375.2177321933226,3231.2099194817997,0.0
568296.95196600363,3740566.251970998,-47500.0,830.06499449521004,-1220.6689610464446,1122.8951957404311,979.87590645120201,-1298.5650983417322,903.71521789929727,1819.2006144544191,-539.82309243405291,414.58729293832778,-414.58729293832778,539.82309243405291,3532.5612988083799,0.0
573296.95196600363,3740566.251970998,-47500.0,697.7795721817314,-1228.0721802958228,1428.0768410402479,966.08739782973475,-1521.2876263966189,1026.5870833964373,1968.0363841971578,-696.27473856241295,682.73718969795186,-682.73718969795186,696.27473856241295,3829.9775195660636,0.0
578296.95196600363,3740566.251970998,-47500.0,546.74201581629643,-1184.693773759418,1738.0336633133206,918.68611016848092,-1742.6627072967683,1147.0840690630253,2111.5840097644536,-832.00964064908032,966.22510728486998,-966.22510728486998,832.00964064908032,4113.0857455965852,0.0
583296.95196600363,3740566.251970998,-47500.0,386.85963885522858,-1084.9562882040473,2036.9700626238282,834.93577833283587,-1952.209567540056,1259.737819700676,2243.5504533282747,-933.58686822488471,1250.7100411275883,-1250.7100411275883,933.58686822488471,4370.4171007901159,0.0
588296.95196600363,3740566.251970998,-47500.0,230.4672515111755,-927.25245558966822,2306.7921061640045,714.54544382358358,-2138.2648004084681,1358.5763344875184,2357.2220185674496,-988.1496877082634,1518.912693461303,-1518.912693461303,988.1496877082634,4590.1067602459261,0.0
593296.95196600363,3740566.251970998,-47500.0,91.15860492996211,-714.96799174128671,2528.6534756351348,560.19758366758219,-2288.9473356726612,1437.6085793546411,2446.1658384289094,-985.18030676924627,1752.0339199604741,-1752.0339199604741,985.18030676924627,4760.7967058418471,0.0
598296.95196600363,3740566.251970998,-47500.0,-17.8360443979401,-456.942643878681,2684.9617822290938,377.74924314212035,-2393.3654272665999,1491.4155620240997,2504.8860253337502,-918.27150092613488,1931.7254459132657,-1931.7254459132657,918.27150092613488,4872.660665202272,0.0
603296.95196600363,3740566.251970998,-47500.0,-85.485829098286828,-167.15179995077983,2761.5634767814636,175.99602717271918,-2442.8988388500984,1515.7667541868132,2529.4014643656405,-786.5574932861125,2042.3485112208416,-2042.3485112208416,786.5574932861125,4918.4206527904016,0.0
608296.95196600363,3740566.251970998,-47500.0,-104.66246160281607,136.46508395203477,2749.72092996326,-34.031384343823881,-2432.3374103526621,1508.1595408514934,2517.7222443968599,-595.45174002123508,2073.1279300099786,-2073.1279300099786,595.45174002123508,4894.2032463384212,0.0
613296.95196600363,3740566.251970998,-47500.0,-73.341992589911158,433.90800415729439,2647.479624809529,-240.16480279643079,-2360.6544237114385,1468.1797265534292,2470.176471194226,-356.45034692892341,2019.7687454906127,-2019.7687454906127,356.45034692892341,4800.092463427136,0.0
618296.95196600363,3740566.251970998,-47500.0,4.9796873170979863,705.44327789544366,2460.1183629734428,-430.42005175193344,-2231.2472478455707,1397.6068844641641,2389.5236490940488,-85.957426482892629,1885.1803010463395,-1885.1803010463395,85.957426482892629,4640.2749159225395,0.0
623296.95196600363,3740566.251970998,-47500.0,121.76846524224665,933.92413863693832,2199.5650664780687,-594.30955936551288,-2051.5835983713396,1300.2375036609483,2280.7756514891967,196.67981686378891,1679.1373413675119,-1679.1373413675119,-196.67981686378891,4422.7422781002533,0.0
628296.95196600363,3740566.251970998,-47500.0,264.72770058130033,1106.6730455966651,1882.8921866405256,-723.91361634622274,-1832.3209090004461,1181.4591349183459,2150.6339810501363,471.55091990500159,1416.949593997042,-1416.949593997042,-471.55091990500159,4158.6005793262102,0.0
633296.95196600363,3740566.251970998,-47500.0,419.58562947751312,1216.6065647216287,1530.1970875720315,-814.53743589133262,-1586.0659023468224,1047.651717832186,2006.5494381260753,720.52075011859097,1117.424570716124,-1117.424570716124,-720.52075011859097,3861.0893373713784,0.0
638296.95196600363,3740566.251970998,-47500.0,572.01826800636491,1262.4714515993116,1162.2825074489372,-864.87990521024403,-1326.0086650356034,905.52667968228104,1855.73551882211,929.11120016906546,800.54101860082108,-800.54101860082108,-929.11120016906546,3544.4650982800654,0.0
643296.95196600363,3740566.251970998,-47500.0,709.34716625311933,1248.2624540140491,798.53967627566681,-876.74690184459007,-1064.6562984030199,761.50825430538441,1704.5775116233121,1087.656169904117,485.25798897325541,-485.25798897325541,-1087.656169904117,3222.8924365785911,0.0
648296.95196600363,3740566.251970998,-47500.0,821.75361021948254,1182.0447361015476,455.33441390032522,-854.42401237206275,-812.83962659144743,621.23961455148674,1558.4513970870325,1191.647626780619,187.79151766965396,-187.79151766965396,-1191.647626780619,2909.4556091489931,0.0
573296.95196600363,3745566.251970998,-47500.0,582.93862732839682,-1120.441716394284,1469.2402964057765,834.73661211157162,-1417.6046233002287,900.45741195330652,1810.0908069838015,-706.33924216863261,763.29978746960364,-763.29978746960364,706.33924216863261,3534.1568381634274,0.0
578296.95196600363,3745566.251970998,-47500.0,449.25639947002122,-1067.3857990919846,1743.1721309002744,785.84917183973255,-1602.6756920450771,996.46877501041547,1931.8151700620008,-816.70603963219037,1015.5083893603755,-1015.5083893603755,816.70603963219037,3773.8488071744455,0.0
583296.95196600363,3745566.251970998,-47500.0,310.90457679019738,-966.45548117179635,2003.3785863923831,707.50767991941848,-1775.6212297925908,1085.200659712162,2042.4543444738229,-895.29466090226947,1264.3982425895258,-1264.3982425895258,895.29466090226947,3989.464738394282,0.0
588296.95196600363,3745566.251970998,-47500.0,178.00952995073067,-817.32785221561005,2234.902057739117,600.0340404470852,-1927.2845264870116,1162.1796169753295,2136.6633380377984,-932.18486972618143,1495.5993059391287,-1495.5993059391287,932.18486972618143,4171.6351079892702,0.0
593296.95196600363,3745566.251970998,-47500.0,61.397086997847524,-623.63537718709586,2422.5478182347588,466.00112359020903,-2048.5422137305454,1223.0080385782589,2209.4427108462996,-919.57655473276236,1693.9016142656055,-1693.9016142656055,919.57655473276236,4311.5477763354656,0.0
598296.95196600363,3745566.251970998,-47500.0,-28.638222554392883,-393.19516064216896,2552.4216962757205,310.31600259879269,-2131.1847875788299,1263.7761475752909,2256.6050226740949,-853.05766963684982,1844.7749140550991,-1844.7749140550991,853.05766963684982,4401.698245374555,0.0
603296.95196600363,3745566.251970998,-47500.0,-83.673140766666606,-137.67058809350675,2613.5472795100864,139.99860039916902,-2168.8234229256695,1281.4796075210095,2275.1800108705652,-732.58371114102931,1936.0452781253998,-1936.0452781253998,732.58371114102931,4436.6164662441934,0.0
608296.95196600363,3745566.251970998,-47500.0,-98.365545717567187,128.36400423099712,2599.2921274919236,-36.353761372885856,-2157.6759809546256,1274.3766646453153,2263.7483589951162,-562.93865819161692,1959.4525024021332,-1959.4525024021332,562.93865819161692,4413.4661206158644,0.0
613296.95196600363,3745566.251970998,-47500.0,-71.290866452391839,388.85840545366671,2508.3341455552863,-209.36067870557466,-2097.0911409259525,1242.2229116353162,2222.6736889346917,-353.52871889232335,1911.7981897021627,-1911.7981897021627,353.52871889232335,4332.4257260939312,0.0
618296.95196600363,3745566.251970998,-47500.0,-5.2202307666862495,628.00383090107061,2344.9642731278218,-369.79654300029324,-1989.7021747927351,1186.3351872706573,2154.1838913202455,-117.49090763985407,1795.4488035567115,-1795.4488035567115,117.49090763985407,4196.7791882878601,0.0
623296.95196600363,3745566.251970998,-47500.0,93.228160855873242,831.94006107351686,2118.6552811097135,-509.51951523425521,-1841.1784900951573,1109.473196425273,2062.2399414965498,129.74921349429667,1618.0872048439041,-1618.0872048439041,-129.74921349429667,4012.7044045072098,0.0
628296.95196600363,3745566.251970998,-47500.0,214.49756841153476,990.16211620583158,1842.9680041513056,-622.24140644673832,-1659.611238894156,1015.553854356166,1952.0988301735774,372.22107864923919,1391.7559964115958,-1391.7559964115958,-372.22107864923919,3788.7801730761585,0.0
633296.95196600363,3745566.251970998,-47500.0,347.37540727619967,1096.402170663586,1534.0031126807339,-704.02135692526065,-1454.6461296626446,909.24998659978053,1829.5796713651837,595.14276756522349,1131.3837376423348,-1131.3837376423348,-595.14276756522349,3535.2892203455513,0.0
638296.95196600363,3745566.251970998,-47500.0,480.40063454200026,1148.8878657944265,1208.676069294401,-753.43020063754864,-1236.5114619394467,795.53956202046481,1700.3203510350745,786.36085681985912,853.07130942455694,-853.07130942455694,-786.36085681985912,3263.4142681843814,0.0
593296.95196600363,3750566.251970998,-47500.0,40.185456420181936,-543.33635570677563,2304.0783369267824,388.37648837430208,-1831.1762933444461,1041.7789957729633,1997.3272740984801,-853.1204738196011,1622.6006287313771,-1622.6006287313771,853.1204738196011,3906.2350208306307,0.0
598296.95196600363,3750566.251970998,-47500.0,-34.329046278854015,-337.94792344531402,2411.9016373258255,255.44119563997359,-1896.7278174019823,1072.7891893619649,2035.2793453818228,-788.45852774452283,1749.3114718782879,-1749.3114718782879,788.45852774452283,3979.019351145078,0.0
603296.95196600363,3750566.251970998,-47500.0,-79.210425093526126,-112.69708429031846,2460.4891536269424,111.36252548281114,-1925.2944134065035,1085.6626183454732,2049.2575126971783,-678.79108358199937,1824.6518932768117,-1824.6518932768117,678.79108358199937,4005.5159529516473,0.0
608296.95196600363,3750566.251970998,-47500.0,-90.433993762735057,120.54607007763373,2444.7903883200311,-37.127586467817999,-1914.1152728374027,1079.1784624754364,2038.2484807378439,-528.29772871011733,1842.2623603742834,-1842.2623603742834,528.29772871011733,3983.6374357920881,0.0
613296.95196600363,3750566.251970998,-47500.0,-66.998116019094027,348.84852963313477,2363.9270834788463,-182.75417907655461,-1862.7865205937189,1053.1973360003562,2002.6197916942301,-344.6915096796231,1799.7523977115181,-1799.7523977115181,344.6915096796231,3913.6080344498596,0.0
618296.95196600363,3750566.251970998,-47500.0,-11.111852390074771,559.49014710317363,2221.3989400471564,-318.37049795898139,-1773.3621125145344,1008.701886541009,1944.1834545592792,-138.5404995866802,1699.0538414457751,-1699.0538414457751,138.5404995866802,3798.0239420462435,0.0
